<?xml version="1.0"?>
<VTKFile type="UnstructuredGrid" version="0.1" byte_order="LittleEndian">
<UnstructuredGrid>
<Piece NumberOfPoints="30578" NumberOfCells="10723">
<Points>
<DataArray type="Float64" NumberOfComponents="3" format="ascii">
-0.5 -0.5 0 -0.47439485679867832 -0.48072581506667478 0 -0.5 -0.44765434486020428 0 -0.5 -0.5 0 -0.47439485679867832 -0.48072581506667478 0 -0.43702443379937372 -0.49999999999999922 0 -0.47439485679867832 -0.48072581506667478 0 -0.45530669598391149 -0.47718009944797551 0 -0.43702443379937372 -0.49999999999999922 0 -0.47439485679867832 -0.48072581506667478 0 -0.45530669598391149 -0.47718009944797551 0 -0.4597353119515426 -0.45943449384344293 0 -0.45530669598391149 -0.47718009944797551 0 -0.44381084376742141 -0.47114793899167112 0 -0.4597353119515426 -0.45943449384344293 0 -0.45530669598391149 -0.47718009944797551 0 -0.44381084376742141 -0.47114793899167112 0 -0.43702443379937372 -0.49999999999999922 0 -0.44381084376742141 -0.47114793899167112 0 -0.43702443379937372 -0.49999999999999922 0 -0.45059725373546922 -0.44229587798334291 0 -0.4339166039271336 -0.43498117536117131 0 -0.43309128002320102 -0.45351235807576151 0 -0.44381084376742141 -0.47114793899167112 0 -0.45059725373546922 -0.44229587798334291 0 -0.4597353119515426 -0.45943449384344293 0 -0.44381084376742141 -0.47114793899167112 0 -0.45059725373546922 -0.44229587798334291 0 -0.43309128002320102 -0.45351235807576151 0 -0.44381084376742141 -0.47114793899167112 0 -0.45059725373546922 -0.44229587798334291 0 -0.4597353119515426 -0.45943449384344293 0 -0.47505511338101108 -0.44868394208069429 0 -0.46517432262153441 -0.43649963461163338 0 -0.45059725373546922 -0.44229587798334291 0 -0.4597353119515426 -0.45943449384344293 0 -0.46517432262153441 -0.43649963461163338 0 -0.47505511338101108 -0.44868394208069429 0 -0.47820614292347569 -0.42776699273468149 0 -0.46517432262153441 -0.43649963461163338 0 -0.47505511338101108 -0.44868394208069429 0 -0.47820614292347569 -0.42776699273468149 0 -0.47439485679867832 -0.48072581506667478 0 -0.47505511338101108 -0.44868394208069429 0 -0.5 -0.44765434486020428 0 -0.47439485679867832 -0.48072581506667478 0 -0.4597353119515426 -0.45943449384344293 0 -0.47505511338101108 -0.44868394208069429 0 -0.47505511338101108 -0.44868394208069429 0 -0.5 -0.44765434486020428 0 -0.47820614292347569 -0.42776699273468149 0 -0.5 -0.44765434486020428 0 -0.49656450065014057 -0.42151023988558672 0 -0.47820614292347569 -0.42776699273468149 0 -0.5 -0.44765434486020428 0 -0.49656450065014057 -0.42151023988558672 0 -0.50000000000000089 -0.37904661106745707 0 -0.49656450065014057 -0.42151023988558672 0 -0.48135717246594062 -0.40685004338866881 0 -0.47820614292347569 -0.42776699273468149 0 -0.49656450065014057 -0.42151023988558672 0 -0.48135717246594062 -0.40685004338866881 0 -0.48135717246594062 -0.40685004338866881 0 -0.47820614292347569 -0.42776699273468149 0 -0.48135717246594062 -0.40685004338866881 0 -0.47820614292347569 -0.42776699273468149 0 -0.45738366370351707 -0.41344381697501481 0 -0.49656450065014057 -0.42151023988558672 0 -0.48135717246594062 -0.40685004338866881 0 -0.50000000000000089 -0.37904661106745707 0 -0.50000000000000089 -0.37904661106745707 0 -0.48466894952205442 -0.38486603086372417 0 -0.48717439863114548 -0.36823452950912272 0 -0.48135717246594062 -0.40685004338866881 0 -0.50000000000000089 -0.37904661106745707 0 -0.48466894952205442 -0.38486603086372417 0 -0.48466894952205442 -0.38486603086372417 0 -0.48717439863114548 -0.36823452950912272 0 -0.50000000000000089 -0.37904661106745707 0 -0.48466894952205442 -0.38486603086372417 0 -0.48135717246594062 -0.40685004338866881 0 -0.48466894952205442 -0.38486603086372417 0 -0.46593083509403682 -0.39197871725165279 0 -0.48135717246594062 -0.40685004338866881 0 -0.48466894952205442 -0.38486603086372417 0 -0.48135717246594062 -0.40685004338866881 0 -0.46593083509403682 -0.39197871725165279 0 -0.48466894952205442 -0.38486603086372417 0 -0.47195833844942919 -0.37959069520904498 0 -0.46593083509403682 -0.39197871725165279 0 -0.48466894952205442 -0.38486603086372417 0 -0.46593083509403682 -0.39197871725165279 0 -0.48466894952205442 -0.38486603086372417 0 -0.47195833844942919 -0.37959069520904498 0 -0.48717439863114548 -0.36823452950912272 0 -0.46593083509403682 -0.39197871725165279 0 -0.44890944387521442 -0.39029302340116001 0 -0.45132291774153199 -0.37789636588759368 0 -0.47195833844942919 -0.37959069520904498 0 -0.46593083509403682 -0.39197871725165279 0 -0.45132291774153199 -0.37789636588759368 0 -0.46593083509403682 -0.39197871725165279 0 -0.45132291774153199 -0.37789636588759368 0 -0.48135717246594062 -0.40685004338866881 0 -0.46593083509403682 -0.39197871725165279 0 -0.45738366370351707 -0.41344381697501481 0 -0.46593083509403682 -0.39197871725165279 0 -0.44275815558040038 -0.40077469311046232 0 -0.45738366370351707 -0.41344381697501481 0 -0.46593083509403682 -0.39197871725165279 0 -0.44275815558040038 -0.40077469311046232 0 -0.46593083509403682 -0.39197871725165279 0 -0.44275815558040038 -0.40077469311046232 0 -0.44890944387521442 -0.39029302340116001 0 -0.44275815558040038 -0.40077469311046232 0 -0.44064580868350911 -0.39542861624611658 0 -0.44890944387521442 -0.39029302340116001 0 -0.44225344557501872 -0.38376649822575309 0 -0.45132291774153199 -0.37789636588759368 0 -0.43671500038902772 -0.36381401452353412 0 -0.44890944387521442 -0.39029302340116001 0 -0.44225344557501872 -0.38376649822575309 0 -0.45132291774153199 -0.37789636588759368 0 -0.44064580868350911 -0.39542861624611658 0 -0.44225344557501872 -0.38376649822575309 0 -0.43040194378266172 -0.3881600185019185 0 -0.44064580868350911 -0.39542861624611658 0 -0.44890944387521442 -0.39029302340116001 0 -0.44225344557501872 -0.38376649822575309 0 -0.47820614292347569 -0.42776699273468149 0 -0.46517432262153441 -0.43649963461163338 0 -0.45738366370351707 -0.41344381697501481 0 -0.45059725373546922 -0.44229587798334291 0 -0.45738366370351707 -0.41344381697501481 0 -0.45059725373546922 -0.44229587798334291 0 -0.46517432262153441 -0.43649963461163338 0 -0.45738366370351707 -0.41344381697501481 0 -0.44275815558040038 -0.40077469311046232 0 -0.45738366370351707 -0.41344381697501481 0 -0.44164244492799948 -0.42121090558557039 0 -0.45059725373546922 -0.44229587798334291 0 -0.45738366370351707 -0.41344381697501481 0 -0.44164244492799948 -0.42121090558557039 0 -0.45059725373546922 -0.44229587798334291 0 -0.44164244492799948 -0.42121090558557039 0 -0.4339166039271336 -0.43498117536117131 0 -0.4339166039271336 -0.43498117536117131 0 -0.42355654769347711 -0.414558964497861 0 -0.41671115160429401 -0.44095791049380378 0 -0.44164244492799948 -0.42121090558557039 0 -0.4339166039271336 -0.43498117536117131 0 -0.42355654769347711 -0.414558964497861 0 -0.44275815558040038 -0.40077469311046232 0 -0.44164244492799948 -0.42121090558557039 0 -0.42355654769347711 -0.414558964497861 0 -0.42355654769347711 -0.414558964497861 0 -0.41056920252370888 -0.3963363404412637 0 -0.40050668374064252 -0.41734442193795029 0 -0.42355654769347711 -0.414558964497861 0 -0.41671115160429401 -0.44095791049380378 0 -0.42355654769347711 -0.414558964497861 0 -0.40050668374064252 -0.41734442193795029 0 -0.41671115160429401 -0.44095791049380378 0 -0.44225344557501872 -0.38376649822575309 0 -0.43040194378266172 -0.3881600185019185 0 -0.43671500038902772 -0.36381401452353412 0 -0.43040194378266172 -0.3881600185019185 0 -0.43671500038902772 -0.36381401452353412 0 -0.44064580868350911 -0.39542861624611658 0 -0.42355654769347711 -0.414558964497861 0 -0.43040194378266172 -0.3881600185019185 0 -0.42355654769347711 -0.414558964497861 0 -0.43040194378266172 -0.3881600185019185 0 -0.44275815558040038 -0.40077469311046232 0 -0.44064580868350911 -0.39542861624611658 0 -0.42355654769347711 -0.414558964497861 0 -0.44064580868350911 -0.39542861624611658 0 -0.43040194378266172 -0.3881600185019185 0 -0.42355654769347711 -0.414558964497861 0 -0.43040194378266172 -0.3881600185019185 0 -0.41056920252370888 -0.3963363404412637 0 -0.43040194378266172 -0.3881600185019185 0 -0.4079689369259607 -0.37224253963894771 0 -0.43040194378266172 -0.3881600185019185 0 -0.41056920252370888 -0.3963363404412637 0 -0.4079689369259607 -0.37224253963894771 0 -0.41056920252370888 -0.3963363404412637 0 -0.39195929229331972 -0.37982250283040359 0 -0.4079689369259607 -0.37224253963894771 0 -0.41056920252370888 -0.3963363404412637 0 -0.39195929229331972 -0.37982250283040359 0 -0.39357845321732049 -0.39746174547711199 0 -0.41056920252370888 -0.3963363404412637 0 -0.39357845321732049 -0.39746174547711199 0 -0.40050668374064252 -0.41734442193795029 0 -0.39357845321732049 -0.39746174547711199 0 -0.38114412328536468 -0.40833987260765031 0 -0.36544727141479139 -0.39026932065168712 0 -0.39195929229331972 -0.37982250283040359 0 -0.37549160074202448 -0.3732971907138336 0 -0.36544727141479139 -0.39026932065168712 0 -0.39195929229331972 -0.37982250283040359 0 -0.39357845321732049 -0.39746174547711199 0 -0.36544727141479139 -0.39026932065168712 0 -0.40050668374064252 -0.41734442193795029 0 -0.3944977858259317 -0.43926335073686201 0 -0.41671115160429401 -0.44095791049380378 0 -0.40050668374064252 -0.41734442193795029 0 -0.38028594703985957 -0.42392304976487449 0 -0.3944977858259317 -0.43926335073686201 0 -0.39357845321732049 -0.39746174547711199 0 -0.40050668374064252 -0.41734442193795029 0 -0.38114412328536468 -0.40833987260765031 0 -0.40050668374064252 -0.41734442193795029 0 -0.38114412328536468 -0.40833987260765031 0 -0.38028594703985957 -0.42392304976487449 0 -0.38114412328536468 -0.40833987260765031 0 -0.38028594703985957 -0.42392304976487449 0 -0.36590226101420908 -0.41270082520662749 0 -0.38028594703985957 -0.42392304976487449 0 -0.3944977858259317 -0.43926335073686201 0 -0.3723601590800425 -0.44005613486137668 0 -0.3944977858259317 -0.43926335073686201 0 -0.38265619596279349 -0.45813348326120767 0 -0.3723601590800425 -0.44005613486137668 0 -0.40093272222703252 -0.45142790024540502 0 -0.3944977858259317 -0.43926335073686201 0 -0.38265619596279349 -0.45813348326120767 0 -0.40093272222703252 -0.45142790024540502 0 -0.3944977858259317 -0.43926335073686201 0 -0.41671115160429401 -0.44095791049380378 0 -0.38265619596279349 -0.45813348326120767 0 -0.40986575551511062 -0.46735685648974662 0 -0.38265619596279349 -0.45813348326120767 0 -0.39389470715733632 -0.47355095168427308 0 -0.40986575551511062 -0.46735685648974662 0 -0.40093272222703252 -0.45142790024540502 0 -0.38265619596279349 -0.45813348326120767 0 -0.40986575551511062 -0.46735685648974662 0 -0.38265619596279349 -0.45813348326120767 0 -0.38272382101637098 -0.47243968377412587 0 -0.39389470715733632 -0.47355095168427308 0 -0.38272382101637098 -0.47243968377412587 0 -0.38859428369766791 -0.48614630665141417 0 -0.36652141413456929 -0.48474993749143802 0 -0.38272382101637098 -0.47243968377412587 0 -0.38859428369766791 -0.48614630665141417 0 -0.39389470715733632 -0.47355095168427308 0 -0.37500484199342449 -0.5 0 -0.38859428369766791 -0.48614630665141417 0 -0.40140120367436599 -0.49999999999999611 0 -0.37500484199342449 -0.5 0 -0.38859428369766791 -0.48614630665141417 0 -0.36652141413456929 -0.48474993749143802 0 -0.38859428369766791 -0.48614630665141417 0 -0.40140120367436599 -0.49999999999999611 0 -0.40563347959473789 -0.48367842824487117 0 -0.40140120367436599 -0.49999999999999611 0 -0.40563347959473789 -0.48367842824487117 0 -0.40563347959473789 -0.48367842824487117 0 -0.39389470715733632 -0.47355095168427308 0 -0.40986575551511062 -0.46735685648974662 0 -0.38859428369766791 -0.48614630665141417 0 -0.40563347959473789 -0.48367842824487117 0 -0.39389470715733632 -0.47355095168427308 0 -0.40563347959473789 -0.48367842824487117 0 -0.40986575551511062 -0.46735685648974662 0 -0.42809744812538553 -0.47353695305504512 0 -0.40986575551511062 -0.46735685648974662 0 -0.4199949121527507 -0.4855396040697898 0 -0.42809744812538553 -0.47353695305504512 0 -0.40986575551511062 -0.46735685648974662 0 -0.40563347959473789 -0.48367842824487117 0 -0.4199949121527507 -0.4855396040697898 0 -0.40986575551511062 -0.46735685648974662 0 -0.40563347959473789 -0.48367842824487117 0 -0.4199949121527507 -0.4855396040697898 0 -0.41921281873686977 -0.5 0 -0.40140120367436599 -0.49999999999999611 0 -0.40563347959473789 -0.48367842824487117 0 -0.41921281873686977 -0.5 0 -0.4199949121527507 -0.4855396040697898 0 -0.41921281873686977 -0.5 0 -0.43702443379937372 -0.49999999999999922 0 -0.4199949121527507 -0.4855396040697898 0 -0.43702443379937372 -0.49999999999999922 0 -0.42809744812538553 -0.47353695305504512 0 -0.44381084376742141 -0.47114793899167112 0 -0.43702443379937372 -0.49999999999999922 0 -0.42809744812538553 -0.47353695305504512 0 -0.42809744812538553 -0.47353695305504512 0 -0.42194140881699782 -0.45884101952858919 0 -0.43309128002320102 -0.45351235807576151 0 -0.44381084376742141 -0.47114793899167112 0 -0.42809744812538553 -0.47353695305504512 0 -0.43309128002320102 -0.45351235807576151 0 -0.4339166039271336 -0.43498117536117131 0 -0.43309128002320102 -0.45351235807576151 0 -0.41671115160429401 -0.44095791049380378 0 -0.42194140881699782 -0.45884101952858919 0 -0.43309128002320102 -0.45351235807576151 0 -0.41671115160429401 -0.44095791049380378 0 -0.42194140881699782 -0.45884101952858919 0 -0.41671115160429401 -0.44095791049380378 0 -0.40986575551511062 -0.46735685648974662 0 -0.41671115160429401 -0.44095791049380378 0 -0.40986575551511062 -0.46735685648974662 0 -0.40093272222703252 -0.45142790024540502 0 -0.41671115160429401 -0.44095791049380378 0 -0.40986575551511062 -0.46735685648974662 0 -0.42809744812538553 -0.47353695305504512 0 -0.42194140881699782 -0.45884101952858919 0 -0.40986575551511062 -0.46735685648974662 0 -0.45828666285701658 -0.26028432573271792 0 -0.43487007995442373 -0.25384069753834382 0 -0.45658005330295048 -0.2439827770756183 0 -0.43864273500925549 -0.2751587481676856 0 -0.45828666285701658 -0.26028432573271792 0 -0.43487007995442373 -0.25384069753834382 0 -0.43864273500925549 -0.2751587481676856 0 -0.45645423860141388 -0.27827293425430932 0 -0.45828666285701658 -0.26028432573271792 0 -0.43864273500925549 -0.2751587481676856 0 -0.45828666285701658 -0.26028432573271792 0 -0.45645423860141388 -0.27827293425430932 0 -0.47869064668718631 -0.2683854874950159 0 -0.47091363495918082 -0.28947603344621109 0 -0.45645423860141388 -0.27827293425430932 0 -0.45828666285701658 -0.26028432573271792 0 -0.47869064668718631 -0.2683854874950159 0 -0.45828666285701658 -0.26028432573271792 0 -0.47793059070477772 -0.24540990329775009 0 -0.45828666285701658 -0.26028432573271792 0 -0.47869064668718631 -0.2683854874950159 0 -0.47793059070477772 -0.24540990329775009 0 -0.4872249908214738 -0.25598993182963242 0 -0.47869064668718631 -0.2683854874950159 0 -0.47793059070477772 -0.24540990329775009 0 -0.4872249908214738 -0.25598993182963242 0 -0.5 -0.25006354863638108 0 -0.5 -0.27586016112259643 0 -0.4872249908214738 -0.25598993182963242 0 -0.5 -0.25006354863638108 0 -0.49068252501969761 -0.24549971615663649 0 -0.4872249908214738 -0.25598993182963242 0 -0.5 -0.27586016112259643 0 -0.47869064668718631 -0.2683854874950159 0 -0.5 -0.27586016112259643 0 -0.47869064668718631 -0.2683854874950159 0 -0.48721788021035761 -0.2882082846164955 0 -0.47869064668718631 -0.2683854874950159 0 -0.47091363495918082 -0.28947603344621109 0 -0.48721788021035761 -0.2882082846164955 0 -0.47091363495918082 -0.28947603344621109 0 -0.48721788021035761 -0.2882082846164955 0 -0.48161809245015419 -0.30465866835107641 0 -0.5 -0.27586016112259643 0 -0.48721788021035761 -0.2882082846164955 0 -0.5 -0.3016567736088116 0 -0.48721788021035761 -0.2882082846164955 0 -0.5 -0.3016567736088116 0 -0.48161809245015419 -0.30465866835107641 0 -0.5 -0.3016567736088116 0 -0.48161809245015419 -0.30465866835107641 0 -0.5 -0.32745338609502678 0 -0.47091363495918082 -0.28947603344621109 0 -0.48161809245015419 -0.30465866835107641 0 -0.45879166701778518 -0.3036258058313378 0 -0.48161809245015419 -0.30465866835107641 0 -0.45879166701778518 -0.3036258058313378 0 -0.47638885418803739 -0.32253493654140952 0 -0.45645423860141388 -0.27827293425430932 0 -0.47091363495918082 -0.28947603344621109 0 -0.45879166701778518 -0.3036258058313378 0 -0.45645423860141388 -0.27827293425430932 0 -0.45879166701778518 -0.3036258058313378 0 -0.43905227881958647 -0.29505920944709452 0 -0.43864273500925549 -0.2751587481676856 0 -0.45645423860141388 -0.27827293425430932 0 -0.43905227881958647 -0.29505920944709452 0 -0.45879166701778518 -0.3036258058313378 0 -0.43905227881958647 -0.29505920944709452 0 -0.4399695753826649 -0.31139282438396382 0 -0.4399695753826649 -0.31139282438396382 0 -0.45223868162566522 -0.32343332413938758 0 -0.42808850906329299 -0.32433171173736591 0 -0.45879166701778518 -0.3036258058313378 0 -0.4399695753826649 -0.31139282438396382 0 -0.45223868162566522 -0.32343332413938758 0 -0.45223868162566522 -0.32343332413938758 0 -0.42808850906329299 -0.32433171173736591 0 -0.45223868162566522 -0.32343332413938758 0 -0.44207286924452832 -0.33783824796895978 0 -0.46140244920768408 -0.33754740415941759 0 -0.44207286924452832 -0.33783824796895978 0 -0.46140244920768408 -0.33754740415941759 0 -0.45117994904742642 -0.3486532256997657 0 -0.45223868162566522 -0.32343332413938758 0 -0.44207286924452832 -0.33783824796895978 0 -0.42808850906329299 -0.32433171173736591 0 -0.45879166701778518 -0.3036258058313378 0 -0.45223868162566522 -0.32343332413938758 0 -0.47638885418803739 -0.32253493654140952 0 -0.45223868162566522 -0.32343332413938758 0 -0.46140244920768408 -0.33754740415941759 0 -0.47638885418803739 -0.32253493654140952 0 -0.45223868162566522 -0.32343332413938758 0 -0.47638885418803739 -0.32253493654140952 0 -0.48161809245015419 -0.30465866835107641 0 -0.47638885418803739 -0.32253493654140952 0 -0.5 -0.32745338609502678 0 -0.47638885418803739 -0.32253493654140952 0 -0.5 -0.32745338609502678 0 -0.48104103145021149 -0.34129537751375599 0 -0.5 -0.32745338609502678 0 -0.48104103145021149 -0.34129537751375599 0 -0.5 -0.35324999858124201 0 -0.46140244920768408 -0.33754740415941759 0 -0.48104103145021149 -0.34129537751375599 0 -0.46549330969023639 -0.35152931309322771 0 -0.46140244920768408 -0.33754740415941759 0 -0.47638885418803739 -0.32253493654140952 0 -0.48104103145021149 -0.34129537751375599 0 -0.48104103145021149 -0.34129537751375599 0 -0.48025743214923627 -0.35616585996071459 0 -0.46549330969023639 -0.35152931309322771 0 -0.48025743214923627 -0.35616585996071459 0 -0.46757842097458802 -0.36652008110622503 0 -0.46549330969023639 -0.35152931309322771 0 -0.48025743214923627 -0.35616585996071459 0 -0.5 -0.35324999858124201 0 -0.48717439863114548 -0.36823452950912272 0 -0.48104103145021149 -0.34129537751375599 0 -0.48025743214923627 -0.35616585996071459 0 -0.5 -0.35324999858124201 0 -0.50000000000000089 -0.37904661106745707 0 -0.5 -0.35324999858124201 0 -0.48717439863114548 -0.36823452950912272 0 -0.47195833844942919 -0.37959069520904498 0 -0.48717439863114548 -0.36823452950912272 0 -0.46757842097458802 -0.36652008110622503 0 -0.48025743214923627 -0.35616585996071459 0 -0.48717439863114548 -0.36823452950912272 0 -0.46757842097458802 -0.36652008110622503 0 -0.45132291774153199 -0.37789636588759368 0 -0.46757842097458802 -0.36652008110622503 0 -0.45216690816074923 -0.36231126303824313 0 -0.47195833844942919 -0.37959069520904498 0 -0.45132291774153199 -0.37789636588759368 0 -0.46757842097458802 -0.36652008110622503 0 -0.46757842097458802 -0.36652008110622503 0 -0.46549330969023639 -0.35152931309322771 0 -0.45216690816074923 -0.36231126303824313 0 -0.46140244920768408 -0.33754740415941759 0 -0.46549330969023639 -0.35152931309322771 0 -0.45117994904742642 -0.3486532256997657 0 -0.46549330969023639 -0.35152931309322771 0 -0.45117994904742642 -0.3486532256997657 0 -0.45216690816074923 -0.36231126303824313 0 -0.44599028472907742 -0.35554349803526408 0 -0.45117994904742642 -0.3486532256997657 0 -0.45216690816074923 -0.36231126303824313 0 -0.44599028472907742 -0.35554349803526408 0 -0.45117994904742642 -0.3486532256997657 0 -0.44228407783080631 -0.34851364977492799 0 -0.44207286924452832 -0.33783824796895978 0 -0.44228407783080631 -0.34851364977492799 0 -0.43394442261003058 -0.34546672586134508 0 -0.44228407783080631 -0.34851364977492799 0 -0.43858436747801349 -0.35660488883003821 0 -0.43394442261003058 -0.34546672586134508 0 -0.44207286924452832 -0.33783824796895978 0 -0.45117994904742642 -0.3486532256997657 0 -0.44228407783080631 -0.34851364977492799 0 -0.44599028472907742 -0.35554349803526408 0 -0.44228407783080631 -0.34851364977492799 0 -0.43858436747801349 -0.35660488883003821 0 -0.44599028472907742 -0.35554349803526408 0 -0.43858436747801349 -0.35660488883003821 0 -0.43671500038902772 -0.36381401452353412 0 -0.43858436747801349 -0.35660488883003821 0 -0.43671500038902772 -0.36381401452353412 0 -0.44599028472907742 -0.35554349803526408 0 -0.45216690816074923 -0.36231126303824313 0 -0.43671500038902772 -0.36381401452353412 0 -0.45132291774153199 -0.37789636588759368 0 -0.43671500038902772 -0.36381401452353412 0 -0.45132291774153199 -0.37789636588759368 0 -0.45216690816074923 -0.36231126303824313 0 -0.43671500038902772 -0.36381401452353412 0 -0.43040194378266172 -0.3881600185019185 0 -0.43671500038902772 -0.36381401452353412 0 -0.4079689369259607 -0.37224253963894771 0 -0.43858436747801349 -0.35660488883003821 0 -0.43671500038902772 -0.36381401452353412 0 -0.41901032175007979 -0.34674631764622038 0 -0.43671500038902772 -0.36381401452353412 0 -0.41901032175007979 -0.34674631764622038 0 -0.43858436747801349 -0.35660488883003821 0 -0.43394442261003058 -0.34546672586134508 0 -0.41901032175007979 -0.34674631764622038 0 -0.41901032175007979 -0.34674631764622038 0 -0.4079689369259607 -0.37224253963894771 0 -0.40160491304204049 -0.35527610236370899 0 -0.43671500038902772 -0.36381401452353412 0 -0.41901032175007979 -0.34674631764622038 0 -0.4079689369259607 -0.37224253963894771 0 -0.4079689369259607 -0.37224253963894771 0 -0.38553593006925752 -0.3563250607759802 0 -0.4079689369259607 -0.37224253963894771 0 -0.38553593006925752 -0.3563250607759802 0 -0.40160491304204049 -0.35527610236370899 0 -0.39195929229331972 -0.37982250283040359 0 -0.4079689369259607 -0.37224253963894771 0 -0.38553593006925752 -0.3563250607759802 0 -0.39195929229331972 -0.37982250283040359 0 -0.37549160074202448 -0.3732971907138336 0 -0.38553593006925752 -0.3563250607759802 0 -0.37549160074202448 -0.3732971907138336 0 -0.38553593006925752 -0.3563250607759802 0 -0.38553593006925752 -0.3563250607759802 0 -0.36666079927166728 -0.34293209489202431 0 -0.38553593006925752 -0.3563250607759802 0 -0.39342078659019603 -0.34300184077244372 0 -0.38006824781918919 -0.33243312042550199 0 -0.38553593006925752 -0.3563250607759802 0 -0.38006824781918919 -0.33243312042550199 0 -0.36666079927166728 -0.34293209489202431 0 -0.38553593006925752 -0.3563250607759802 0 -0.39342078659019603 -0.34300184077244372 0 -0.41901032175007979 -0.34674631764622038 0 -0.40160491304204049 -0.35527610236370899 0 -0.39342078659019603 -0.34300184077244372 0 -0.38553593006925752 -0.3563250607759802 0 -0.40160491304204049 -0.35527610236370899 0 -0.39342078659019603 -0.34300184077244372 0 -0.41901032175007979 -0.34674631764622038 0 -0.40130564311113259 -0.32967862076890581 0 -0.39342078659019603 -0.34300184077244372 0 -0.40130564311113259 -0.32967862076890581 0 -0.39064670272592411 -0.32967160323888278 0 -0.39342078659019603 -0.34300184077244372 0 -0.40130564311113259 -0.32967862076890581 0 -0.39342078659019603 -0.34300184077244372 0 -0.39064670272592411 -0.32967160323888278 0 -0.39342078659019603 -0.34300184077244372 0 -0.38006824781918919 -0.33243312042550199 0 -0.38006824781918919 -0.33243312042550199 0 -0.38935907146989862 -0.31816186479418052 0 -0.37140736883531977 -0.32183989730859341 0 -0.38935907146989862 -0.31816186479418052 0 -0.38351210912712752 -0.30253866195360818 0 -0.37140736883531977 -0.32183989730859341 0 -0.39064670272592411 -0.32967160323888278 0 -0.38006824781918919 -0.33243312042550199 0 -0.38935907146989862 -0.31816186479418052 0 -0.38935907146989862 -0.31816186479418052 0 -0.401514660155255 -0.31819685637317691 0 -0.39554973675391708 -0.30949047449279188 0 -0.40130564311113259 -0.32967862076890581 0 -0.38935907146989862 -0.31816186479418052 0 -0.40130564311113259 -0.32967862076890581 0 -0.38935907146989862 -0.31816186479418052 0 -0.39962023335203928 -0.32539073298322901 0 -0.38935907146989862 -0.31816186479418052 0 -0.39962023335203928 -0.32539073298322901 0 -0.401514660155255 -0.31819685637317691 0 -0.40130564311113259 -0.32967862076890581 0 -0.39064670272592411 -0.32967160323888278 0 -0.38935907146989862 -0.31816186479418052 0 -0.40130564311113259 -0.32967862076890581 0 -0.39962023335203928 -0.32539073298322901 0 -0.4039383365009207 -0.3252300993353433 0 -0.39962023335203928 -0.32539073298322901 0 -0.4039383365009207 -0.3252300993353433 0 -0.39962023335203928 -0.32539073298322901 0 -0.4039383365009207 -0.3252300993353433 0 -0.401514660155255 -0.31819685637317691 0 -0.40130564311113259 -0.32967862076890581 0 -0.4039383365009207 -0.3252300993353433 0 -0.401514660155255 -0.31819685637317691 0 -0.4088463285069534 -0.31693695448250642 0 -0.4053668684804122 -0.3086126184714344 0 -0.4039383365009207 -0.3252300993353433 0 -0.401514660155255 -0.31819685637317691 0 -0.4088463285069534 -0.31693695448250642 0 -0.4039383365009207 -0.3252300993353433 0 -0.42808850906329299 -0.32433171173736591 0 -0.4088463285069534 -0.31693695448250642 0 -0.42808850906329299 -0.32433171173736591 0 -0.41503252140001728 -0.31110728079830707 0 -0.4039383365009207 -0.3252300993353433 0 -0.4088463285069534 -0.31693695448250642 0 -0.42808850906329299 -0.32433171173736591 0 -0.4039383365009207 -0.3252300993353433 0 -0.41609663568284688 -0.33258428014908531 0 -0.42808850906329299 -0.32433171173736591 0 -0.4039383365009207 -0.3252300993353433 0 -0.4088463285069534 -0.31693695448250642 0 -0.40130564311113259 -0.32967862076890581 0 -0.4039383365009207 -0.3252300993353433 0 -0.41609663568284688 -0.33258428014908531 0 -0.41901032175007979 -0.34674631764622038 0 -0.40130564311113259 -0.32967862076890581 0 -0.41609663568284688 -0.33258428014908531 0 -0.41901032175007979 -0.34674631764622038 0 -0.40130564311113259 -0.32967862076890581 0 -0.41901032175007979 -0.34674631764622038 0 -0.41609663568284688 -0.33258428014908531 0 -0.42777047674672519 -0.33763052508657909 0 -0.41609663568284688 -0.33258428014908531 0 -0.42777047674672519 -0.33763052508657909 0 -0.42808850906329299 -0.32433171173736591 0 -0.43394442261003058 -0.34546672586134508 0 -0.41901032175007979 -0.34674631764622038 0 -0.42777047674672519 -0.33763052508657909 0 -0.44207286924452832 -0.33783824796895978 0 -0.43394442261003058 -0.34546672586134508 0 -0.42777047674672519 -0.33763052508657909 0 -0.44207286924452832 -0.33783824796895978 0 -0.42777047674672519 -0.33763052508657909 0 -0.42808850906329299 -0.32433171173736591 0 -0.4399695753826649 -0.31139282438396382 0 -0.42808850906329299 -0.32433171173736591 0 -0.42349591428063971 -0.31031667424466408 0 -0.42808850906329299 -0.32433171173736591 0 -0.42349591428063971 -0.31031667424466408 0 -0.41503252140001728 -0.31110728079830707 0 -0.43905227881958647 -0.29505920944709452 0 -0.42349591428063971 -0.31031667424466408 0 -0.41899880716149451 -0.29003317060265321 0 -0.43905227881958647 -0.29505920944709452 0 -0.4399695753826649 -0.31139282438396382 0 -0.42349591428063971 -0.31031667424466408 0 -0.43864273500925549 -0.2751587481676856 0 -0.43905227881958647 -0.29505920944709452 0 -0.41899880716149451 -0.29003317060265321 0 -0.43864273500925549 -0.2751587481676856 0 -0.41899880716149451 -0.29003317060265321 0 -0.41649742047364408 -0.2919272257303569 0 -0.41502826726935188 -0.28951283527362931 0 -0.41151645216318689 -0.29124877083691719 0 -0.41899880716149451 -0.29003317060265321 0 -0.41649742047364408 -0.2919272257303569 0 -0.41502826726935188 -0.28951283527362931 0 -0.41899880716149451 -0.29003317060265321 0 -0.41649742047364408 -0.2919272257303569 0 -0.41899880716149451 -0.29003317060265321 0 -0.41502826726935188 -0.28951283527362931 0 -0.41310038927908221 -0.28484217392458988 0 -0.41310038927908221 -0.28484217392458988 0 -0.40629814920556201 -0.2872410904076857 0 -0.40433064532645308 -0.27892106023783952 0 -0.41502826726935188 -0.28951283527362931 0 -0.41310038927908221 -0.28484217392458988 0 -0.41151645216318689 -0.29124877083691719 0 -0.41310038927908221 -0.28484217392458988 0 -0.40629814920556201 -0.2872410904076857 0 -0.41151645216318689 -0.29124877083691719 0 -0.41649742047364408 -0.2919272257303569 0 -0.41151645216318689 -0.29124877083691719 0 -0.41283916949633909 -0.29890888486812428 0 -0.40629814920556201 -0.2872410904076857 0 -0.41151645216318689 -0.29124877083691719 0 -0.4052488046064433 -0.29379102377099447 0 -0.41151645216318689 -0.29124877083691719 0 -0.41283916949633909 -0.29890888486812428 0 -0.4052488046064433 -0.29379102377099447 0 -0.42349591428063971 -0.31031667424466408 0 -0.41899880716149451 -0.29003317060265321 0 -0.42349591428063971 -0.31031667424466408 0 -0.41649742047364408 -0.2919272257303569 0 -0.41283916949633909 -0.29890888486812428 0 -0.42349591428063971 -0.31031667424466408 0 -0.41899880716149451 -0.29003317060265321 0 -0.41649742047364408 -0.2919272257303569 0 -0.40711072979061191 -0.30081998795009107 0 -0.41283916949633909 -0.29890888486812428 0 -0.4052488046064433 -0.29379102377099447 0 -0.40711072979061191 -0.30081998795009107 0 -0.41283916949633909 -0.29890888486812428 0 -0.41256685577174013 -0.30556786269479153 0 -0.42349591428063971 -0.31031667424466408 0 -0.41283916949633909 -0.29890888486812428 0 -0.41256685577174013 -0.30556786269479153 0 -0.42349591428063971 -0.31031667424466408 0 -0.41503252140001728 -0.31110728079830707 0 -0.41256685577174013 -0.30556786269479153 0 -0.4088463285069534 -0.31693695448250642 0 -0.41503252140001728 -0.31110728079830707 0 -0.4053668684804122 -0.3086126184714344 0 -0.41503252140001728 -0.31110728079830707 0 -0.41256685577174013 -0.30556786269479153 0 -0.4053668684804122 -0.3086126184714344 0 -0.40711072979061191 -0.30081998795009107 0 -0.41256685577174013 -0.30556786269479153 0 -0.4053668684804122 -0.3086126184714344 0 -0.401514660155255 -0.31819685637317691 0 -0.4053668684804122 -0.3086126184714344 0 -0.39554973675391708 -0.30949047449279188 0 -0.4053668684804122 -0.3086126184714344 0 -0.39799597453689262 -0.29994237087155962 0 -0.39554973675391708 -0.30949047449279188 0 -0.40711072979061191 -0.30081998795009107 0 -0.4053668684804122 -0.3086126184714344 0 -0.39799597453689262 -0.29994237087155962 0 -0.40711072979061191 -0.30081998795009107 0 -0.39799597453689262 -0.29994237087155962 0 -0.4052488046064433 -0.29379102377099447 0 -0.39799597453689262 -0.29994237087155962 0 -0.39554973675391708 -0.30949047449279188 0 -0.38351210912712752 -0.30253866195360818 0 -0.38935907146989862 -0.31816186479418052 0 -0.39554973675391708 -0.30949047449279188 0 -0.38351210912712752 -0.30253866195360818 0 -0.38351210912712752 -0.30253866195360818 0 -0.3950660262777419 -0.28803976586637831 0 -0.37433096522584453 -0.28132989654828328 0 -0.39799597453689262 -0.29994237087155962 0 -0.38351210912712752 -0.30253866195360818 0 -0.3950660262777419 -0.28803976586637831 0 -0.39799597453689262 -0.29994237087155962 0 -0.3950660262777419 -0.28803976586637831 0 -0.4052488046064433 -0.29379102377099447 0 -0.40629814920556201 -0.2872410904076857 0 -0.3950660262777419 -0.28803976586637831 0 -0.4052488046064433 -0.29379102377099447 0 -0.40629814920556201 -0.2872410904076857 0 -0.3950660262777419 -0.28803976586637831 0 -0.40433064532645308 -0.27892106023783952 0 -0.40433064532645308 -0.27892106023783952 0 -0.39374553591587069 -0.27251425727467649 0 -0.41316010660589619 -0.2636986180010682 0 -0.39374553591587069 -0.27251425727467649 0 -0.41316010660589619 -0.2636986180010682 0 -0.3950660262777419 -0.28803976586637831 0 -0.40433064532645308 -0.27892106023783952 0 -0.39374553591587069 -0.27251425727467649 0 -0.39374553591587069 -0.27251425727467649 0 -0.37433096522584453 -0.28132989654828328 0 -0.3950660262777419 -0.28803976586637831 0 -0.39374553591587069 -0.27251425727467649 0 -0.37433096522584453 -0.28132989654828328 0 -0.39374553591587069 -0.27251425727467649 0 -0.37648826808451968 -0.27741199289956509 0 -0.37433096522584453 -0.28132989654828328 0 -0.39374553591587069 -0.27251425727467649 0 -0.37598097480723441 -0.26745556380373348 0 -0.38363075469537122 -0.26088114511686322 0 -0.39374553591587069 -0.27251425727467649 0 -0.37598097480723441 -0.26745556380373348 0 -0.37648826808451968 -0.27741199289956509 0 -0.37598097480723441 -0.26745556380373348 0 -0.37648826808451968 -0.27741199289956509 0 -0.37277902062147272 -0.27405557492128901 0 -0.37648826808451968 -0.27741199289956509 0 -0.37433096522584453 -0.28132989654828328 0 -0.38363075469537122 -0.26088114511686322 0 -0.37393540655460039 -0.25504906339868932 0 -0.38258347849844832 -0.24967798674395081 0 -0.37598097480723441 -0.26745556380373348 0 -0.38363075469537122 -0.26088114511686322 0 -0.37393540655460039 -0.25504906339868932 0 -0.38363075469537122 -0.26088114511686322 0 -0.3945867816951415 -0.25828321704239809 0 -0.38258347849844832 -0.24967798674395081 0 -0.3945867816951415 -0.25828321704239809 0 -0.3933004523496676 -0.24484402304582939 0 -0.38258347849844832 -0.24967798674395081 0 -0.39374553591587069 -0.27251425727467649 0 -0.3945867816951415 -0.25828321704239809 0 -0.41316010660589619 -0.2636986180010682 0 -0.3945867816951415 -0.25828321704239809 0 -0.41316010660589619 -0.2636986180010682 0 -0.40847937369743209 -0.24258689873782929 0 -0.39374553591587069 -0.27251425727467649 0 -0.38363075469537122 -0.26088114511686322 0 -0.3945867816951415 -0.25828321704239809 0 -0.41316010660589619 -0.2636986180010682 0 -0.42931567121415071 -0.25028064732030619 0 -0.40847937369743209 -0.24258689873782929 0 -0.41316010660589619 -0.2636986180010682 0 -0.40847937369743209 -0.24258689873782929 0 -0.41899880716149451 -0.29003317060265321 0 -0.41310038927908221 -0.28484217392458988 0 -0.41316010660589619 -0.2636986180010682 0 -0.41310038927908221 -0.28484217392458988 0 -0.40433064532645308 -0.27892106023783952 0 -0.41316010660589619 -0.2636986180010682 0 -0.41899880716149451 -0.29003317060265321 0 -0.41316010660589619 -0.2636986180010682 0 -0.42551969657153998 -0.27199364899169498 0 -0.41899880716149451 -0.29003317060265321 0 -0.41316010660589619 -0.2636986180010682 0 -0.43864273500925549 -0.2751587481676856 0 -0.42551969657153998 -0.27199364899169498 0 -0.43487007995442373 -0.25384069753834382 0 -0.43864273500925549 -0.2751587481676856 0 -0.41899880716149451 -0.29003317060265321 0 -0.42551969657153998 -0.27199364899169498 0 -0.41316010660589619 -0.2636986180010682 0 -0.43487007995442373 -0.25384069753834382 0 -0.41316010660589619 -0.2636986180010682 0 -0.42551969657153998 -0.27199364899169498 0 -0.43487007995442373 -0.25384069753834382 0 -0.41316010660589619 -0.2636986180010682 0 -0.43487007995442373 -0.25384069753834382 0 -0.42931567121415071 -0.25028064732030619 0 -0.32316489217708799 -0.25890650528201359 0 -0.32888695585781391 -0.26910619260742191 0 -0.31032083431566337 -0.26180085087236171 0 -0.32316489217708799 -0.25890650528201359 0 -0.32888695585781391 -0.26910619260742191 0 -0.33131030172746923 -0.25321851497678438 0 -0.32888695585781391 -0.26910619260742191 0 -0.31032083431566337 -0.26180085087236171 0 -0.32316489217708799 -0.25890650528201359 0 -0.33131030172746923 -0.25321851497678438 0 -0.32202724095639168 -0.2495658441092535 0 -0.32316489217708799 -0.25890650528201359 0 -0.31032083431566337 -0.26180085087236171 0 -0.32202724095639168 -0.2495658441092535 0 -0.31032083431566337 -0.26180085087236171 0 -0.32202724095639168 -0.2495658441092535 0 -0.31283906540333922 -0.25031215033235238 0 -0.31032083431566337 -0.26180085087236171 0 -0.32202724095639168 -0.2495658441092535 0 -0.31480478096024378 -0.27564718726691712 0 -0.32888695585781391 -0.26910619260742191 0 -0.31032083431566337 -0.26180085087236171 0 -0.31480478096024378 -0.27564718726691712 0 -0.32888695585781391 -0.26910619260742191 0 -0.32507396769595592 -0.29410449247197662 0 -0.32888695585781391 -0.26910619260742191 0 -0.3381311227387106 -0.26238754928509761 0 -0.34453036853746388 -0.27526151563856671 0 -0.32888695585781391 -0.26910619260742191 0 -0.34453036853746388 -0.27526151563856671 0 -0.33279411355556121 -0.28213246275860349 0 -0.32888695585781391 -0.26910619260742191 0 -0.34453036853746388 -0.27526151563856671 0 -0.34453036853746388 -0.27526151563856671 0 -0.34450588037081892 -0.28462367662190302 0 -0.33279411355556121 -0.28213246275860349 0 -0.32888695585781391 -0.26910619260742191 0 -0.33131030172746923 -0.25321851497678438 0 -0.32888695585781391 -0.26910619260742191 0 -0.3381311227387106 -0.26238754928509761 0 -0.33131030172746923 -0.25321851497678438 0 -0.3381311227387106 -0.26238754928509761 0 -0.34897267059429732 -0.25990550268967838 0 -0.3420777495351906 -0.24844208584564559 0 -0.3381311227387106 -0.26238754928509761 0 -0.33131030172746923 -0.25321851497678438 0 -0.3420777495351906 -0.24844208584564559 0 -0.34897267059429732 -0.25990550268967838 0 -0.35255150303394622 -0.24812522560144931 0 -0.3420777495351906 -0.24844208584564559 0 -0.34897267059429732 -0.25990550268967838 0 -0.35751050643918753 -0.2560897164936603 0 -0.35722060467742811 -0.26762499714769428 0 -0.34897267059429732 -0.25990550268967838 0 -0.35751050643918753 -0.2560897164936603 0 -0.35255150303394622 -0.24812522560144931 0 -0.35751050643918753 -0.2560897164936603 0 -0.363557814049559 -0.2486896754833777 0 -0.35255150303394622 -0.24812522560144931 0 -0.35751050643918753 -0.2560897164936603 0 -0.36561260290989678 -0.26128521942254013 0 -0.363557814049559 -0.2486896754833777 0 -0.35751050643918753 -0.2560897164936603 0 -0.36561260290989678 -0.26128521942254013 0 -0.35722060467742811 -0.26762499714769428 0 -0.37598097480723441 -0.26745556380373348 0 -0.36561260290989678 -0.26128521942254013 0 -0.37393540655460039 -0.25504906339868932 0 -0.36561260290989678 -0.26128521942254013 0 -0.37393540655460039 -0.25504906339868932 0 -0.363557814049559 -0.2486896754833777 0 -0.37277902062147272 -0.27405557492128901 0 -0.36654922363893422 -0.27215591673696138 0 -0.37433096522584453 -0.28132989654828328 0 -0.37648826808451968 -0.27741199289956509 0 -0.37277902062147272 -0.27405557492128901 0 -0.37433096522584453 -0.28132989654828328 0 -0.37598097480723441 -0.26745556380373348 0 -0.37277902062147272 -0.27405557492128901 0 -0.36654922363893422 -0.27215591673696138 0 -0.37598097480723441 -0.26745556380373348 0 -0.36561260290989678 -0.26128521942254013 0 -0.36654922363893422 -0.27215591673696138 0 -0.36561260290989678 -0.26128521942254013 0 -0.36654922363893422 -0.27215591673696138 0 -0.35722060467742811 -0.26762499714769428 0 -0.36654922363893422 -0.27215591673696138 0 -0.35722060467742811 -0.26762499714769428 0 -0.36017378121711419 -0.28141683866971062 0 -0.36654922363893422 -0.27215591673696138 0 -0.36017378121711419 -0.28141683866971062 0 -0.37433096522584453 -0.28132989654828328 0 -0.34453036853746388 -0.27526151563856671 0 -0.36017378121711419 -0.28141683866971062 0 -0.35722060467742811 -0.26762499714769428 0 -0.34453036853746388 -0.27526151563856671 0 -0.36017378121711419 -0.28141683866971062 0 -0.34453036853746388 -0.27526151563856671 0 -0.34450588037081892 -0.28462367662190302 0 -0.36017378121711419 -0.28141683866971062 0 -0.34897267059429732 -0.25990550268967838 0 -0.35722060467742811 -0.26762499714769428 0 -0.34453036853746388 -0.27526151563856671 0 -0.3381311227387106 -0.26238754928509761 0 -0.34897267059429732 -0.25990550268967838 0 -0.34453036853746388 -0.27526151563856671 0 -0.34450588037081892 -0.28462367662190302 0 -0.34891652205724832 -0.29286991805537971 0 -0.36017378121711419 -0.28141683866971062 0 -0.37433096522584453 -0.28132989654828328 0 -0.36105831684996031 -0.30543451277817618 0 -0.34891652205724832 -0.29286991805537971 0 -0.37433096522584453 -0.28132989654828328 0 -0.34891652205724832 -0.29286991805537971 0 -0.36017378121711419 -0.28141683866971062 0 -0.37433096522584453 -0.28132989654828328 0 -0.38351210912712752 -0.30253866195360818 0 -0.37433096522584453 -0.28132989654828328 0 -0.36105831684996031 -0.30543451277817618 0 -0.34891652205724832 -0.29286991805537971 0 -0.37433096522584453 -0.28132989654828328 0 -0.36105831684996031 -0.30543451277817618 0 -0.38351210912712752 -0.30253866195360818 0 -0.36105831684996031 -0.30543451277817618 0 -0.37140736883531977 -0.32183989730859341 0 -0.36105831684996031 -0.30543451277817618 0 -0.3496688877197569 -0.30429177800002122 0 -0.34586440994984541 -0.3145735322147622 0 -0.34891652205724832 -0.29286991805537971 0 -0.36105831684996031 -0.30543451277817618 0 -0.3496688877197569 -0.30429177800002122 0 -0.34891652205724832 -0.29286991805537971 0 -0.3496688877197569 -0.30429177800002122 0 -0.33956299038192078 -0.30735077663143923 0 -0.3496688877197569 -0.30429177800002122 0 -0.33956299038192078 -0.30735077663143923 0 -0.34586440994984541 -0.3145735322147622 0 -0.34891652205724832 -0.29286991805537971 0 -0.33956299038192078 -0.30735077663143923 0 -0.32350207888865212 -0.30440993956247547 0 -0.33956299038192078 -0.30735077663143923 0 -0.3301339810941622 -0.31110503031331638 0 -0.32350207888865212 -0.30440993956247547 0 -0.34891652205724832 -0.29286991805537971 0 -0.32350207888865212 -0.30440993956247547 0 -0.33956299038192078 -0.30735077663143923 0 -0.3301339810941622 -0.31110503031331638 0 -0.33675509785737662 -0.31655799101612769 0 -0.34891652205724832 -0.29286991805537971 0 -0.33611461648670682 -0.29143764798725502 0 -0.32350207888865212 -0.30440993956247547 0 -0.32888695585781391 -0.26910619260742191 0 -0.33279411355556121 -0.28213246275860349 0 -0.32507396769595592 -0.29410449247197662 0 -0.34450588037081892 -0.28462367662190302 0 -0.34891652205724832 -0.29286991805537971 0 -0.33611461648670682 -0.29143764798725502 0 -0.34450588037081892 -0.28462367662190302 0 -0.33611461648670682 -0.29143764798725502 0 -0.33279411355556121 -0.28213246275860349 0 -0.33279411355556121 -0.28213246275860349 0 -0.33070524953878982 -0.29012978506972142 0 -0.32507396769595592 -0.29410449247197662 0 -0.33611461648670682 -0.29143764798725502 0 -0.33279411355556121 -0.28213246275860349 0 -0.33070524953878982 -0.29012978506972142 0 -0.33611461648670682 -0.29143764798725502 0 -0.32742439802278828 -0.29462709162158601 0 -0.32350207888865212 -0.30440993956247547 0 -0.33611461648670682 -0.29143764798725502 0 -0.33070524953878982 -0.29012978506972142 0 -0.32742439802278828 -0.29462709162158601 0 -0.32507396769595592 -0.29410449247197662 0 -0.30234930147786221 -0.28905184696057518 0 -0.32507396769595592 -0.29410449247197662 0 -0.32350207888865212 -0.30440993956247547 0 -0.30234930147786221 -0.28905184696057518 0 -0.31480478096024378 -0.27564718726691712 0 -0.32507396769595592 -0.29410449247197662 0 -0.30234930147786221 -0.28905184696057518 0 -0.32888695585781391 -0.26910619260742191 0 -0.32507396769595592 -0.29410449247197662 0 -0.32507396769595592 -0.29410449247197662 0 -0.32742439802278828 -0.29462709162158601 0 -0.33070524953878982 -0.29012978506972142 0 -0.32507396769595592 -0.29410449247197662 0 -0.32742439802278828 -0.29462709162158601 0 -0.32302725724223008 -0.30752291379569302 0 -0.32350207888865212 -0.30440993956247547 0 -0.2999756881373381 -0.31509264677165549 0 -0.3301339810941622 -0.31110503031331638 0 -0.32302725724223008 -0.30752291379569302 0 -0.32422013968378288 -0.31561436227230438 0 -0.32302725724223008 -0.30752291379569302 0 -0.32350207888865212 -0.30440993956247547 0 -0.3301339810941622 -0.31110503031331638 0 -0.32302725724223008 -0.30752291379569302 0 -0.32350207888865212 -0.30440993956247547 0 -0.32507396769595592 -0.29410449247197662 0 -0.32742439802278828 -0.29462709162158601 0 -0.32350207888865212 -0.30440993956247547 0 -0.32507396769595592 -0.29410449247197662 0 -0.32350207888865212 -0.30440993956247547 0 -0.32302725724223008 -0.30752291379569302 0 -0.31656029902357641 -0.31849097864348519 0 -0.2999756881373381 -0.31509264677165549 0 -0.32265466046617669 -0.32198754646013139 0 -0.33127214989488979 -0.33008610863815152 0 -0.32872450059276898 -0.31896534214889599 0 -0.32265466046617669 -0.32198754646013139 0 -0.31892782856615448 -0.32825501756413727 0 -0.33127214989488979 -0.33008610863815152 0 -0.32265466046617669 -0.32198754646013139 0 -0.32422013968378288 -0.31561436227230438 0 -0.32872450059276898 -0.31896534214889599 0 -0.32302725724223008 -0.30752291379569302 0 -0.32422013968378288 -0.31561436227230438 0 -0.31656029902357641 -0.31849097864348519 0 -0.3301339810941622 -0.31110503031331638 0 -0.32422013968378288 -0.31561436227230438 0 -0.32872450059276898 -0.31896534214889599 0 -0.32265466046617669 -0.32198754646013139 0 -0.32422013968378288 -0.31561436227230438 0 -0.31656029902357641 -0.31849097864348519 0 -0.32265466046617669 -0.32198754646013139 0 -0.31656029902357641 -0.31849097864348519 0 -0.31892782856615448 -0.32825501756413727 0 -0.31656029902357641 -0.31849097864348519 0 -0.31892782856615448 -0.32825501756413727 0 -0.30936258926988919 -0.3261434941065412 0 -0.31892782856615448 -0.32825501756413727 0 -0.31208723605418232 -0.33616024018399832 0 -0.30936258926988919 -0.3261434941065412 0 -0.31892782856615448 -0.32825501756413727 0 -0.32183099473442811 -0.33958013728355868 0 -0.31208723605418232 -0.33616024018399832 0 -0.32183099473442811 -0.33958013728355868 0 -0.31234840654553953 -0.34764506024843322 0 -0.31208723605418232 -0.33616024018399832 0 -0.31892782856615448 -0.32825501756413727 0 -0.32183099473442811 -0.33958013728355868 0 -0.33127214989488979 -0.33008610863815152 0 -0.33127214989488979 -0.33008610863815152 0 -0.34778566847407638 -0.32953912900806931 0 -0.33412452318830171 -0.35434929914508079 0 -0.32183099473442811 -0.33958013728355868 0 -0.33127214989488979 -0.33008610863815152 0 -0.33412452318830171 -0.35434929914508079 0 -0.34778566847407638 -0.32953912900806931 0 -0.33412452318830171 -0.35434929914508079 0 -0.33127214989488979 -0.33008610863815152 0 -0.34035549841598117 -0.32426700585474 0 -0.34778566847407638 -0.32953912900806931 0 -0.34035549841598117 -0.32426700585474 0 -0.33427681169025408 -0.32246911191447869 0 -0.33675509785737662 -0.31655799101612769 0 -0.33127214989488979 -0.33008610863815152 0 -0.34035549841598117 -0.32426700585474 0 -0.33427681169025408 -0.32246911191447869 0 -0.33127214989488979 -0.33008610863815152 0 -0.33427681169025408 -0.32246911191447869 0 -0.32872450059276898 -0.31896534214889599 0 -0.33427681169025408 -0.32246911191447869 0 -0.32872450059276898 -0.31896534214889599 0 -0.33675509785737662 -0.31655799101612769 0 -0.3301339810941622 -0.31110503031331638 0 -0.32872450059276898 -0.31896534214889599 0 -0.33675509785737662 -0.31655799101612769 0 -0.33956299038192078 -0.30735077663143923 0 -0.33675509785737662 -0.31655799101612769 0 -0.34586440994984541 -0.3145735322147622 0 -0.34035549841598117 -0.32426700585474 0 -0.33675509785737662 -0.31655799101612769 0 -0.34586440994984541 -0.3145735322147622 0 -0.36105831684996031 -0.30543451277817618 0 -0.34778566847407638 -0.32953912900806931 0 -0.36105831684996031 -0.30543451277817618 0 -0.34586440994984541 -0.3145735322147622 0 -0.34778566847407638 -0.32953912900806931 0 -0.34035549841598117 -0.32426700585474 0 -0.34586440994984541 -0.3145735322147622 0 -0.34778566847407638 -0.32953912900806931 0 -0.34035549841598117 -0.32426700585474 0 -0.34778566847407638 -0.32953912900806931 0 -0.36105831684996031 -0.30543451277817618 0 -0.37140736883531977 -0.32183989730859341 0 -0.34778566847407638 -0.32953912900806931 0 -0.38006824781918919 -0.33243312042550199 0 -0.37140736883531977 -0.32183989730859341 0 -0.36666079927166728 -0.34293209489202431 0 -0.37140736883531977 -0.32183989730859341 0 -0.36666079927166728 -0.34293209489202431 0 -0.34778566847407638 -0.32953912900806931 0 -0.34778566847407638 -0.32953912900806931 0 -0.35170181166344461 -0.34709871950800919 0 -0.33412452318830171 -0.35434929914508079 0 -0.36666079927166728 -0.34293209489202431 0 -0.34778566847407638 -0.32953912900806931 0 -0.36666079927166728 -0.34293209489202431 0 -0.34778566847407638 -0.32953912900806931 0 -0.35170181166344461 -0.34709871950800919 0 -0.36666079927166728 -0.34293209489202431 0 -0.35170181166344461 -0.34709871950800919 0 -0.35823625571973289 -0.36157435498686258 0 -0.35170181166344461 -0.34709871950800919 0 -0.35823625571973289 -0.36157435498686258 0 -0.33412452318830171 -0.35434929914508079 0 -0.38553593006925752 -0.3563250607759802 0 -0.36666079927166728 -0.34293209489202431 0 -0.35823625571973289 -0.36157435498686258 0 -0.37549160074202448 -0.3732971907138336 0 -0.38553593006925752 -0.3563250607759802 0 -0.35823625571973289 -0.36157435498686258 0 -0.37549160074202448 -0.3732971907138336 0 -0.35823625571973289 -0.36157435498686258 0 -0.35302350150803719 -0.38208755235937009 0 -0.35823625571973289 -0.36157435498686258 0 -0.34413293857164062 -0.37054757780120701 0 -0.35302350150803719 -0.38208755235937009 0 -0.35823625571973289 -0.36157435498686258 0 -0.34413293857164062 -0.37054757780120701 0 -0.33412452318830171 -0.35434929914508079 0 -0.34413293857164062 -0.37054757780120701 0 -0.33412452318830171 -0.35434929914508079 0 -0.33519042443293379 -0.3802220457599616 0 -0.33412452318830171 -0.35434929914508079 0 -0.33519042443293379 -0.3802220457599616 0 -0.32046337790252549 -0.37915946928209171 0 -0.32183099473442811 -0.33958013728355868 0 -0.33412452318830171 -0.35434929914508079 0 -0.31234840654553953 -0.34764506024843322 0 -0.33412452318830171 -0.35434929914508079 0 -0.316806384823896 -0.36257585725837499 0 -0.31234840654553953 -0.34764506024843322 0 -0.316806384823896 -0.36257585725837499 0 -0.3002892316592175 -0.36914960035789463 0 -0.32046337790252549 -0.37915946928209171 0 -0.33412452318830171 -0.35434929914508079 0 -0.316806384823896 -0.36257585725837499 0 -0.32046337790252549 -0.37915946928209171 0 -0.33412452318830171 -0.35434929914508079 0 -0.32046337790252549 -0.37915946928209171 0 -0.3002892316592175 -0.36914960035789463 0 -0.32046337790252549 -0.37915946928209171 0 -0.3002892316592175 -0.36914960035789463 0 -0.31234840654553953 -0.34764506024843322 0 -0.29527517448125451 -0.36666176000398298 0 -0.316806384823896 -0.36257585725837499 0 -0.3002892316592175 -0.36914960035789463 0 -0.31234840654553953 -0.34764506024843322 0 -0.3002892316592175 -0.36914960035789463 0 -0.29527517448125451 -0.36666176000398298 0 -0.3002892316592175 -0.36914960035789463 0 -0.29403121103535113 -0.38030922419454549 0 -0.31234840654553953 -0.34764506024843322 0 -0.29527517448125451 -0.36666176000398298 0 -0.2976254313092957 -0.34087720338781918 0 -0.3002892316592175 -0.36914960035789463 0 -0.31234840654553953 -0.34764506024843322 0 -0.29527517448125451 -0.36666176000398298 0 -0.26926364122666091 -0.35375553660024128 0 -0.28048823453243299 -0.34080574413418752 0 -0.29527517448125451 -0.36666176000398298 0 -0.2976254313092957 -0.34087720338781918 0 -0.29527517448125451 -0.36666176000398298 0 -0.28048823453243299 -0.34080574413418752 0 -0.2976254313092957 -0.34087720338781918 0 -0.29527517448125451 -0.36666176000398298 0 -0.26926364122666091 -0.35375553660024128 0 -0.29527517448125451 -0.36666176000398298 0 -0.27994264201103719 -0.36323993691456841 0 -0.26926364122666091 -0.35375553660024128 0 -0.29527517448125451 -0.36666176000398298 0 -0.28588261091775702 -0.37268605543787447 0 -0.29403121103535113 -0.38030922419454549 0 -0.29527517448125451 -0.36666176000398298 0 -0.29403121103535113 -0.38030922419454549 0 -0.3002892316592175 -0.36914960035789463 0 -0.29527517448125451 -0.36666176000398298 0 -0.29403121103535113 -0.38030922419454549 0 -0.29527517448125451 -0.36666176000398298 0 -0.28588261091775702 -0.37268605543787447 0 -0.27994264201103719 -0.36323993691456841 0 -0.28588261091775702 -0.37268605543787447 0 -0.27994264201103719 -0.36323993691456841 0 -0.2742629371717063 -0.37916463673385931 0 -0.27994264201103719 -0.36323993691456841 0 -0.26568404082974961 -0.36651666061706623 0 -0.2742629371717063 -0.37916463673385931 0 -0.27994264201103719 -0.36323993691456841 0 -0.26568404082974961 -0.36651666061706623 0 -0.26017799311385281 -0.35268912854855933 0 -0.26568404082974961 -0.36651666061706623 0 -0.25909124390184018 -0.37475905286733341 0 -0.2742629371717063 -0.37916463673385931 0 -0.26568404082974961 -0.36651666061706623 0 -0.25909124390184018 -0.37475905286733341 0 -0.25494538795031141 -0.36273054802101118 0 -0.26568404082974961 -0.36651666061706623 0 -0.25494538795031141 -0.36273054802101118 0 -0.26017799311385281 -0.35268912854855933 0 -0.25909124390184018 -0.37475905286733341 0 -0.25494538795031141 -0.36273054802101118 0 -0.24748772700216881 -0.3717564301773445 0 -0.26017799311385281 -0.35268912854855933 0 -0.2404133442166683 -0.34213832018255058 0 -0.26926364122666091 -0.35375553660024128 0 -0.24325210797206609 -0.34084931319650169 0 -0.26017799311385281 -0.35268912854855933 0 -0.26926364122666091 -0.35375553660024128 0 -0.24325210797206609 -0.34084931319650169 0 -0.25494538795031141 -0.36273054802101118 0 -0.26017799311385281 -0.35268912854855933 0 -0.24808760514302669 -0.3536558827211943 0 -0.27994264201103719 -0.36323993691456841 0 -0.26017799311385281 -0.35268912854855933 0 -0.27994264201103719 -0.36323993691456841 0 -0.26017799311385281 -0.35268912854855933 0 -0.26926364122666091 -0.35375553660024128 0 -0.28048823453243299 -0.34080574413418752 0 -0.2621599680271573 -0.33226375772155409 0 -0.28106782808224812 -0.3236782022466056 0 -0.26926364122666091 -0.35375553660024128 0 -0.28048823453243299 -0.34080574413418752 0 -0.2621599680271573 -0.33226375772155409 0 -0.2621599680271573 -0.33226375772155409 0 -0.24518994726652291 -0.33234415230164399 0 -0.24308922262768951 -0.32099342612622928 0 -0.2621599680271573 -0.33226375772155409 0 -0.24325210797206609 -0.34084931319650169 0 -0.24518994726652291 -0.33234415230164399 0 -0.2621599680271573 -0.33226375772155409 0 -0.24325210797206609 -0.34084931319650169 0 -0.26926364122666091 -0.35375553660024128 0 -0.2621599680271573 -0.33226375772155409 0 -0.24325210797206609 -0.34084931319650169 0 -0.2621599680271573 -0.33226375772155409 0 -0.25915672867891859 -0.31415112243359272 0 -0.24308922262768951 -0.32099342612622928 0 -0.2621599680271573 -0.33226375772155409 0 -0.28106782808224812 -0.3236782022466056 0 -0.25915672867891859 -0.31415112243359272 0 -0.28106782808224812 -0.3236782022466056 0 -0.2709678639136075 -0.30238435136382452 0 -0.2621599680271573 -0.33226375772155409 0 -0.25915672867891859 -0.31415112243359272 0 -0.28106782808224812 -0.3236782022466056 0 -0.28106782808224812 -0.3236782022466056 0 -0.2999756881373381 -0.31509264677165549 0 -0.28453315598845252 -0.30841843357299598 0 -0.28106782808224812 -0.3236782022466056 0 -0.2976254313092957 -0.34087720338781918 0 -0.2999756881373381 -0.31509264677165549 0 -0.28106782808224812 -0.3236782022466056 0 -0.2999756881373381 -0.31509264677165549 0 -0.28048823453243299 -0.34080574413418752 0 -0.28106782808224812 -0.3236782022466056 0 -0.2976254313092957 -0.34087720338781918 0 -0.31234840654553953 -0.34764506024843322 0 -0.2976254313092957 -0.34087720338781918 0 -0.31208723605418232 -0.33616024018399832 0 -0.2976254313092957 -0.34087720338781918 0 -0.31208723605418232 -0.33616024018399832 0 -0.30936258926988919 -0.3261434941065412 0 -0.2976254313092957 -0.34087720338781918 0 -0.2999756881373381 -0.31509264677165549 0 -0.2976254313092957 -0.34087720338781918 0 -0.30936258926988919 -0.3261434941065412 0 -0.2999756881373381 -0.31509264677165549 0 -0.31656029902357641 -0.31849097864348519 0 -0.30936258926988919 -0.3261434941065412 0 -0.2999756881373381 -0.31509264677165549 0 -0.32350207888865212 -0.30440993956247547 0 -0.2999756881373381 -0.31509264677165549 0 -0.30234930147786221 -0.28905184696057518 0 -0.2999756881373381 -0.31509264677165549 0 -0.30234930147786221 -0.28905184696057518 0 -0.2999756881373381 -0.31509264677165549 0 -0.30234930147786221 -0.28905184696057518 0 -0.29239547880504652 -0.30127313523009702 0 -0.32350207888865212 -0.30440993956247547 0 -0.2999756881373381 -0.31509264677165549 0 -0.30234930147786221 -0.28905184696057518 0 -0.29006270545698909 -0.29189763306700739 0 -0.29239547880504652 -0.30127313523009702 0 -0.30234930147786221 -0.28905184696057518 0 -0.29006270545698909 -0.29189763306700739 0 -0.28742262680475061 -0.28573302172180548 0 -0.30234930147786221 -0.28905184696057518 0 -0.28742262680475061 -0.28573302172180548 0 -0.29006270545698909 -0.29189763306700739 0 -0.28742262680475061 -0.28573302172180548 0 -0.28158089536532038 -0.29680102193740848 0 -0.29006270545698909 -0.29189763306700739 0 -0.28158089536532038 -0.29680102193740848 0 -0.29239547880504652 -0.30127313523009702 0 -0.28158089536532038 -0.29680102193740848 0 -0.29239547880504652 -0.30127313523009702 0 -0.28453315598845252 -0.30841843357299598 0 -0.2999756881373381 -0.31509264677165549 0 -0.29239547880504652 -0.30127313523009702 0 -0.28453315598845252 -0.30841843357299598 0 -0.28106782808224812 -0.3236782022466056 0 -0.28453315598845252 -0.30841843357299598 0 -0.2709678639136075 -0.30238435136382452 0 -0.28158089536532038 -0.29680102193740848 0 -0.28453315598845252 -0.30841843357299598 0 -0.2709678639136075 -0.30238435136382452 0 -0.25915672867891859 -0.31415112243359272 0 -0.25718459078837252 -0.29759752524363881 0 -0.24047089863443691 -0.30798947189970438 0 -0.25915672867891859 -0.31415112243359272 0 -0.2709678639136075 -0.30238435136382452 0 -0.25718459078837252 -0.29759752524363881 0 -0.25718459078837252 -0.29759752524363881 0 -0.25108388684634803 -0.28956965662021522 0 -0.26792751193251091 -0.28139844079955562 0 -0.25108388684634803 -0.28956965662021522 0 -0.26792751193251091 -0.28139844079955562 0 -0.2484323970602714 -0.27706385987730509 0 -0.2709678639136075 -0.30238435136382452 0 -0.25718459078837252 -0.29759752524363881 0 -0.26792751193251091 -0.28139844079955562 0 -0.28742262680475061 -0.28573302172180548 0 -0.26792751193251091 -0.28139844079955562 0 -0.28158089536532038 -0.29680102193740848 0 -0.2709678639136075 -0.30238435136382452 0 -0.26792751193251091 -0.28139844079955562 0 -0.28742262680475061 -0.28573302172180548 0 -0.28158089536532038 -0.29680102193740848 0 -0.26792751193251091 -0.28139844079955562 0 -0.26792751193251091 -0.28139844079955562 0 -0.27965676560653041 -0.27550351800418249 0 -0.27506057922854799 -0.26523935036500679 0 -0.28742262680475061 -0.28573302172180548 0 -0.26792751193251091 -0.28139844079955562 0 -0.27965676560653041 -0.27550351800418249 0 -0.26792751193251091 -0.28139844079955562 0 -0.26170023695288303 -0.26848976391570201 0 -0.27506057922854799 -0.26523935036500679 0 -0.27965676560653041 -0.27550351800418249 0 -0.27506057922854799 -0.26523935036500679 0 -0.28821634446031208 -0.2696432591303618 0 -0.26792751193251091 -0.28139844079955562 0 -0.2484323970602714 -0.27706385987730509 0 -0.26792751193251091 -0.28139844079955562 0 -0.26170023695288303 -0.26848976391570201 0 -0.2484323970602714 -0.27706385987730509 0 -0.26170023695288303 -0.26848976391570201 0 -0.25309751137434572 -0.26289123234143091 0 -0.2484323970602714 -0.27706385987730509 0 -0.2565674865322034 -0.25340195958415102 0 -0.26524553468775469 -0.25886506807255583 0 -0.27383001930629169 -0.24744255459442921 0 -0.2565674865322034 -0.25340195958415102 0 -0.27383001930629169 -0.24744255459442921 0 -0.2565674865322034 -0.25340195958415102 0 -0.25309751137434572 -0.26289123234143091 0 -0.24233717299785959 -0.25960849866204011 0 -0.2565674865322034 -0.25340195958415102 0 -0.25309751137434572 -0.26289123234143091 0 -0.26524553468775469 -0.25886506807255583 0 -0.26170023695288303 -0.26848976391570201 0 -0.25309751137434572 -0.26289123234143091 0 -0.26524553468775469 -0.25886506807255583 0 -0.27506057922854799 -0.26523935036500679 0 -0.28942662192718172 -0.25357945894426132 0 -0.27383001930629169 -0.24744255459442921 0 -0.26524553468775469 -0.25886506807255583 0 -0.27506057922854799 -0.26523935036500679 0 -0.27383001930629169 -0.24744255459442921 0 -0.26170023695288303 -0.26848976391570201 0 -0.26524553468775469 -0.25886506807255583 0 -0.27506057922854799 -0.26523935036500679 0 -0.28942662192718172 -0.25357945894426132 0 -0.29569431645386429 -0.26311293363000732 0 -0.28821634446031208 -0.2696432591303618 0 -0.28942662192718172 -0.25357945894426132 0 -0.27383001930629169 -0.24744255459442921 0 -0.27506057922854799 -0.26523935036500679 0 -0.28942662192718172 -0.25357945894426132 0 -0.28821634446031208 -0.2696432591303618 0 -0.28942662192718172 -0.25357945894426132 0 -0.29569431645386429 -0.26311293363000732 0 -0.30502322454807101 -0.25971636329409542 0 -0.29569431645386429 -0.26311293363000732 0 -0.28821634446031208 -0.2696432591303618 0 -0.30425539613548452 -0.26814017253042433 0 -0.28742262680475061 -0.28573302172180548 0 -0.27965676560653041 -0.27550351800418249 0 -0.28821634446031208 -0.2696432591303618 0 -0.28742262680475061 -0.28573302172180548 0 -0.28821634446031208 -0.2696432591303618 0 -0.30425539613548452 -0.26814017253042433 0 -0.28742262680475061 -0.28573302172180548 0 -0.30425539613548452 -0.26814017253042433 0 -0.31480478096024378 -0.27564718726691712 0 -0.30234930147786221 -0.28905184696057518 0 -0.30425539613548452 -0.26814017253042433 0 -0.30234930147786221 -0.28905184696057518 0 -0.30425539613548452 -0.26814017253042433 0 -0.30234930147786221 -0.28905184696057518 0 -0.28742262680475061 -0.28573302172180548 0 -0.30425539613548452 -0.26814017253042433 0 -0.31480478096024378 -0.27564718726691712 0 -0.30425539613548452 -0.26814017253042433 0 -0.31032083431566337 -0.26180085087236171 0 -0.30425539613548452 -0.26814017253042433 0 -0.31032083431566337 -0.26180085087236171 0 -0.30502322454807101 -0.25971636329409542 0 -0.28942662192718172 -0.25357945894426132 0 -0.30538593138510828 -0.25573712372202267 0 -0.29948497002523827 -0.2483657822867901 0 -0.28942662192718172 -0.25357945894426132 0 -0.30502322454807101 -0.25971636329409542 0 -0.30538593138510828 -0.25573712372202267 0 -0.30425539613548452 -0.26814017253042433 0 -0.31032083431566337 -0.26180085087236171 0 -0.31032083431566337 -0.26180085087236171 0 -0.30502322454807101 -0.25971636329409542 0 -0.31032083431566337 -0.26180085087236171 0 -0.30502322454807101 -0.25971636329409542 0 -0.30538593138510828 -0.25573712372202267 0 -0.31283906540333922 -0.25031215033235238 0 -0.31032083431566337 -0.26180085087236171 0 -0.30538593138510828 -0.25573712372202267 0 -0.31283906540333922 -0.25031215033235238 0 -0.30538593138510828 -0.25573712372202267 0 -0.30623861516307299 -0.24935013043731349 0 -0.30502322454807101 -0.25971636329409542 0 -0.30538593138510828 -0.25573712372202267 0 -0.28942662192718172 -0.25357945894426132 0 -0.30502322454807101 -0.25971636329409542 0 -0.30538593138510828 -0.25573712372202267 0 -0.29948497002523827 -0.2483657822867901 0 -0.30623861516307299 -0.24935013043731349 0 -0.30425539613548452 -0.26814017253042433 0 -0.30502322454807101 -0.25971636329409542 0 -0.29569431645386429 -0.26311293363000732 0 -0.30425539613548452 -0.26814017253042433 0 -0.30502322454807101 -0.25971636329409542 0 -0.33143192801526428 -0.45396038638140679 0 -0.33152258580119082 -0.46633970128806979 0 -0.34296165509457921 -0.45730971557378147 0 -0.34069406563311189 -0.44566521365826578 0 -0.32492704317595772 -0.44077768091168912 0 -0.33812272201467081 -0.43047089330918592 0 -0.33143192801526428 -0.45396038638140679 0 -0.34069406563311189 -0.44566521365826578 0 -0.32492704317595772 -0.44077768091168912 0 -0.33143192801526428 -0.45396038638140679 0 -0.34296165509457921 -0.45730971557378147 0 -0.34069406563311189 -0.44566521365826578 0 -0.33143192801526428 -0.45396038638140679 0 -0.32492704317595772 -0.44077768091168912 0 -0.31987457796333868 -0.4551426725204325 0 -0.32492704317595772 -0.44077768091168912 0 -0.31987457796333868 -0.4551426725204325 0 -0.31015853372433788 -0.44544301337781073 0 -0.33152258580119082 -0.46633970128806979 0 -0.30592196819360068 -0.46328971004504182 0 -0.33152258580119082 -0.46633970128806979 0 -0.31987457796333868 -0.4551426725204325 0 -0.30592196819360068 -0.46328971004504182 0 -0.33152258580119082 -0.46633970128806979 0 -0.32094261384274558 -0.46854088973335889 0 -0.30592196819360068 -0.46328971004504182 0 -0.33143192801526428 -0.45396038638140679 0 -0.33152258580119082 -0.46633970128806979 0 -0.31987457796333868 -0.4551426725204325 0 -0.33152258580119082 -0.46633970128806979 0 -0.32094261384274558 -0.46854088973335889 0 -0.32966732857214198 -0.4835879285261328 0 -0.32094261384274558 -0.46854088973335889 0 -0.32966732857214198 -0.4835879285261328 0 -0.31208929727375578 -0.48491526738579699 0 -0.32221211863154181 -0.5 0 -0.32966732857214198 -0.4835879285261328 0 -0.31208929727375578 -0.48491526738579699 0 -0.32221211863154181 -0.5 0 -0.32966732857214198 -0.4835879285261328 0 -0.34860848031248309 -0.5 0 -0.32966732857214198 -0.4835879285261328 0 -0.34707385437868848 -0.48052394199199022 0 -0.34860848031248309 -0.5 0 -0.33152258580119082 -0.46633970128806979 0 -0.32966732857214198 -0.4835879285261328 0 -0.34707385437868848 -0.48052394199199022 0 -0.33152258580119082 -0.46633970128806979 0 -0.3571232034087809 -0.46938969253109791 0 -0.34707385437868848 -0.48052394199199022 0 -0.3571232034087809 -0.46938969253109791 0 -0.34707385437868848 -0.48052394199199022 0 -0.36652141413456929 -0.48474993749143802 0 -0.34707385437868848 -0.48052394199199022 0 -0.34860848031248309 -0.5 0 -0.36652141413456929 -0.48474993749143802 0 -0.37500484199342449 -0.5 0 -0.34860848031248309 -0.5 0 -0.36652141413456929 -0.48474993749143802 0 -0.38272382101637098 -0.47243968377412587 0 -0.3571232034087809 -0.46938969253109791 0 -0.36652141413456929 -0.48474993749143802 0 -0.38272382101637098 -0.47243968377412587 0 -0.3571232034087809 -0.46938969253109791 0 -0.38265619596279349 -0.45813348326120767 0 -0.38272382101637098 -0.47243968377412587 0 -0.3571232034087809 -0.46938969253109791 0 -0.38265619596279349 -0.45813348326120767 0 -0.3571232034087809 -0.46938969253109791 0 -0.35544663641047641 -0.4489101100326689 0 -0.38265619596279349 -0.45813348326120767 0 -0.35544663641047641 -0.4489101100326689 0 -0.34296165509457921 -0.45730971557378147 0 -0.3571232034087809 -0.46938969253109791 0 -0.35544663641047641 -0.4489101100326689 0 -0.33152258580119082 -0.46633970128806979 0 -0.3571232034087809 -0.46938969253109791 0 -0.33152258580119082 -0.46633970128806979 0 -0.34296165509457921 -0.45730971557378147 0 -0.3571232034087809 -0.46938969253109791 0 -0.34069406563311189 -0.44566521365826578 0 -0.35544663641047641 -0.4489101100326689 0 -0.35372302635176472 -0.43532257313283612 0 -0.34296165509457921 -0.45730971557378147 0 -0.34069406563311189 -0.44566521365826578 0 -0.35544663641047641 -0.4489101100326689 0 -0.35544663641047641 -0.4489101100326689 0 -0.3723601590800425 -0.44005613486137668 0 -0.35372302635176472 -0.43532257313283612 0 -0.38265619596279349 -0.45813348326120767 0 -0.35544663641047641 -0.4489101100326689 0 -0.3723601590800425 -0.44005613486137668 0 -0.38028594703985957 -0.42392304976487449 0 -0.3723601590800425 -0.44005613486137668 0 -0.36423780173753523 -0.4264797532188066 0 -0.3723601590800425 -0.44005613486137668 0 -0.36423780173753523 -0.4264797532188066 0 -0.35372302635176472 -0.43532257313283612 0 -0.38028594703985957 -0.42392304976487449 0 -0.36423780173753523 -0.4264797532188066 0 -0.36590226101420908 -0.41270082520662749 0 -0.36423780173753523 -0.4264797532188066 0 -0.36590226101420908 -0.41270082520662749 0 -0.35147677323475168 -0.42035333371671318 0 -0.36590226101420908 -0.41270082520662749 0 -0.35147677323475168 -0.42035333371671318 0 -0.35184044830027089 -0.40346733636007898 0 -0.35147677323475168 -0.42035333371671318 0 -0.35184044830027089 -0.40346733636007898 0 -0.33675831632547681 -0.41105613646481343 0 -0.35147677323475168 -0.42035333371671318 0 -0.35372302635176472 -0.43532257313283612 0 -0.33812272201467081 -0.43047089330918592 0 -0.34069406563311189 -0.44566521365826578 0 -0.35372302635176472 -0.43532257313283612 0 -0.33812272201467081 -0.43047089330918592 0 -0.36423780173753523 -0.4264797532188066 0 -0.35147677323475168 -0.42035333371671318 0 -0.35372302635176472 -0.43532257313283612 0 -0.37549160074202448 -0.3732971907138336 0 -0.36544727141479139 -0.39026932065168712 0 -0.37549160074202448 -0.3732971907138336 0 -0.36544727141479139 -0.39026932065168712 0 -0.35302350150803719 -0.38208755235937009 0 -0.36590226101420908 -0.41270082520662749 0 -0.36544727141479139 -0.39026932065168712 0 -0.35184044830027089 -0.40346733636007898 0 -0.38114412328536468 -0.40833987260765031 0 -0.36590226101420908 -0.41270082520662749 0 -0.36544727141479139 -0.39026932065168712 0 -0.35184044830027089 -0.40346733636007898 0 -0.35302350150803719 -0.38208755235937009 0 -0.34082557137486691 -0.39523504024196021 0 -0.36544727141479139 -0.39026932065168712 0 -0.35184044830027089 -0.40346733636007898 0 -0.35302350150803719 -0.38208755235937009 0 -0.34413293857164062 -0.37054757780120701 0 -0.35302350150803719 -0.38208755235937009 0 -0.33519042443293379 -0.3802220457599616 0 -0.35302350150803719 -0.38208755235937009 0 -0.33519042443293379 -0.3802220457599616 0 -0.34082557137486691 -0.39523504024196021 0 -0.33519042443293379 -0.3802220457599616 0 -0.32808226850220168 -0.39240284671641351 0 -0.3247168406287716 -0.38559411673624039 0 -0.33519042443293379 -0.3802220457599616 0 -0.34082557137486691 -0.39523504024196021 0 -0.32808226850220168 -0.39240284671641351 0 -0.34082557137486691 -0.39523504024196021 0 -0.32808226850220168 -0.39240284671641351 0 -0.33675831632547681 -0.41105613646481343 0 -0.32808226850220168 -0.39240284671641351 0 -0.33675831632547681 -0.41105613646481343 0 -0.3206477944579052 -0.41019310838576051 0 -0.35184044830027089 -0.40346733636007898 0 -0.34082557137486691 -0.39523504024196021 0 -0.33675831632547681 -0.41105613646481343 0 -0.32808226850220168 -0.39240284671641351 0 -0.31437491003333667 -0.39021680895226152 0 -0.3206477944579052 -0.41019310838576051 0 -0.32808226850220168 -0.39240284671641351 0 -0.3247168406287716 -0.38559411673624039 0 -0.31437491003333667 -0.39021680895226152 0 -0.31437491003333667 -0.39021680895226152 0 -0.32046337790252549 -0.37915946928209171 0 -0.30588070030683939 -0.38181824174751872 0 -0.3247168406287716 -0.38559411673624039 0 -0.31437491003333667 -0.39021680895226152 0 -0.32046337790252549 -0.37915946928209171 0 -0.31437491003333667 -0.39021680895226152 0 -0.32046337790252549 -0.37915946928209171 0 -0.33519042443293379 -0.3802220457599616 0 -0.3247168406287716 -0.38559411673624039 0 -0.32046337790252549 -0.37915946928209171 0 -0.32492704317595772 -0.44077768091168912 0 -0.33812272201467081 -0.43047089330918592 0 -0.32670905357880831 -0.42305010768611329 0 -0.35147677323475168 -0.42035333371671318 0 -0.33812272201467081 -0.43047089330918592 0 -0.33675831632547681 -0.41105613646481343 0 -0.33812272201467081 -0.43047089330918592 0 -0.33675831632547681 -0.41105613646481343 0 -0.32670905357880831 -0.42305010768611329 0 -0.33675831632547681 -0.41105613646481343 0 -0.3206477944579052 -0.41019310838576051 0 -0.32670905357880831 -0.42305010768611329 0 -0.3206477944579052 -0.41019310838576051 0 -0.31307232924124478 -0.42559811140412351 0 -0.32670905357880831 -0.42305010768611329 0 -0.32492704317595772 -0.44077768091168912 0 -0.31307232924124478 -0.42559811140412351 0 -0.31015853372433788 -0.44544301337781073 0 -0.32492704317595772 -0.44077768091168912 0 -0.31307232924124478 -0.42559811140412351 0 -0.32670905357880831 -0.42305010768611329 0 -0.31307232924124478 -0.42559811140412351 0 -0.29907098912325059 -0.43374406761790368 0 -0.29851577765410048 -0.41098608612968202 0 -0.31307232924124478 -0.42559811140412351 0 -0.29907098912325059 -0.43374406761790368 0 -0.31015853372433788 -0.44544301337781073 0 -0.3206477944579052 -0.41019310838576051 0 -0.31307232924124478 -0.42559811140412351 0 -0.29851577765410048 -0.41098608612968202 0 -0.3206477944579052 -0.41019310838576051 0 -0.29851577765410048 -0.41098608612968202 0 -0.29851577765410048 -0.41098608612968202 0 -0.27638376085029581 -0.41177906387360241 0 -0.29851577765410048 -0.41098608612968202 0 -0.28520748594282241 -0.3960441440340734 0 -0.27638376085029581 -0.41177906387360241 0 -0.29851577765410048 -0.41098608612968202 0 -0.28540276919059199 -0.42535658303670731 0 -0.27638376085029581 -0.41177906387360241 0 -0.29907098912325059 -0.43374406761790368 0 -0.29851577765410048 -0.41098608612968202 0 -0.28540276919059199 -0.42535658303670731 0 -0.28540276919059199 -0.42535658303670731 0 -0.27848929033898201 -0.43669604725877897 0 -0.28902284908971709 -0.44016681433255572 0 -0.29907098912325059 -0.43374406761790368 0 -0.28540276919059199 -0.42535658303670731 0 -0.28902284908971709 -0.44016681433255572 0 -0.3002892316592175 -0.36914960035789463 0 -0.32046337790252549 -0.37915946928209171 0 -0.30588070030683939 -0.38181824174751872 0 -0.3002892316592175 -0.36914960035789463 0 -0.29819443980788141 -0.38001079285233907 0 -0.30588070030683939 -0.38181824174751872 0 -0.3002892316592175 -0.36914960035789463 0 -0.29819443980788141 -0.38001079285233907 0 -0.29403121103535113 -0.38030922419454549 0 -0.31437491003333667 -0.39021680895226152 0 -0.30588070030683939 -0.38181824174751872 0 -0.30232780815510779 -0.39560758766926629 0 -0.29819443980788141 -0.38001079285233907 0 -0.30588070030683939 -0.38181824174751872 0 -0.29681739610749358 -0.387616864260033 0 -0.30588070030683939 -0.38181824174751872 0 -0.30232780815510779 -0.39560758766926629 0 -0.29681739610749358 -0.387616864260033 0 -0.31437491003333667 -0.39021680895226152 0 -0.3206477944579052 -0.41019310838576051 0 -0.30232780815510779 -0.39560758766926629 0 -0.3206477944579052 -0.41019310838576051 0 -0.29851577765410048 -0.41098608612968202 0 -0.30232780815510779 -0.39560758766926629 0 -0.30232780815510779 -0.39560758766926629 0 -0.28520748594282241 -0.3960441440340734 0 -0.29681739610749358 -0.387616864260033 0 -0.29851577765410048 -0.41098608612968202 0 -0.30232780815510779 -0.39560758766926629 0 -0.28520748594282241 -0.3960441440340734 0 -0.28520748594282241 -0.3960441440340734 0 -0.28484606126690931 -0.38205101510008821 0 -0.29403121103535113 -0.38030922419454549 0 -0.28520748594282241 -0.3960441440340734 0 -0.29403121103535113 -0.38030922419454549 0 -0.28520748594282241 -0.3960441440340734 0 -0.29681739610749358 -0.387616864260033 0 -0.29403121103535113 -0.38030922419454549 0 -0.28520748594282241 -0.3960441440340734 0 -0.28484606126690931 -0.38205101510008821 0 -0.2742629371717063 -0.37916463673385931 0 -0.28588261091775702 -0.37268605543787447 0 -0.28484606126690931 -0.38205101510008821 0 -0.2742629371717063 -0.37916463673385931 0 -0.28588261091775702 -0.37268605543787447 0 -0.28484606126690931 -0.38205101510008821 0 -0.29403121103535113 -0.38030922419454549 0 -0.29819443980788141 -0.38001079285233907 0 -0.29681739610749358 -0.387616864260033 0 -0.29403121103535113 -0.38030922419454549 0 -0.28520748594282241 -0.3960441440340734 0 -0.2742629371717063 -0.37916463673385931 0 -0.26755910350718881 -0.39582792531461569 0 -0.2742629371717063 -0.37916463673385931 0 -0.26755910350718881 -0.39582792531461569 0 -0.26281209396899169 -0.38517470131063508 0 -0.28520748594282241 -0.3960441440340734 0 -0.27638376085029581 -0.41177906387360241 0 -0.28520748594282241 -0.3960441440340734 0 -0.26755910350718881 -0.39582792531461569 0 -0.27638376085029581 -0.41177906387360241 0 -0.26755910350718881 -0.39582792531461569 0 -0.25033509129523179 -0.39094719032673231 0 -0.25487024651921952 -0.41254988102096568 0 -0.26755910350718881 -0.39582792531461569 0 -0.25033509129523179 -0.39094719032673231 0 -0.26281209396899169 -0.38517470131063508 0 -0.25909124390184018 -0.37475905286733341 0 -0.25033509129523179 -0.39094719032673231 0 -0.26281209396899169 -0.38517470131063508 0 -0.25909124390184018 -0.37475905286733341 0 -0.25033509129523179 -0.39094719032673231 0 -0.24748772700216881 -0.3717564301773445 0 -0.25909124390184018 -0.37475905286733341 0 -0.2742629371717063 -0.37916463673385931 0 -0.26281209396899169 -0.38517470131063508 0 -0.26911429951178012 -0.42474234074800371 0 -0.27848929033898201 -0.43669604725877897 0 -0.26690007516498948 -0.44242471351124879 0 -0.28540276919059199 -0.42535658303670731 0 -0.26911429951178012 -0.42474234074800371 0 -0.27848929033898201 -0.43669604725877897 0 -0.27638376085029581 -0.41177906387360241 0 -0.25487024651921952 -0.41254988102096568 0 -0.28540276919059199 -0.42535658303670731 0 -0.26911429951178012 -0.42474234074800371 0 -0.27638376085029581 -0.41177906387360241 0 -0.26911429951178012 -0.42474234074800371 0 -0.27638376085029581 -0.41177906387360241 0 -0.25487024651921952 -0.41254988102096568 0 -0.26755910350718881 -0.39582792531461569 0 -0.27638376085029581 -0.41177906387360241 0 -0.25487024651921952 -0.41254988102096568 0 -0.26911429951178012 -0.42474234074800371 0 -0.27638376085029581 -0.41177906387360241 0 -0.26911429951178012 -0.42474234074800371 0 -0.25908880606166329 -0.43064529781943001 0 -0.26690007516498948 -0.44242471351124879 0 -0.25487024651921952 -0.41254988102096568 0 -0.25908880606166329 -0.43064529781943001 0 -0.2468605885266735 -0.43014712497011809 0 -0.26911429951178012 -0.42474234074800371 0 -0.25487024651921952 -0.41254988102096568 0 -0.25908880606166329 -0.43064529781943001 0 -0.25908880606166329 -0.43064529781943001 0 -0.25479397652280911 -0.44050862113911837 0 -0.2468605885266735 -0.43014712497011809 0 -0.25479397652280911 -0.44050862113911837 0 -0.2546108597688766 -0.45375703833677078 0 -0.2450571310604201 -0.44414202720417628 0 -0.25479397652280911 -0.44050862113911837 0 -0.2546108597688766 -0.45375703833677078 0 -0.26690007516498948 -0.44242471351124879 0 -0.2546108597688766 -0.45375703833677078 0 -0.26838297633475061 -0.45652413347846638 0 -0.26690007516498948 -0.44242471351124879 0 -0.25908880606166329 -0.43064529781943001 0 -0.25479397652280911 -0.44050862113911837 0 -0.26690007516498948 -0.44242471351124879 0 -0.25109629719050858 -0.46406488014867903 0 -0.2546108597688766 -0.45375703833677078 0 -0.26079873433517492 -0.46936342421069649 0 -0.2546108597688766 -0.45375703833677078 0 -0.26838297633475061 -0.45652413347846638 0 -0.26079873433517492 -0.46936342421069649 0 -0.27799569035848881 -0.46687050799545499 0 -0.26838297633475061 -0.45652413347846638 0 -0.26079873433517492 -0.46936342421069649 0 -0.27799569035848881 -0.46687050799545499 0 -0.26838297633475061 -0.45652413347846638 0 -0.28160952204622303 -0.450204983338161 0 -0.26838297633475061 -0.45652413347846638 0 -0.26690007516498948 -0.44242471351124879 0 -0.28160952204622303 -0.450204983338161 0 -0.27848929033898201 -0.43669604725877897 0 -0.26690007516498948 -0.44242471351124879 0 -0.28160952204622303 -0.450204983338161 0 -0.29907098912325059 -0.43374406761790368 0 -0.28902284908971709 -0.44016681433255572 0 -0.29708038679871529 -0.44973292283788502 0 -0.27848929033898201 -0.43669604725877897 0 -0.28902284908971709 -0.44016681433255572 0 -0.28160952204622303 -0.450204983338161 0 -0.28902284908971709 -0.44016681433255572 0 -0.28160952204622303 -0.450204983338161 0 -0.29708038679871529 -0.44973292283788502 0 -0.27799569035848881 -0.46687050799545499 0 -0.29150619976335518 -0.46129715127825488 0 -0.29492343141974797 -0.47638763217473168 0 -0.27799569035848881 -0.46687050799545499 0 -0.28160952204622303 -0.450204983338161 0 -0.29150619976335518 -0.46129715127825488 0 -0.28160952204622303 -0.450204983338161 0 -0.29150619976335518 -0.46129715127825488 0 -0.29708038679871529 -0.44973292283788502 0 -0.29150619976335518 -0.46129715127825488 0 -0.30592196819360068 -0.46328971004504182 0 -0.29708038679871529 -0.44973292283788502 0 -0.31987457796333868 -0.4551426725204325 0 -0.30592196819360068 -0.46328971004504182 0 -0.31015853372433788 -0.44544301337781073 0 -0.29150619976335518 -0.46129715127825488 0 -0.30592196819360068 -0.46328971004504182 0 -0.29492343141974797 -0.47638763217473168 0 -0.29907098912325059 -0.43374406761790368 0 -0.31015853372433788 -0.44544301337781073 0 -0.29708038679871529 -0.44973292283788502 0 -0.30592196819360068 -0.46328971004504182 0 -0.31015853372433788 -0.44544301337781073 0 -0.29708038679871529 -0.44973292283788502 0 -0.31208929727375578 -0.48491526738579699 0 -0.29492343141974797 -0.47638763217473168 0 -0.29581575695060047 -0.5 0 -0.32221211863154181 -0.5 0 -0.31208929727375578 -0.48491526738579699 0 -0.29581575695060047 -0.5 0 -0.32094261384274558 -0.46854088973335889 0 -0.30592196819360068 -0.46328971004504182 0 -0.29492343141974797 -0.47638763217473168 0 -0.32094261384274558 -0.46854088973335889 0 -0.29492343141974797 -0.47638763217473168 0 -0.32094261384274558 -0.46854088973335889 0 -0.31208929727375578 -0.48491526738579699 0 -0.29492343141974797 -0.47638763217473168 0 -0.29492343141974797 -0.47638763217473168 0 -0.26890424899675031 -0.48423437461610452 0 -0.29492343141974797 -0.47638763217473168 0 -0.28441593737837417 -0.48860776134254891 0 -0.26890424899675031 -0.48423437461610452 0 -0.29492343141974797 -0.47638763217473168 0 -0.28441593737837417 -0.48860776134254891 0 -0.29581575695060047 -0.5 0 -0.28441593737837417 -0.48860776134254891 0 -0.29581575695060047 -0.5 0 -0.26941939526965919 -0.5 0 -0.28441593737837417 -0.48860776134254891 0 -0.26941939526965919 -0.5 0 -0.26890424899675031 -0.48423437461610452 0 -0.27799569035848881 -0.46687050799545499 0 -0.29492343141974797 -0.47638763217473168 0 -0.26890424899675031 -0.48423437461610452 0 -0.27799569035848881 -0.46687050799545499 0 -0.26890424899675031 -0.48423437461610452 0 -0.26079873433517492 -0.46936342421069649 0 -0.26890424899675031 -0.48423437461610452 0 -0.26079873433517492 -0.46936342421069649 0 -0.25379328426056558 -0.48205965705463422 0 -0.26079873433517492 -0.46936342421069649 0 -0.25379328426056558 -0.48205965705463422 0 -0.250874604213362 -0.47391739130808008 0 -0.25109629719050858 -0.46406488014867903 0 -0.26079873433517492 -0.46936342421069649 0 -0.250874604213362 -0.47391739130808008 0 -0.26941939526965919 -0.5 0 -0.26890424899675031 -0.48423437461610452 0 -0.2544134183364497 -0.49413622749019132 0 -0.26941939526965919 -0.5 0 -0.2544134183364497 -0.49413622749019132 0 -0.2430230335887178 -0.5 0 -0.26890424899675031 -0.48423437461610452 0 -0.2544134183364497 -0.49413622749019132 0 -0.24288506657375261 -0.49208111705747781 0 -0.26890424899675031 -0.48423437461610452 0 -0.25379328426056558 -0.48205965705463422 0 -0.24288506657375261 -0.49208111705747781 0 -0.26890424899675031 -0.48423437461610452 0 -0.24288506657375261 -0.49208111705747781 0 -0.2544134183364497 -0.49413622749019132 0 -0.2430230335887178 -0.5 0 -0.24783534725336881 -0.49436564577737419 0 -0.2544134183364497 -0.49413622749019132 0 -0.24783534725336881 -0.49436564577737419 0 -0.24288506657375261 -0.49208111705747781 0 -0.2430230335887178 -0.5 0 -0.24783534725336881 -0.49436564577737419 0 -0.24288506657375261 -0.49208111705747781 0 -0.24783534725336881 -0.49436564577737419 0 -0.24288506657375261 -0.49208111705747781 0 -0.24288506657375261 -0.49208111705747781 0 -0.24429345028001889 -0.4821559175287794 0 -0.23457410743521059 -0.47899140825596259 0 -0.25379328426056558 -0.48205965705463422 0 -0.24288506657375261 -0.49208111705747781 0 -0.24429345028001889 -0.4821559175287794 0 -0.25379328426056558 -0.48205965705463422 0 -0.250874604213362 -0.47391739130808008 0 -0.24429345028001889 -0.4821559175287794 0 -0.24429345028001889 -0.4821559175287794 0 -0.2443912550005416 -0.47194307759761112 0 -0.2395637252682277 -0.47605318874815389 0 -0.25109629719050858 -0.46406488014867903 0 -0.250874604213362 -0.47391739130808008 0 -0.2443912550005416 -0.47194307759761112 0 -0.250874604213362 -0.47391739130808008 0 -0.24429345028001889 -0.4821559175287794 0 -0.2443912550005416 -0.47194307759761112 0 -0.2443912550005416 -0.47194307759761112 0 -0.2395637252682277 -0.47605318874815389 0 -0.23499608835713959 -0.47112235161026261 0 -0.2395637252682277 -0.47605318874815389 0 -0.23499608835713959 -0.47112235161026261 0 -0.23457410743521059 -0.47899140825596259 0 -0.24429345028001889 -0.4821559175287794 0 -0.2395637252682277 -0.47605318874815389 0 -0.23457410743521059 -0.47899140825596259 0 -0.23457410743521059 -0.47899140825596259 0 -0.2250369990674011 -0.47003999804886298 0 -0.2204246459600448 -0.48171575006642248 0 -0.24288506657375261 -0.49208111705747781 0 -0.23457410743521059 -0.47899140825596259 0 -0.2204246459600448 -0.48171575006642248 0 -0.23499608835713959 -0.47112235161026261 0 -0.23457410743521059 -0.47899140825596259 0 -0.2250369990674011 -0.47003999804886298 0 -0.2430230335887178 -0.5 0 -0.24288506657375261 -0.49208111705747781 0 -0.21662667190777651 -0.49999999999999939 0 -0.24288506657375261 -0.49208111705747781 0 -0.21662667190777651 -0.49999999999999939 0 -0.24288506657375261 -0.49208111705747781 0 -0.2204246459600448 -0.48171575006642248 0 -0.24288506657375261 -0.49208111705747781 0 -0.2204246459600448 -0.48171575006642248 0 -0.21662667190777651 -0.49999999999999939 0 -0.2450571310604201 -0.44414202720417628 0 -0.23716380350122879 -0.45645441389937441 0 -0.23280677558438309 -0.43386548686292281 0 -0.2546108597688766 -0.45375703833677078 0 -0.2450571310604201 -0.44414202720417628 0 -0.23716380350122879 -0.45645441389937441 0 -0.25479397652280911 -0.44050862113911837 0 -0.2450571310604201 -0.44414202720417628 0 -0.2468605885266735 -0.43014712497011809 0 -0.25109629719050858 -0.46406488014867903 0 -0.2546108597688766 -0.45375703833677078 0 -0.23716380350122879 -0.45645441389937441 0 -0.25109629719050858 -0.46406488014867903 0 -0.2443912550005416 -0.47194307759761112 0 -0.23716380350122879 -0.45645441389937441 0 -0.2443912550005416 -0.47194307759761112 0 -0.23499608835713959 -0.47112235161026261 0 -0.23716380350122879 -0.45645441389937441 0 -0.2250369990674011 -0.47003999804886298 0 -0.21844010846223411 -0.44206575668227449 0 -0.2250369990674011 -0.47003999804886298 0 -0.23716380350122879 -0.45645441389937441 0 -0.21844010846223411 -0.44206575668227449 0 -0.23499608835713959 -0.47112235161026261 0 -0.2250369990674011 -0.47003999804886298 0 -0.23716380350122879 -0.45645441389937441 0 -0.23716380350122879 -0.45645441389937441 0 -0.21844010846223411 -0.44206575668227449 0 -0.23280677558438309 -0.43386548686292281 0 -0.21844010846223411 -0.44206575668227449 0 -0.21054881561508179 -0.46151962797655111 0 -0.19087809923939161 -0.44242625200982799 0 -0.2250369990674011 -0.47003999804886298 0 -0.21844010846223411 -0.44206575668227449 0 -0.21054881561508179 -0.46151962797655111 0 -0.21054881561508179 -0.46151962797655111 0 -0.19087809923939161 -0.44242625200982799 0 -0.1979642253463372 -0.47135038307536692 0 -0.19087809923939161 -0.44242625200982799 0 -0.1979642253463372 -0.47135038307536692 0 -0.17550380473262961 -0.46098501608431119 0 -0.2039060436575347 -0.48788306012054039 0 -0.21662667190777651 -0.49999999999999939 0 -0.191185415407293 -0.5 0 -0.2204246459600448 -0.48171575006642248 0 -0.2039060436575347 -0.48788306012054039 0 -0.21662667190777651 -0.49999999999999939 0 -0.2250369990674011 -0.47003999804886298 0 -0.2204246459600448 -0.48171575006642248 0 -0.21054881561508179 -0.46151962797655111 0 -0.2204246459600448 -0.48171575006642248 0 -0.2039060436575347 -0.48788306012054039 0 -0.1979642253463372 -0.47135038307536692 0 -0.2204246459600448 -0.48171575006642248 0 -0.1979642253463372 -0.47135038307536692 0 -0.2204246459600448 -0.48171575006642248 0 -0.21054881561508179 -0.46151962797655111 0 -0.1979642253463372 -0.47135038307536692 0 -0.2039060436575347 -0.48788306012054039 0 -0.1979642253463372 -0.47135038307536692 0 -0.18170511770794731 -0.48283447360099019 0 -0.2039060436575347 -0.48788306012054039 0 -0.191185415407293 -0.5 0 -0.18170511770794731 -0.48283447360099019 0 -0.191185415407293 -0.5 0 -0.16574415890680941 -0.5 0 -0.18170511770794731 -0.48283447360099019 0 -0.16574415890680941 -0.5 0 -0.18170511770794731 -0.48283447360099019 0 -0.1559270581970803 -0.47678838232572268 0 -0.18170511770794731 -0.48283447360099019 0 -0.17550380473262961 -0.46098501608431119 0 -0.1559270581970803 -0.47678838232572268 0 -0.1979642253463372 -0.47135038307536692 0 -0.18170511770794731 -0.48283447360099019 0 -0.17550380473262961 -0.46098501608431119 0 -0.1979642253463372 -0.47135038307536692 0 -0.17550380473262961 -0.46098501608431119 0 -0.19087809923939161 -0.44242625200982799 0 -0.17550380473262961 -0.46098501608431119 0 -0.16487953686040341 -0.43668708651363358 0 -0.17550380473262961 -0.46098501608431119 0 -0.15866236735209521 -0.45377864165300308 0 -0.16487953686040341 -0.43668708651363358 0 -0.17550380473262961 -0.46098501608431119 0 -0.15866236735209521 -0.45377864165300308 0 -0.1559270581970803 -0.47678838232572268 0 -0.15866236735209521 -0.45377864165300308 0 -0.14280129841846509 -0.46103953978105727 0 -0.1559270581970803 -0.47678838232572268 0 -0.15866236735209521 -0.45377864165300308 0 -0.14280129841846509 -0.46103953978105727 0 -0.1438484805828521 -0.43705968193712769 0 -0.15866236735209521 -0.45377864165300308 0 -0.1438484805828521 -0.43705968193712769 0 -0.16487953686040341 -0.43668708651363358 0 -0.14280129841846509 -0.46103953978105727 0 -0.13093011984253891 -0.44972195681556543 0 -0.1438484805828521 -0.43705968193712769 0 -0.13093011984253891 -0.44972195681556543 0 -0.1438484805828521 -0.43705968193712769 0 -0.123519809913229 -0.43733662075251151 0 -0.14280129841846509 -0.46103953978105727 0 -0.13093011984253891 -0.44972195681556543 0 -0.12704973474613379 -0.46277216333596533 0 -0.14280129841846509 -0.46103953978105727 0 -0.12704973474613379 -0.46277216333596533 0 -0.13010403334985379 -0.48000251283874379 0 -0.13010403334985379 -0.48000251283874379 0 -0.1403029024063259 -0.5 0 -0.1148616459058424 -0.5 0 -0.16574415890680941 -0.5 0 -0.1403029024063259 -0.5 0 -0.1559270581970803 -0.47678838232572268 0 -0.13010403334985379 -0.48000251283874379 0 -0.1403029024063259 -0.5 0 -0.1559270581970803 -0.47678838232572268 0 -0.14280129841846509 -0.46103953978105727 0 -0.13010403334985379 -0.48000251283874379 0 -0.1559270581970803 -0.47678838232572268 0 -0.13724659116883831 -0.38156720383825199 0 -0.13696324729183901 -0.40051159333262831 0 -0.1562511533772393 -0.40085091578326698 0 -0.13696324729183901 -0.40051159333262831 0 -0.14428023194946249 -0.41611080081516499 0 -0.1562511533772393 -0.40085091578326698 0 -0.13724659116883831 -0.38156720383825199 0 -0.1562511533772393 -0.40085091578326698 0 -0.1663441030446621 -0.37717300760659073 0 -0.13724659116883831 -0.38156720383825199 0 -0.11827115974421661 -0.40327967795429231 0 -0.13724659116883831 -0.38156720383825199 0 -0.13696324729183901 -0.40051159333262831 0 -0.11827115974421661 -0.40327967795429231 0 -0.13696324729183901 -0.40051159333262831 0 -0.12597911368703019 -0.41952469120143437 0 -0.14428023194946249 -0.41611080081516499 0 -0.13696324729183901 -0.40051159333262831 0 -0.12597911368703019 -0.41952469120143437 0 -0.11827115974421661 -0.40327967795429231 0 -0.12597911368703019 -0.41952469120143437 0 -0.1438484805828521 -0.43705968193712769 0 -0.123519809913229 -0.43733662075251151 0 -0.12597911368703019 -0.41952469120143437 0 -0.1438484805828521 -0.43705968193712769 0 -0.14428023194946249 -0.41611080081516499 0 -0.1438484805828521 -0.43705968193712769 0 -0.16487953686040341 -0.43668708651363358 0 -0.1579375607246061 -0.42228606781690858 0 -0.1438484805828521 -0.43705968193712769 0 -0.14428023194946249 -0.41611080081516499 0 -0.1579375607246061 -0.42228606781690858 0 -0.14428023194946249 -0.41611080081516499 0 -0.1579375607246061 -0.42228606781690858 0 -0.1562511533772393 -0.40085091578326698 0 -0.1717517290487513 -0.41486076781395709 0 -0.1579375607246061 -0.42228606781690858 0 -0.1562511533772393 -0.40085091578326698 0 -0.1717517290487513 -0.41486076781395709 0 -0.16487953686040341 -0.43668708651363358 0 -0.1579375607246061 -0.42228606781690858 0 -0.1717517290487513 -0.41486076781395709 0 -0.16487953686040341 -0.43668708651363358 0 -0.19087809923939161 -0.44242625200982799 0 -0.16487953686040341 -0.43668708651363358 0 -0.18049207608238291 -0.42812424827546058 0 -0.1717517290487513 -0.41486076781395709 0 -0.16487953686040341 -0.43668708651363358 0 -0.18049207608238291 -0.42812424827546058 0 -0.1717517290487513 -0.41486076781395709 0 -0.18680736564207029 -0.41498853585306777 0 -0.17862392123709919 -0.39303444911428059 0 -0.1717517290487513 -0.41486076781395709 0 -0.18049207608238291 -0.42812424827546058 0 -0.18680736564207029 -0.41498853585306777 0 -0.18680736564207029 -0.41498853585306777 0 -0.17862392123709919 -0.39303444911428059 0 -0.19656737959219739 -0.40219111980173922 0 -0.1717517290487513 -0.41486076781395709 0 -0.17862392123709919 -0.39303444911428059 0 -0.1717517290487513 -0.41486076781395709 0 -0.17862392123709919 -0.39303444911428059 0 -0.1562511533772393 -0.40085091578326698 0 -0.17862392123709919 -0.39303444911428059 0 -0.1562511533772393 -0.40085091578326698 0 -0.1663441030446621 -0.37717300760659073 0 -0.17862392123709919 -0.39303444911428059 0 -0.1663441030446621 -0.37717300760659073 0 -0.1854961134254472 -0.37120813041460421 0 -0.17862392123709919 -0.39303444911428059 0 -0.1854961134254472 -0.37120813041460421 0 -0.17862392123709919 -0.39303444911428059 0 -0.20527564977482679 -0.38624161667098289 0 -0.1854961134254472 -0.37120813041460421 0 -0.17862392123709919 -0.39303444911428059 0 -0.19656737959219739 -0.40219111980173922 0 -0.20527564977482679 -0.38624161667098289 0 -0.20527564977482679 -0.38624161667098289 0 -0.2118432178570665 -0.41409151531568628 0 -0.2281799985799623 -0.39436158075255778 0 -0.19656737959219739 -0.40219111980173922 0 -0.20527564977482679 -0.38624161667098289 0 -0.2118432178570665 -0.41409151531568628 0 -0.20527564977482679 -0.38624161667098289 0 -0.2118432178570665 -0.41409151531568628 0 -0.20527564977482679 -0.38624161667098289 0 -0.22195794658956111 -0.37463091785279867 0 -0.21168543115216709 -0.36681117402183649 0 -0.20527564977482679 -0.38624161667098289 0 -0.2281799985799623 -0.39436158075255778 0 -0.22195794658956111 -0.37463091785279867 0 -0.18049207608238291 -0.42812424827546058 0 -0.18680736564207029 -0.41498853585306777 0 -0.19899408631087909 -0.4269358685541359 0 -0.19087809923939161 -0.44242625200982799 0 -0.18049207608238291 -0.42812424827546058 0 -0.19899408631087909 -0.4269358685541359 0 -0.21844010846223411 -0.44206575668227449 0 -0.19087809923939161 -0.44242625200982799 0 -0.19899408631087909 -0.4269358685541359 0 -0.18680736564207029 -0.41498853585306777 0 -0.19656737959219739 -0.40219111980173922 0 -0.2118432178570665 -0.41409151531568628 0 -0.18680736564207029 -0.41498853585306777 0 -0.19899408631087909 -0.4269358685541359 0 -0.2118432178570665 -0.41409151531568628 0 -0.18680736564207029 -0.41498853585306777 0 -0.2118432178570665 -0.41409151531568628 0 -0.21844010846223411 -0.44206575668227449 0 -0.19899408631087909 -0.4269358685541359 0 -0.2118432178570665 -0.41409151531568628 0 -0.21844010846223411 -0.44206575668227449 0 -0.2118432178570665 -0.41409151531568628 0 -0.21844010846223411 -0.44206575668227449 0 -0.2118432178570665 -0.41409151531568628 0 -0.23280677558438309 -0.43386548686292281 0 -0.2118432178570665 -0.41409151531568628 0 -0.23335673218814301 -0.41332069816832789 0 -0.2281799985799623 -0.39436158075255778 0 -0.2118432178570665 -0.41409151531568628 0 -0.23335673218814301 -0.41332069816832789 0 -0.2118432178570665 -0.41409151531568628 0 -0.23280677558438309 -0.43386548686292281 0 -0.23335673218814301 -0.41332069816832789 0 -0.25487024651921952 -0.41254988102096568 0 -0.23335673218814301 -0.41332069816832789 0 -0.25487024651921952 -0.41254988102096568 0 -0.23335673218814301 -0.41332069816832789 0 -0.24168551714563921 -0.4027948375671459 0 -0.25487024651921952 -0.41254988102096568 0 -0.23335673218814301 -0.41332069816832789 0 -0.2468605885266735 -0.43014712497011809 0 -0.23280677558438309 -0.43386548686292281 0 -0.23335673218814301 -0.41332069816832789 0 -0.2468605885266735 -0.43014712497011809 0 -0.2450571310604201 -0.44414202720417628 0 -0.23280677558438309 -0.43386548686292281 0 -0.2468605885266735 -0.43014712497011809 0 -0.2281799985799623 -0.39436158075255778 0 -0.2359431282162788 -0.37698905115118858 0 -0.22195794658956111 -0.37463091785279867 0 -0.25033509129523179 -0.39094719032673231 0 -0.2281799985799623 -0.39436158075255778 0 -0.24168551714563921 -0.4027948375671459 0 -0.25033509129523179 -0.39094719032673231 0 -0.25487024651921952 -0.41254988102096568 0 -0.24168551714563921 -0.4027948375671459 0 -0.23335673218814301 -0.41332069816832789 0 -0.2281799985799623 -0.39436158075255778 0 -0.24168551714563921 -0.4027948375671459 0 -0.25033509129523179 -0.39094719032673231 0 -0.2359431282162788 -0.37698905115118858 0 -0.24748772700216881 -0.3717564301773445 0 -0.25033509129523179 -0.39094719032673231 0 -0.2281799985799623 -0.39436158075255778 0 -0.2359431282162788 -0.37698905115118858 0 -0.25494538795031141 -0.36273054802101118 0 -0.24748772700216881 -0.3717564301773445 0 -0.24521251836493849 -0.35951647641646678 0 -0.24748772700216881 -0.3717564301773445 0 -0.24521251836493849 -0.35951647641646678 0 -0.23939899228441261 -0.3655962622813349 0 -0.23939899228441261 -0.3655962622813349 0 -0.23024759562621139 -0.36380396142485888 0 -0.23761117654761921 -0.35850429625613017 0 -0.24521251836493849 -0.35951647641646678 0 -0.23939899228441261 -0.3655962622813349 0 -0.23761117654761921 -0.35850429625613017 0 -0.2359431282162788 -0.37698905115118858 0 -0.23939899228441261 -0.3655962622813349 0 -0.23024759562621139 -0.36380396142485888 0 -0.2359431282162788 -0.37698905115118858 0 -0.24748772700216881 -0.3717564301773445 0 -0.23939899228441261 -0.3655962622813349 0 -0.2359431282162788 -0.37698905115118858 0 -0.23024759562621139 -0.36380396142485888 0 -0.22195794658956111 -0.37463091785279867 0 -0.23024759562621139 -0.36380396142485888 0 -0.22135664398937441 -0.36020929429952131 0 -0.2310785660723691 -0.35440187846705151 0 -0.23024759562621139 -0.36380396142485888 0 -0.22135664398937441 -0.36020929429952131 0 -0.22195794658956111 -0.37463091785279867 0 -0.22135664398937441 -0.36020929429952131 0 -0.22331676928072861 -0.34527245129667988 0 -0.2310785660723691 -0.35440187846705151 0 -0.23024759562621139 -0.36380396142485888 0 -0.2310785660723691 -0.35440187846705151 0 -0.23761117654761921 -0.35850429625613017 0 -0.22331676928072861 -0.34527245129667988 0 -0.2337118992122327 -0.34903918396608452 0 -0.23708401688859529 -0.34365007901650441 0 -0.22331676928072861 -0.34527245129667988 0 -0.2310785660723691 -0.35440187846705151 0 -0.2337118992122327 -0.34903918396608452 0 -0.26017799311385281 -0.35268912854855933 0 -0.24808760514302669 -0.3536558827211943 0 -0.2404133442166683 -0.34213832018255058 0 -0.2310785660723691 -0.35440187846705151 0 -0.2337118992122327 -0.34903918396608452 0 -0.2396887820693627 -0.35120494043738398 0 -0.26017799311385281 -0.35268912854855933 0 -0.24325210797206609 -0.34084931319650169 0 -0.2404133442166683 -0.34213832018255058 0 -0.2396887820693627 -0.35120494043738398 0 -0.23708401688859529 -0.34365007901650441 0 -0.2404133442166683 -0.34213832018255058 0 -0.2337118992122327 -0.34903918396608452 0 -0.2396887820693627 -0.35120494043738398 0 -0.23708401688859529 -0.34365007901650441 0 -0.2310785660723691 -0.35440187846705151 0 -0.2396887820693627 -0.35120494043738398 0 -0.23761117654761921 -0.35850429625613017 0 -0.24521251836493849 -0.35951647641646678 0 -0.2396887820693627 -0.35120494043738398 0 -0.23761117654761921 -0.35850429625613017 0 -0.24521251836493849 -0.35951647641646678 0 -0.2396887820693627 -0.35120494043738398 0 -0.24808760514302669 -0.3536558827211943 0 -0.25494538795031141 -0.36273054802101118 0 -0.24521251836493849 -0.35951647641646678 0 -0.24808760514302669 -0.3536558827211943 0 -0.2396887820693627 -0.35120494043738398 0 -0.24808760514302669 -0.3536558827211943 0 -0.2404133442166683 -0.34213832018255058 0 -0.24325210797206609 -0.34084931319650169 0 -0.24518994726652291 -0.33234415230164399 0 -0.23958942898634211 -0.33903199036576709 0 -0.24518994726652291 -0.33234415230164399 0 -0.23560348244150561 -0.32909319502054812 0 -0.23958942898634211 -0.33903199036576709 0 -0.23708401688859529 -0.34365007901650441 0 -0.2404133442166683 -0.34213832018255058 0 -0.24325210797206609 -0.34084931319650169 0 -0.2404133442166683 -0.34213832018255058 0 -0.23958942898634211 -0.33903199036576709 0 -0.24325210797206609 -0.34084931319650169 0 -0.2404133442166683 -0.34213832018255058 0 -0.24325210797206609 -0.34084931319650169 0 -0.23958942898634211 -0.33903199036576709 0 -0.25915672867891859 -0.31415112243359272 0 -0.24308922262768951 -0.32099342612622928 0 -0.24047089863443691 -0.30798947189970438 0 -0.24518994726652291 -0.33234415230164399 0 -0.23560348244150561 -0.32909319502054812 0 -0.24308922262768951 -0.32099342612622928 0 -0.23560348244150561 -0.32909319502054812 0 -0.24308922262768951 -0.32099342612622928 0 -0.22938765682563561 -0.32144886021699343 0 -0.24308922262768951 -0.32099342612622928 0 -0.22938765682563561 -0.32144886021699343 0 -0.23158309368585001 -0.31181085789310747 0 -0.24308922262768951 -0.32099342612622928 0 -0.24047089863443691 -0.30798947189970438 0 -0.23158309368585001 -0.31181085789310747 0 -0.22938765682563561 -0.32144886021699343 0 -0.23158309368585001 -0.31181085789310747 0 -0.22249387381410951 -0.31123320620709588 0 -0.23560348244150561 -0.32909319502054812 0 -0.22938765682563561 -0.32144886021699343 0 -0.22076115650133771 -0.33164754609210678 0 -0.22938765682563561 -0.32144886021699343 0 -0.22076115650133771 -0.33164754609210678 0 -0.2180259411870723 -0.31620608063285149 0 -0.22938765682563561 -0.32144886021699343 0 -0.2180259411870723 -0.31620608063285149 0 -0.22249387381410951 -0.31123320620709588 0 -0.22331676928072861 -0.34527245129667988 0 -0.23708401688859529 -0.34365007901650441 0 -0.22076115650133771 -0.33164754609210678 0 -0.23560348244150561 -0.32909319502054812 0 -0.23958942898634211 -0.33903199036576709 0 -0.22076115650133771 -0.33164754609210678 0 -0.2404133442166683 -0.34213832018255058 0 -0.22076115650133771 -0.33164754609210678 0 -0.2404133442166683 -0.34213832018255058 0 -0.23958942898634211 -0.33903199036576709 0 -0.22076115650133771 -0.33164754609210678 0 -0.23708401688859529 -0.34365007901650441 0 -0.2404133442166683 -0.34213832018255058 0 -0.22076115650133771 -0.33164754609210678 0 -0.22331676928072861 -0.34527245129667988 0 -0.22076115650133771 -0.33164754609210678 0 -0.20784983644103361 -0.34097302903627591 0 -0.22076115650133771 -0.33164754609210678 0 -0.20348412114368319 -0.33156666209817831 0 -0.20784983644103361 -0.34097302903627591 0 -0.2180259411870723 -0.31620608063285149 0 -0.19974136112887431 -0.31343603927203523 0 -0.20110896878600679 -0.32115677200166343 0 -0.22076115650133771 -0.33164754609210678 0 -0.2180259411870723 -0.31620608063285149 0 -0.20110896878600679 -0.32115677200166343 0 -0.22076115650133771 -0.33164754609210678 0 -0.20348412114368319 -0.33156666209817831 0 -0.20110896878600679 -0.32115677200166343 0 -0.22076115650133771 -0.33164754609210678 0 -0.20110896878600679 -0.32115677200166343 0 -0.2180259411870723 -0.31620608063285149 0 -0.19974136112887431 -0.31343603927203523 0 -0.20904493575850211 -0.30938578927939081 0 -0.2180259411870723 -0.31620608063285149 0 -0.19974136112887431 -0.31343603927203523 0 -0.19974136112887431 -0.31343603927203523 0 -0.20110896878600679 -0.32115677200166343 0 -0.1814567810706762 -0.3106659979112194 0 -0.20110896878600679 -0.32115677200166343 0 -0.1814567810706762 -0.3106659979112194 0 -0.20110896878600679 -0.32115677200166343 0 -0.19214051361034601 -0.33054181938157612 0 -0.1814567810706762 -0.3106659979112194 0 -0.20348412114368319 -0.33156666209817831 0 -0.20110896878600679 -0.32115677200166343 0 -0.19214051361034601 -0.33054181938157612 0 -0.20348412114368319 -0.33156666209817831 0 -0.20784983644103361 -0.34097302903627591 0 -0.19214051361034601 -0.33054181938157612 0 -0.20784983644103361 -0.34097302903627591 0 -0.19214051361034601 -0.33054181938157612 0 -0.20232946575910341 -0.34593351830387509 0 -0.19214051361034601 -0.33054181938157612 0 -0.19236830561379509 -0.34938181171492771 0 -0.18622265824693729 -0.34003474470360739 0 -0.19214051361034601 -0.33054181938157612 0 -0.19236830561379509 -0.34938181171492771 0 -0.19870808169258641 -0.35839171802627962 0 -0.19214051361034601 -0.33054181938157612 0 -0.19870808169258641 -0.35839171802627962 0 -0.19214051361034601 -0.33054181938157612 0 -0.20232946575910341 -0.34593351830387509 0 -0.19870808169258641 -0.35839171802627962 0 -0.19236830561379509 -0.34938181171492771 0 -0.1854961134254472 -0.37120813041460421 0 -0.20527564977482679 -0.38624161667098289 0 -0.19870808169258641 -0.35839171802627962 0 -0.20527564977482679 -0.38624161667098289 0 -0.19870808169258641 -0.35839171802627962 0 -0.1854961134254472 -0.37120813041460421 0 -0.19236830561379509 -0.34938181171492771 0 -0.19870808169258641 -0.35839171802627962 0 -0.1854961134254472 -0.37120813041460421 0 -0.20527564977482679 -0.38624161667098289 0 -0.19870808169258641 -0.35839171802627962 0 -0.21168543115216709 -0.36681117402183649 0 -0.19870808169258641 -0.35839171802627962 0 -0.21168543115216709 -0.36681117402183649 0 -0.21061943129244759 -0.3538275067713687 0 -0.22135664398937441 -0.36020929429952131 0 -0.22195794658956111 -0.37463091785279867 0 -0.21168543115216709 -0.36681117402183649 0 -0.22135664398937441 -0.36020929429952131 0 -0.21168543115216709 -0.36681117402183649 0 -0.21061943129244759 -0.3538275067713687 0 -0.22135664398937441 -0.36020929429952131 0 -0.22331676928072861 -0.34527245129667988 0 -0.21061943129244759 -0.3538275067713687 0 -0.22331676928072861 -0.34527245129667988 0 -0.20784983644103361 -0.34097302903627591 0 -0.21061943129244759 -0.3538275067713687 0 -0.20784983644103361 -0.34097302903627591 0 -0.20232946575910341 -0.34593351830387509 0 -0.21061943129244759 -0.3538275067713687 0 -0.20232946575910341 -0.34593351830387509 0 -0.19870808169258641 -0.35839171802627962 0 -0.21061943129244759 -0.3538275067713687 0 -0.22866545068461799 -0.25948943059043711 0 -0.21759888839251429 -0.26212753750200368 0 -0.22025275826160279 -0.2471257797298928 0 -0.22866545068461799 -0.25948943059043711 0 -0.22398633244919169 -0.27132847136955079 0 -0.21759888839251429 -0.26212753750200368 0 -0.22866545068461799 -0.25948943059043711 0 -0.23442911476228809 -0.24683612341654529 0 -0.22025275826160279 -0.2471257797298928 0 -0.22866545068461799 -0.25948943059043711 0 -0.24233717299785959 -0.25960849866204011 0 -0.23442911476228809 -0.24683612341654529 0 -0.2565674865322034 -0.25340195958415102 0 -0.24233717299785959 -0.25960849866204011 0 -0.25018128361314113 -0.24746468840205441 0 -0.22866545068461799 -0.25948943059043711 0 -0.24233717299785959 -0.25960849866204011 0 -0.2333815926018066 -0.27110706845475141 0 -0.24233717299785959 -0.25960849866204011 0 -0.2333815926018066 -0.27110706845475141 0 -0.24140403581614819 -0.28379898528087227 0 -0.24233717299785959 -0.25960849866204011 0 -0.24140403581614819 -0.28379898528087227 0 -0.24233717299785959 -0.25960849866204011 0 -0.2484323970602714 -0.27706385987730509 0 -0.24140403581614819 -0.28379898528087227 0 -0.25309751137434572 -0.26289123234143091 0 -0.24233717299785959 -0.25960849866204011 0 -0.2484323970602714 -0.27706385987730509 0 -0.2333815926018066 -0.27110706845475141 0 -0.2300547693907766 -0.28178467995593781 0 -0.24140403581614819 -0.28379898528087227 0 -0.2333815926018066 -0.27110706845475141 0 -0.22398633244919169 -0.27132847136955079 0 -0.2300547693907766 -0.28178467995593781 0 -0.22866545068461799 -0.25948943059043711 0 -0.2333815926018066 -0.27110706845475141 0 -0.22398633244919169 -0.27132847136955079 0 -0.22398633244919169 -0.27132847136955079 0 -0.21947311754018139 -0.28174823216008099 0 -0.2300547693907766 -0.28178467995593781 0 -0.21947311754018139 -0.28174823216008099 0 -0.22569627159534009 -0.29064390563822362 0 -0.2300547693907766 -0.28178467995593781 0 -0.21947311754018139 -0.28174823216008099 0 -0.22569627159534009 -0.29064390563822362 0 -0.21595054291829549 -0.29285447433738648 0 -0.22569627159534009 -0.29064390563822362 0 -0.22453607640027501 -0.29842387346705762 0 -0.21595054291829549 -0.29285447433738648 0 -0.22569627159534009 -0.29064390563822362 0 -0.2341156104824163 -0.28973116501788848 0 -0.23104294706112549 -0.29817392722980551 0 -0.22569627159534009 -0.29064390563822362 0 -0.23104294706112549 -0.29817392722980551 0 -0.22453607640027501 -0.29842387346705762 0 -0.22569627159534009 -0.29064390563822362 0 -0.2341156104824163 -0.28973116501788848 0 -0.2300547693907766 -0.28178467995593781 0 -0.25108388684634803 -0.28956965662021522 0 -0.24140403581614819 -0.28379898528087227 0 -0.24047089863443691 -0.30798947189970438 0 -0.2341156104824163 -0.28973116501788848 0 -0.24140403581614819 -0.28379898528087227 0 -0.24047089863443691 -0.30798947189970438 0 -0.24140403581614819 -0.28379898528087227 0 -0.24047089863443691 -0.30798947189970438 0 -0.2341156104824163 -0.28973116501788848 0 -0.2300547693907766 -0.28178467995593781 0 -0.24140403581614819 -0.28379898528087227 0 -0.25108388684634803 -0.28956965662021522 0 -0.2484323970602714 -0.27706385987730509 0 -0.24140403581614819 -0.28379898528087227 0 -0.25718459078837252 -0.29759752524363881 0 -0.25108388684634803 -0.28956965662021522 0 -0.24047089863443691 -0.30798947189970438 0 -0.2341156104824163 -0.28973116501788848 0 -0.24047089863443691 -0.30798947189970438 0 -0.23104294706112549 -0.29817392722980551 0 -0.24047089863443691 -0.30798947189970438 0 -0.23158309368585001 -0.31181085789310747 0 -0.2303958781931594 -0.30408122012615352 0 -0.23158309368585001 -0.31181085789310747 0 -0.2303958781931594 -0.30408122012615352 0 -0.2249978911063876 -0.30539226771637512 0 -0.24047089863443691 -0.30798947189970438 0 -0.23104294706112549 -0.29817392722980551 0 -0.2303958781931594 -0.30408122012615352 0 -0.23104294706112549 -0.29817392722980551 0 -0.2303958781931594 -0.30408122012615352 0 -0.22453607640027501 -0.29842387346705762 0 -0.2303958781931594 -0.30408122012615352 0 -0.22453607640027501 -0.29842387346705762 0 -0.2249978911063876 -0.30539226771637512 0 -0.22453607640027501 -0.29842387346705762 0 -0.2249978911063876 -0.30539226771637512 0 -0.21872282414136721 -0.30136563651957121 0 -0.22453607640027501 -0.29842387346705762 0 -0.21872282414136721 -0.30136563651957121 0 -0.21595054291829549 -0.29285447433738648 0 -0.22249387381410951 -0.31123320620709588 0 -0.2249978911063876 -0.30539226771637512 0 -0.21872282414136721 -0.30136563651957121 0 -0.23158309368585001 -0.31181085789310747 0 -0.22249387381410951 -0.31123320620709588 0 -0.2249978911063876 -0.30539226771637512 0 -0.22249387381410951 -0.31123320620709588 0 -0.20819654573008861 -0.30010144335043992 0 -0.2180259411870723 -0.31620608063285149 0 -0.2144403241224431 -0.30923162986744451 0 -0.20904493575850211 -0.30938578927939081 0 -0.22249387381410951 -0.31123320620709588 0 -0.2144403241224431 -0.30923162986744451 0 -0.20819654573008861 -0.30010144335043992 0 -0.2180259411870723 -0.31620608063285149 0 -0.22249387381410951 -0.31123320620709588 0 -0.2144403241224431 -0.30923162986744451 0 -0.21872282414136721 -0.30136563651957121 0 -0.20819654573008861 -0.30010144335043992 0 -0.21595054291829549 -0.29285447433738648 0 -0.22249387381410951 -0.31123320620709588 0 -0.21872282414136721 -0.30136563651957121 0 -0.20819654573008861 -0.30010144335043992 0 -0.20819654573008861 -0.30010144335043992 0 -0.20288915614788011 -0.30684576889979082 0 -0.200327377448308 -0.30070497350852549 0 -0.19974136112887431 -0.31343603927203523 0 -0.20904493575850211 -0.30938578927939081 0 -0.20288915614788011 -0.30684576889979082 0 -0.2144403241224431 -0.30923162986744451 0 -0.20819654573008861 -0.30010144335043992 0 -0.20904493575850211 -0.30938578927939081 0 -0.20819654573008861 -0.30010144335043992 0 -0.20904493575850211 -0.30938578927939081 0 -0.20288915614788011 -0.30684576889979082 0 -0.19974136112887431 -0.31343603927203523 0 -0.1814567810706762 -0.3106659979112194 0 -0.19974136112887431 -0.31343603927203523 0 -0.20288915614788011 -0.30684576889979082 0 -0.19308950921137841 -0.30535425612401718 0 -0.19974136112887431 -0.31343603927203523 0 -0.19308950921137841 -0.30535425612401718 0 -0.1814567810706762 -0.3106659979112194 0 -0.19308950921137841 -0.30535425612401718 0 -0.1899902243989981 -0.29832565749187118 0 -0.1817779539512053 -0.30255714357571323 0 -0.19308950921137841 -0.30535425612401718 0 -0.1899902243989981 -0.29832565749187118 0 -0.200327377448308 -0.30070497350852549 0 -0.20288915614788011 -0.30684576889979082 0 -0.19308950921137841 -0.30535425612401718 0 -0.200327377448308 -0.30070497350852549 0 -0.20819654573008861 -0.30010144335043992 0 -0.19389921764606771 -0.28896968049378402 0 -0.200327377448308 -0.30070497350852549 0 -0.19389921764606771 -0.28896968049378402 0 -0.20819654573008861 -0.30010144335043992 0 -0.200327377448308 -0.30070497350852549 0 -0.19389921764606771 -0.28896968049378402 0 -0.20819654573008861 -0.30010144335043992 0 -0.19389921764606771 -0.28896968049378402 0 -0.2049502680629153 -0.28953974020436019 0 -0.1899902243989981 -0.29832565749187118 0 -0.19389921764606771 -0.28896968049378402 0 -0.18066470514172869 -0.29420676669921531 0 -0.1899902243989981 -0.29832565749187118 0 -0.200327377448308 -0.30070497350852549 0 -0.19389921764606771 -0.28896968049378402 0 -0.19389921764606771 -0.28896968049378402 0 -0.18643891475010321 -0.2753500999052107 0 -0.19389921764606771 -0.28896968049378402 0 -0.1815972113741586 -0.27939145610981342 0 -0.19389921764606771 -0.28896968049378402 0 -0.2049502680629153 -0.28953974020436019 0 -0.20163083764207049 -0.27816255368004889 0 -0.2099333729274668 -0.28317129254800538 0 -0.2049502680629153 -0.28953974020436019 0 -0.20163083764207049 -0.27816255368004889 0 -0.2099333729274668 -0.28317129254800538 0 -0.2049502680629153 -0.28953974020436019 0 -0.21595054291829549 -0.29285447433738648 0 -0.20819654573008861 -0.30010144335043992 0 -0.2049502680629153 -0.28953974020436019 0 -0.21595054291829549 -0.29285447433738648 0 -0.21947311754018139 -0.28174823216008099 0 -0.2099333729274668 -0.28317129254800538 0 -0.21595054291829549 -0.29285447433738648 0 -0.2117440640613063 -0.2714560660025862 0 -0.20163083764207049 -0.27816255368004889 0 -0.20334583650585281 -0.26123793981755161 0 -0.22398633244919169 -0.27132847136955079 0 -0.21947311754018139 -0.28174823216008099 0 -0.2117440640613063 -0.2714560660025862 0 -0.21947311754018139 -0.28174823216008099 0 -0.2099333729274668 -0.28317129254800538 0 -0.2117440640613063 -0.2714560660025862 0 -0.22398633244919169 -0.27132847136955079 0 -0.2117440640613063 -0.2714560660025862 0 -0.21759888839251429 -0.26212753750200368 0 -0.2099333729274668 -0.28317129254800538 0 -0.2117440640613063 -0.2714560660025862 0 -0.20163083764207049 -0.27816255368004889 0 -0.20163083764207049 -0.27816255368004889 0 -0.20334583650585281 -0.26123793981755161 0 -0.18643891475010321 -0.2753500999052107 0 -0.20334583650585281 -0.26123793981755161 0 -0.18643891475010321 -0.2753500999052107 0 -0.1892261620383611 -0.26071341320317981 0 -0.20334583650585281 -0.26123793981755161 0 -0.18643891475010321 -0.2753500999052107 0 -0.19389921764606771 -0.28896968049378402 0 -0.20163083764207049 -0.27816255368004889 0 -0.18643891475010321 -0.2753500999052107 0 -0.1892261620383611 -0.26071341320317981 0 -0.20334583650585281 -0.26123793981755161 0 -0.1971211098569064 -0.2485562144643311 0 -0.20334583650585281 -0.26123793981755161 0 -0.21759888839251429 -0.26212753750200368 0 -0.22025275826160279 -0.2471257797298928 0 -0.20334583650585281 -0.26123793981755161 0 -0.22025275826160279 -0.2471257797298928 0 -0.20334583650585281 -0.26123793981755161 0 -0.1971211098569064 -0.2485562144643311 0 -0.22025275826160279 -0.2471257797298928 0 -0.2117440640613063 -0.2714560660025862 0 -0.20334583650585281 -0.26123793981755161 0 -0.21759888839251429 -0.26212753750200368 0 -0.15821309250511281 -0.26118480488572993 0 -0.17536452169406261 -0.25513261131262932 0 -0.1815972113741586 -0.27939145610981342 0 -0.15821309250511281 -0.26118480488572993 0 -0.17536452169406261 -0.25513261131262932 0 -0.15566934165753701 -0.24482136105764621 0 -0.1892261620383611 -0.26071341320317981 0 -0.17536452169406261 -0.25513261131262932 0 -0.1971211098569064 -0.2485562144643311 0 -0.1892261620383611 -0.26071341320317981 0 -0.17536452169406261 -0.25513261131262932 0 -0.18643891475010321 -0.2753500999052107 0 -0.17536452169406261 -0.25513261131262932 0 -0.18643891475010321 -0.2753500999052107 0 -0.17536452169406261 -0.25513261131262932 0 -0.18643891475010321 -0.2753500999052107 0 -0.1815972113741586 -0.27939145610981342 0 -0.19389921764606771 -0.28896968049378402 0 -0.18643891475010321 -0.2753500999052107 0 -0.1815972113741586 -0.27939145610981342 0 -0.18643891475010321 -0.2753500999052107 0 -0.1815972113741586 -0.27939145610981342 0 -0.15821309250511281 -0.26118480488572993 0 -0.1815972113741586 -0.27939145610981342 0 -0.1605334253196628 -0.27705414769848019 0 -0.15821309250511281 -0.26118480488572993 0 -0.1815972113741586 -0.27939145610981342 0 -0.1605334253196628 -0.27705414769848019 0 -0.16662117086531369 -0.29189191504570172 0 -0.1460397447830028 -0.28392096720827609 0 -0.1815972113741586 -0.27939145610981342 0 -0.1605334253196628 -0.27705414769848019 0 -0.16662117086531369 -0.29189191504570172 0 -0.16662117086531369 -0.29189191504570172 0 -0.18066470514172869 -0.29420676669921531 0 -0.16807172941449361 -0.30108874618849107 0 -0.1815972113741586 -0.27939145610981342 0 -0.16662117086531369 -0.29189191504570172 0 -0.1815972113741586 -0.27939145610981342 0 -0.16662117086531369 -0.29189191504570172 0 -0.18066470514172869 -0.29420676669921531 0 -0.19389921764606771 -0.28896968049378402 0 -0.1815972113741586 -0.27939145610981342 0 -0.18066470514172869 -0.29420676669921531 0 -0.18066470514172869 -0.29420676669921531 0 -0.1817779539512053 -0.30255714357571323 0 -0.16807172941449361 -0.30108874618849107 0 -0.1817779539512053 -0.30255714357571323 0 -0.17538193411824851 -0.30742310974349601 0 -0.16807172941449361 -0.30108874618849107 0 -0.1899902243989981 -0.29832565749187118 0 -0.18066470514172869 -0.29420676669921531 0 -0.1817779539512053 -0.30255714357571323 0 -0.19308950921137841 -0.30535425612401718 0 -0.1817779539512053 -0.30255714357571323 0 -0.1814567810706762 -0.3106659979112194 0 -0.1817779539512053 -0.30255714357571323 0 -0.1814567810706762 -0.3106659979112194 0 -0.17538193411824851 -0.30742310974349601 0 -0.1814567810706762 -0.3106659979112194 0 -0.17538193411824851 -0.30742310974349601 0 -0.1814567810706762 -0.3106659979112194 0 -0.17538193411824851 -0.30742310974349601 0 -0.1521471234576928 -0.30622570102712859 0 -0.16662117086531369 -0.29189191504570172 0 -0.16807172941449361 -0.30108874618849107 0 -0.15164513035647001 -0.30439237398159158 0 -0.17538193411824851 -0.30742310974349601 0 -0.16807172941449361 -0.30108874618849107 0 -0.1521471234576928 -0.30622570102712859 0 -0.16807172941449361 -0.30108874618849107 0 -0.1521471234576928 -0.30622570102712859 0 -0.15164513035647001 -0.30439237398159158 0 -0.1814567810706762 -0.3106659979112194 0 -0.1521471234576928 -0.30622570102712859 0 -0.16662117086531369 -0.29189191504570172 0 -0.15164513035647001 -0.30439237398159158 0 -0.14986325126998301 -0.30587970344869631 0 -0.1472482395654931 -0.30806244637126978 0 -0.13137693926794269 -0.30307910049847142 0 -0.14986325126998301 -0.30587970344869631 0 -0.13137693926794269 -0.30307910049847142 0 -0.14191197011226919 -0.29595195204747682 0 -0.1521471234576928 -0.30622570102712859 0 -0.15536928910057479 -0.31799335959440589 0 -0.1521471234576928 -0.30622570102712859 0 -0.1472482395654931 -0.30806244637126978 0 -0.1481744133336001 -0.31559103279323952 0 -0.1521471234576928 -0.30622570102712859 0 -0.14986325126998301 -0.30587970344869631 0 -0.1472482395654931 -0.30806244637126978 0 -0.1521471234576928 -0.30622570102712859 0 -0.14986325126998301 -0.30587970344869631 0 -0.15164513035647001 -0.30439237398159158 0 -0.1521471234576928 -0.30622570102712859 0 -0.14986325126998301 -0.30587970344869631 0 -0.1521471234576928 -0.30622570102712859 0 -0.15164513035647001 -0.30439237398159158 0 -0.14986325126998301 -0.30587970344869631 0 -0.15164513035647001 -0.30439237398159158 0 -0.14986325126998301 -0.30587970344869631 0 -0.1472482395654931 -0.30806244637126978 0 -0.14986325126998301 -0.30587970344869631 0 -0.15164513035647001 -0.30439237398159158 0 -0.14191197011226919 -0.29595195204747682 0 -0.1472482395654931 -0.30806244637126978 0 -0.13676428411235661 -0.311985534419285 0 -0.1481744133336001 -0.31559103279323952 0 -0.14986325126998301 -0.30587970344869631 0 -0.13137693926794269 -0.30307910049847142 0 -0.1472482395654931 -0.30806244637126978 0 -0.13676428411235661 -0.311985534419285 0 -0.13137693926794269 -0.30307910049847142 0 -0.13137693926794269 -0.30307910049847142 0 -0.14191197011226919 -0.29595195204747682 0 -0.12354370332633501 -0.29237215235494779 0 -0.13676428411235661 -0.311985534419285 0 -0.13137693926794269 -0.30307910049847142 0 -0.12202825811921469 -0.30947938976295097 0 -0.1460397447830028 -0.28392096720827609 0 -0.14191197011226919 -0.29595195204747682 0 -0.13317406737037779 -0.2802173890703723 0 -0.14191197011226919 -0.29595195204747682 0 -0.13317406737037779 -0.2802173890703723 0 -0.12354370332633501 -0.29237215235494779 0 -0.13317406737037779 -0.2802173890703723 0 -0.121176560474238 -0.27855216134530347 0 -0.12354370332633501 -0.29237215235494779 0 -0.16662117086531369 -0.29189191504570172 0 -0.15164513035647001 -0.30439237398159158 0 -0.1460397447830028 -0.28392096720827609 0 -0.15164513035647001 -0.30439237398159158 0 -0.1460397447830028 -0.28392096720827609 0 -0.14191197011226919 -0.29595195204747682 0 -0.15164513035647001 -0.30439237398159158 0 -0.1460397447830028 -0.28392096720827609 0 -0.1460397447830028 -0.28392096720827609 0 -0.14043435920953651 -0.26344956043496021 0 -0.1605334253196628 -0.27705414769848019 0 -0.1460397447830028 -0.28392096720827609 0 -0.14043435920953651 -0.26344956043496021 0 -0.15821309250511281 -0.26118480488572993 0 -0.1605334253196628 -0.27705414769848019 0 -0.14043435920953651 -0.26344956043496021 0 -0.13317406737037779 -0.2802173890703723 0 -0.1259380663168852 -0.26705754103126977 0 -0.14043435920953651 -0.26344956043496021 0 -0.1460397447830028 -0.28392096720827609 0 -0.13317406737037779 -0.2802173890703723 0 -0.14043435920953651 -0.26344956043496021 0 -0.13317406737037779 -0.2802173890703723 0 -0.1259380663168852 -0.26705754103126977 0 -0.121176560474238 -0.27855216134530347 0 -0.14043435920953651 -0.26344956043496021 0 -0.1283361407779757 -0.25159171728621699 0 -0.13482897363606841 -0.24297815366164491 0 -0.14043435920953651 -0.26344956043496021 0 -0.13482897363606841 -0.24297815366164491 0 -0.1259380663168852 -0.26705754103126977 0 -0.14043435920953651 -0.26344956043496021 0 -0.1283361407779757 -0.25159171728621699 0 -0.15821309250511281 -0.26118480488572993 0 -0.13482897363606841 -0.24297815366164491 0 -0.15821309250511281 -0.26118480488572993 0 -0.14043435920953651 -0.26344956043496021 0 -0.13482897363606841 -0.24297815366164491 0 -0.17697510949039719 -0.35596577996135209 0 -0.17519745401808179 -0.33814225560617162 0 -0.1562220225934601 -0.35985472972221177 0 -0.17519745401808179 -0.33814225560617162 0 -0.1532624182972378 -0.33871633494107939 0 -0.1562220225934601 -0.35985472972221177 0 -0.17519745401808179 -0.33814225560617162 0 -0.1562220225934601 -0.35985472972221177 0 -0.1663441030446621 -0.37717300760659073 0 -0.17697510949039719 -0.35596577996135209 0 -0.1562220225934601 -0.35985472972221177 0 -0.1663441030446621 -0.37717300760659073 0 -0.1854961134254472 -0.37120813041460421 0 -0.17697510949039719 -0.35596577996135209 0 -0.19236830561379509 -0.34938181171492771 0 -0.1854961134254472 -0.37120813041460421 0 -0.17697510949039719 -0.35596577996135209 0 -0.17697510949039719 -0.35596577996135209 0 -0.17519745401808179 -0.33814225560617162 0 -0.18622265824693729 -0.34003474470360739 0 -0.19236830561379509 -0.34938181171492771 0 -0.17697510949039719 -0.35596577996135209 0 -0.18622265824693729 -0.34003474470360739 0 -0.19214051361034601 -0.33054181938157612 0 -0.17519745401808179 -0.33814225560617162 0 -0.18622265824693729 -0.34003474470360739 0 -0.19214051361034601 -0.33054181938157612 0 -0.17519745401808179 -0.33814225560617162 0 -0.17075841890319021 -0.32267991232295651 0 -0.19214051361034601 -0.33054181938157612 0 -0.1814567810706762 -0.3106659979112194 0 -0.17075841890319021 -0.32267991232295651 0 -0.1814567810706762 -0.3106659979112194 0 -0.1521471234576928 -0.30622570102712859 0 -0.17075841890319021 -0.32267991232295651 0 -0.1521471234576928 -0.30622570102712859 0 -0.17075841890319021 -0.32267991232295651 0 -0.15536928910057479 -0.31799335959440589 0 -0.17075841890319021 -0.32267991232295651 0 -0.15536928910057479 -0.31799335959440589 0 -0.15041885550205389 -0.32708722206771829 0 -0.17519745401808179 -0.33814225560617162 0 -0.17075841890319021 -0.32267991232295651 0 -0.1532624182972378 -0.33871633494107939 0 -0.17075841890319021 -0.32267991232295651 0 -0.1532624182972378 -0.33871633494107939 0 -0.15041885550205389 -0.32708722206771829 0 -0.1532624182972378 -0.33871633494107939 0 -0.15041885550205389 -0.32708722206771829 0 -0.13403844172661231 -0.33095488736429202 0 -0.15041885550205389 -0.32708722206771829 0 -0.14028103823900179 -0.32077908792264309 0 -0.13403844172661231 -0.33095488736429202 0 -0.15536928910057479 -0.31799335959440589 0 -0.15041885550205389 -0.32708722206771829 0 -0.1481744133336001 -0.31559103279323952 0 -0.1521471234576928 -0.30622570102712859 0 -0.15536928910057479 -0.31799335959440589 0 -0.1481744133336001 -0.31559103279323952 0 -0.15041885550205389 -0.32708722206771829 0 -0.1481744133336001 -0.31559103279323952 0 -0.14028103823900179 -0.32077908792264309 0 -0.13676428411235661 -0.311985534419285 0 -0.1481744133336001 -0.31559103279323952 0 -0.14028103823900179 -0.32077908792264309 0 -0.13676428411235661 -0.311985534419285 0 -0.14028103823900179 -0.32077908792264309 0 -0.12839564496088529 -0.32005881249807028 0 -0.14028103823900179 -0.32077908792264309 0 -0.12839564496088529 -0.32005881249807028 0 -0.13403844172661231 -0.33095488736429202 0 -0.12839564496088529 -0.32005881249807028 0 -0.13403844172661231 -0.33095488736429202 0 -0.1231279148664025 -0.32697127933959502 0 -0.13676428411235661 -0.311985534419285 0 -0.12839564496088529 -0.32005881249807028 0 -0.12202825811921469 -0.30947938976295097 0 -0.13403844172661231 -0.33095488736429202 0 -0.13290241802702499 -0.35265178330474523 0 -0.1166361947753133 -0.33638206822001748 0 -0.1532624182972378 -0.33871633494107939 0 -0.13403844172661231 -0.33095488736429202 0 -0.13290241802702499 -0.35265178330474523 0 -0.1532624182972378 -0.33871633494107939 0 -0.13290241802702499 -0.35265178330474523 0 -0.1562220225934601 -0.35985472972221177 0 -0.13724659116883831 -0.38156720383825199 0 -0.13290241802702499 -0.35265178330474523 0 -0.1562220225934601 -0.35985472972221177 0 -0.13724659116883831 -0.38156720383825199 0 -0.1663441030446621 -0.37717300760659073 0 -0.1562220225934601 -0.35985472972221177 0 -0.13724659116883831 -0.38156720383825199 0 -0.1562220225934601 -0.35985472972221177 0 -0.13724659116883831 -0.38156720383825199 0 -0.13290241802702499 -0.35265178330474523 0 -0.1192781490478088 -0.36668410834504778 0 -0.1192781490478088 -0.36668410834504778 0 -0.1016352808315869 -0.36700177770792092 0 -0.11220573075163159 -0.38220411347121069 0 -0.1192781490478088 -0.36668410834504778 0 -0.1016352808315869 -0.36700177770792092 0 -0.1099844304083452 -0.35257743562026572 0 -0.1016352808315869 -0.36700177770792092 0 -0.091783481537845241 -0.36974840743822202 0 -0.093334558199797538 -0.36412034719781128 0 -0.1016352808315869 -0.36700177770792092 0 -0.094364811557621053 -0.35389299716276579 0 -0.093334558199797538 -0.36412034719781128 0 -0.1016352808315869 -0.36700177770792092 0 -0.091783481537845241 -0.36974840743822202 0 -0.093814789784828018 -0.38091150164421111 0 -0.094364811557621053 -0.35389299716276579 0 -0.1099844304083452 -0.35257743562026572 0 -0.096042697554356071 -0.3397062417384924 0 -0.1016352808315869 -0.36700177770792092 0 -0.094364811557621053 -0.35389299716276579 0 -0.1099844304083452 -0.35257743562026572 0 -0.13290241802702499 -0.35265178330474523 0 -0.1099844304083452 -0.35257743562026572 0 -0.1166361947753133 -0.33638206822001748 0 -0.13290241802702499 -0.35265178330474523 0 -0.1192781490478088 -0.36668410834504778 0 -0.1099844304083452 -0.35257743562026572 0 -0.13403844172661231 -0.33095488736429202 0 -0.1166361947753133 -0.33638206822001748 0 -0.1231279148664025 -0.32697127933959502 0 -0.1166361947753133 -0.33638206822001748 0 -0.1152881905332649 -0.31967160768574748 0 -0.098893476597157901 -0.32632392269665411 0 -0.1166361947753133 -0.33638206822001748 0 -0.1231279148664025 -0.32697127933959502 0 -0.1152881905332649 -0.31967160768574748 0 -0.12839564496088529 -0.32005881249807028 0 -0.1152881905332649 -0.31967160768574748 0 -0.12202825811921469 -0.30947938976295097 0 -0.12839564496088529 -0.32005881249807028 0 -0.1231279148664025 -0.32697127933959502 0 -0.1152881905332649 -0.31967160768574748 0 -0.1152881905332649 -0.31967160768574748 0 -0.11397155121489801 -0.30848478901155318 0 -0.10823649018657309 -0.3106210867482716 0 -0.1152881905332649 -0.31967160768574748 0 -0.12202825811921469 -0.30947938976295097 0 -0.11397155121489801 -0.30848478901155318 0 -0.1152881905332649 -0.31967160768574748 0 -0.098893476597157901 -0.32632392269665411 0 -0.10823649018657309 -0.3106210867482716 0 -0.1166361947753133 -0.33638206822001748 0 -0.098893476597157901 -0.32632392269665411 0 -0.096042697554356071 -0.3397062417384924 0 -0.1099844304083452 -0.35257743562026572 0 -0.1166361947753133 -0.33638206822001748 0 -0.096042697554356071 -0.3397062417384924 0 -0.081273045807338212 -0.32012122354728773 0 -0.072383893537199012 -0.33396092306611819 0 -0.082523744249277803 -0.34494336359321798 0 -0.081273045807338212 -0.32012122354728773 0 -0.082523744249277803 -0.34494336359321798 0 -0.096042697554356071 -0.3397062417384924 0 -0.081273045807338212 -0.32012122354728773 0 -0.082523744249277803 -0.34494336359321798 0 -0.098893476597157901 -0.32632392269665411 0 -0.096042697554356071 -0.3397062417384924 0 -0.081273045807338212 -0.32012122354728773 0 -0.098893476597157901 -0.32632392269665411 0 -0.081273045807338212 -0.32012122354728773 0 -0.088490963390462057 -0.3073149594937738 0 -0.081273045807338212 -0.32012122354728773 0 -0.06349485352407537 -0.31994243130957151 0 -0.072383893537199012 -0.33396092306611819 0 -0.081273045807338212 -0.32012122354728773 0 -0.06349485352407537 -0.31994243130957151 0 -0.071882199735688629 -0.30989172464331072 0 -0.06349485352407537 -0.31994243130957151 0 -0.072383893537199012 -0.33396092306611819 0 -0.062587044379988993 -0.33886333000968721 0 -0.072383893537199012 -0.33396092306611819 0 -0.072040779725314613 -0.34593426687082662 0 -0.082523744249277803 -0.34494336359321798 0 -0.072383893537199012 -0.33396092306611819 0 -0.062587044379988993 -0.33886333000968721 0 -0.072040779725314613 -0.34593426687082662 0 -0.062587044379988993 -0.33886333000968721 0 -0.072040779725314613 -0.34593426687082662 0 -0.05778126825204781 -0.35817517109810632 0 -0.081484465201393491 -0.35485127927681481 0 -0.05778126825204781 -0.35817517109810632 0 -0.072289445743601369 -0.36429171085611578 0 -0.081484465201393491 -0.35485127927681481 0 -0.05778126825204781 -0.35817517109810632 0 -0.072040779725314613 -0.34593426687082662 0 -0.081484465201393491 -0.35485127927681481 0 -0.05778126825204781 -0.35817517109810632 0 -0.066117606829746781 -0.37437488941039382 0 -0.072289445743601369 -0.36429171085611578 0 -0.05778126825204781 -0.35817517109810632 0 -0.066117606829746781 -0.37437488941039382 0 -0.072289445743601369 -0.36429171085611578 0 -0.083774442691217046 -0.36976550363914829 0 -0.072289445743601369 -0.36429171085611578 0 -0.083774442691217046 -0.36976550363914829 0 -0.081484465201393491 -0.35485127927681481 0 -0.085554658872136979 -0.36583820648233678 0 -0.083774442691217046 -0.36976550363914829 0 -0.082523744249277803 -0.34494336359321798 0 -0.085554658872136979 -0.36583820648233678 0 -0.083774442691217046 -0.36976550363914829 0 -0.083774442691217046 -0.36976550363914829 0 -0.091783481537845241 -0.36974840743822202 0 -0.093814789784828018 -0.38091150164421111 0 -0.085554658872136979 -0.36583820648233678 0 -0.083774442691217046 -0.36976550363914829 0 -0.091783481537845241 -0.36974840743822202 0 -0.094364811557621053 -0.35389299716276579 0 -0.085554658872136979 -0.36583820648233678 0 -0.093334558199797538 -0.36412034719781128 0 -0.085554658872136979 -0.36583820648233678 0 -0.091783481537845241 -0.36974840743822202 0 -0.093334558199797538 -0.36412034719781128 0 -0.094364811557621053 -0.35389299716276579 0 -0.085554658872136979 -0.36583820648233678 0 -0.082523744249277803 -0.34494336359321798 0 -0.083774442691217046 -0.36976550363914829 0 -0.082523744249277803 -0.34494336359321798 0 -0.083774442691217046 -0.36976550363914829 0 -0.082523744249277803 -0.34494336359321798 0 -0.081484465201393491 -0.35485127927681481 0 -0.094364811557621053 -0.35389299716276579 0 -0.096042697554356071 -0.3397062417384924 0 -0.082523744249277803 -0.34494336359321798 0 -0.072040779725314613 -0.34593426687082662 0 -0.082523744249277803 -0.34494336359321798 0 -0.081484465201393491 -0.35485127927681481 0 -0.101475907254733 -0.26829823342826459 0 -0.093680051977193257 -0.25300014610948141 0 -0.1025516661405015 -0.24412656761791199 0 -0.1097432552782682 -0.2572086698476283 0 -0.101475907254733 -0.26829823342826459 0 -0.1025516661405015 -0.24412656761791199 0 -0.101475907254733 -0.26829823342826459 0 -0.1025516661405015 -0.24412656761791199 0 -0.101475907254733 -0.26829823342826459 0 -0.092490388530258719 -0.26367462890309928 0 -0.093680051977193257 -0.25300014610948141 0 -0.1097432552782682 -0.2572086698476283 0 -0.11415052326640381 -0.26847741843797612 0 -0.101475907254733 -0.26829823342826459 0 -0.1097432552782682 -0.2572086698476283 0 -0.1183855941197941 -0.25651062511641259 0 -0.1121525856099083 -0.24863050463757599 0 -0.1283361407779757 -0.25159171728621699 0 -0.1183855941197941 -0.25651062511641259 0 -0.11992695639240671 -0.24305274461581289 0 -0.1259380663168852 -0.26705754103126977 0 -0.1183855941197941 -0.25651062511641259 0 -0.11415052326640381 -0.26847741843797612 0 -0.1259380663168852 -0.26705754103126977 0 -0.1283361407779757 -0.25159171728621699 0 -0.1183855941197941 -0.25651062511641259 0 -0.1097432552782682 -0.2572086698476283 0 -0.1183855941197941 -0.25651062511641259 0 -0.11415052326640381 -0.26847741843797612 0 -0.1259380663168852 -0.26705754103126977 0 -0.11415052326640381 -0.26847741843797612 0 -0.121176560474238 -0.27855216134530347 0 -0.11415052326640381 -0.26847741843797612 0 -0.121176560474238 -0.27855216134530347 0 -0.112272911659429 -0.28340806039222649 0 -0.101475907254733 -0.26829823342826459 0 -0.1004001483689636 -0.29246989923861699 0 -0.089806853404465051 -0.2713401455271785 0 -0.101475907254733 -0.26829823342826459 0 -0.1004001483689636 -0.29246989923861699 0 -0.11415052326640381 -0.26847741843797612 0 -0.101475907254733 -0.26829823342826459 0 -0.112272911659429 -0.28340806039222649 0 -0.101475907254733 -0.26829823342826459 0 -0.089806853404465051 -0.2713401455271785 0 -0.092490388530258719 -0.26367462890309928 0 -0.1004001483689636 -0.29246989923861699 0 -0.112272911659429 -0.28340806039222649 0 -0.11289062726590229 -0.30027849754824781 0 -0.101475907254733 -0.26829823342826459 0 -0.1004001483689636 -0.29246989923861699 0 -0.112272911659429 -0.28340806039222649 0 -0.1004001483689636 -0.29246989923861699 0 -0.10013860532164209 -0.29834661679915908 0 -0.1004001483689636 -0.29246989923861699 0 -0.11289062726590229 -0.30027849754824781 0 -0.112272911659429 -0.28340806039222649 0 -0.12354370332633501 -0.29237215235494779 0 -0.11289062726590229 -0.30027849754824781 0 -0.121176560474238 -0.27855216134530347 0 -0.112272911659429 -0.28340806039222649 0 -0.12354370332633501 -0.29237215235494779 0 -0.13137693926794269 -0.30307910049847142 0 -0.11289062726590229 -0.30027849754824781 0 -0.13137693926794269 -0.30307910049847142 0 -0.11289062726590229 -0.30027849754824781 0 -0.12202825811921469 -0.30947938976295097 0 -0.13137693926794269 -0.30307910049847142 0 -0.12354370332633501 -0.29237215235494779 0 -0.11289062726590229 -0.30027849754824781 0 -0.11289062726590229 -0.30027849754824781 0 -0.11397155121489801 -0.30848478901155318 0 -0.10823649018657309 -0.3106210867482716 0 -0.11289062726590229 -0.30027849754824781 0 -0.12202825811921469 -0.30947938976295097 0 -0.11397155121489801 -0.30848478901155318 0 -0.098893476597157901 -0.32632392269665411 0 -0.10013860532164209 -0.29834661679915908 0 -0.098893476597157901 -0.32632392269665411 0 -0.10013860532164209 -0.29834661679915908 0 -0.088490963390462057 -0.3073149594937738 0 -0.098893476597157901 -0.32632392269665411 0 -0.10823649018657309 -0.3106210867482716 0 -0.10013860532164209 -0.29834661679915908 0 -0.11289062726590229 -0.30027849754824781 0 -0.10013860532164209 -0.29834661679915908 0 -0.1004001483689636 -0.29246989923861699 0 -0.11289062726590229 -0.30027849754824781 0 -0.10013860532164209 -0.29834661679915908 0 -0.11289062726590229 -0.30027849754824781 0 -0.10823649018657309 -0.3106210867482716 0 -0.10013860532164209 -0.29834661679915908 0 -0.081273045807338212 -0.32012122354728773 0 -0.075730545320634307 -0.30237183499028841 0 -0.080022347365398816 -0.29529908350135742 0 -0.081273045807338212 -0.32012122354728773 0 -0.088490963390462057 -0.3073149594937738 0 -0.080022347365398816 -0.29529908350135742 0 -0.10013860532164209 -0.29834661679915908 0 -0.088490963390462057 -0.3073149594937738 0 -0.080022347365398816 -0.29529908350135742 0 -0.081273045807338212 -0.32012122354728773 0 -0.080022347365398816 -0.29529908350135742 0 -0.06349485352407537 -0.31994243130957151 0 -0.067929239438661637 -0.29744245220773302 0 -0.06349485352407537 -0.31994243130957151 0 -0.067929239438661637 -0.29744245220773302 0 -0.05709164511789562 -0.30596989755068921 0 -0.081273045807338212 -0.32012122354728773 0 -0.071882199735688629 -0.30989172464331072 0 -0.075730545320634307 -0.30237183499028841 0 -0.06349485352407537 -0.31994243130957151 0 -0.071882199735688629 -0.30989172464331072 0 -0.067929239438661637 -0.29744245220773302 0 -0.067929239438661637 -0.29744245220773302 0 -0.075730545320634307 -0.30237183499028841 0 -0.074800211398343183 -0.29676828128919502 0 -0.071882199735688629 -0.30989172464331072 0 -0.067929239438661637 -0.29744245220773302 0 -0.075730545320634307 -0.30237183499028841 0 -0.075730545320634307 -0.30237183499028841 0 -0.074800211398343183 -0.29676828128919502 0 -0.080022347365398816 -0.29529908350135742 0 -0.067929239438661637 -0.29744245220773302 0 -0.072363625353247057 -0.27494247310589431 0 -0.074800211398343183 -0.29676828128919502 0 -0.075988861669628593 -0.29203098004520328 0 -0.080022347365398816 -0.29529908350135742 0 -0.067929239438661637 -0.29744245220773302 0 -0.063481929201992804 -0.28659419931659808 0 -0.072363625353247057 -0.27494247310589431 0 -0.067929239438661637 -0.29744245220773302 0 -0.075162920182542767 -0.28731555611229459 0 -0.072363625353247057 -0.27494247310589431 0 -0.075988861669628593 -0.29203098004520328 0 -0.075162920182542767 -0.28731555611229459 0 -0.080022347365398816 -0.29529908350135742 0 -0.067929239438661637 -0.29744245220773302 0 -0.075988861669628593 -0.29203098004520328 0 -0.075162920182542767 -0.28731555611229459 0 -0.067929239438661637 -0.29744245220773302 0 -0.074800211398343183 -0.29676828128919502 0 -0.075988861669628593 -0.29203098004520328 0 -0.067929239438661637 -0.29744245220773302 0 -0.063481929201992804 -0.28659419931659808 0 -0.057157199652218327 -0.29433345841048941 0 -0.1004001483689636 -0.29246989923861699 0 -0.079212385277153408 -0.27922407156230239 0 -0.10013860532164209 -0.29834661679915908 0 -0.080022347365398816 -0.29529908350135742 0 -0.075162920182542767 -0.28731555611229459 0 -0.080022347365398816 -0.29529908350135742 0 -0.079212385277153408 -0.27922407156230239 0 -0.1004001483689636 -0.29246989923861699 0 -0.080022347365398816 -0.29529908350135742 0 -0.079212385277153408 -0.27922407156230239 0 -0.1004001483689636 -0.29246989923861699 0 -0.10013860532164209 -0.29834661679915908 0 -0.080022347365398816 -0.29529908350135742 0 -0.080022347365398816 -0.29529908350135742 0 -0.079212385277153408 -0.27922407156230239 0 -0.1004001483689636 -0.29246989923861699 0 -0.089806853404465051 -0.2713401455271785 0 -0.079212385277153408 -0.27922407156230239 0 -0.089806853404465051 -0.2713401455271785 0 -0.084998741484643592 -0.26205999054747281 0 -0.092490388530258719 -0.26367462890309928 0 -0.089806853404465051 -0.2713401455271785 0 -0.078429256909339093 -0.26368161834739218 0 -0.084998741484643592 -0.26205999054747281 0 -0.079212385277153408 -0.27922407156230239 0 -0.078429256909339093 -0.26368161834739218 0 -0.089806853404465051 -0.2713401455271785 0 -0.079212385277153408 -0.27922407156230239 0 -0.078429256909339093 -0.26368161834739218 0 -0.075162920182542767 -0.28731555611229459 0 -0.079212385277153408 -0.27922407156230239 0 -0.072363625353247057 -0.27494247310589431 0 -0.072363625353247057 -0.27494247310589431 0 -0.052651973256824323 -0.26261945695013877 0 -0.072363625353247057 -0.27494247310589431 0 -0.065594040539757301 -0.27326720108960889 0 -0.052651973256824323 -0.26261945695013877 0 -0.079212385277153408 -0.27922407156230239 0 -0.072363625353247057 -0.27494247310589431 0 -0.072363625353247057 -0.27494247310589431 0 -0.065594040539757301 -0.27326720108960889 0 -0.061663959528748452 -0.27997783588547598 0 -0.063481929201992804 -0.28659419931659808 0 -0.072363625353247057 -0.27494247310589431 0 -0.061663959528748452 -0.27997783588547598 0 -0.079212385277153408 -0.27922407156230239 0 -0.072363625353247057 -0.27494247310589431 0 -0.078429256909339093 -0.26368161834739218 0 -0.072363625353247057 -0.27494247310589431 0 -0.077646128541525 -0.24813916513248199 0 -0.072363625353247057 -0.27494247310589431 0 -0.078429256909339093 -0.26368161834739218 0 -0.077646128541525 -0.24813916513248199 0 -0.072363625353247057 -0.27494247310589431 0 -0.052651973256824323 -0.26261945695013877 0 -0.077646128541525 -0.24813916513248199 0 -0.078429256909339093 -0.26368161834739218 0 -0.077646128541525 -0.24813916513248199 0 -0.084998741484643592 -0.26205999054747281 0 -0.088104632666654803 -0.24175912157342011 0 -0.084998741484643592 -0.26205999054747281 0 -0.093680051977193257 -0.25300014610948141 0 -0.088104632666654803 -0.24175912157342011 0 -0.084998741484643592 -0.26205999054747281 0 -0.088104632666654803 -0.24175912157342011 0 -0.077646128541525 -0.24813916513248199 0 -0.078429256909339093 -0.26368161834739218 0 -0.084998741484643592 -0.26205999054747281 0 -0.077646128541525 -0.24813916513248199 0 -0.084998741484643592 -0.26205999054747281 0 -0.092490388530258719 -0.26367462890309928 0 -0.093680051977193257 -0.25300014610948141 0 -0.032940321160402269 -0.25029644079438251 0 -0.052651973256824323 -0.26261945695013877 0 -0.050902643065861071 -0.24349095896983161 0 -0.032940321160402269 -0.25029644079438251 0 -0.052651973256824323 -0.26261945695013877 0 -0.030801127425925001 -0.25680016795848581 0 -0.032940321160402269 -0.25029644079438251 0 -0.052651973256824323 -0.26261945695013877 0 -0.052651973256824323 -0.26261945695013877 0 -0.048838748996681343 -0.27669498093657302 0 -0.030801127425925001 -0.25680016795848581 0 -0.032940321160402269 -0.25029644079438251 0 -0.030801127425925001 -0.25680016795848581 0 -0.052651973256824323 -0.26261945695013877 0 -0.050902643065861071 -0.24349095896983161 0 -0.077646128541525 -0.24813916513248199 0 -0.065594040539757301 -0.27326720108960889 0 -0.048838748996681343 -0.27669498093657302 0 -0.065594040539757301 -0.27326720108960889 0 -0.052651973256824323 -0.26261945695013877 0 -0.048838748996681343 -0.27669498093657302 0 -0.065594040539757301 -0.27326720108960889 0 -0.061663959528748452 -0.27997783588547598 0 -0.048838748996681343 -0.27669498093657302 0 -0.061663959528748452 -0.27997783588547598 0 -0.048838748996681343 -0.27669498093657302 0 -0.054451087829631463 -0.28288517796522222 0 -0.048838748996681343 -0.27669498093657302 0 -0.054451087829631463 -0.28288517796522222 0 -0.048838748996681343 -0.27669498093657302 0 -0.030801127425925001 -0.25680016795848581 0 -0.048838748996681343 -0.27669498093657302 0 -0.02248395618448398 -0.28208661661419232 0 -0.030801127425925001 -0.25680016795848581 0 -0.048838748996681343 -0.27669498093657302 0 -0.02248395618448398 -0.28208661661419232 0 -0.048838748996681343 -0.27669498093657302 0 -0.041077846387481028 -0.28937070966441081 0 -0.02248395618448398 -0.28208661661419232 0 -0.041077846387481028 -0.28937070966441081 0 -0.037109865356421391 -0.29952186761000271 0 -0.029468436869721851 -0.29252598106650862 0 -0.041077846387481028 -0.28937070966441081 0 -0.04975385330497957 -0.2890306135367654 0 -0.047244383658885593 -0.30186874070713182 0 -0.048838748996681343 -0.27669498093657302 0 -0.041077846387481028 -0.28937070966441081 0 -0.04975385330497957 -0.2890306135367654 0 -0.048838748996681343 -0.27669498093657302 0 -0.04975385330497957 -0.2890306135367654 0 -0.054451087829631463 -0.28288517796522222 0 -0.04975385330497957 -0.2890306135367654 0 -0.054451087829631463 -0.28288517796522222 0 -0.057157199652218327 -0.29433345841048941 0 -0.063481929201992804 -0.28659419931659808 0 -0.054451087829631463 -0.28288517796522222 0 -0.057157199652218327 -0.29433345841048941 0 -0.063481929201992804 -0.28659419931659808 0 -0.061663959528748452 -0.27997783588547598 0 -0.054451087829631463 -0.28288517796522222 0 -0.04975385330497957 -0.2890306135367654 0 -0.057157199652218327 -0.29433345841048941 0 -0.047244383658885593 -0.30186874070713182 0 -0.057157199652218327 -0.29433345841048941 0 -0.047244383658885593 -0.30186874070713182 0 -0.05709164511789562 -0.30596989755068921 0 -0.067929239438661637 -0.29744245220773302 0 -0.057157199652218327 -0.29433345841048941 0 -0.05709164511789562 -0.30596989755068921 0 -0.047244383658885593 -0.30186874070713182 0 -0.05709164511789562 -0.30596989755068921 0 -0.049632549315637188 -0.31626240511852 0 -0.047244383658885593 -0.30186874070713182 0 -0.049632549315637188 -0.31626240511852 0 -0.036505516356473318 -0.31400569198040618 0 -0.047244383658885593 -0.30186874070713182 0 -0.037109865356421391 -0.29952186761000271 0 -0.036505516356473318 -0.31400569198040618 0 -0.041077846387481028 -0.28937070966441081 0 -0.047244383658885593 -0.30186874070713182 0 -0.037109865356421391 -0.29952186761000271 0 -0.037109865356421391 -0.29952186761000271 0 -0.02678144107749017 -0.30078470409936309 0 -0.036505516356473318 -0.31400569198040618 0 -0.02678144107749017 -0.30078470409936309 0 -0.021312585502779081 -0.32213078764647213 0 -0.02678144107749017 -0.30078470409936309 0 -0.036505516356473318 -0.31400569198040618 0 -0.021312585502779081 -0.32213078764647213 0 -0.02678144107749017 -0.30078470409936309 0 -0.01630762940426286 -0.3038502133106713 0 -0.021312585502779081 -0.32213078764647213 0 -0.037109865356421391 -0.29952186761000271 0 -0.02678144107749017 -0.30078470409936309 0 -0.029468436869721851 -0.29252598106650862 0 -0.02678144107749017 -0.30078470409936309 0 -0.01630762940426286 -0.3038502133106713 0 -0.01957434403417008 -0.29093262400193609 0 -0.0063780240591087903 -0.31078717533589839 0 -0.0074917523477661804 -0.29461577546968681 0 0.013051880611257029 -0.30817184754300292 0 -0.01630762940426286 -0.3038502133106713 0 -0.0063780240591087903 -0.31078717533589839 0 -0.021312585502779081 -0.32213078764647213 0 -0.01630762940426286 -0.3038502133106713 0 -0.0063780240591087903 -0.31078717533589839 0 -0.0074917523477661804 -0.29461577546968681 0 -0.02248395618448398 -0.28208661661419232 0 0.0027723556212477219 -0.28725352620772771 0 -0.01075429771457371 -0.28163518560512563 0 -0.02248395618448398 -0.28208661661419232 0 0.0027723556212477219 -0.28725352620772771 0 -0.0074917523477661804 -0.29461577546968681 0 -0.02248395618448398 -0.28208661661419232 0 0.0027723556212477219 -0.28725352620772771 0 -0.01630762940426286 -0.3038502133106713 0 -0.0074917523477661804 -0.29461577546968681 0 -0.01957434403417008 -0.29093262400193609 0 -0.01075429771457371 -0.28163518560512563 0 -0.0017476628817073611 -0.27805551369469472 0 0.0027723556212477219 -0.28725352620772771 0 -0.041077846387481028 -0.28937070966441081 0 -0.02248395618448398 -0.28208661661419232 0 -0.029468436869721851 -0.29252598106650862 0 -0.02248395618448398 -0.28208661661419232 0 -0.01957434403417008 -0.29093262400193609 0 -0.0074917523477661804 -0.29461577546968681 0 -0.02248395618448398 -0.28208661661419232 0 -0.01957434403417008 -0.29093262400193609 0 -0.02678144107749017 -0.30078470409936309 0 -0.01957434403417008 -0.29093262400193609 0 -0.029468436869721851 -0.29252598106650862 0 -0.02248395618448398 -0.28208661661419232 0 -0.01957434403417008 -0.29093262400193609 0 -0.029468436869721851 -0.29252598106650862 0 -0.02248395618448398 -0.28208661661419232 0 -0.030801127425925001 -0.25680016795848581 0 -0.02248395618448398 -0.28208661661419232 0 -0.01520552987642871 -0.27187005660595642 0 -0.030801127425925001 -0.25680016795848581 0 -0.01075429771457371 -0.28163518560512563 0 -0.02248395618448398 -0.28208661661419232 0 -0.01520552987642871 -0.27187005660595642 0 -0.0017476628817073611 -0.27805551369469472 0 -0.01024060517545407 -0.26077279915728391 0 0.0057386521092319797 -0.26220041049146298 0 -0.0017476628817073611 -0.27805551369469472 0 -0.01520552987642871 -0.27187005660595642 0 -0.01024060517545407 -0.26077279915728391 0 -0.0017476628817073611 -0.27805551369469472 0 -0.01024060517545407 -0.26077279915728391 0 -0.01075429771457371 -0.28163518560512563 0 -0.0017476628817073611 -0.27805551369469472 0 -0.01520552987642871 -0.27187005660595642 0 -0.01075429771457371 -0.28163518560512563 0 -0.0017476628817073611 -0.27805551369469472 0 -0.01024060517545407 -0.26077279915728391 0 0.0057386521092319797 -0.26220041049146298 0 0.0025328853753160741 -0.24958102673793139 0 -0.01024060517545407 -0.26077279915728391 0 -0.018733547469201091 -0.24349008461987329 0 -0.01024060517545407 -0.26077279915728391 0 -0.018733547469201091 -0.24349008461987329 0 0.0025328853753160741 -0.24958102673793139 0 -0.01024060517545407 -0.26077279915728391 0 -0.030801127425925001 -0.25680016795848581 0 -0.018733547469201091 -0.24349008461987329 0 -0.01520552987642871 -0.27187005660595642 0 -0.01024060517545407 -0.26077279915728391 0 -0.030801127425925001 -0.25680016795848581 0 -0.032940321160402269 -0.25029644079438251 0 -0.030801127425925001 -0.25680016795848581 0 -0.026871719323301121 -0.24650256912316601 0 -0.030801127425925001 -0.25680016795848581 0 -0.018733547469201091 -0.24349008461987329 0 -0.034078071302702163 -0.36149906291939787 0 -0.05778126825204781 -0.35817517109810632 0 -0.044598414929564491 -0.33459332569111688 0 -0.034078071302702163 -0.36149906291939787 0 -0.044598414929564491 -0.33459332569111688 0 -0.02963630761074966 -0.34409655343526241 0 -0.034078071302702163 -0.36149906291939787 0 -0.05778126825204781 -0.35817517109810632 0 -0.034078071302702163 -0.36149906291939787 0 -0.031733352269984409 -0.37630872523495079 0 -0.04671422923235316 -0.37926911911211442 0 -0.034078071302702163 -0.36149906291939787 0 -0.05778126825204781 -0.35817517109810632 0 -0.04671422923235316 -0.37926911911211442 0 -0.066117606829746781 -0.37437488941039382 0 -0.05778126825204781 -0.35817517109810632 0 -0.04671422923235316 -0.37926911911211442 0 -0.062587044379988993 -0.33886333000968721 0 -0.05778126825204781 -0.35817517109810632 0 -0.044598414929564491 -0.33459332569111688 0 -0.06349485352407537 -0.31994243130957151 0 -0.062587044379988993 -0.33886333000968721 0 -0.044598414929564491 -0.33459332569111688 0 -0.06349485352407537 -0.31994243130957151 0 -0.049632549315637188 -0.31626240511852 0 -0.044598414929564491 -0.33459332569111688 0 -0.06349485352407537 -0.31994243130957151 0 -0.05709164511789562 -0.30596989755068921 0 -0.049632549315637188 -0.31626240511852 0 -0.049632549315637188 -0.31626240511852 0 -0.036505516356473318 -0.31400569198040618 0 -0.044598414929564491 -0.33459332569111688 0 -0.036505516356473318 -0.31400569198040618 0 -0.044598414929564491 -0.33459332569111688 0 -0.021312585502779081 -0.32213078764647213 0 -0.044598414929564491 -0.33459332569111688 0 -0.021312585502779081 -0.32213078764647213 0 -0.02963630761074966 -0.34409655343526241 0 -0.015843729928067991 -0.34347687119358122 0 -0.021312585502779081 -0.32213078764647213 0 -0.02963630761074966 -0.34409655343526241 0 -0.015843729928067991 -0.34347687119358122 0 -0.021312585502779081 -0.32213078764647213 0 -0.0063780240591087903 -0.31078717533589839 0 -0.021312585502779081 -0.32213078764647213 0 3.5896068887442723e-05 -0.32803491845883598 0 -0.015843729928067991 -0.34347687119358122 0 -0.00014080085946228561 -0.35082738964002957 0 3.5896068887442723e-05 -0.32803491845883598 0 -0.015843729928067991 -0.34347687119358122 0 -0.021312585502779081 -0.32213078764647213 0 3.5896068887442723e-05 -0.32803491845883598 0 -0.015843729928067991 -0.34347687119358122 0 -0.00014080085946228561 -0.35082738964002957 0 -0.01037487435335663 -0.3648229547406901 0 -0.015843729928067991 -0.34347687119358122 0 -0.01037487435335663 -0.3648229547406901 0 -0.015843729928067991 -0.34347687119358122 0 -0.02275820373048933 -0.35362182208710219 0 -0.02963630761074966 -0.34409655343526241 0 -0.015843729928067991 -0.34347687119358122 0 -0.02275820373048933 -0.35362182208710219 0 -0.01037487435335663 -0.3648229547406901 0 -0.034078071302702163 -0.36149906291939787 0 -0.02275820373048933 -0.35362182208710219 0 -0.02963630761074966 -0.34409655343526241 0 -0.034078071302702163 -0.36149906291939787 0 -0.02215424893162643 -0.37111505202744122 0 -0.01037487435335663 -0.3648229547406901 0 -0.034078071302702163 -0.36149906291939787 0 -0.01037487435335663 -0.3648229547406901 0 -0.034078071302702163 -0.36149906291939787 0 -0.02275820373048933 -0.35362182208710219 0 -0.01037487435335663 -0.3648229547406901 0 -0.034078071302702163 -0.36149906291939787 0 -0.02215424893162643 -0.37111505202744122 0 -0.031733352269984409 -0.37630872523495079 0 -0.02215424893162643 -0.37111505202744122 0 -0.016772253886492949 -0.37410089839641808 0 -0.01404568160319189 -0.3712617873641948 0 -0.01404568160319189 -0.3712617873641948 0 -0.0094265442937821464 -0.37378457166277412 0 -0.01319259440905524 -0.37623554315916408 0 -0.0078283346885702904 -0.37476262999778609 0 -0.0094265442937821464 -0.37378457166277412 0 -0.01037487435335663 -0.3648229547406901 0 -0.02215424893162643 -0.37111505202744122 0 -0.01404568160319189 -0.3712617873641948 0 -0.01037487435335663 -0.3648229547406901 0 -0.01037487435335663 -0.3648229547406901 0 0.0058490520874761691 -0.36709803082098191 0 -0.016772253886492949 -0.37410089839641808 0 -0.01404568160319189 -0.3712617873641948 0 -0.01319259440905524 -0.37623554315916408 0 -0.00014080085946228561 -0.35082738964002957 0 -0.01037487435335663 -0.3648229547406901 0 0.0058490520874761691 -0.36709803082098191 0 -0.0078283346885702904 -0.37476262999778609 0 -0.01037487435335663 -0.3648229547406901 0 0.0058490520874761691 -0.36709803082098191 0 -0.0078283346885702904 -0.37476262999778609 0 -0.01037487435335663 -0.3648229547406901 0 -0.01404568160319189 -0.3712617873641948 0 -0.0094265442937821464 -0.37378457166277412 0 -0.01037487435335663 -0.3648229547406901 0 -0.0078283346885702904 -0.37476262999778609 0 -0.0094265442937821464 -0.37378457166277412 0 -0.0078283346885702904 -0.37476262999778609 0 -0.0023576536845698339 -0.39611583857600319 0 -0.0078283346885702904 -0.37476262999778609 0 -0.011142097151610131 -0.38172381805447092 0 -0.0023576536845698339 -0.39611583857600319 0 -0.011142097151610131 -0.38172381805447092 0 -0.0023576536845698339 -0.39611583857600319 0 -0.01587325479487519 -0.38723674351337972 0 -0.011142097151610131 -0.38172381805447092 0 -0.01610234460482865 -0.37998891207167063 0 -0.01587325479487519 -0.38723674351337972 0 -0.01319259440905524 -0.37623554315916408 0 -0.011142097151610131 -0.38172381805447092 0 -0.01610234460482865 -0.37998891207167063 0 -0.016772253886492949 -0.37410089839641808 0 -0.01319259440905524 -0.37623554315916408 0 -0.01610234460482865 -0.37998891207167063 0 -0.01319259440905524 -0.37623554315916408 0 -0.010397392635754449 -0.37662664071854879 0 -0.011142097151610131 -0.38172381805447092 0 -0.0078283346885702904 -0.37476262999778609 0 -0.010397392635754449 -0.37662664071854879 0 -0.011142097151610131 -0.38172381805447092 0 -0.0094265442937821464 -0.37378457166277412 0 -0.01319259440905524 -0.37623554315916408 0 -0.010397392635754449 -0.37662664071854879 0 -0.0078283346885702904 -0.37476262999778609 0 -0.0094265442937821464 -0.37378457166277412 0 -0.010397392635754449 -0.37662664071854879 0 -0.0023576536845698339 -0.39611583857600319 0 -0.016854849126784088 -0.39742738565483049 0 -0.01587325479487519 -0.38723674351337972 0 -0.0023576536845698339 -0.39611583857600319 0 -0.016854849126784088 -0.39742738565483049 0 -0.0081630895937607941 -0.41129335178386173 0 -0.016854849126784088 -0.39742738565483049 0 -0.023392714889338931 -0.39064901327928331 0 -0.029305467632274609 -0.40049385546170407 0 -0.016854849126784088 -0.39742738565483049 0 -0.023392714889338931 -0.39064901327928331 0 -0.01587325479487519 -0.38723674351337972 0 -0.023392714889338931 -0.39064901327928331 0 -0.029305467632274609 -0.40049385546170407 0 -0.032188689101130562 -0.38901283488088068 0 -0.02215424893162643 -0.37111505202744122 0 -0.016772253886492949 -0.37410089839641808 0 -0.02353152278210973 -0.38064755723492022 0 -0.016772253886492949 -0.37410089839641808 0 -0.01610234460482865 -0.37998891207167063 0 -0.02353152278210973 -0.38064755723492022 0 -0.01610234460482865 -0.37998891207167063 0 -0.01587325479487519 -0.38723674351337972 0 -0.02353152278210973 -0.38064755723492022 0 -0.023392714889338931 -0.39064901327928331 0 -0.01587325479487519 -0.38723674351337972 0 -0.02353152278210973 -0.38064755723492022 0 -0.023392714889338931 -0.39064901327928331 0 -0.02353152278210973 -0.38064755723492022 0 -0.032188689101130562 -0.38901283488088068 0 -0.02353152278210973 -0.38064755723492022 0 -0.031733352269984409 -0.37630872523495079 0 -0.032188689101130562 -0.38901283488088068 0 -0.02215424893162643 -0.37111505202744122 0 -0.02353152278210973 -0.38064755723492022 0 -0.031733352269984409 -0.37630872523495079 0 -0.031733352269984409 -0.37630872523495079 0 -0.04671422923235316 -0.37926911911211442 0 -0.032188689101130562 -0.38901283488088068 0 -0.04671422923235316 -0.37926911911211442 0 -0.032188689101130562 -0.38901283488088068 0 -0.044289202763444772 -0.39135289085216762 0 -0.032188689101130562 -0.38901283488088068 0 -0.041257957344308177 -0.40487627914437913 0 -0.044289202763444772 -0.39135289085216762 0 -0.029305467632274609 -0.40049385546170407 0 -0.032188689101130562 -0.38901283488088068 0 -0.041257957344308177 -0.40487627914437913 0 -0.056230819367541693 -0.39440183914975269 0 -0.051493530029743613 -0.41277891791385168 0 -0.065747409502729032 -0.40953455918739179 0 -0.041257957344308177 -0.40487627914437913 0 -0.056230819367541693 -0.39440183914975269 0 -0.051493530029743613 -0.41277891791385168 0 -0.041257957344308177 -0.40487627914437913 0 -0.044289202763444772 -0.39135289085216762 0 -0.056230819367541693 -0.39440183914975269 0 -0.056230819367541693 -0.39440183914975269 0 -0.065747409502729032 -0.40953455918739179 0 -0.066117606829746781 -0.37437488941039382 0 -0.04671422923235316 -0.37926911911211442 0 -0.056230819367541693 -0.39440183914975269 0 -0.04671422923235316 -0.37926911911211442 0 -0.044289202763444772 -0.39135289085216762 0 -0.056230819367541693 -0.39440183914975269 0 -0.04671422923235316 -0.37926911911211442 0 -0.056230819367541693 -0.39440183914975269 0 -0.057674512383022389 -0.42734400629007657 0 -0.049601615263317987 -0.44515345339276252 0 -0.057674512383022389 -0.42734400629007657 0 -0.051493530029743613 -0.41277891791385168 0 -0.065747409502729032 -0.40953455918739179 0 -0.057674512383022389 -0.42734400629007657 0 -0.065747409502729032 -0.40953455918739179 0 -0.057674512383022389 -0.42734400629007657 0 -0.051493530029743613 -0.41277891791385168 0 -0.03322823219505102 -0.42129041952379648 0 -0.029305467632274609 -0.40049385546170407 0 -0.041257957344308177 -0.40487627914437913 0 -0.03322823219505102 -0.42129041952379648 0 -0.041257957344308177 -0.40487627914437913 0 -0.051493530029743613 -0.41277891791385168 0 -0.03322823219505102 -0.42129041952379648 0 -0.03322823219505102 -0.42129041952379648 0 -0.02439234541253921 -0.43490569650885758 0 -0.049601615263317987 -0.44515345339276252 0 -0.03322823219505102 -0.42129041952379648 0 -0.049601615263317987 -0.44515345339276252 0 -0.057674512383022389 -0.42734400629007657 0 -0.03322823219505102 -0.42129041952379648 0 -0.049601615263317987 -0.44515345339276252 0 -0.03322823219505102 -0.42129041952379648 0 -0.02439234541253921 -0.43490569650885758 0 -0.010818991714530671 -0.42579448288144173 0 -0.016854849126784088 -0.39742738565483049 0 -0.03322823219505102 -0.42129041952379648 0 -0.03322823219505102 -0.42129041952379648 0 -0.0081630895937607941 -0.41129335178386173 0 -0.010818991714530671 -0.42579448288144173 0 -0.016854849126784088 -0.39742738565483049 0 -0.029305467632274609 -0.40049385546170407 0 -0.03322823219505102 -0.42129041952379648 0 -0.016854849126784088 -0.39742738565483049 0 -0.03322823219505102 -0.42129041952379648 0 -0.0081630895937607941 -0.41129335178386173 0 -0.0081630895937607941 -0.41129335178386173 0 -0.010818991714530671 -0.42579448288144173 0 0.0026957591361241309 -0.41958824334712869 0 -0.02439234541253921 -0.43490569650885758 0 -0.010818991714530671 -0.42579448288144173 0 -0.01027783979290609 -0.4450418277695869 0 -0.010818991714530671 -0.42579448288144173 0 -0.01027783979290609 -0.4450418277695869 0 0.003851027954898749 -0.43172418954792041 0 -0.010818991714530671 -0.42579448288144173 0 0.0026957591361241309 -0.41958824334712869 0 0.003851027954898749 -0.43172418954792041 0 -0.01027783979290609 -0.4450418277695869 0 -0.011038280792740629 -0.46258843223684681 0 0.0031349746952128348 -0.45732154608844711 0 -0.01027783979290609 -0.4450418277695869 0 -0.011038280792740629 -0.46258843223684681 0 -0.02289260566061898 -0.45897742689034388 0 -0.011038280792740629 -0.46258843223684681 0 -0.00094907817261298132 -0.47112804672216879 0 0.0031349746952128348 -0.45732154608844711 0 -0.02289260566061898 -0.45897742689034388 0 -0.029356635895327849 -0.44930438287917762 0 -0.040413005672661102 -0.46542425011239508 0 -0.02289260566061898 -0.45897742689034388 0 -0.023377266149459251 -0.47252824145371342 0 -0.040413005672661102 -0.46542425011239508 0 -0.011038280792740629 -0.46258843223684681 0 -0.02289260566061898 -0.45897742689034388 0 -0.023377266149459251 -0.47252824145371342 0 -0.02439234541253921 -0.43490569650885758 0 -0.01027783979290609 -0.4450418277695869 0 -0.029356635895327849 -0.44930438287917762 0 -0.01027783979290609 -0.4450418277695869 0 -0.02289260566061898 -0.45897742689034388 0 -0.029356635895327849 -0.44930438287917762 0 -0.0023310323066341181 -0.5 0 -0.0043793089323552817 -0.49170101865338262 0 -0.02815109917196898 -0.49861636840837392 0 -0.0043793089323552817 -0.49170101865338262 0 -0.0043176495648967151 -0.48070428616945038 0 0.0053352152350804568 -0.4807791696356124 0 -0.0043793089323552817 -0.49170101865338262 0 -0.0106231170010091 -0.48419136288379427 0 -0.0043176495648967151 -0.48070428616945038 0 -0.0043793089323552817 -0.49170101865338262 0 -0.0106231170010091 -0.48419136288379427 0 -0.017950876149337221 -0.4893641285520216 0 -0.0106231170010091 -0.48419136288379427 0 -0.01097195895358667 -0.47572183295229409 0 -0.019957514846631629 -0.48311391022826639 0 -0.0106231170010091 -0.48419136288379427 0 -0.0043176495648967151 -0.48070428616945038 0 -0.01097195895358667 -0.47572183295229409 0 -0.011038280792740629 -0.46258843223684681 0 -0.00094907817261298132 -0.47112804672216879 0 -0.01097195895358667 -0.47572183295229409 0 -0.0043176495648967151 -0.48070428616945038 0 -0.00094907817261298132 -0.47112804672216879 0 -0.01097195895358667 -0.47572183295229409 0 -0.011038280792740629 -0.46258843223684681 0 -0.01097195895358667 -0.47572183295229409 0 -0.023377266149459251 -0.47252824145371342 0 -0.023377266149459251 -0.47252824145371342 0 -0.019957514846631629 -0.48311391022826639 0 -0.031224396082004221 -0.48569504683202769 0 -0.01097195895358667 -0.47572183295229409 0 -0.023377266149459251 -0.47252824145371342 0 -0.019957514846631629 -0.48311391022826639 0 -0.0023310323066341181 -0.5 0 -0.02815109917196898 -0.49861636840837392 0 -0.031360818006208928 -0.5 0 -0.0043793089323552817 -0.49170101865338262 0 -0.017950876149337221 -0.4893641285520216 0 -0.02815109917196898 -0.49861636840837392 0 -0.0043793089323552817 -0.49170101865338262 0 -0.02815109917196898 -0.49861636840837392 0 -0.0106231170010091 -0.48419136288379427 0 -0.019957514846631629 -0.48311391022826639 0 -0.017950876149337221 -0.4893641285520216 0 -0.019957514846631629 -0.48311391022826639 0 -0.017950876149337221 -0.4893641285520216 0 -0.025597474744393309 -0.49118284869574791 0 -0.019957514846631629 -0.48311391022826639 0 -0.031224396082004221 -0.48569504683202769 0 -0.025597474744393309 -0.49118284869574791 0 -0.025597474744393309 -0.49118284869574791 0 -0.02815109917196898 -0.49861636840837392 0 -0.031360818006208928 -0.5 0 -0.031224396082004221 -0.48569504683202769 0 -0.025597474744393309 -0.49118284869574791 0 -0.031360818006208928 -0.5 0 -0.017950876149337221 -0.4893641285520216 0 -0.025597474744393309 -0.49118284869574791 0 -0.02815109917196898 -0.49861636840837392 0 -0.031360818006208928 -0.5 0 -0.048343055904351132 -0.4819359294639956 0 -0.060390603705783863 -0.5 0 -0.031224396082004221 -0.48569504683202769 0 -0.031360818006208928 -0.5 0 -0.048343055904351132 -0.4819359294639956 0 -0.031224396082004221 -0.48569504683202769 0 -0.040413005672661102 -0.46542425011239508 0 -0.031224396082004221 -0.48569504683202769 0 -0.048343055904351132 -0.4819359294639956 0 -0.040413005672661102 -0.46542425011239508 0 -0.023377266149459251 -0.47252824145371342 0 -0.031224396082004221 -0.48569504683202769 0 -0.040413005672661102 -0.46542425011239508 0 -0.048343055904351132 -0.4819359294639956 0 -0.040413005672661102 -0.46542425011239508 0 -0.061868527913120197 -0.46303160055449383 0 -0.048343055904351132 -0.4819359294639956 0 -0.061868527913120197 -0.46303160055449383 0 -0.067715258758524743 -0.48343239441089819 0 -0.048343055904351132 -0.4819359294639956 0 -0.060390603705783863 -0.5 0 -0.067715258758524743 -0.48343239441089819 0 -0.02439234541253921 -0.43490569650885758 0 -0.029356635895327849 -0.44930438287917762 0 -0.049601615263317987 -0.44515345339276252 0 -0.029356635895327849 -0.44930438287917762 0 -0.040413005672661102 -0.46542425011239508 0 -0.049601615263317987 -0.44515345339276252 0 -0.040413005672661102 -0.46542425011239508 0 -0.049601615263317987 -0.44515345339276252 0 -0.040413005672661102 -0.46542425011239508 0 -0.061868527913120197 -0.46303160055449383 0 -0.049601615263317987 -0.44515345339276252 0 -0.061868527913120197 -0.46303160055449383 0 -0.049601615263317987 -0.44515345339276252 0 -0.057674512383022389 -0.42734400629007657 0 -0.049601615263317987 -0.44515345339276252 0 -0.067687044322660692 -0.44438888407200389 0 -0.061868527913120197 -0.46303160055449383 0 -0.049601615263317987 -0.44515345339276252 0 -0.067687044322660692 -0.44438888407200389 0 -0.067687044322660692 -0.44438888407200389 0 -0.087522951364224152 -0.44416074083195012 0 -0.076635180433477057 -0.42684765000967062 0 -0.067687044322660692 -0.44438888407200389 0 -0.078553716864009776 -0.47219444203600192 0 -0.067687044322660692 -0.44438888407200389 0 -0.080483752515153384 -0.45444307226959779 0 -0.078553716864009776 -0.47219444203600192 0 -0.061868527913120197 -0.46303160055449383 0 -0.067687044322660692 -0.44438888407200389 0 -0.078553716864009776 -0.47219444203600192 0 -0.088171297509719124 -0.45702822213843508 0 -0.078553716864009776 -0.47219444203600192 0 -0.094850460920166413 -0.46755552228499719 0 -0.080483752515153384 -0.45444307226959779 0 -0.088171297509719124 -0.45702822213843508 0 -0.078553716864009776 -0.47219444203600192 0 -0.088171297509719124 -0.45702822213843508 0 -0.092026296169145899 -0.451321693988255 0 -0.09646742034415963 -0.45806785732742278 0 -0.088171297509719124 -0.45702822213843508 0 -0.09646742034415963 -0.45806785732742278 0 -0.094850460920166413 -0.46755552228499719 0 -0.067687044322660692 -0.44438888407200389 0 -0.080483752515153384 -0.45444307226959779 0 -0.087522951364224152 -0.44416074083195012 0 -0.088171297509719124 -0.45702822213843508 0 -0.087522951364224152 -0.44416074083195012 0 -0.088171297509719124 -0.45702822213843508 0 -0.092026296169145899 -0.451321693988255 0 -0.087522951364224152 -0.44416074083195012 0 -0.092026296169145899 -0.451321693988255 0 -0.087522951364224152 -0.44416074083195012 0 -0.080483752515153384 -0.45444307226959779 0 -0.088171297509719124 -0.45702822213843508 0 -0.087522951364224152 -0.44416074083195012 0 -0.060390603705783863 -0.5 0 -0.067715258758524743 -0.48343239441089819 0 -0.089420389405358791 -0.49999999999999978 0 -0.061868527913120197 -0.46303160055449383 0 -0.067715258758524743 -0.48343239441089819 0 -0.078553716864009776 -0.47219444203600192 0 -0.078553716864009776 -0.47219444203600192 0 -0.098208235557426499 -0.48290520710575457 0 -0.094850460920166413 -0.46755552228499719 0 -0.067715258758524743 -0.48343239441089819 0 -0.078553716864009776 -0.47219444203600192 0 -0.089420389405358791 -0.49999999999999978 0 -0.078553716864009776 -0.47219444203600192 0 -0.089420389405358791 -0.49999999999999978 0 -0.078553716864009776 -0.47219444203600192 0 -0.089420389405358791 -0.49999999999999978 0 -0.098208235557426499 -0.48290520710575457 0 -0.098208235557426499 -0.48290520710575457 0 -0.1125398430852395 -0.48112820013538338 0 -0.1148616459058424 -0.5 0 -0.089420389405358791 -0.49999999999999978 0 -0.098208235557426499 -0.48290520710575457 0 -0.1148616459058424 -0.5 0 -0.098208235557426499 -0.48290520710575457 0 -0.1051850434628086 -0.47275710198064308 0 -0.1125398430852395 -0.48112820013538338 0 -0.098208235557426499 -0.48290520710575457 0 -0.1051850434628086 -0.47275710198064308 0 -0.094850460920166413 -0.46755552228499719 0 -0.12704973474613379 -0.46277216333596533 0 -0.13010403334985379 -0.48000251283874379 0 -0.1157083509407465 -0.46985326695645979 0 -0.13010403334985379 -0.48000251283874379 0 -0.1157083509407465 -0.46985326695645979 0 -0.1125398430852395 -0.48112820013538338 0 -0.1051850434628086 -0.47275710198064308 0 -0.1157083509407465 -0.46985326695645979 0 -0.1125398430852395 -0.48112820013538338 0 -0.13010403334985379 -0.48000251283874379 0 -0.1125398430852395 -0.48112820013538338 0 -0.1148616459058424 -0.5 0 -0.10267072031130239 -0.4520905348048061 0 -0.102335674083258 -0.43919792399196639 0 -0.11570487117906469 -0.45324354028800051 0 -0.092026296169145899 -0.451321693988255 0 -0.087522951364224152 -0.44416074083195012 0 -0.102335674083258 -0.43919792399196639 0 -0.092026296169145899 -0.451321693988255 0 -0.10267072031130239 -0.4520905348048061 0 -0.102335674083258 -0.43919792399196639 0 -0.10267072031130239 -0.4520905348048061 0 -0.09646742034415963 -0.45806785732742278 0 -0.1046183268104643 -0.46234331342062063 0 -0.092026296169145899 -0.451321693988255 0 -0.10267072031130239 -0.4520905348048061 0 -0.09646742034415963 -0.45806785732742278 0 -0.1051850434628086 -0.47275710198064308 0 -0.094850460920166413 -0.46755552228499719 0 -0.1046183268104643 -0.46234331342062063 0 -0.09646742034415963 -0.45806785732742278 0 -0.094850460920166413 -0.46755552228499719 0 -0.1046183268104643 -0.46234331342062063 0 -0.1051850434628086 -0.47275710198064308 0 -0.1157083509407465 -0.46985326695645979 0 -0.1046183268104643 -0.46234331342062063 0 -0.10267072031130239 -0.4520905348048061 0 -0.1046183268104643 -0.46234331342062063 0 -0.11570487117906469 -0.45324354028800051 0 -0.12704973474613379 -0.46277216333596533 0 -0.1157083509407465 -0.46985326695645979 0 -0.11570487117906469 -0.45324354028800051 0 -0.1157083509407465 -0.46985326695645979 0 -0.1046183268104643 -0.46234331342062063 0 -0.11570487117906469 -0.45324354028800051 0 -0.13093011984253891 -0.44972195681556543 0 -0.12704973474613379 -0.46277216333596533 0 -0.11570487117906469 -0.45324354028800051 0 -0.13093011984253891 -0.44972195681556543 0 -0.11570487117906469 -0.45324354028800051 0 -0.123519809913229 -0.43733662075251151 0 -0.102335674083258 -0.43919792399196639 0 -0.11570487117906469 -0.45324354028800051 0 -0.123519809913229 -0.43733662075251151 0 -0.102335674083258 -0.43919792399196639 0 -0.123519809913229 -0.43733662075251151 0 -0.1073839645685936 -0.41867419567875119 0 -0.12597911368703019 -0.41952469120143437 0 -0.123519809913229 -0.43733662075251151 0 -0.1073839645685936 -0.41867419567875119 0 -0.102335674083258 -0.43919792399196639 0 -0.1073839645685936 -0.41867419567875119 0 -0.086273448473222103 -0.4193623284343494 0 -0.1073839645685936 -0.41867419567875119 0 -0.1004955064841186 -0.39983262220326049 0 -0.086273448473222103 -0.4193623284343494 0 -0.1073839645685936 -0.41867419567875119 0 -0.11827115974421661 -0.40327967795429231 0 -0.1004955064841186 -0.39983262220326049 0 -0.12597911368703019 -0.41952469120143437 0 -0.1073839645685936 -0.41867419567875119 0 -0.11827115974421661 -0.40327967795429231 0 -0.11827115974421661 -0.40327967795429231 0 -0.11220573075163159 -0.38220411347121069 0 -0.1004955064841186 -0.39983262220326049 0 -0.13724659116883831 -0.38156720383825199 0 -0.1192781490478088 -0.36668410834504778 0 -0.11220573075163159 -0.38220411347121069 0 -0.13724659116883831 -0.38156720383825199 0 -0.11827115974421661 -0.40327967795429231 0 -0.11220573075163159 -0.38220411347121069 0 -0.11220573075163159 -0.38220411347121069 0 -0.093814789784828018 -0.38091150164421111 0 -0.1004955064841186 -0.39983262220326049 0 -0.1016352808315869 -0.36700177770792092 0 -0.11220573075163159 -0.38220411347121069 0 -0.093814789784828018 -0.38091150164421111 0 -0.093814789784828018 -0.38091150164421111 0 -0.1004955064841186 -0.39983262220326049 0 -0.085023945582219762 -0.39456391603674879 0 -0.085023945582219762 -0.39456391603674879 0 -0.074760926096971728 -0.38965003141326948 0 -0.077688182017724178 -0.40799169701628579 0 -0.1004955064841186 -0.39983262220326049 0 -0.085023945582219762 -0.39456391603674879 0 -0.086273448473222103 -0.4193623284343494 0 -0.083774442691217046 -0.36976550363914829 0 -0.093814789784828018 -0.38091150164421111 0 -0.085023945582219762 -0.39456391603674879 0 -0.083774442691217046 -0.36976550363914829 0 -0.085023945582219762 -0.39456391603674879 0 -0.074760926096971728 -0.38965003141326948 0 -0.083774442691217046 -0.36976550363914829 0 -0.085023945582219762 -0.39456391603674879 0 -0.083774442691217046 -0.36976550363914829 0 -0.074760926096971728 -0.38965003141326948 0 -0.066117606829746781 -0.37437488941039382 0 -0.083774442691217046 -0.36976550363914829 0 -0.074760926096971728 -0.38965003141326948 0 -0.066117606829746781 -0.37437488941039382 0 -0.056230819367541693 -0.39440183914975269 0 -0.074760926096971728 -0.38965003141326948 0 -0.074760926096971728 -0.38965003141326948 0 -0.065747409502729032 -0.40953455918739179 0 -0.056230819367541693 -0.39440183914975269 0 -0.074760926096971728 -0.38965003141326948 0 -0.065747409502729032 -0.40953455918739179 0 -0.074760926096971728 -0.38965003141326948 0 -0.077688182017724178 -0.40799169701628579 0 -0.065747409502729032 -0.40953455918739179 0 -0.057674512383022389 -0.42734400629007657 0 -0.065747409502729032 -0.40953455918739179 0 -0.076635180433477057 -0.42684765000967062 0 -0.065747409502729032 -0.40953455918739179 0 -0.076635180433477057 -0.42684765000967062 0 -0.077688182017724178 -0.40799169701628579 0 -0.065747409502729032 -0.40953455918739179 0 -0.076635180433477057 -0.42684765000967062 0 -0.057674512383022389 -0.42734400629007657 0 -0.067687044322660692 -0.44438888407200389 0 -0.076635180433477057 -0.42684765000967062 0 -0.087522951364224152 -0.44416074083195012 0 -0.102335674083258 -0.43919792399196639 0 -0.086273448473222103 -0.4193623284343494 0 -0.087522951364224152 -0.44416074083195012 0 -0.076635180433477057 -0.42684765000967062 0 -0.087522951364224152 -0.44416074083195012 0 -0.086273448473222103 -0.4193623284343494 0 -0.087522951364224152 -0.44416074083195012 0 -0.076635180433477057 -0.42684765000967062 0 -0.086273448473222103 -0.4193623284343494 0 -0.077688182017724178 -0.40799169701628579 0 -0.076635180433477057 -0.42684765000967062 0 -0.086273448473222103 -0.4193623284343494 0 -0.085023945582219762 -0.39456391603674879 0 -0.086273448473222103 -0.4193623284343494 0 -0.085023945582219762 -0.39456391603674879 0 -0.077688182017724178 -0.40799169701628579 0 -0.086273448473222103 -0.4193623284343494 0 -0.088492877882569029 -0.082108210476901852 0 -0.076927128592812144 -0.088910799915979499 0 -0.09750588448509391 -0.094492999713411269 0 -0.088492877882569029 -0.082108210476901852 0 -0.079577064860946206 -0.073577453582062496 0 -0.076927128592812144 -0.088910799915979499 0 -0.079577064860946206 -0.073577453582062496 0 -0.0985919344824224 -0.072778756797164931 0 -0.087769009107716192 -0.046193724725750278 0 -0.088492877882569029 -0.082108210476901852 0 -0.079577064860946206 -0.073577453582062496 0 -0.0985919344824224 -0.072778756797164931 0 -0.079577064860946206 -0.073577453582062496 0 -0.068797467898171552 -0.064113028811232264 0 -0.064240921843242857 -0.078969573753286809 0 -0.068797467898171552 -0.064113028811232264 0 -0.064240921843242857 -0.078969573753286809 0 -0.05461803829180413 -0.069755112608578862 0 -0.064240921843242857 -0.078969573753286809 0 -0.065719917437320752 -0.085301382988547655 0 -0.071622236241637716 -0.082994103557465768 0 -0.079577064860946206 -0.073577453582062496 0 -0.064240921843242857 -0.078969573753286809 0 -0.071622236241637716 -0.082994103557465768 0 -0.079577064860946206 -0.073577453582062496 0 -0.071622236241637716 -0.082994103557465768 0 -0.076927128592812144 -0.088910799915979499 0 -0.076927128592812144 -0.088910799915979499 0 -0.070013937980536456 -0.090181036700446429 0 -0.073360588416105155 -0.101926594449817 0 -0.071622236241637716 -0.082994103557465768 0 -0.076927128592812144 -0.088910799915979499 0 -0.070013937980536456 -0.090181036700446429 0 -0.065719917437320752 -0.085301382988547655 0 -0.070013937980536456 -0.090181036700446429 0 -0.057002573683865979 -0.089060817942991616 0 -0.065719917437320752 -0.085301382988547655 0 -0.071622236241637716 -0.082994103557465768 0 -0.070013937980536456 -0.090181036700446429 0 -0.073360588416105155 -0.101926594449817 0 -0.064648045787775776 -0.1114736180136202 0 -0.083029262804162729 -0.11173362360677321 0 -0.076927128592812144 -0.088910799915979499 0 -0.073360588416105155 -0.101926594449817 0 -0.083029262804162729 -0.11173362360677321 0 -0.070013937980536456 -0.090181036700446429 0 -0.064167586873575405 -0.098824988458513688 0 -0.073360588416105155 -0.101926594449817 0 -0.064167586873575405 -0.098824988458513688 0 -0.073360588416105155 -0.101926594449817 0 -0.064648045787775776 -0.1114736180136202 0 -0.064648045787775776 -0.1114736180136202 0 -0.083029262804162729 -0.11173362360677321 0 -0.072915517223638954 -0.12670463451369329 0 -0.064648045787775776 -0.1114736180136202 0 -0.060928146748241367 -0.123537549367131 0 -0.072915517223638954 -0.12670463451369329 0 -0.083029262804162729 -0.11173362360677321 0 -0.089131397015513494 -0.13455644729756691 0 -0.072915517223638954 -0.12670463451369329 0 -0.083029262804162729 -0.11173362360677321 0 -0.089131397015513494 -0.13455644729756691 0 -0.083029262804162729 -0.11173362360677321 0 -0.099989791654964619 -0.11261170107408 0 -0.089131397015513494 -0.13455644729756691 0 -0.076927128592812144 -0.088910799915979499 0 -0.083029262804162729 -0.11173362360677321 0 -0.076927128592812144 -0.088910799915979499 0 -0.083029262804162729 -0.11173362360677321 0 -0.09750588448509391 -0.094492999713411269 0 -0.083029262804162729 -0.11173362360677321 0 -0.09750588448509391 -0.094492999713411269 0 -0.099989791654964619 -0.11261170107408 0 -0.09750588448509391 -0.094492999713411269 0 -0.099989791654964619 -0.11261170107408 0 -0.11605893441195141 -0.10185107539240761 0 -0.099989791654964619 -0.11261170107408 0 -0.11422347955810171 -0.1204243593602408 0 -0.089131397015513494 -0.13455644729756691 0 -0.11422347955810171 -0.1204243593602408 0 -0.11605893441195141 -0.10185107539240761 0 -0.13931556210068971 -0.10629227142291391 0 -0.099989791654964619 -0.11261170107408 0 -0.11422347955810171 -0.1204243593602408 0 -0.11605893441195141 -0.10185107539240761 0 -0.09750588448509391 -0.094492999713411269 0 -0.11605893441195141 -0.10185107539240761 0 -0.121811479392537 -0.084095963505499416 0 -0.09750588448509391 -0.094492999713411269 0 -0.121811479392537 -0.084095963505499416 0 -0.0985919344824224 -0.072778756797164931 0 -0.088492877882569029 -0.082108210476901852 0 -0.09750588448509391 -0.094492999713411269 0 -0.0985919344824224 -0.072778756797164931 0 -0.121811479392537 -0.084095963505499416 0 -0.0985919344824224 -0.072778756797164931 0 -0.12197003300458489 -0.067133964797042034 0 -0.0985919344824224 -0.072778756797164931 0 -0.12197003300458489 -0.067133964797042034 0 -0.11173313641422659 -0.051099137712197359 0 -0.12197003300458489 -0.067133964797042034 0 -0.11173313641422659 -0.051099137712197359 0 -0.13241258759658719 -0.044529255409706578 0 -0.11719553878173181 -0.037741673539740471 0 -0.12411398995058071 -0.026208981462584841 0 -0.13241258759658719 -0.044529255409706578 0 -0.11173313641422659 -0.051099137712197359 0 -0.11719553878173181 -0.037741673539740471 0 -0.13241258759658719 -0.044529255409706578 0 -0.11719553878173181 -0.037741673539740471 0 -0.1033935341420949 -0.036608907929656417 0 -0.1118019010511415 -0.027957019938586129 0 -0.11173313641422659 -0.051099137712197359 0 -0.11719553878173181 -0.037741673539740471 0 -0.1033935341420949 -0.036608907929656417 0 -0.11173313641422659 -0.051099137712197359 0 -0.1033935341420949 -0.036608907929656417 0 -0.087769009107716192 -0.046193724725750278 0 -0.1033935341420949 -0.036608907929656417 0 -0.091700817231413184 -0.028161456197506499 0 -0.087769009107716192 -0.046193724725750278 0 -0.0985919344824224 -0.072778756797164931 0 -0.11173313641422659 -0.051099137712197359 0 -0.087769009107716192 -0.046193724725750278 0 -0.1152652699767374 -0.0044733142422073097 0 -0.1278640484455188 -0.012334690821253821 0 -0.1273771369441013 0.0023450629401116992 0 -0.1152652699767374 -0.0044733142422073097 0 -0.11303603589243651 -0.016818202060669259 0 -0.1278640484455188 -0.012334690821253821 0 -0.1152652699767374 -0.0044733142422073097 0 -0.11303603589243651 -0.016818202060669259 0 -0.1012139958851531 -0.0082010901258140791 0 -0.11303603589243651 -0.016818202060669259 0 -0.12411398995058071 -0.026208981462584841 0 -0.1278640484455188 -0.012334690821253821 0 -0.11719553878173181 -0.037741673539740471 0 -0.12411398995058071 -0.026208981462584841 0 -0.1118019010511415 -0.027957019938586129 0 -0.11303603589243651 -0.016818202060669259 0 -0.12411398995058071 -0.026208981462584841 0 -0.1118019010511415 -0.027957019938586129 0 -0.1033935341420949 -0.036608907929656417 0 -0.1118019010511415 -0.027957019938586129 0 -0.10074487633177411 -0.021927112774035699 0 -0.1033935341420949 -0.036608907929656417 0 -0.10074487633177411 -0.021927112774035699 0 -0.091700817231413184 -0.028161456197506499 0 -0.10074487633177411 -0.021927112774035699 0 -0.089359217900845153 -0.01537750648633354 0 -0.091700817231413184 -0.028161456197506499 0 -0.11303603589243651 -0.016818202060669259 0 -0.10074487633177411 -0.021927112774035699 0 -0.1012139958851531 -0.0082010901258140791 0 -0.11303603589243651 -0.016818202060669259 0 -0.1118019010511415 -0.027957019938586129 0 -0.10074487633177411 -0.021927112774035699 0 -0.10074487633177411 -0.021927112774035699 0 -0.1012139958851531 -0.0082010901258140791 0 -0.089359217900845153 -0.01537750648633354 0 -0.1012139958851531 -0.0082010901258140791 0 -0.089124004628701792 -0.0040277377021705899 0 -0.097507665945787692 0.0040820149966005574 0 -0.1012139958851531 -0.0082010901258140791 0 -0.097507665945787692 0.0040820149966005574 0 -0.1058521268010089 0.00073384547527136773 0 -0.1152652699767374 -0.0044733142422073097 0 -0.1012139958851531 -0.0082010901258140791 0 -0.1058521268010089 0.00073384547527136773 0 -0.079764572027605563 -0.001208843295517239 0 -0.089124004628701792 -0.0040277377021705899 0 -0.080379206648835008 -0.009775819102595687 0 -0.089124004628701792 -0.0040277377021705899 0 -0.089359217900845153 -0.01537750648633354 0 -0.080379206648835008 -0.009775819102595687 0 -0.1012139958851531 -0.0082010901258140791 0 -0.089124004628701792 -0.0040277377021705899 0 -0.089359217900845153 -0.01537750648633354 0 -0.089359217900845153 -0.01537750648633354 0 -0.080379206648835008 -0.009775819102595687 0 -0.076946083733010012 -0.019608692654335649 0 -0.089359217900845153 -0.01537750648633354 0 -0.091700817231413184 -0.028161456197506499 0 -0.076946083733010012 -0.019608692654335649 0 -0.066439508831189667 -0.02875513821822643 0 -0.076946083733010012 -0.019608692654335649 0 -0.073396792324475907 -0.036549185213838799 0 -0.066439508831189667 -0.02875513821822643 0 -0.068530762808199294 -0.019938962024248611 0 -0.056338296441182101 -0.027044179732367449 0 -0.066439508831189667 -0.02875513821822643 0 -0.068530762808199294 -0.019938962024248611 0 -0.076946083733010012 -0.019608692654335649 0 -0.080379206648835008 -0.009775819102595687 0 -0.076946083733010012 -0.019608692654335649 0 -0.066123158358303874 0.0069763394170788487 0 -0.079764572027605563 -0.001208843295517239 0 -0.080379206648835008 -0.009775819102595687 0 -0.066123158358303874 0.0069763394170788487 0 -0.076946083733010012 -0.019608692654335649 0 -0.059664616745900671 -0.0040500510012267867 0 -0.066123158358303874 0.0069763394170788487 0 -0.068530762808199294 -0.019938962024248611 0 -0.059664616745900671 -0.0040500510012267867 0 -0.068530762808199294 -0.019938962024248611 0 -0.076946083733010012 -0.019608692654335649 0 -0.059664616745900671 -0.0040500510012267867 0 -0.076946083733010012 -0.019608692654335649 0 -0.066123158358303874 0.0069763394170788487 0 -0.079577064860946206 -0.073577453582062496 0 -0.068797467898171552 -0.064113028811232264 0 -0.087769009107716192 -0.046193724725750278 0 -0.0985919344824224 -0.072778756797164931 0 -0.087769009107716192 -0.046193724725750278 0 -0.076946083733010012 -0.019608692654335649 0 -0.087769009107716192 -0.046193724725750278 0 -0.073396792324475907 -0.036549185213838799 0 -0.091700817231413184 -0.028161456197506499 0 -0.076946083733010012 -0.019608692654335649 0 -0.087769009107716192 -0.046193724725750278 0 -0.076946083733010012 -0.019608692654335649 0 -0.087769009107716192 -0.046193724725750278 0 -0.073396792324475907 -0.036549185213838799 0 -0.062271996897588083 -0.052791321925605532 0 -0.056985608849081007 -0.04063467146634165 0 -0.087769009107716192 -0.046193724725750278 0 -0.073396792324475907 -0.036549185213838799 0 -0.062271996897588083 -0.052791321925605532 0 -0.066439508831189667 -0.02875513821822643 0 -0.073396792324475907 -0.036549185213838799 0 -0.056985608849081007 -0.04063467146634165 0 -0.068797467898171552 -0.064113028811232264 0 -0.087769009107716192 -0.046193724725750278 0 -0.062271996897588083 -0.052791321925605532 0 -0.050876123791686781 -0.0557005837010279 0 -0.062271996897588083 -0.052791321925605532 0 -0.05461803829180413 -0.069755112608578862 0 -0.068797467898171552 -0.064113028811232264 0 -0.062271996897588083 -0.052791321925605532 0 -0.05461803829180413 -0.069755112608578862 0 -0.050876123791686781 -0.0557005837010279 0 -0.04125611079489349 -0.061033813963863537 0 -0.05461803829180413 -0.069755112608578862 0 -0.050876123791686781 -0.0557005837010279 0 -0.056985608849081007 -0.04063467146634165 0 -0.043217803893324663 -0.046983348469378128 0 -0.050876123791686781 -0.0557005837010279 0 -0.062271996897588083 -0.052791321925605532 0 -0.056985608849081007 -0.04063467146634165 0 -0.066439508831189667 -0.02875513821822643 0 -0.056985608849081007 -0.04063467146634165 0 -0.056338296441182101 -0.027044179732367449 0 -0.056985608849081007 -0.04063467146634165 0 -0.048013312662868769 -0.034084565957593307 0 -0.056338296441182101 -0.027044179732367449 0 -0.056985608849081007 -0.04063467146634165 0 -0.048013312662868769 -0.034084565957593307 0 -0.043217803893324663 -0.046983348469378128 0 -0.034747022969916552 -0.036023397885302497 0 -0.03178279228815796 -0.053256275703554248 0 -0.043217803893324663 -0.046983348469378128 0 -0.048013312662868769 -0.034084565957593307 0 -0.034747022969916552 -0.036023397885302497 0 -0.043217803893324663 -0.046983348469378128 0 -0.03178279228815796 -0.053256275703554248 0 -0.04125611079489349 -0.061033813963863537 0 -0.027189616291661511 -0.068956488044421491 0 -0.03178279228815796 -0.053256275703554248 0 -0.04125611079489349 -0.061033813963863537 0 -0.043217803893324663 -0.046983348469378128 0 -0.050876123791686781 -0.0557005837010279 0 -0.04125611079489349 -0.061033813963863537 0 -0.043217803893324663 -0.046983348469378128 0 -0.068530762808199294 -0.019938962024248611 0 -0.059664616745900671 -0.0040500510012267867 0 -0.057625718948113309 -0.01560592069947127 0 -0.047617207273071643 -0.0035118018543059538 0 -0.059664616745900671 -0.0040500510012267867 0 -0.057625718948113309 -0.01560592069947127 0 -0.047617207273071643 -0.0035118018543059538 0 -0.057625718948113309 -0.01560592069947127 0 -0.044435943862541481 -0.018862463730406901 0 -0.057625718948113309 -0.01560592069947127 0 -0.056338296441182101 -0.027044179732367449 0 -0.044435943862541481 -0.018862463730406901 0 -0.068530762808199294 -0.019938962024248611 0 -0.057625718948113309 -0.01560592069947127 0 -0.056338296441182101 -0.027044179732367449 0 -0.048013312662868769 -0.034084565957593307 0 -0.056338296441182101 -0.027044179732367449 0 -0.044435943862541481 -0.018862463730406901 0 -0.048013312662868769 -0.034084565957593307 0 -0.034747022969916552 -0.036023397885302497 0 -0.044435943862541481 -0.018862463730406901 0 -0.034747022969916552 -0.036023397885302497 0 -0.044435943862541481 -0.018862463730406901 0 -0.029096019340949839 -0.020089153358083849 0 -0.044435943862541481 -0.018862463730406901 0 -0.037331614038931003 -0.0090830911405071785 0 -0.029096019340949839 -0.020089153358083849 0 -0.047617207273071643 -0.0035118018543059538 0 -0.044435943862541481 -0.018862463730406901 0 -0.037331614038931003 -0.0090830911405071785 0 -0.047617207273071643 -0.0035118018543059538 0 -0.044435943862541481 -0.018862463730406901 0 -0.037331614038931003 -0.0090830911405071785 0 -0.025670282478897081 -0.0054027298625421993 0 -0.03671052455766443 0.0037031618858211421 0 -0.047617207273071643 -0.0035118018543059538 0 -0.037331614038931003 -0.0090830911405071785 0 -0.03671052455766443 0.0037031618858211421 0 -0.025670282478897081 -0.0054027298625421993 0 -0.029096019340949839 -0.020089153358083849 0 -0.01201491237982177 -0.012697106039732861 0 -0.025670282478897081 -0.0054027298625421993 0 -0.01201491237982177 -0.012697106039732861 0 -0.010105069976996849 0.0023765649732562961 0 -0.037331614038931003 -0.0090830911405071785 0 -0.025670282478897081 -0.0054027298625421993 0 -0.029096019340949839 -0.020089153358083849 0 -0.034747022969916552 -0.036023397885302497 0 -0.029096019340949839 -0.020089153358083849 0 -0.01621539074153976 -0.030149579770640821 0 -0.029096019340949839 -0.020089153358083849 0 -0.01621539074153976 -0.030149579770640821 0 -0.01201491237982177 -0.012697106039732861 0 -0.01621539074153976 -0.030149579770640821 0 0.0026421611525163911 -0.019923693291100199 0 0.001114662024295677 -0.034644724797188199 0 -0.01621539074153976 -0.030149579770640821 0 -0.01201491237982177 -0.012697106039732861 0 0.0026421611525163911 -0.019923693291100199 0 -0.01201491237982177 -0.012697106039732861 0 0.0047038114401232534 -0.001040937293712483 0 0.0026421611525163911 -0.019923693291100199 0 -0.01201491237982177 -0.012697106039732861 0 -0.010105069976996849 0.0023765649732562961 0 0.0047038114401232534 -0.001040937293712483 0 -0.03178279228815796 -0.053256275703554248 0 -0.015718878272565229 -0.058792224196781109 0 -0.02130541942185268 -0.044498810144407437 0 -0.03178279228815796 -0.053256275703554248 0 -0.015718878272565229 -0.058792224196781109 0 -0.027189616291661511 -0.068956488044421491 0 -0.034747022969916552 -0.036023397885302497 0 -0.01621539074153976 -0.030149579770640821 0 -0.02130541942185268 -0.044498810144407437 0 -0.034747022969916552 -0.036023397885302497 0 -0.03178279228815796 -0.053256275703554248 0 -0.02130541942185268 -0.044498810144407437 0 -0.01621539074153976 -0.030149579770640821 0 -0.0092606153764647689 -0.044492254616565037 0 0.001114662024295677 -0.034644724797188199 0 -0.0092606153764647689 -0.044492254616565037 0 0.001114662024295677 -0.034644724797188199 0 0.003426744450576454 -0.054815297075420773 0 -0.01621539074153976 -0.030149579770640821 0 -0.02130541942185268 -0.044498810144407437 0 -0.0092606153764647689 -0.044492254616565037 0 -0.015718878272565229 -0.058792224196781109 0 -0.0092606153764647689 -0.044492254616565037 0 0.003426744450576454 -0.054815297075420773 0 -0.015718878272565229 -0.058792224196781109 0 -0.0072319765520409062 -0.068818796064575097 0 0.003426744450576454 -0.054815297075420773 0 -0.015718878272565229 -0.058792224196781109 0 -0.02130541942185268 -0.044498810144407437 0 -0.0092606153764647689 -0.044492254616565037 0 -0.0072319765520409062 -0.068818796064575097 0 -0.0056293594721457006 -0.082036805430144924 0 0.0054575408194632406 -0.073720759659108445 0 -0.0072319765520409062 -0.068818796064575097 0 -0.016531268938654212 -0.068489504758274394 0 -0.015984604638349179 -0.077390510727319894 0 -0.0072319765520409062 -0.068818796064575097 0 -0.0056293594721457006 -0.082036805430144924 0 -0.015984604638349179 -0.077390510727319894 0 -0.015718878272565229 -0.058792224196781109 0 -0.0072319765520409062 -0.068818796064575097 0 -0.016531268938654212 -0.068489504758274394 0 -0.0075898384642912086 -0.092772169897659226 0 -0.0056293594721457006 -0.082036805430144924 0 0.0072012692200917657 -0.09144049599341271 0 -0.0056293594721457006 -0.082036805430144924 0 -0.01562854721774792 -0.088078100238794171 0 -0.015984604638349179 -0.077390510727319894 0 -0.0075898384642912086 -0.092772169897659226 0 -0.0056293594721457006 -0.082036805430144924 0 -0.01562854721774792 -0.088078100238794171 0 -0.0075898384642912086 -0.092772169897659226 0 -0.01562854721774792 -0.088078100238794171 0 -0.015839401072447711 -0.097831294581907868 0 -0.01562854721774792 -0.088078100238794171 0 -0.02305577581672685 -0.083163458542690943 0 -0.024670005891415589 -0.092262667611894875 0 -0.01562854721774792 -0.088078100238794171 0 -0.024670005891415589 -0.092262667611894875 0 -0.015839401072447711 -0.097831294581907868 0 -0.01562854721774792 -0.088078100238794171 0 -0.02305577581672685 -0.083163458542690943 0 -0.015984604638349179 -0.077390510727319894 0 -0.02305577581672685 -0.083163458542690943 0 -0.024670005891415589 -0.092262667611894875 0 -0.031754510724464793 -0.081253108138323094 0 -0.024670005891415589 -0.092262667611894875 0 -0.031754510724464793 -0.081253108138323094 0 -0.03344051123233422 -0.092098432850847969 0 -0.015718878272565229 -0.058792224196781109 0 -0.016531268938654212 -0.068489504758274394 0 -0.027189616291661511 -0.068956488044421491 0 -0.016531268938654212 -0.068489504758274394 0 -0.015984604638349179 -0.077390510727319894 0 -0.027189616291661511 -0.068956488044421491 0 -0.02305577581672685 -0.083163458542690943 0 -0.015984604638349179 -0.077390510727319894 0 -0.027189616291661511 -0.068956488044421491 0 -0.02305577581672685 -0.083163458542690943 0 -0.027189616291661511 -0.068956488044421491 0 -0.031754510724464793 -0.081253108138323094 0 -0.04125611079489349 -0.061033813963863537 0 -0.027189616291661511 -0.068956488044421491 0 -0.04053175759116228 -0.071452392996033218 0 -0.04125611079489349 -0.061033813963863537 0 -0.04053175759116228 -0.071452392996033218 0 -0.05461803829180413 -0.069755112608578862 0 -0.04053175759116228 -0.071452392996033218 0 -0.04331800788480706 -0.080321541169751709 0 -0.05461803829180413 -0.069755112608578862 0 -0.027189616291661511 -0.068956488044421491 0 -0.04053175759116228 -0.071452392996033218 0 -0.031754510724464793 -0.081253108138323094 0 -0.04053175759116228 -0.071452392996033218 0 -0.031754510724464793 -0.081253108138323094 0 -0.04331800788480706 -0.080321541169751709 0 -0.031754510724464793 -0.081253108138323094 0 -0.037920360895102763 -0.086728863392239786 0 -0.04331800788480706 -0.080321541169751709 0 -0.031754510724464793 -0.081253108138323094 0 -0.03344051123233422 -0.092098432850847969 0 -0.037920360895102763 -0.086728863392239786 0 -0.03344051123233422 -0.092098432850847969 0 -0.037920360895102763 -0.086728863392239786 0 -0.039477100495342581 -0.093081883261144749 0 -0.043535591074226332 -0.088659540190963698 0 -0.052607434978589038 -0.084605160310905272 0 -0.044151246104392423 -0.095288874830203096 0 -0.039477100495342581 -0.093081883261144749 0 -0.043535591074226332 -0.088659540190963698 0 -0.044151246104392423 -0.095288874830203096 0 -0.037920360895102763 -0.086728863392239786 0 -0.039477100495342581 -0.093081883261144749 0 -0.043535591074226332 -0.088659540190963698 0 -0.043535591074226332 -0.088659540190963698 0 -0.044151246104392423 -0.095288874830203096 0 -0.037920360895102763 -0.086728863392239786 0 -0.043535591074226332 -0.088659540190963698 0 -0.04331800788480706 -0.080321541169751709 0 -0.043535591074226332 -0.088659540190963698 0 -0.04331800788480706 -0.080321541169751709 0 -0.052607434978589038 -0.084605160310905272 0 -0.04331800788480706 -0.080321541169751709 0 -0.052607434978589038 -0.084605160310905272 0 -0.05461803829180413 -0.069755112608578862 0 -0.070013937980536456 -0.090181036700446429 0 -0.057002573683865979 -0.089060817942991616 0 -0.04460455598339258 -0.10017008709341529 0 -0.052607434978589038 -0.084605160310905272 0 -0.044151246104392423 -0.095288874830203096 0 -0.052607434978589038 -0.084605160310905272 0 -0.057002573683865979 -0.089060817942991616 0 -0.044151246104392423 -0.095288874830203096 0 -0.064240921843242857 -0.078969573753286809 0 -0.065719917437320752 -0.085301382988547655 0 -0.057002573683865979 -0.089060817942991616 0 -0.064240921843242857 -0.078969573753286809 0 -0.052607434978589038 -0.084605160310905272 0 -0.057002573683865979 -0.089060817942991616 0 -0.064240921843242857 -0.078969573753286809 0 -0.052607434978589038 -0.084605160310905272 0 -0.05461803829180413 -0.069755112608578862 0 -0.064648045787775776 -0.1114736180136202 0 -0.054889055151619223 -0.1064960745062641 0 -0.046573596299020338 -0.1213725893565638 0 -0.064648045787775776 -0.1114736180136202 0 -0.060928146748241367 -0.123537549367131 0 -0.046573596299020338 -0.1213725893565638 0 -0.064167586873575405 -0.098824988458513688 0 -0.054889055151619223 -0.1064960745062641 0 -0.04460455598339258 -0.10017008709341529 0 -0.054889055151619223 -0.1064960745062641 0 -0.04460455598339258 -0.10017008709341529 0 -0.046573596299020338 -0.1213725893565638 0 -0.070013937980536456 -0.090181036700446429 0 -0.04460455598339258 -0.10017008709341529 0 -0.070013937980536456 -0.090181036700446429 0 -0.064167586873575405 -0.098824988458513688 0 -0.04460455598339258 -0.10017008709341529 0 -0.064167586873575405 -0.098824988458513688 0 -0.064648045787775776 -0.1114736180136202 0 -0.054889055151619223 -0.1064960745062641 0 -0.057002573683865979 -0.089060817942991616 0 -0.044151246104392423 -0.095288874830203096 0 -0.04460455598339258 -0.10017008709341529 0 -0.04460455598339258 -0.10017008709341529 0 -0.038337793170655582 -0.1026337050414691 0 -0.046573596299020338 -0.1213725893565638 0 -0.039477100495342581 -0.093081883261144749 0 -0.044151246104392423 -0.095288874830203096 0 -0.038337793170655582 -0.1026337050414691 0 -0.044151246104392423 -0.095288874830203096 0 -0.04460455598339258 -0.10017008709341529 0 -0.044151246104392423 -0.095288874830203096 0 -0.038337793170655582 -0.1026337050414691 0 -0.04460455598339258 -0.10017008709341529 0 -0.038337793170655582 -0.1026337050414691 0 -0.044151246104392423 -0.095288874830203096 0 -0.04460455598339258 -0.10017008709341529 0 -0.038337793170655582 -0.1026337050414691 0 -0.03344051123233422 -0.092098432850847969 0 -0.039477100495342581 -0.093081883261144749 0 -0.038337793170655582 -0.1026337050414691 0 -0.03344051123233422 -0.092098432850847969 0 -0.038337793170655582 -0.1026337050414691 0 -0.030143021990877521 -0.097413384547063803 0 -0.038337793170655582 -0.1026337050414691 0 -0.046573596299020338 -0.1213725893565638 0 -0.032898799107638058 -0.1301455039054305 0 -0.04460455598339258 -0.10017008709341529 0 -0.046573596299020338 -0.1213725893565638 0 -0.038337793170655582 -0.1026337050414691 0 -0.02075820173733281 -0.1248441049076035 0 -0.038337793170655582 -0.1026337050414691 0 -0.02075820173733281 -0.1248441049076035 0 -0.032898799107638058 -0.1301455039054305 0 -0.038337793170655582 -0.1026337050414691 0 -0.02075820173733281 -0.1248441049076035 0 -0.013304609286582791 -0.1124748627422944 0 -0.038337793170655582 -0.1026337050414691 0 -0.013304609286582791 -0.1124748627422944 0 -0.038337793170655582 -0.1026337050414691 0 -0.024123777669104458 -0.10265873268404301 0 -0.013304609286582791 -0.1124748627422944 0 -0.038337793170655582 -0.1026337050414691 0 -0.030143021990877521 -0.097413384547063803 0 -0.024123777669104458 -0.10265873268404301 0 -0.024670005891415589 -0.092262667611894875 0 -0.030143021990877521 -0.097413384547063803 0 -0.024123777669104458 -0.10265873268404301 0 -0.024670005891415589 -0.092262667611894875 0 -0.03344051123233422 -0.092098432850847969 0 -0.030143021990877521 -0.097413384547063803 0 -0.024123777669104458 -0.10265873268404301 0 -0.015994782990863529 -0.1079378035875192 0 -0.013304609286582791 -0.1124748627422944 0 -0.024123777669104458 -0.10265873268404301 0 -0.015994782990863529 -0.1079378035875192 0 -0.015839401072447711 -0.097831294581907868 0 -0.024670005891415589 -0.092262667611894875 0 -0.024123777669104458 -0.10265873268404301 0 -0.015839401072447711 -0.097831294581907868 0 -0.0070294542012635762 -0.10327829347153671 0 -0.013304609286582791 -0.1124748627422944 0 0.0046245275045138064 -0.1076828264142336 0 -0.0075898384642912086 -0.092772169897659226 0 -0.015839401072447711 -0.097831294581907868 0 -0.0070294542012635762 -0.10327829347153671 0 -0.015994782990863529 -0.1079378035875192 0 -0.015839401072447711 -0.097831294581907868 0 -0.0070294542012635762 -0.10327829347153671 0 -0.015994782990863529 -0.1079378035875192 0 -0.0070294542012635762 -0.10327829347153671 0 -0.013304609286582791 -0.1124748627422944 0 -0.0075898384642912086 -0.092772169897659226 0 -0.0070294542012635762 -0.10327829347153671 0 0.0072012692200917657 -0.09144049599341271 0 -0.02075820173733281 -0.1248441049076035 0 -0.013304609286582791 -0.1124748627422944 0 -0.00221818493688669 -0.13117245205018849 0 -0.013304609286582791 -0.1124748627422944 0 -0.00221818493688669 -0.13117245205018849 0 0.014197789575412951 -0.12328672932727321 0 -0.013304609286582791 -0.1124748627422944 0 -0.00221818493688669 -0.13117245205018849 0 -0.015994782990863529 -0.1079378035875192 0 -0.013304609286582791 -0.1124748627422944 0 -0.02075820173733281 -0.1248441049076035 0 -0.0137133242766358 -0.14598078836242959 0 -0.0031786103040098569 -0.14705450477373769 0 -0.02075820173733281 -0.1248441049076035 0 -0.0031786103040098569 -0.14705450477373769 0 -0.02075820173733281 -0.1248441049076035 0 -0.00221818493688669 -0.13117245205018849 0 -0.0031786103040098569 -0.14705450477373769 0 -0.02075820173733281 -0.1248441049076035 0 -0.02657462786173766 -0.13400490724319661 0 -0.021326083532184278 -0.14069250208886769 0 -0.02075820173733281 -0.1248441049076035 0 -0.021326083532184278 -0.14069250208886769 0 -0.0137133242766358 -0.14598078836242959 0 -0.02657462786173766 -0.13400490724319661 0 -0.032898799107638058 -0.1301455039054305 0 -0.031315427069795509 -0.14033751807088471 0 -0.02657462786173766 -0.13400490724319661 0 -0.021326083532184278 -0.14069250208886769 0 -0.031315427069795509 -0.14033751807088471 0 -0.02075820173733281 -0.1248441049076035 0 -0.02657462786173766 -0.13400490724319661 0 -0.032898799107638058 -0.1301455039054305 0 -0.026655807174363451 -0.14845120392719069 0 -0.02210874630731275 -0.1561964137015745 0 -0.031495029160766817 -0.15509855920566379 0 -0.026655807174363451 -0.14845120392719069 0 -0.03449156258747036 -0.148917707105098 0 -0.031495029160766817 -0.15509855920566379 0 -0.026655807174363451 -0.14845120392719069 0 -0.021326083532184278 -0.14069250208886769 0 -0.031315427069795509 -0.14033751807088471 0 -0.026655807174363451 -0.14845120392719069 0 -0.031315427069795509 -0.14033751807088471 0 -0.03449156258747036 -0.148917707105098 0 -0.021326083532184278 -0.14069250208886769 0 -0.019449426413567759 -0.15004718796545319 0 -0.0137133242766358 -0.14598078836242959 0 -0.026655807174363451 -0.14845120392719069 0 -0.021326083532184278 -0.14069250208886769 0 -0.019449426413567759 -0.15004718796545319 0 -0.019449426413567759 -0.15004718796545319 0 -0.01542317820397726 -0.15505006264073101 0 -0.0137133242766358 -0.14598078836242959 0 -0.026655807174363451 -0.14845120392719069 0 -0.019449426413567759 -0.15004718796545319 0 -0.02210874630731275 -0.1561964137015745 0 -0.019449426413567759 -0.15004718796545319 0 -0.02210874630731275 -0.1561964137015745 0 -0.01542317820397726 -0.15505006264073101 0 -0.0137133242766358 -0.14598078836242959 0 -0.0031786103040098569 -0.14705450477373769 0 -0.0072073677341612146 -0.1544888065361133 0 -0.01542317820397726 -0.15505006264073101 0 -0.0137133242766358 -0.14598078836242959 0 -0.0072073677341612146 -0.1544888065361133 0 -0.0031786103040098569 -0.14705450477373769 0 -0.0072073677341612146 -0.1544888065361133 0 -0.0025999653858941639 -0.16131422913783491 0 -0.01542317820397726 -0.15505006264073101 0 -0.0084927016390539001 -0.17431231470194719 0 -0.01542317820397726 -0.15505006264073101 0 -0.0025999653858941639 -0.16131422913783491 0 -0.0084927016390539001 -0.17431231470194719 0 -0.01542317820397726 -0.15505006264073101 0 -0.0084927016390539001 -0.17431231470194719 0 -0.018600123305710169 -0.16452936741983731 0 -0.0025999653858941639 -0.16131422913783491 0 -0.0084927016390539001 -0.17431231470194719 0 0.0067086063528142403 -0.16809244781376179 0 -0.0084927016390539001 -0.17431231470194719 0 -0.019446339186483811 -0.17229591455881449 0 -0.018600123305710169 -0.16452936741983731 0 -0.01542317820397726 -0.15505006264073101 0 -0.0072073677341612146 -0.1544888065361133 0 -0.0025999653858941639 -0.16131422913783491 0 -0.0084927016390539001 -0.17431231470194719 0 -0.0015622250741301779 -0.1935745667631632 0 -0.01452589755716127 -0.18854972137590889 0 -0.0084927016390539001 -0.17431231470194719 0 -0.0015622250741301779 -0.1935745667631632 0 -0.0084927016390539001 -0.17431231470194719 0 -0.0015622250741301779 -0.1935745667631632 0 0.0091962193441852118 -0.18107109871456811 0 -0.0084927016390539001 -0.17431231470194719 0 -0.019789997202817391 -0.17944929683230451 0 -0.01452589755716127 -0.18854972137590889 0 -0.019789997202817391 -0.17944929683230451 0 -0.01452589755716127 -0.18854972137590889 0 -0.02459459850908961 -0.18853055632871979 0 -0.0084927016390539001 -0.17431231470194719 0 -0.019789997202817391 -0.17944929683230451 0 -0.019446339186483811 -0.17229591455881449 0 -0.019789997202817391 -0.17944929683230451 0 -0.019446339186483811 -0.17229591455881449 0 -0.025875972540285681 -0.17494695229964419 0 -0.019789997202817391 -0.17944929683230451 0 -0.025875972540285681 -0.17494695229964419 0 -0.028761852805915141 -0.18157091371807699 0 -0.025875972540285681 -0.17494695229964419 0 -0.032240004386850082 -0.17024588421870079 0 -0.032480769472988377 -0.1765838753595764 0 -0.025875972540285681 -0.17494695229964419 0 -0.028761852805915141 -0.18157091371807699 0 -0.032480769472988377 -0.1765838753595764 0 -0.028761852805915141 -0.18157091371807699 0 -0.032920373861235572 -0.18696580359983689 0 -0.02459459850908961 -0.18853055632871979 0 -0.019789997202817391 -0.17944929683230451 0 -0.028761852805915141 -0.18157091371807699 0 -0.02459459850908961 -0.18853055632871979 0 -0.02210874630731275 -0.1561964137015745 0 -0.02334206205745518 -0.16321350683772101 0 -0.018600123305710169 -0.16452936741983731 0 -0.02210874630731275 -0.1561964137015745 0 -0.01542317820397726 -0.15505006264073101 0 -0.018600123305710169 -0.16452936741983731 0 -0.019446339186483811 -0.17229591455881449 0 -0.018600123305710169 -0.16452936741983731 0 -0.024472901244551901 -0.1682416415403396 0 -0.019446339186483811 -0.17229591455881449 0 -0.025875972540285681 -0.17494695229964419 0 -0.024472901244551901 -0.1682416415403396 0 -0.02334206205745518 -0.16321350683772101 0 -0.018600123305710169 -0.16452936741983731 0 -0.024472901244551901 -0.1682416415403396 0 -0.02334206205745518 -0.16321350683772101 0 -0.024472901244551901 -0.1682416415403396 0 -0.028186477372245909 -0.16388660468913291 0 -0.025875972540285681 -0.17494695229964419 0 -0.024472901244551901 -0.1682416415403396 0 -0.032240004386850082 -0.17024588421870079 0 -0.024472901244551901 -0.1682416415403396 0 -0.028186477372245909 -0.16388660468913291 0 -0.032240004386850082 -0.17024588421870079 0 -0.02210874630731275 -0.1561964137015745 0 -0.036601677587355427 -0.1631254910080501 0 -0.02210874630731275 -0.1561964137015745 0 -0.028186477372245909 -0.16388660468913291 0 -0.036601677587355427 -0.1631254910080501 0 -0.02210874630731275 -0.1561964137015745 0 -0.036601677587355427 -0.1631254910080501 0 -0.031495029160766817 -0.15509855920566379 0 -0.02210874630731275 -0.1561964137015745 0 -0.02334206205745518 -0.16321350683772101 0 -0.028186477372245909 -0.16388660468913291 0 -0.036601677587355427 -0.1631254910080501 0 -0.031495029160766817 -0.15509855920566379 0 -0.03757233301838208 -0.1561293615731485 0 -0.036601677587355427 -0.1631254910080501 0 -0.042683024331232992 -0.16071659108817879 0 -0.03757233301838208 -0.1561293615731485 0 -0.036601677587355427 -0.1631254910080501 0 -0.032240004386850082 -0.17024588421870079 0 -0.040990311010288182 -0.1707810542940659 0 -0.028186477372245909 -0.16388660468913291 0 -0.036601677587355427 -0.1631254910080501 0 -0.032240004386850082 -0.17024588421870079 0 -0.036601677587355427 -0.1631254910080501 0 -0.040990311010288182 -0.1707810542940659 0 -0.051094608867397598 -0.17005456831452659 0 -0.036601677587355427 -0.1631254910080501 0 -0.042683024331232992 -0.16071659108817879 0 -0.051094608867397598 -0.17005456831452659 0 -0.036601677587355427 -0.1631254910080501 0 -0.051094608867397598 -0.17005456831452659 0 -0.042683024331232992 -0.16071659108817879 0 -0.03757233301838208 -0.1561293615731485 0 -0.042590371425084809 -0.152788459458752 0 -0.042683024331232992 -0.16071659108817879 0 -0.049852416986034973 -0.1566787242717059 0 -0.042590371425084809 -0.152788459458752 0 -0.042683024331232992 -0.16071659108817879 0 -0.049852416986034973 -0.1566787242717059 0 -0.032920373861235572 -0.18696580359983689 0 -0.035662893679222471 -0.1808176818492459 0 -0.039648887306358682 -0.18457447877016059 0 -0.028761852805915141 -0.18157091371807699 0 -0.032920373861235572 -0.18696580359983689 0 -0.035662893679222471 -0.1808176818492459 0 -0.032240004386850082 -0.17024588421870079 0 -0.040990311010288182 -0.1707810542940659 0 -0.038331319031698619 -0.1753090981098179 0 -0.035662893679222471 -0.1808176818492459 0 -0.038331319031698619 -0.1753090981098179 0 -0.042134054383572032 -0.1794085226548284 0 -0.035662893679222471 -0.1808176818492459 0 -0.032480769472988377 -0.1765838753595764 0 -0.038331319031698619 -0.1753090981098179 0 -0.028761852805915141 -0.18157091371807699 0 -0.035662893679222471 -0.1808176818492459 0 -0.032480769472988377 -0.1765838753595764 0 -0.032240004386850082 -0.17024588421870079 0 -0.032480769472988377 -0.1765838753595764 0 -0.038331319031698619 -0.1753090981098179 0 -0.040990311010288182 -0.1707810542940659 0 -0.045496547127059937 -0.17528527585558801 0 -0.051094608867397598 -0.17005456831452659 0 -0.040990311010288182 -0.1707810542940659 0 -0.038331319031698619 -0.1753090981098179 0 -0.045496547127059937 -0.17528527585558801 0 -0.045496547127059937 -0.17528527585558801 0 -0.042134054383572032 -0.1794085226548284 0 -0.049232931697160941 -0.18142535687920061 0 -0.038331319031698619 -0.1753090981098179 0 -0.045496547127059937 -0.17528527585558801 0 -0.042134054383572032 -0.1794085226548284 0 -0.042134054383572032 -0.1794085226548284 0 -0.039648887306358682 -0.18457447877016059 0 -0.049232931697160941 -0.18142535687920061 0 -0.039648887306358682 -0.18457447877016059 0 -0.049232931697160941 -0.18142535687920061 0 -0.037513132105194948 -0.19164621715467339 0 -0.035662893679222471 -0.1808176818492459 0 -0.042134054383572032 -0.1794085226548284 0 -0.039648887306358682 -0.18457447877016059 0 -0.052530262953744307 -0.18551360121156771 0 -0.064566778430722005 -0.1899668467895553 0 -0.070259181001566293 -0.17921715932508539 0 -0.052530262953744307 -0.18551360121156771 0 -0.051094608867397598 -0.17005456831452659 0 -0.070259181001566293 -0.17921715932508539 0 -0.051094608867397598 -0.17005456831452659 0 -0.070259181001566293 -0.17921715932508539 0 -0.052530262953744307 -0.18551360121156771 0 -0.049232931697160941 -0.18142535687920061 0 -0.051094608867397598 -0.17005456831452659 0 -0.052530262953744307 -0.18551360121156771 0 -0.051094608867397598 -0.17005456831452659 0 -0.045496547127059937 -0.17528527585558801 0 -0.049232931697160941 -0.18142535687920061 0 -0.051094608867397598 -0.17005456831452659 0 -0.051094608867397598 -0.17005456831452659 0 -0.061817946007188637 -0.1647032604190713 0 -0.070259181001566293 -0.17921715932508539 0 -0.049852416986034973 -0.1566787242717059 0 -0.051094608867397598 -0.17005456831452659 0 -0.061817946007188637 -0.1647032604190713 0 -0.042683024331232992 -0.16071659108817879 0 -0.049852416986034973 -0.1566787242717059 0 -0.051094608867397598 -0.17005456831452659 0 -0.049852416986034973 -0.1566787242717059 0 -0.051094608867397598 -0.17005456831452659 0 -0.049852416986034973 -0.1566787242717059 0 -0.061817946007188637 -0.1647032604190713 0 -0.059473492795946999 -0.1512600473178678 0 -0.049852416986034973 -0.1566787242717059 0 -0.059473492795946999 -0.1512600473178678 0 -0.049852416986034973 -0.1566787242717059 0 -0.048542636614648908 -0.14257509161971199 0 -0.042590371425084809 -0.152788459458752 0 -0.049852416986034973 -0.1566787242717059 0 -0.059473492795946999 -0.1512600473178678 0 -0.048542636614648908 -0.14257509161971199 0 -0.049852416986034973 -0.1566787242717059 0 -0.048542636614648908 -0.14257509161971199 0 -0.059473492795946999 -0.1512600473178678 0 -0.048542636614648908 -0.14257509161971199 0 -0.059473492795946999 -0.1512600473178678 0 -0.048542636614648908 -0.14257509161971199 0 -0.061100100412547438 -0.13647315015658409 0 -0.046573596299020338 -0.1213725893565638 0 -0.048542636614648908 -0.14257509161971199 0 -0.061100100412547438 -0.13647315015658409 0 -0.046573596299020338 -0.1213725893565638 0 -0.048542636614648908 -0.14257509161971199 0 -0.060928146748241367 -0.123537549367131 0 -0.046573596299020338 -0.1213725893565638 0 -0.061100100412547438 -0.13647315015658409 0 -0.046573596299020338 -0.1213725893565638 0 -0.048542636614648908 -0.14257509161971199 0 -0.032898799107638058 -0.1301455039054305 0 -0.048542636614648908 -0.14257509161971199 0 -0.032898799107638058 -0.1301455039054305 0 -0.031315427069795509 -0.14033751807088471 0 -0.048542636614648908 -0.14257509161971199 0 -0.032898799107638058 -0.1301455039054305 0 -0.048542636614648908 -0.14257509161971199 0 -0.031315427069795509 -0.14033751807088471 0 -0.03449156258747036 -0.148917707105098 0 -0.03449156258747036 -0.148917707105098 0 -0.03757233301838208 -0.1561293615731485 0 -0.042590371425084809 -0.152788459458752 0 -0.03449156258747036 -0.148917707105098 0 -0.031495029160766817 -0.15509855920566379 0 -0.03757233301838208 -0.1561293615731485 0 -0.048542636614648908 -0.14257509161971199 0 -0.03449156258747036 -0.148917707105098 0 -0.042590371425084809 -0.152788459458752 0 -0.030801127425925001 -0.25680016795848581 0 -0.026871719323301121 -0.24650256912316601 0 -0.018733547469201091 -0.24349008461987329 0 -0.032940321160402269 -0.25029644079438251 0 -0.026871719323301121 -0.24650256912316601 0 -0.030857658388656541 -0.2362056796655021 0 -0.032940321160402269 -0.25029644079438251 0 -0.026871719323301121 -0.24650256912316601 0 -0.026871719323301121 -0.24650256912316601 0 -0.030857658388656541 -0.2362056796655021 0 -0.018733547469201091 -0.24349008461987329 0 -0.018733547469201091 -0.24349008461987329 0 0.0010854142569982001 -0.23807309260292489 0 0.0025328853753160741 -0.24958102673793139 0 -0.018733547469201091 -0.24349008461987329 0 -0.0061584899570064598 -0.22962027277065361 0 0.0010854142569982001 -0.23807309260292489 0 -0.018733547469201091 -0.24349008461987329 0 -0.0061584899570064598 -0.22962027277065361 0 -0.018733547469201091 -0.24349008461987329 0 -0.0061584899570064598 -0.22962027277065361 0 -0.014959502272226489 -0.22084886391346231 0 -0.0061584899570064598 -0.22962027277065361 0 -0.0054289760133702037 -0.21457987404047249 0 0.0064165675551885711 -0.21575046092143421 0 -0.0061584899570064598 -0.22962027277065361 0 -0.014959502272226489 -0.22084886391346231 0 -0.0054289760133702037 -0.21457987404047249 0 -0.018733547469201091 -0.24349008461987329 0 -0.02919644603132129 -0.2221986071991269 0 -0.02714058579554627 -0.22330174697438809 0 -0.018733547469201091 -0.24349008461987329 0 -0.02919644603132129 -0.2221986071991269 0 -0.018733547469201091 -0.24349008461987329 0 -0.014959502272226489 -0.22084886391346231 0 -0.02714058579554627 -0.22330174697438809 0 -0.030857658388656541 -0.2362056796655021 0 -0.018733547469201091 -0.24349008461987329 0 -0.02919644603132129 -0.2221986071991269 0 -0.02919644603132129 -0.2221986071991269 0 -0.02714058579554627 -0.22330174697438809 0 -0.023298310508535151 -0.21367384618425 0 -0.02883797433537726 -0.20835292232393379 0 -0.020914866328615171 -0.2008213059726579 0 -0.039659344593441261 -0.20090712977838049 0 -0.02919644603132129 -0.2221986071991269 0 -0.02883797433537726 -0.20835292232393379 0 -0.023298310508535151 -0.21367384618425 0 -0.02883797433537726 -0.20835292232393379 0 -0.023298310508535151 -0.21367384618425 0 -0.020914866328615171 -0.2008213059726579 0 -0.023298310508535151 -0.21367384618425 0 -0.014351405434837939 -0.2084381568687759 0 -0.020914866328615171 -0.2008213059726579 0 -0.02714058579554627 -0.22330174697438809 0 -0.014351405434837939 -0.2084381568687759 0 -0.014959502272226489 -0.22084886391346231 0 -0.02714058579554627 -0.22330174697438809 0 -0.014351405434837939 -0.2084381568687759 0 -0.02714058579554627 -0.22330174697438809 0 -0.023298310508535151 -0.21367384618425 0 -0.014351405434837939 -0.2084381568687759 0 -0.014959502272226489 -0.22084886391346231 0 -0.0054289760133702037 -0.21457987404047249 0 -0.014351405434837939 -0.2084381568687759 0 -0.0054289760133702037 -0.21457987404047249 0 -0.014351405434837939 -0.2084381568687759 0 -0.0015622250741301779 -0.1935745667631632 0 -0.0054289760133702037 -0.21457987404047249 0 -0.0015622250741301779 -0.1935745667631632 0 0.0064165675551885711 -0.21575046092143421 0 -0.014351405434837939 -0.2084381568687759 0 -0.0015622250741301779 -0.1935745667631632 0 -0.014351405434837939 -0.2084381568687759 0 -0.01223217889679739 -0.19705511845509929 0 -0.0015622250741301779 -0.1935745667631632 0 -0.01223217889679739 -0.19705511845509929 0 -0.0015622250741301779 -0.1935745667631632 0 -0.01452589755716127 -0.18854972137590889 0 -0.020914866328615171 -0.2008213059726579 0 -0.039659344593441261 -0.20090712977838049 0 -0.01452589755716127 -0.18854972137590889 0 -0.020914866328615171 -0.2008213059726579 0 -0.02459459850908961 -0.18853055632871979 0 -0.020914866328615171 -0.2008213059726579 0 -0.030654603298793132 -0.19382629647353339 0 -0.039659344593441261 -0.20090712977838049 0 -0.014351405434837939 -0.2084381568687759 0 -0.01223217889679739 -0.19705511845509929 0 -0.020914866328615171 -0.2008213059726579 0 -0.01223217889679739 -0.19705511845509929 0 -0.01452589755716127 -0.18854972137590889 0 -0.020914866328615171 -0.2008213059726579 0 -0.020914866328615171 -0.2008213059726579 0 -0.030654603298793132 -0.19382629647353339 0 -0.02459459850908961 -0.18853055632871979 0 -0.032920373861235572 -0.18696580359983689 0 -0.030654603298793132 -0.19382629647353339 0 -0.02459459850908961 -0.18853055632871979 0 -0.049232931697160941 -0.18142535687920061 0 -0.037513132105194948 -0.19164621715467339 0 -0.039659344593441261 -0.20090712977838049 0 -0.049232931697160941 -0.18142535687920061 0 -0.039659344593441261 -0.20090712977838049 0 -0.032920373861235572 -0.18696580359983689 0 -0.039648887306358682 -0.18457447877016059 0 -0.037513132105194948 -0.19164621715467339 0 -0.032920373861235572 -0.18696580359983689 0 -0.030654603298793132 -0.19382629647353339 0 -0.037513132105194948 -0.19164621715467339 0 -0.030654603298793132 -0.19382629647353339 0 -0.037513132105194948 -0.19164621715467339 0 -0.039659344593441261 -0.20090712977838049 0 -0.039659344593441261 -0.20090712977838049 0 -0.049171036143441697 -0.20095068018059209 0 -0.052530262953744307 -0.18551360121156771 0 -0.053965917040092279 -0.20097263410860849 0 -0.052530262953744307 -0.18551360121156771 0 -0.049232931697160941 -0.18142535687920061 0 -0.039659344593441261 -0.20090712977838049 0 -0.052530262953744307 -0.18551360121156771 0 -0.053965917040092279 -0.20097263410860849 0 -0.064566778430722005 -0.1899668467895553 0 -0.052530262953744307 -0.18551360121156771 0 -0.039659344593441261 -0.20090712977838049 0 -0.049171036143441697 -0.20095068018059209 0 -0.053965917040092279 -0.20097263410860849 0 -0.049171036143441697 -0.20095068018059209 0 -0.052530262953744307 -0.18551360121156771 0 -0.053965917040092279 -0.20097263410860849 0 -0.049171036143441697 -0.20095068018059209 0 -0.049171036143441697 -0.20095068018059209 0 -0.054685660498906767 -0.208722786400212 0 -0.041055678651922348 -0.2256235604874875 0 -0.053965917040092279 -0.20097263410860849 0 -0.054685660498906767 -0.208722786400212 0 -0.075274492420391248 -0.20107019793555661 0 -0.054685660498906767 -0.208722786400212 0 -0.058782723788501128 -0.22597342721149569 0 -0.066300796797188796 -0.21509277327032089 0 -0.053965917040092279 -0.20097263410860849 0 -0.049171036143441697 -0.20095068018059209 0 -0.054685660498906767 -0.208722786400212 0 -0.053965917040092279 -0.20097263410860849 0 -0.054685660498906767 -0.208722786400212 0 -0.049171036143441697 -0.20095068018059209 0 -0.041055678651922348 -0.2256235604874875 0 -0.02919644603132129 -0.2221986071991269 0 -0.039659344593441261 -0.20090712977838049 0 -0.02919644603132129 -0.2221986071991269 0 -0.02883797433537726 -0.20835292232393379 0 -0.039659344593441261 -0.20090712977838049 0 -0.039659344593441261 -0.20090712977838049 0 -0.049171036143441697 -0.20095068018059209 0 -0.041055678651922348 -0.2256235604874875 0 -0.02919644603132129 -0.2221986071991269 0 -0.039659344593441261 -0.20090712977838049 0 -0.041055678651922348 -0.2256235604874875 0 -0.030857658388656541 -0.2362056796655021 0 -0.02919644603132129 -0.2221986071991269 0 -0.041055678651922348 -0.2256235604874875 0 -0.041055678651922348 -0.2256235604874875 0 -0.058782723788501128 -0.22597342721149569 0 -0.050902643065861071 -0.24349095896983161 0 -0.054685660498906767 -0.208722786400212 0 -0.041055678651922348 -0.2256235604874875 0 -0.058782723788501128 -0.22597342721149569 0 -0.058782723788501128 -0.22597342721149569 0 -0.050902643065861071 -0.24349095896983161 0 -0.077646128541525 -0.24813916513248199 0 -0.032940321160402269 -0.25029644079438251 0 -0.041055678651922348 -0.2256235604874875 0 -0.050902643065861071 -0.24349095896983161 0 -0.032940321160402269 -0.25029644079438251 0 -0.030857658388656541 -0.2362056796655021 0 -0.041055678651922348 -0.2256235604874875 0 -0.032940321160402269 -0.25029644079438251 0 -0.041055678651922348 -0.2256235604874875 0 -0.077646128541525 -0.24813916513248199 0 -0.082279147983734507 -0.22463132376819159 0 -0.088104632666654803 -0.24175912157342011 0 -0.077646128541525 -0.24813916513248199 0 -0.082279147983734507 -0.22463132376819159 0 -0.077646128541525 -0.24813916513248199 0 -0.076460310480956056 -0.22460468153401941 0 -0.058782723788501128 -0.22597342721149569 0 -0.077646128541525 -0.24813916513248199 0 -0.076460310480956056 -0.22460468153401941 0 -0.058782723788501128 -0.22597342721149569 0 -0.076460310480956056 -0.22460468153401941 0 -0.066300796797188796 -0.21509277327032089 0 -0.077646128541525 -0.24813916513248199 0 -0.076460310480956056 -0.22460468153401941 0 -0.082279147983734507 -0.22463132376819159 0 -0.088104632666654803 -0.24175912157342011 0 -0.091210523848666042 -0.22145825259936749 0 -0.096373561920523113 -0.2318247108995648 0 -0.088104632666654803 -0.24175912157342011 0 -0.082279147983734507 -0.22463132376819159 0 -0.091210523848666042 -0.22145825259936749 0 -0.088104632666654803 -0.24175912157342011 0 -0.091210523848666042 -0.22145825259936749 0 -0.082279147983734507 -0.22463132376819159 0 -0.075274492420391248 -0.20107019793555661 0 -0.086912167425944153 -0.20112348240390099 0 -0.082279147983734507 -0.22463132376819159 0 -0.091210523848666042 -0.22145825259936749 0 -0.086912167425944153 -0.20112348240390099 0 -0.091210523848666042 -0.22145825259936749 0 -0.094316415030678002 -0.20115738362531499 0 -0.091210523848666042 -0.22145825259936749 0 -0.086912167425944153 -0.20112348240390099 0 -0.094316415030678002 -0.20115738362531499 0 -0.082279147983734507 -0.22463132376819159 0 -0.086912167425944153 -0.20112348240390099 0 -0.076460310480956056 -0.22460468153401941 0 -0.066300796797188796 -0.21509277327032089 0 -0.075274492420391248 -0.20107019793555661 0 -0.054685660498906767 -0.208722786400212 0 -0.066300796797188796 -0.21509277327032089 0 -0.075274492420391248 -0.20107019793555661 0 -0.076460310480956056 -0.22460468153401941 0 -0.082279147983734507 -0.22463132376819159 0 -0.075274492420391248 -0.20107019793555661 0 -0.076460310480956056 -0.22460468153401941 0 -0.075274492420391248 -0.20107019793555661 0 -0.053965917040092279 -0.20097263410860849 0 -0.075274492420391248 -0.20107019793555661 0 -0.070100108945259781 -0.19629415080948229 0 -0.053965917040092279 -0.20097263410860849 0 -0.070100108945259781 -0.19629415080948229 0 -0.064566778430722005 -0.1899668467895553 0 -0.053965917040092279 -0.20097263410860849 0 -0.075274492420391248 -0.20107019793555661 0 -0.075274492420391248 -0.20107019793555661 0 -0.075113373652805612 -0.19571605274700751 0 -0.079733979793737045 -0.19605477611637959 0 -0.075274492420391248 -0.20107019793555661 0 -0.075113373652805612 -0.19571605274700751 0 -0.070100108945259781 -0.19629415080948229 0 -0.070100108945259781 -0.19629415080948229 0 -0.064566778430722005 -0.1899668467895553 0 -0.075377056328755521 -0.19008301367616509 0 -0.075113373652805612 -0.19571605274700751 0 -0.070100108945259781 -0.19629415080948229 0 -0.075377056328755521 -0.19008301367616509 0 -0.075113373652805612 -0.19571605274700751 0 -0.075377056328755521 -0.19008301367616509 0 -0.079733979793737045 -0.19605477611637959 0 -0.075377056328755521 -0.19008301367616509 0 -0.079733979793737045 -0.19605477611637959 0 -0.089423753135733974 -0.18837975033564619 0 -0.079733979793737045 -0.19605477611637959 0 -0.086912167425944153 -0.20112348240390099 0 -0.089423753135733974 -0.18837975033564619 0 -0.075274492420391248 -0.20107019793555661 0 -0.086912167425944153 -0.20112348240390099 0 -0.075274492420391248 -0.20107019793555661 0 -0.079733979793737045 -0.19605477611637959 0 -0.086912167425944153 -0.20112348240390099 0 -0.086912167425944153 -0.20112348240390099 0 -0.095804572093432044 -0.1914304229002349 0 -0.094316415030678002 -0.20115738362531499 0 -0.086912167425944153 -0.20112348240390099 0 -0.094316415030678002 -0.20115738362531499 0 -0.086912167425944153 -0.20112348240390099 0 -0.089423753135733974 -0.18837975033564619 0 -0.086912167425944153 -0.20112348240390099 0 -0.089423753135733974 -0.18837975033564619 0 -0.095804572093432044 -0.1914304229002349 0 -0.089423753135733974 -0.18837975033564619 0 -0.095804572093432044 -0.1914304229002349 0 -0.090500110278716836 -0.18291833725845449 0 -0.089423753135733974 -0.18837975033564619 0 -0.095804572093432044 -0.1914304229002349 0 -0.095804572093432044 -0.1914304229002349 0 -0.1055884512206339 -0.19610810014299959 0 -0.099028938128851704 -0.1826882615985625 0 -0.095804572093432044 -0.1914304229002349 0 -0.1055884512206339 -0.19610810014299959 0 -0.095804572093432044 -0.1914304229002349 0 -0.099726318276372988 -0.19712665769699661 0 -0.1055884512206339 -0.19610810014299959 0 -0.094316415030678002 -0.20115738362531499 0 -0.099726318276372988 -0.19712665769699661 0 -0.1069539478940484 -0.20121524606085259 0 -0.095804572093432044 -0.1914304229002349 0 -0.094316415030678002 -0.20115738362531499 0 -0.095804572093432044 -0.1914304229002349 0 -0.094316415030678002 -0.20115738362531499 0 -0.099726318276372988 -0.19712665769699661 0 -0.094316415030678002 -0.20115738362531499 0 -0.1069539478940484 -0.20121524606085259 0 -0.1006154135170836 -0.20550376286944089 0 -0.094316415030678002 -0.20115738362531499 0 -0.1069539478940484 -0.20121524606085259 0 -0.099726318276372988 -0.19712665769699661 0 -0.1069539478940484 -0.20121524606085259 0 -0.1055884512206339 -0.19610810014299959 0 -0.1069539478940484 -0.20121524606085259 0 -0.1055884512206339 -0.19610810014299959 0 -0.1143022105317214 -0.19176920984990589 0 -0.1234142843990034 -0.20129061165398179 0 -0.118443644943155 -0.18313735869921541 0 -0.1234142843990034 -0.20129061165398179 0 -0.118443644943155 -0.18313735869921541 0 -0.12836978379805469 -0.19505845874684749 0 -0.1055884512206339 -0.19610810014299959 0 -0.1143022105317214 -0.19176920984990589 0 -0.1095912747331507 -0.1796343382558257 0 -0.1234142843990034 -0.20129061165398179 0 -0.118443644943155 -0.18313735869921541 0 -0.1234142843990034 -0.20129061165398179 0 -0.11636069704563699 -0.20125831597190941 0 -0.12446659453658469 -0.2051337493999616 0 -0.1143022105317214 -0.19176920984990589 0 -0.1234142843990034 -0.20129061165398179 0 -0.11636069704563699 -0.20125831597190941 0 -0.1234142843990034 -0.20129061165398179 0 -0.11636069704563699 -0.20125831597190941 0 -0.1055884512206339 -0.19610810014299959 0 -0.1143022105317214 -0.19176920984990589 0 -0.11636069704563699 -0.20125831597190941 0 -0.1055884512206339 -0.19610810014299959 0 -0.11636069704563699 -0.20125831597190941 0 -0.1069539478940484 -0.20121524606085259 0 -0.11636069704563699 -0.20125831597190941 0 -0.116503442890511 -0.20615462214379501 0 -0.1069539478940484 -0.20121524606085259 0 -0.1055884512206339 -0.19610810014299959 0 -0.11636069704563699 -0.20125831597190941 0 -0.1069539478940484 -0.20121524606085259 0 -0.11636069704563699 -0.20125831597190941 0 -0.1069539478940484 -0.20121524606085259 0 -0.1182325320857732 -0.21701117714245771 0 -0.1146322195844853 -0.229933041338924 0 -0.1069539478940484 -0.20121524606085259 0 -0.1146322195844853 -0.229933041338924 0 -0.12446659453658469 -0.2051337493999616 0 -0.1182325320857732 -0.21701117714245771 0 -0.12964778408632779 -0.2240559515308029 0 -0.1069539478940484 -0.20121524606085259 0 -0.116503442890511 -0.20615462214379501 0 -0.1182325320857732 -0.21701117714245771 0 -0.116503442890511 -0.20615462214379501 0 -0.12446659453658469 -0.2051337493999616 0 -0.1182325320857732 -0.21701117714245771 0 -0.11636069704563699 -0.20125831597190941 0 -0.116503442890511 -0.20615462214379501 0 -0.12446659453658469 -0.2051337493999616 0 -0.11636069704563699 -0.20125831597190941 0 -0.12446659453658469 -0.2051337493999616 0 -0.1234142843990034 -0.20129061165398179 0 -0.12446659453658469 -0.2051337493999616 0 -0.1069539478940484 -0.20121524606085259 0 -0.1039432587622498 -0.21234961129803451 0 -0.1146322195844853 -0.229933041338924 0 -0.091210523848666042 -0.22145825259936749 0 -0.094316415030678002 -0.20115738362531499 0 -0.098742607236989521 -0.21208478243994361 0 -0.1039432587622498 -0.21234961129803451 0 -0.098742607236989521 -0.21208478243994361 0 -0.10362742502627011 -0.2199549018075595 0 -0.1069539478940484 -0.20121524606085259 0 -0.1039432587622498 -0.21234961129803451 0 -0.1006154135170836 -0.20550376286944089 0 -0.1039432587622498 -0.21234961129803451 0 -0.1006154135170836 -0.20550376286944089 0 -0.098742607236989521 -0.21208478243994361 0 -0.094316415030678002 -0.20115738362531499 0 -0.1006154135170836 -0.20550376286944089 0 -0.098742607236989521 -0.21208478243994361 0 -0.091210523848666042 -0.22145825259936749 0 -0.098742607236989521 -0.21208478243994361 0 -0.10362742502627011 -0.2199549018075595 0 -0.096373561920523113 -0.2318247108995648 0 -0.10362742502627011 -0.2199549018075595 0 -0.1025516661405015 -0.24412656761791199 0 -0.1039432587622498 -0.21234961129803451 0 -0.10362742502627011 -0.2199549018075595 0 -0.1146322195844853 -0.229933041338924 0 -0.10362742502627011 -0.2199549018075595 0 -0.1025516661405015 -0.24412656761791199 0 -0.10362742502627011 -0.2199549018075595 0 -0.11057817055071439 -0.23713955200355691 0 -0.1025516661405015 -0.24412656761791199 0 -0.091210523848666042 -0.22145825259936749 0 -0.096373561920523113 -0.2318247108995648 0 -0.10362742502627011 -0.2199549018075595 0 -0.10362742502627011 -0.2199549018075595 0 -0.1146322195844853 -0.229933041338924 0 -0.11057817055071439 -0.23713955200355691 0 -0.1182325320857732 -0.21701117714245771 0 -0.1146322195844853 -0.229933041338924 0 -0.12964778408632779 -0.2240559515308029 0 -0.1146322195844853 -0.229933041338924 0 -0.12594535918601221 -0.23537450645762351 0 -0.12964778408632779 -0.2240559515308029 0 -0.1146322195844853 -0.229933041338924 0 -0.11057817055071439 -0.23713955200355691 0 -0.11992695639240671 -0.24305274461581289 0 -0.1146322195844853 -0.229933041338924 0 -0.11992695639240671 -0.24305274461581289 0 -0.12594535918601221 -0.23537450645762351 0 -0.11992695639240671 -0.24305274461581289 0 -0.12594535918601221 -0.23537450645762351 0 -0.1270777831465402 -0.24161244513161839 0 -0.11057817055071439 -0.23713955200355691 0 -0.11992695639240671 -0.24305274461581289 0 -0.1121525856099083 -0.24863050463757599 0 -0.1183855941197941 -0.25651062511641259 0 -0.11992695639240671 -0.24305274461581289 0 -0.1121525856099083 -0.24863050463757599 0 -0.1097432552782682 -0.2572086698476283 0 -0.1121525856099083 -0.24863050463757599 0 -0.1025516661405015 -0.24412656761791199 0 -0.11057817055071439 -0.23713955200355691 0 -0.1121525856099083 -0.24863050463757599 0 -0.1025516661405015 -0.24412656761791199 0 -0.088104632666654803 -0.24175912157342011 0 -0.096373561920523113 -0.2318247108995648 0 -0.1025516661405015 -0.24412656761791199 0 -0.093680051977193257 -0.25300014610948141 0 -0.088104632666654803 -0.24175912157342011 0 -0.1025516661405015 -0.24412656761791199 0 -0.091208904987890735 -0.14232661368977559 0 -0.087323419063827665 -0.1566704494577609 0 -0.098398678104261977 -0.16921735691638781 0 -0.081276062778159672 -0.14883202435870879 0 -0.08710950077230438 -0.14178266396580899 0 -0.074302444905730333 -0.14290824730771751 0 -0.081276062778159672 -0.14883202435870879 0 -0.091208904987890735 -0.14232661368977559 0 -0.087323419063827665 -0.1566704494577609 0 -0.081276062778159672 -0.14883202435870879 0 -0.08710950077230438 -0.14178266396580899 0 -0.091208904987890735 -0.14232661368977559 0 -0.08710950077230438 -0.14178266396580899 0 -0.091208904987890735 -0.14232661368977559 0 -0.091208904987890735 -0.14232661368977559 0 -0.089131397015513494 -0.13455644729756691 0 -0.089131397015513494 -0.13455644729756691 0 -0.072915517223638954 -0.12670463451369329 0 -0.074302444905730333 -0.14290824730771751 0 -0.08710950077230438 -0.14178266396580899 0 -0.091208904987890735 -0.14232661368977559 0 -0.089131397015513494 -0.13455644729756691 0 -0.08710950077230438 -0.14178266396580899 0 -0.089131397015513494 -0.13455644729756691 0 -0.074302444905730333 -0.14290824730771751 0 -0.089131397015513494 -0.13455644729756691 0 -0.074302444905730333 -0.14290824730771751 0 -0.061100100412547438 -0.13647315015658409 0 -0.072915517223638954 -0.12670463451369329 0 -0.074302444905730333 -0.14290824730771751 0 -0.060928146748241367 -0.123537549367131 0 -0.061100100412547438 -0.13647315015658409 0 -0.072915517223638954 -0.12670463451369329 0 -0.059473492795946999 -0.1512600473178678 0 -0.081276062778159672 -0.14883202435870879 0 -0.074302444905730333 -0.14290824730771751 0 -0.059473492795946999 -0.1512600473178678 0 -0.081276062778159672 -0.14883202435870879 0 -0.078410030384998497 -0.16630580286617139 0 -0.059473492795946999 -0.1512600473178678 0 -0.074302444905730333 -0.14290824730771751 0 -0.059473492795946999 -0.1512600473178678 0 -0.061100100412547438 -0.13647315015658409 0 -0.074302444905730333 -0.14290824730771751 0 -0.061817946007188637 -0.1647032604190713 0 -0.070259181001566293 -0.17921715932508539 0 -0.078410030384998497 -0.16630580286617139 0 -0.059473492795946999 -0.1512600473178678 0 -0.078410030384998497 -0.16630580286617139 0 -0.061817946007188637 -0.1647032604190713 0 -0.059473492795946999 -0.1512600473178678 0 -0.078410030384998497 -0.16630580286617139 0 -0.064566778430722005 -0.1899668467895553 0 -0.075377056328755521 -0.19008301367616509 0 -0.070259181001566293 -0.17921715932508539 0 -0.070259181001566293 -0.17921715932508539 0 -0.08402443889557612 -0.1788939005998389 0 -0.078410030384998497 -0.16630580286617139 0 -0.089423753135733974 -0.18837975033564619 0 -0.070259181001566293 -0.17921715932508539 0 -0.075377056328755521 -0.19008301367616509 0 -0.089423753135733974 -0.18837975033564619 0 -0.070259181001566293 -0.17921715932508539 0 -0.078410030384998497 -0.16630580286617139 0 -0.098398678104261977 -0.16921735691638781 0 -0.097346567974052028 -0.18135155841447259 0 -0.078410030384998497 -0.16630580286617139 0 -0.097346567974052028 -0.18135155841447259 0 -0.08402443889557612 -0.1788939005998389 0 -0.078410030384998497 -0.16630580286617139 0 -0.097346567974052028 -0.18135155841447259 0 -0.089423753135733974 -0.18837975033564619 0 -0.070259181001566293 -0.17921715932508539 0 -0.08402443889557612 -0.1788939005998389 0 -0.089423753135733974 -0.18837975033564619 0 -0.08402443889557612 -0.1788939005998389 0 -0.090500110278716836 -0.18291833725845449 0 -0.08402443889557612 -0.1788939005998389 0 -0.090500110278716836 -0.18291833725845449 0 -0.097346567974052028 -0.18135155841447259 0 -0.089423753135733974 -0.18837975033564619 0 -0.090500110278716836 -0.18291833725845449 0 -0.081276062778159672 -0.14883202435870879 0 -0.078410030384998497 -0.16630580286617139 0 -0.087323419063827665 -0.1566704494577609 0 -0.078410030384998497 -0.16630580286617139 0 -0.087323419063827665 -0.1566704494577609 0 -0.098398678104261977 -0.16921735691638781 0 -0.098398678104261977 -0.16921735691638781 0 -0.1095912747331507 -0.1796343382558257 0 -0.1134730054873082 -0.16498410574444861 0 -0.098398678104261977 -0.16921735691638781 0 -0.1134730054873082 -0.16498410574444861 0 -0.1057127461594554 -0.15566112818699529 0 -0.1055884512206339 -0.19610810014299959 0 -0.098398678104261977 -0.16921735691638781 0 -0.099028938128851704 -0.1826882615985625 0 -0.1055884512206339 -0.19610810014299959 0 -0.098398678104261977 -0.16921735691638781 0 -0.1055884512206339 -0.19610810014299959 0 -0.098398678104261977 -0.16921735691638781 0 -0.1095912747331507 -0.1796343382558257 0 -0.095804572093432044 -0.1914304229002349 0 -0.097346567974052028 -0.18135155841447259 0 -0.099028938128851704 -0.1826882615985625 0 -0.095804572093432044 -0.1914304229002349 0 -0.090500110278716836 -0.18291833725845449 0 -0.097346567974052028 -0.18135155841447259 0 -0.095804572093432044 -0.1914304229002349 0 -0.097346567974052028 -0.18135155841447259 0 -0.097346567974052028 -0.18135155841447259 0 -0.099028938128851704 -0.1826882615985625 0 -0.098398678104261977 -0.16921735691638781 0 -0.097346567974052028 -0.18135155841447259 0 -0.099028938128851704 -0.1826882615985625 0 -0.118443644943155 -0.18313735869921541 0 -0.1134730054873082 -0.16498410574444861 0 -0.1288769000074067 -0.1787922372229141 0 -0.118443644943155 -0.18313735869921541 0 -0.1134730054873082 -0.16498410574444861 0 -0.1095912747331507 -0.1796343382558257 0 -0.118443644943155 -0.18313735869921541 0 -0.1134730054873082 -0.16498410574444861 0 -0.1143022105317214 -0.19176920984990589 0 -0.1095912747331507 -0.1796343382558257 0 -0.118443644943155 -0.18313735869921541 0 -0.1134730054873082 -0.16498410574444861 0 -0.1197703960583608 -0.14611643639736929 0 -0.1290470673658046 -0.1573335562640088 0 -0.1134730054873082 -0.16498410574444861 0 -0.1197703960583608 -0.14611643639736929 0 -0.1057127461594554 -0.15566112818699529 0 -0.091208904987890735 -0.14232661368977559 0 -0.1197703960583608 -0.14611643639736929 0 -0.1055319536065798 -0.13433424813048789 0 -0.091208904987890735 -0.14232661368977559 0 -0.1197703960583608 -0.14611643639736929 0 -0.091208904987890735 -0.14232661368977559 0 -0.098398678104261977 -0.16921735691638781 0 -0.091208904987890735 -0.14232661368977559 0 -0.1197703960583608 -0.14611643639736929 0 -0.1057127461594554 -0.15566112818699529 0 -0.091208904987890735 -0.14232661368977559 0 -0.098398678104261977 -0.16921735691638781 0 -0.1057127461594554 -0.15566112818699529 0 -0.11422347955810171 -0.1204243593602408 0 -0.089131397015513494 -0.13455644729756691 0 -0.1055319536065798 -0.13433424813048789 0 -0.091208904987890735 -0.14232661368977559 0 -0.089131397015513494 -0.13455644729756691 0 -0.1055319536065798 -0.13433424813048789 0 -0.11422347955810171 -0.1204243593602408 0 -0.089131397015513494 -0.13455644729756691 0 -0.11422347955810171 -0.1204243593602408 0 -0.1197703960583608 -0.14611643639736929 0 -0.13445671698849809 -0.1291024538471422 0 -0.11422347955810171 -0.1204243593602408 0 -0.1197703960583608 -0.14611643639736929 0 -0.1055319536065798 -0.13433424813048789 0 -0.1483318871288308 -0.14990625910496369 0 -0.16449988742022109 -0.13664022397910389 0 -0.1531014227808439 -0.1221458571451004 0 -0.13445671698849809 -0.1291024538471422 0 -0.1483318871288308 -0.14990625910496369 0 -0.1531014227808439 -0.1221458571451004 0 -0.1197703960583608 -0.14611643639736929 0 -0.1483318871288308 -0.14990625910496369 0 -0.1197703960583608 -0.14611643639736929 0 -0.13445671698849809 -0.1291024538471422 0 -0.1483318871288308 -0.14990625910496369 0 -0.1197703960583608 -0.14611643639736929 0 -0.1483318871288308 -0.14990625910496369 0 -0.1290470673658046 -0.1573335562640088 0 -0.1134730054873082 -0.16498410574444861 0 -0.13461298078871861 -0.16832742380925381 0 -0.1288769000074067 -0.1787922372229141 0 -0.1134730054873082 -0.16498410574444861 0 -0.1290470673658046 -0.1573335562640088 0 -0.13461298078871861 -0.16832742380925381 0 -0.1483318871288308 -0.14990625910496369 0 -0.1290470673658046 -0.1573335562640088 0 -0.13461298078871861 -0.16832742380925381 0 -0.1288769000074067 -0.1787922372229141 0 -0.13667151748925299 -0.18732448341615179 0 -0.12964513627792831 -0.18854704193980709 0 -0.118443644943155 -0.18313735869921541 0 -0.1288769000074067 -0.1787922372229141 0 -0.12964513627792831 -0.18854704193980709 0 -0.13461298078871861 -0.16832742380925381 0 -0.1288769000074067 -0.1787922372229141 0 -0.13971937495991149 -0.1792470101286355 0 -0.13971937495991149 -0.1792470101286355 0 -0.13667151748925299 -0.18732448341615179 0 -0.14496415935730611 -0.1865433765957375 0 -0.1288769000074067 -0.1787922372229141 0 -0.13971937495991149 -0.1792470101286355 0 -0.13667151748925299 -0.18732448341615179 0 -0.13461298078871861 -0.16832742380925381 0 -0.13971937495991149 -0.1792470101286355 0 -0.15185728900885839 -0.17281716391360821 0 -0.13971937495991149 -0.1792470101286355 0 -0.14496415935730611 -0.1865433765957375 0 -0.15185728900885839 -0.17281716391360821 0 -0.14496415935730611 -0.1865433765957375 0 -0.15185728900885839 -0.17281716391360821 0 -0.15433817598466459 -0.18776234762491931 0 -0.1483318871288308 -0.14990625910496369 0 -0.13461298078871861 -0.16832742380925381 0 -0.15185728900885839 -0.17281716391360821 0 -0.1483318871288308 -0.14990625910496369 0 -0.15185728900885839 -0.17281716391360821 0 -0.1768933781993007 -0.15369608181255809 0 -0.15185728900885839 -0.17281716391360821 0 -0.16517877359736971 -0.18077311964873491 0 -0.1768933781993007 -0.15369608181255809 0 -0.16517877359736971 -0.18077311964873491 0 -0.15433817598466459 -0.18776234762491931 0 -0.16707343948115469 -0.19329854854562631 0 -0.15185728900885839 -0.17281716391360821 0 -0.16517877359736971 -0.18077311964873491 0 -0.15433817598466459 -0.18776234762491931 0 -0.16517877359736971 -0.18077311964873491 0 -0.17993745220376059 -0.17895489523397801 0 -0.16707343948115469 -0.19329854854562631 0 -0.16517877359736971 -0.18077311964873491 0 -0.17993745220376059 -0.17895489523397801 0 -0.1768933781993007 -0.15369608181255809 0 -0.17993745220376059 -0.17895489523397801 0 -0.1768933781993007 -0.15369608181255809 0 -0.19905977422349169 -0.1755558360643551 0 -0.1768933781993007 -0.15369608181255809 0 -0.17856324423929071 -0.13411692648003359 0 -0.16449988742022109 -0.13664022397910389 0 -0.1768933781993007 -0.15369608181255809 0 -0.17856324423929071 -0.13411692648003359 0 -0.1900158864605431 -0.1418606691544825 0 -0.17856324423929071 -0.13411692648003359 0 -0.1912596026832544 -0.12883579632457359 0 -0.1900158864605431 -0.1418606691544825 0 -0.17856324423929071 -0.13411692648003359 0 -0.1912596026832544 -0.12883579632457359 0 -0.18212358698306741 -0.12142770117184561 0 -0.17856324423929071 -0.13411692648003359 0 -0.18212358698306741 -0.12142770117184561 0 -0.16904936396502779 -0.1225698900008125 0 -0.16449988742022109 -0.13664022397910389 0 -0.16904936396502779 -0.1225698900008125 0 -0.1531014227808439 -0.1221458571451004 0 -0.17856324423929071 -0.13411692648003359 0 -0.16449988742022109 -0.13664022397910389 0 -0.16904936396502779 -0.1225698900008125 0 -0.1483318871288308 -0.14990625910496369 0 -0.1768933781993007 -0.15369608181255809 0 -0.1483318871288308 -0.14990625910496369 0 -0.1768933781993007 -0.15369608181255809 0 -0.16449988742022109 -0.13664022397910389 0 -0.15566934165753701 -0.24482136105764621 0 -0.13482897363606841 -0.24297815366164491 0 -0.14564999181442231 -0.22989611270817639 0 -0.15566934165753701 -0.24482136105764621 0 -0.14564999181442231 -0.22989611270817639 0 -0.16429012863802009 -0.23491512272004891 0 -0.15821309250511281 -0.26118480488572993 0 -0.15566934165753701 -0.24482136105764621 0 -0.13482897363606841 -0.24297815366164491 0 -0.1283361407779757 -0.25159171728621699 0 -0.13482897363606841 -0.24297815366164491 0 -0.1310987251445577 -0.2446583467236331 0 -0.1283361407779757 -0.25159171728621699 0 -0.1310987251445577 -0.2446583467236331 0 -0.1270777831465402 -0.24161244513161839 0 -0.1283361407779757 -0.25159171728621699 0 -0.11992695639240671 -0.24305274461581289 0 -0.1270777831465402 -0.24161244513161839 0 -0.13482897363606841 -0.24297815366164491 0 -0.1310987251445577 -0.2446583467236331 0 -0.1270777831465402 -0.24161244513161839 0 -0.13482897363606841 -0.24297815366164491 0 -0.12594535918601221 -0.23537450645762351 0 -0.1270777831465402 -0.24161244513161839 0 -0.13482897363606841 -0.24297815366164491 0 -0.12964778408632779 -0.2240559515308029 0 -0.14564999181442231 -0.22989611270817639 0 -0.13482897363606841 -0.24297815366164491 0 -0.12594535918601221 -0.23537450645762351 0 -0.12964778408632779 -0.2240559515308029 0 -0.13482897363606841 -0.24297815366164491 0 -0.12964778408632779 -0.2240559515308029 0 -0.12964778408632779 -0.2240559515308029 0 -0.14564999181442231 -0.22989611270817639 0 -0.13906082520362789 -0.21424948005767519 0 -0.14564999181442231 -0.22989611270817639 0 -0.1532157355819776 -0.21469763412746851 0 -0.16429012863802009 -0.23491512272004891 0 -0.14564999181442231 -0.22989611270817639 0 -0.1532157355819776 -0.21469763412746851 0 -0.13906082520362789 -0.21424948005767519 0 -0.1532157355819776 -0.21469763412746851 0 -0.1421413425259351 -0.1944801455348881 0 -0.14344356041104711 -0.20138231805780499 0 -0.1532157355819776 -0.21469763412746851 0 -0.1421413425259351 -0.1944801455348881 0 -0.1532157355819776 -0.21469763412746851 0 -0.13906082520362789 -0.21424948005767519 0 -0.14344356041104711 -0.20138231805780499 0 -0.12964778408632779 -0.2240559515308029 0 -0.13906082520362789 -0.21424948005767519 0 -0.12775347419704111 -0.20670520812175669 0 -0.12446659453658469 -0.2051337493999616 0 -0.12964778408632779 -0.2240559515308029 0 -0.12775347419704111 -0.20670520812175669 0 -0.12446659453658469 -0.2051337493999616 0 -0.12964778408632779 -0.2240559515308029 0 -0.1234142843990034 -0.20129061165398179 0 -0.12775347419704111 -0.20670520812175669 0 -0.1342433848347403 -0.2059710501757869 0 -0.1234142843990034 -0.20129061165398179 0 -0.12446659453658469 -0.2051337493999616 0 -0.12775347419704111 -0.20670520812175669 0 -0.12446659453658469 -0.2051337493999616 0 -0.12775347419704111 -0.20670520812175669 0 -0.13906082520362789 -0.21424948005767519 0 -0.12775347419704111 -0.20670520812175669 0 -0.1342433848347403 -0.2059710501757869 0 -0.13906082520362789 -0.21424948005767519 0 -0.1342433848347403 -0.2059710501757869 0 -0.14344356041104711 -0.20138231805780499 0 -0.13448747671815081 -0.19705371152474219 0 -0.1421413425259351 -0.1944801455348881 0 -0.14344356041104711 -0.20138231805780499 0 -0.1234142843990034 -0.20129061165398179 0 -0.1342433848347403 -0.2059710501757869 0 -0.14344356041104711 -0.20138231805780499 0 -0.1234142843990034 -0.20129061165398179 0 -0.13448747671815081 -0.19705371152474219 0 -0.14344356041104711 -0.20138231805780499 0 -0.1234142843990034 -0.20129061165398179 0 -0.14344356041104711 -0.20138231805780499 0 -0.1234142843990034 -0.20129061165398179 0 -0.13448747671815081 -0.19705371152474219 0 -0.12836978379805469 -0.19505845874684749 0 -0.118443644943155 -0.18313735869921541 0 -0.12836978379805469 -0.19505845874684749 0 -0.12964513627792831 -0.18854704193980709 0 -0.12836978379805469 -0.19505845874684749 0 -0.12964513627792831 -0.18854704193980709 0 -0.1350684124567138 -0.19305702363018909 0 -0.13448747671815081 -0.19705371152474219 0 -0.12836978379805469 -0.19505845874684749 0 -0.1350684124567138 -0.19305702363018909 0 -0.13667151748925299 -0.18732448341615179 0 -0.12964513627792831 -0.18854704193980709 0 -0.1350684124567138 -0.19305702363018909 0 -0.13448747671815081 -0.19705371152474219 0 -0.1350684124567138 -0.19305702363018909 0 -0.1421413425259351 -0.1944801455348881 0 -0.13667151748925299 -0.18732448341615179 0 -0.1350684124567138 -0.19305702363018909 0 -0.1421413425259351 -0.1944801455348881 0 -0.1532157355819776 -0.21469763412746851 0 -0.1421413425259351 -0.1944801455348881 0 -0.15666351948114629 -0.1995899832452937 0 -0.13667151748925299 -0.18732448341615179 0 -0.14496415935730611 -0.1865433765957375 0 -0.1421413425259351 -0.1944801455348881 0 -0.14496415935730611 -0.1865433765957375 0 -0.1421413425259351 -0.1944801455348881 0 -0.15433817598466459 -0.18776234762491931 0 -0.1421413425259351 -0.1944801455348881 0 -0.15433817598466459 -0.18776234762491931 0 -0.15666351948114629 -0.1995899832452937 0 -0.15433817598466459 -0.18776234762491931 0 -0.15666351948114629 -0.1995899832452937 0 -0.16707343948115469 -0.19329854854562631 0 -0.15666351948114629 -0.1995899832452937 0 -0.16707343948115469 -0.19329854854562631 0 -0.16732224548458891 -0.20842311436722119 0 -0.16707343948115469 -0.19329854854562631 0 -0.17975878066101059 -0.20042989322362739 0 -0.16732224548458891 -0.20842311436722119 0 -0.17993745220376059 -0.17895489523397801 0 -0.17975878066101059 -0.20042989322362739 0 -0.19266467917721081 -0.1936257676085566 0 -0.17993745220376059 -0.17895489523397801 0 -0.16707343948115469 -0.19329854854562631 0 -0.17975878066101059 -0.20042989322362739 0 -0.17975878066101059 -0.20042989322362739 0 -0.18070391625864071 -0.21863984915545301 0 -0.19253239785726259 -0.2093467412910768 0 -0.17975878066101059 -0.20042989322362739 0 -0.18070391625864071 -0.21863984915545301 0 -0.16732224548458891 -0.20842311436722119 0 -0.1532157355819776 -0.21469763412746851 0 -0.15666351948114629 -0.1995899832452937 0 -0.16732224548458891 -0.20842311436722119 0 -0.1532157355819776 -0.21469763412746851 0 -0.16732224548458891 -0.20842311436722119 0 -0.16429012863802009 -0.23491512272004891 0 -0.1532157355819776 -0.21469763412746851 0 -0.16429012863802009 -0.23491512272004891 0 -0.18070391625864071 -0.21863984915545301 0 -0.16732224548458891 -0.20842311436722119 0 -0.16429012863802009 -0.23491512272004891 0 -0.18070391625864071 -0.21863984915545301 0 -0.18601458812680871 -0.23629827425452701 0 -0.16429012863802009 -0.23491512272004891 0 -0.18070391625864071 -0.21863984915545301 0 -0.18601458812680871 -0.23629827425452701 0 -0.19270158591305361 -0.22296204550849591 0 -0.17536452169406261 -0.25513261131262932 0 -0.18601458812680871 -0.23629827425452701 0 -0.1971211098569064 -0.2485562144643311 0 -0.17536452169406261 -0.25513261131262932 0 -0.18601458812680871 -0.23629827425452701 0 -0.16429012863802009 -0.23491512272004891 0 -0.17536452169406261 -0.25513261131262932 0 -0.16429012863802009 -0.23491512272004891 0 -0.17536452169406261 -0.25513261131262932 0 -0.15566934165753701 -0.24482136105764621 0 -0.16429012863802009 -0.23491512272004891 0 -0.2040044810152343 -0.23377727090047351 0 -0.22181314593257209 -0.22697511150882529 0 -0.22025275826160279 -0.2471257797298928 0 -0.1971211098569064 -0.2485562144643311 0 -0.2040044810152343 -0.23377727090047351 0 -0.22025275826160279 -0.2471257797298928 0 -0.18601458812680871 -0.23629827425452701 0 -0.1971211098569064 -0.2485562144643311 0 -0.2040044810152343 -0.23377727090047351 0 -0.18601458812680871 -0.23629827425452701 0 -0.19270158591305361 -0.22296204550849591 0 -0.2040044810152343 -0.23377727090047351 0 -0.19270158591305361 -0.22296204550849591 0 -0.20646661184779291 -0.2209366033754204 0 -0.2040044810152343 -0.23377727090047351 0 -0.20646661184779291 -0.2209366033754204 0 -0.2040044810152343 -0.23377727090047351 0 -0.22181314593257209 -0.22697511150882529 0 -0.20646661184779291 -0.2209366033754204 0 -0.22181314593257209 -0.22697511150882529 0 -0.20646661184779291 -0.2209366033754204 0 -0.21966781828876961 -0.21222017746694699 0 -0.22181314593257209 -0.22697511150882529 0 -0.20646661184779291 -0.2209366033754204 0 -0.20611948272011121 -0.20304611138236681 0 -0.21966781828876961 -0.21222017746694699 0 -0.20611948272011121 -0.20304611138236681 0 -0.21897926871800019 -0.19669337567287831 0 -0.21966781828876961 -0.21222017746694699 0 -0.20646661184779291 -0.2209366033754204 0 -0.19253239785726259 -0.2093467412910768 0 -0.20611948272011121 -0.20304611138236681 0 -0.19270158591305361 -0.22296204550849591 0 -0.20646661184779291 -0.2209366033754204 0 -0.19253239785726259 -0.2093467412910768 0 -0.18070391625864071 -0.21863984915545301 0 -0.19270158591305361 -0.22296204550849591 0 -0.19253239785726259 -0.2093467412910768 0 -0.19266467917721081 -0.1936257676085566 0 -0.20611948272011121 -0.20304611138236681 0 -0.2083219237785757 -0.1873320277690235 0 -0.17975878066101059 -0.20042989322362739 0 -0.19253239785726259 -0.2093467412910768 0 -0.19266467917721081 -0.1936257676085566 0 -0.19253239785726259 -0.2093467412910768 0 -0.19266467917721081 -0.1936257676085566 0 -0.20611948272011121 -0.20304611138236681 0 -0.20611948272011121 -0.20304611138236681 0 -0.21897926871800019 -0.19669337567287831 0 -0.2083219237785757 -0.1873320277690235 0 -0.21897926871800019 -0.19669337567287831 0 -0.23230424975577199 -0.20503470769258789 0 -0.23313215691775949 -0.18450877018534409 0 -0.2448317244682672 -0.19494017856122331 0 -0.23230424975577199 -0.20503470769258789 0 -0.23313215691775949 -0.18450877018534409 0 -0.2448317244682672 -0.19494017856122331 0 -0.24405101732391901 -0.2151790953022156 0 -0.23230424975577199 -0.20503470769258789 0 -0.2448317244682672 -0.19494017856122331 0 -0.24405101732391901 -0.2151790953022156 0 -0.24405101732391901 -0.2151790953022156 0 -0.23230424975577199 -0.20503470769258789 0 -0.23232415075836929 -0.22063515516960361 0 -0.23230424975577199 -0.20503470769258789 0 -0.21966781828876961 -0.21222017746694699 0 -0.23232415075836929 -0.22063515516960361 0 -0.21897926871800019 -0.19669337567287831 0 -0.23230424975577199 -0.20503470769258789 0 -0.21966781828876961 -0.21222017746694699 0 -0.21966781828876961 -0.21222017746694699 0 -0.22181314593257209 -0.22697511150882529 0 -0.23232415075836929 -0.22063515516960361 0 -0.22181314593257209 -0.22697511150882529 0 -0.23232415075836929 -0.22063515516960361 0 -0.2371596800173508 -0.23301361964223161 0 -0.22181314593257209 -0.22697511150882529 0 -0.2371596800173508 -0.23301361964223161 0 -0.24405101732391901 -0.2151790953022156 0 -0.24327031017957049 -0.23541801204320789 0 -0.24405101732391901 -0.2151790953022156 0 -0.24327031017957049 -0.23541801204320789 0 -0.25588924886857078 -0.22577026586403889 0 -0.24405101732391901 -0.2151790953022156 0 -0.23232415075836929 -0.22063515516960361 0 -0.23916826383476761 -0.23133706037317611 0 -0.24405101732391901 -0.2151790953022156 0 -0.23916826383476761 -0.23133706037317611 0 -0.24327031017957049 -0.23541801204320789 0 -0.23916826383476761 -0.23133706037317611 0 -0.2371596800173508 -0.23301361964223161 0 -0.24327031017957049 -0.23541801204320789 0 -0.2371596800173508 -0.23301361964223161 0 -0.24327031017957049 -0.23541801204320789 0 -0.23232415075836929 -0.22063515516960361 0 -0.23916826383476761 -0.23133706037317611 0 -0.2371596800173508 -0.23301361964223161 0 -0.23916826383476761 -0.23133706037317611 0 -0.2371596800173508 -0.23301361964223161 0 -0.24233717299785959 -0.25960849866204011 0 -0.24327031017957049 -0.23541801204320789 0 -0.23442911476228809 -0.24683612341654529 0 -0.24233717299785959 -0.25960849866204011 0 -0.24327031017957049 -0.23541801204320789 0 -0.25018128361314113 -0.24746468840205441 0 -0.2371596800173508 -0.23301361964223161 0 -0.24327031017957049 -0.23541801204320789 0 -0.23442911476228809 -0.24683612341654529 0 -0.24233717299785959 -0.25960849866204011 0 -0.24327031017957049 -0.23541801204320789 0 -0.2371596800173508 -0.23301361964223161 0 -0.22025275826160279 -0.2471257797298928 0 -0.2371596800173508 -0.23301361964223161 0 -0.23442911476228809 -0.24683612341654529 0 -0.22025275826160279 -0.2471257797298928 0 -0.22181314593257209 -0.22697511150882529 0 -0.2371596800173508 -0.23301361964223161 0 -0.22025275826160279 -0.2471257797298928 0 -0.21260261997950849 -0.1372892749024191 0 -0.20545486926977061 -0.1574859045201529 0 -0.21260261997950849 -0.1372892749024191 0 -0.20545486926977061 -0.1574859045201529 0 -0.22601880180638709 -0.14497793796819641 0 -0.21260261997950849 -0.1372892749024191 0 -0.20085213665154589 -0.13643960324073179 0 -0.20545486926977061 -0.1574859045201529 0 -0.21260261997950849 -0.1372892749024191 0 -0.2197503706892443 -0.1170926452846846 0 -0.20366324778073339 -0.1226314006036201 0 -0.21260261997950849 -0.1372892749024191 0 -0.2197503706892443 -0.1170926452846846 0 -0.21260261997950849 -0.1372892749024191 0 -0.20085213665154589 -0.13643960324073179 0 -0.20366324778073339 -0.1226314006036201 0 -0.20085213665154589 -0.13643960324073179 0 -0.1912596026832544 -0.12883579632457359 0 -0.20366324778073339 -0.1226314006036201 0 -0.20085213665154589 -0.13643960324073179 0 -0.1912596026832544 -0.12883579632457359 0 -0.1900158864605431 -0.1418606691544825 0 -0.1768933781993007 -0.15369608181255809 0 -0.1900158864605431 -0.1418606691544825 0 -0.20545486926977061 -0.1574859045201529 0 -0.1768933781993007 -0.15369608181255809 0 -0.20545486926977061 -0.1574859045201529 0 -0.20085213665154589 -0.13643960324073179 0 -0.1900158864605431 -0.1418606691544825 0 -0.20545486926977061 -0.1574859045201529 0 -0.1768933781993007 -0.15369608181255809 0 -0.19905977422349169 -0.1755558360643551 0 -0.20545486926977061 -0.1574859045201529 0 -0.19905977422349169 -0.1755558360643551 0 -0.20545486926977061 -0.1574859045201529 0 -0.19266467917721081 -0.1936257676085566 0 -0.19905977422349169 -0.1755558360643551 0 -0.19266467917721081 -0.1936257676085566 0 -0.19905977422349169 -0.1755558360643551 0 -0.2083219237785757 -0.1873320277690235 0 -0.17993745220376059 -0.17895489523397801 0 -0.19266467917721081 -0.1936257676085566 0 -0.19905977422349169 -0.1755558360643551 0 -0.21897926871800019 -0.19669337567287831 0 -0.2083219237785757 -0.1873320277690235 0 -0.21860002285518379 -0.17692462022396371 0 -0.19905977422349169 -0.1755558360643551 0 -0.2083219237785757 -0.1873320277690235 0 -0.21860002285518379 -0.17692462022396371 0 -0.19905977422349169 -0.1755558360643551 0 -0.21860002285518379 -0.17692462022396371 0 -0.20545486926977061 -0.1574859045201529 0 -0.21860002285518379 -0.17692462022396371 0 -0.20545486926977061 -0.1574859045201529 0 -0.2334194436613071 -0.16119652238585741 0 -0.20545486926977061 -0.1574859045201529 0 -0.2334194436613071 -0.16119652238585741 0 -0.21860002285518379 -0.17692462022396371 0 -0.2334194436613071 -0.16119652238585741 0 -0.23313215691775949 -0.18450877018534409 0 -0.21897926871800019 -0.19669337567287831 0 -0.21860002285518379 -0.17692462022396371 0 -0.23313215691775949 -0.18450877018534409 0 -0.2448317244682672 -0.19494017856122331 0 -0.24561243161261531 -0.1747012618202311 0 -0.2448317244682672 -0.19494017856122331 0 -0.23313215691775949 -0.18450877018534409 0 -0.24561243161261531 -0.1747012618202311 0 -0.2334194436613071 -0.16119652238585741 0 -0.23313215691775949 -0.18450877018534409 0 -0.24561243161261531 -0.1747012618202311 0 -0.2334194436613071 -0.16119652238585741 0 -0.24768759332024501 -0.15288591991307249 0 -0.26138401805284373 -0.16490714025156239 0 -0.2334194436613071 -0.16119652238585741 0 -0.24561243161261531 -0.1747012618202311 0 -0.26138401805284373 -0.16490714025156239 0 -0.2334194436613071 -0.16119652238585741 0 -0.26138401805284373 -0.16490714025156239 0 -0.24768759332024501 -0.15288591991307249 0 -0.24035206963199701 -0.13773520297616959 0 -0.25066558347885931 -0.13251764995053431 0 -0.23716828236838119 -0.14842713651880179 0 -0.22601880180638709 -0.14497793796819641 0 -0.24035206963199701 -0.13773520297616959 0 -0.24768759332024501 -0.15288591991307249 0 -0.23716828236838119 -0.14842713651880179 0 -0.24035206963199701 -0.13773520297616959 0 -0.2334194436613071 -0.16119652238585741 0 -0.24768759332024501 -0.15288591991307249 0 -0.23716828236838119 -0.14842713651880179 0 -0.20545486926977061 -0.1574859045201529 0 -0.2334194436613071 -0.16119652238585741 0 -0.22601880180638709 -0.14497793796819641 0 -0.2334194436613071 -0.16119652238585741 0 -0.23716828236838119 -0.14842713651880179 0 -0.22601880180638709 -0.14497793796819641 0 -0.21260261997950849 -0.1372892749024191 0 -0.22701037204806629 -0.12800517972509859 0 -0.2197503706892443 -0.1170926452846846 0 -0.22601880180638709 -0.14497793796819641 0 -0.22701037204806629 -0.12800517972509859 0 -0.24035206963199701 -0.13773520297616959 0 -0.21260261997950849 -0.1372892749024191 0 -0.22601880180638709 -0.14497793796819641 0 -0.22701037204806629 -0.12800517972509859 0 -0.22701037204806629 -0.12800517972509859 0 -0.23833475363582929 -0.12699719077821001 0 -0.24035206963199701 -0.13773520297616959 0 -0.23833475363582929 -0.12699719077821001 0 -0.24035206963199701 -0.13773520297616959 0 -0.25066558347885931 -0.13251764995053431 0 -0.23833475363582929 -0.12699719077821001 0 -0.2466021228926524 -0.1215603100838341 0 -0.25066558347885931 -0.13251764995053431 0 -0.2466021228926524 -0.1215603100838341 0 -0.23420880670407421 -0.115344861449812 0 -0.25028307647261949 -0.1119170655065333 0 -0.23833475363582929 -0.12699719077821001 0 -0.2466021228926524 -0.1215603100838341 0 -0.23420880670407421 -0.115344861449812 0 -0.23975108867161321 -0.096745383671773488 0 -0.23420880670407421 -0.115344861449812 0 -0.25028307647261949 -0.1119170655065333 0 -0.23975108867161321 -0.096745383671773488 0 -0.25028307647261949 -0.1119170655065333 0 -0.25454071313255938 -0.097810231909066098 0 -0.23975108867161321 -0.096745383671773488 0 -0.22550089202944229 -0.1008440162637169 0 -0.23125141336964011 -0.084595387242749231 0 -0.23975108867161321 -0.096745383671773488 0 -0.22550089202944229 -0.1008440162637169 0 -0.23420880670407421 -0.115344861449812 0 -0.22550089202944229 -0.1008440162637169 0 -0.23125141336964011 -0.084595387242749231 0 -0.20770402821161371 -0.098985744105056478 0 -0.22550089202944229 -0.1008440162637169 0 -0.2197503706892443 -0.1170926452846846 0 -0.22550089202944229 -0.1008440162637169 0 -0.2197503706892443 -0.1170926452846846 0 -0.23420880670407421 -0.115344861449812 0 -0.22701037204806629 -0.12800517972509859 0 -0.2197503706892443 -0.1170926452846846 0 -0.22701037204806629 -0.12800517972509859 0 -0.2197503706892443 -0.1170926452846846 0 -0.23420880670407421 -0.115344861449812 0 -0.22701037204806629 -0.12800517972509859 0 -0.23833475363582929 -0.12699719077821001 0 -0.23420880670407421 -0.115344861449812 0 -0.24621250417125429 -0.067242688607955695 0 -0.2359213828018043 -0.071399957410672343 0 -0.2460442741291925 -0.056732515276429897 0 -0.24101683233652779 -0.07862751170581421 0 -0.252754029676304 -0.071454636367457428 0 -0.24621250417125429 -0.067242688607955695 0 -0.24101683233652779 -0.07862751170581421 0 -0.252754029676304 -0.071454636367457428 0 -0.2359213828018043 -0.071399957410672343 0 -0.24101683233652779 -0.07862751170581421 0 -0.24621250417125429 -0.067242688607955695 0 -0.2359213828018043 -0.071399957410672343 0 -0.24101683233652779 -0.07862751170581421 0 -0.24101683233652779 -0.07862751170581421 0 -0.25454071313255938 -0.097810231909066098 0 -0.23975108867161321 -0.096745383671773488 0 -0.24101683233652779 -0.07862751170581421 0 -0.25454071313255938 -0.097810231909066098 0 -0.23975108867161321 -0.096745383671773488 0 -0.24101683233652779 -0.07862751170581421 0 -0.23125141336964011 -0.084595387242749231 0 -0.24101683233652779 -0.07862751170581421 0 -0.23125141336964011 -0.084595387242749231 0 -0.2359213828018043 -0.071399957410672343 0 -0.24101683233652779 -0.07862751170581421 0 -0.23125141336964011 -0.084595387242749231 0 -0.23125141336964011 -0.084595387242749231 0 -0.2244703125416819 -0.072794076224461268 0 -0.21310247649950159 -0.079773441579648038 0 -0.23125141336964011 -0.084595387242749231 0 -0.20770402821161371 -0.098985744105056478 0 -0.22550089202944229 -0.1008440162637169 0 -0.23125141336964011 -0.084595387242749231 0 -0.2359213828018043 -0.071399957410672343 0 -0.2235514570548072 -0.053854045248439182 0 -0.2244703125416819 -0.072794076224461268 0 -0.21482267827762841 -0.069082647852091478 0 -0.2235514570548072 -0.053854045248439182 0 -0.2359213828018043 -0.071399957410672343 0 -0.2244703125416819 -0.072794076224461268 0 -0.2235514570548072 -0.053854045248439182 0 -0.2359213828018043 -0.071399957410672343 0 -0.23125141336964011 -0.084595387242749231 0 -0.2244703125416819 -0.072794076224461268 0 -0.2359213828018043 -0.071399957410672343 0 -0.23125141336964011 -0.084595387242749231 0 -0.20472732395068391 -0.070425609547595483 0 -0.21310247649950159 -0.079773441579648038 0 -0.1942101978544846 -0.078703118630565005 0 -0.21482267827762841 -0.069082647852091478 0 -0.20472732395068391 -0.070425609547595483 0 -0.20783277774853701 -0.056374475910446593 0 -0.2244703125416819 -0.072794076224461268 0 -0.21482267827762841 -0.069082647852091478 0 -0.21310247649950159 -0.079773441579648038 0 -0.21482267827762841 -0.069082647852091478 0 -0.20472732395068391 -0.070425609547595483 0 -0.21310247649950159 -0.079773441579648038 0 -0.23125141336964011 -0.084595387242749231 0 -0.21310247649950159 -0.079773441579648038 0 -0.20770402821161371 -0.098985744105056478 0 -0.21310247649950159 -0.079773441579648038 0 -0.1942101978544846 -0.078703118630565005 0 -0.20770402821161371 -0.098985744105056478 0 -0.1942101978544846 -0.078703118630565005 0 -0.20770402821161371 -0.098985744105056478 0 -0.1942101978544846 -0.078703118630565005 0 -0.20770402821161371 -0.098985744105056478 0 -0.19331927689223261 -0.094690670375105077 0 -0.1942101978544846 -0.078703118630565005 0 -0.19331927689223261 -0.094690670375105077 0 -0.1804061946459036 -0.0975656506999769 0 -0.1942101978544846 -0.078703118630565005 0 -0.1807163674973549 -0.058420493156073998 0 -0.19569491766720151 -0.061370611856350392 0 -0.20472732395068391 -0.070425609547595483 0 -0.1942101978544846 -0.078703118630565005 0 -0.19569491766720151 -0.061370611856350392 0 -0.20472732395068391 -0.070425609547595483 0 -0.19569491766720151 -0.061370611856350392 0 -0.20783277774853701 -0.056374475910446593 0 -0.2197503706892443 -0.1170926452846846 0 -0.20366324778073339 -0.1226314006036201 0 -0.20770402821161371 -0.098985744105056478 0 -0.22550089202944229 -0.1008440162637169 0 -0.2197503706892443 -0.1170926452846846 0 -0.20770402821161371 -0.098985744105056478 0 -0.2197503706892443 -0.1170926452846846 0 -0.20770402821161371 -0.098985744105056478 0 -0.20770402821161371 -0.098985744105056478 0 -0.19331927689223261 -0.094690670375105077 0 -0.18400427859456039 -0.1134692144457318 0 -0.20770402821161371 -0.098985744105056478 0 -0.18400427859456039 -0.1134692144457318 0 -0.20770402821161371 -0.098985744105056478 0 -0.19170728544238649 -0.1194909919475228 0 -0.18400427859456039 -0.1134692144457318 0 -0.20366324778073339 -0.1226314006036201 0 -0.20770402821161371 -0.098985744105056478 0 -0.19170728544238649 -0.1194909919475228 0 -0.1912596026832544 -0.12883579632457359 0 -0.20366324778073339 -0.1226314006036201 0 -0.19170728544238649 -0.1194909919475228 0 -0.1912596026832544 -0.12883579632457359 0 -0.19170728544238649 -0.1194909919475228 0 -0.18212358698306741 -0.12142770117184561 0 -0.18212358698306741 -0.12142770117184561 0 -0.18400427859456039 -0.1134692144457318 0 -0.1804061946459036 -0.0975656506999769 0 -0.18212358698306741 -0.12142770117184561 0 -0.17231042801981861 -0.11010941660198729 0 -0.1804061946459036 -0.0975656506999769 0 -0.19170728544238649 -0.1194909919475228 0 -0.18212358698306741 -0.12142770117184561 0 -0.18400427859456039 -0.1134692144457318 0 -0.18212358698306741 -0.12142770117184561 0 -0.1804061946459036 -0.0975656506999769 0 -0.18212358698306741 -0.12142770117184561 0 -0.17231042801981861 -0.11010941660198729 0 -0.16904936396502779 -0.1225698900008125 0 -0.16904936396502779 -0.1225698900008125 0 -0.16303186383997401 -0.11054530689275879 0 -0.1531014227808439 -0.1221458571451004 0 -0.16303186383997401 -0.11054530689275879 0 -0.1531014227808439 -0.1221458571451004 0 -0.15302467802266631 -0.099964594768007481 0 -0.17231042801981861 -0.11010941660198729 0 -0.16904936396502779 -0.1225698900008125 0 -0.16303186383997401 -0.11054530689275879 0 -0.16694113066512001 -0.098438534244542714 0 -0.1583311292500037 -0.086155785580523059 0 -0.15302467802266631 -0.099964594768007481 0 -0.16303186383997401 -0.11054530689275879 0 -0.16694113066512001 -0.098438534244542714 0 -0.15302467802266631 -0.099964594768007481 0 -0.17231042801981861 -0.11010941660198729 0 -0.16303186383997401 -0.11054530689275879 0 -0.16694113066512001 -0.098438534244542714 0 -0.16694113066512001 -0.098438534244542714 0 -0.1804061946459036 -0.0975656506999769 0 -0.1699979234477183 -0.086164615643162509 0 -0.19331927689223261 -0.094690670375105077 0 -0.18400427859456039 -0.1134692144457318 0 -0.1804061946459036 -0.0975656506999769 0 -0.17231042801981861 -0.11010941660198729 0 -0.16694113066512001 -0.098438534244542714 0 -0.1804061946459036 -0.0975656506999769 0 -0.1942101978544846 -0.078703118630565005 0 -0.1804061946459036 -0.0975656506999769 0 -0.17868880230873979 -0.073703600228108263 0 -0.1804061946459036 -0.0975656506999769 0 -0.17868880230873979 -0.073703600228108263 0 -0.1804061946459036 -0.0975656506999769 0 -0.17868880230873979 -0.073703600228108263 0 -0.1699979234477183 -0.086164615643162509 0 -0.1942101978544846 -0.078703118630565005 0 -0.17868880230873979 -0.073703600228108263 0 -0.1807163674973549 -0.058420493156073998 0 -0.1942101978544846 -0.078703118630565005 0 -0.1807163674973549 -0.058420493156073998 0 -0.17868880230873979 -0.073703600228108263 0 -0.16456215259537851 -0.07423447470758808 0 -0.1687761726195266 -0.062055246708151823 0 -0.16456215259537851 -0.07423447470758808 0 -0.1601060057786266 -0.063048208625582775 0 -0.1687761726195266 -0.062055246708151823 0 -0.17868880230873979 -0.073703600228108263 0 -0.16456215259537851 -0.07423447470758808 0 -0.1699979234477183 -0.086164615643162509 0 -0.16456215259537851 -0.07423447470758808 0 -0.1601060057786266 -0.063048208625582775 0 -0.15147288216765581 -0.074279391460000108 0 -0.16694113066512001 -0.098438534244542714 0 -0.1699979234477183 -0.086164615643162509 0 -0.1583311292500037 -0.086155785580523059 0 -0.16456215259537851 -0.07423447470758808 0 -0.1699979234477183 -0.086164615643162509 0 -0.1583311292500037 -0.086155785580523059 0 -0.16456215259537851 -0.07423447470758808 0 -0.1583311292500037 -0.086155785580523059 0 -0.15147288216765581 -0.074279391460000108 0 -0.1583311292500037 -0.086155785580523059 0 -0.1406917504718985 -0.083199174386461974 0 -0.15147288216765581 -0.074279391460000108 0 -0.1583311292500037 -0.086155785580523059 0 -0.1406917504718985 -0.083199174386461974 0 -0.15302467802266631 -0.099964594768007481 0 -0.1601060057786266 -0.063048208625582775 0 -0.15147288216765581 -0.074279391460000108 0 -0.14916280428309589 -0.053864076679432472 0 -0.15147288216765581 -0.074279391460000108 0 -0.13891648936515211 -0.064472249171247775 0 -0.14916280428309589 -0.053864076679432472 0 -0.1406917504718985 -0.083199174386461974 0 -0.15147288216765581 -0.074279391460000108 0 -0.13891648936515211 -0.064472249171247775 0 -0.12197003300458489 -0.067133964797042034 0 -0.1406917504718985 -0.083199174386461974 0 -0.13891648936515211 -0.064472249171247775 0 -0.121811479392537 -0.084095963505499416 0 -0.12197003300458489 -0.067133964797042034 0 -0.1406917504718985 -0.083199174386461974 0 -0.121811479392537 -0.084095963505499416 0 -0.1406917504718985 -0.083199174386461974 0 -0.13931556210068971 -0.10629227142291391 0 -0.11605893441195141 -0.10185107539240761 0 -0.121811479392537 -0.084095963505499416 0 -0.13931556210068971 -0.10629227142291391 0 -0.11422347955810171 -0.1204243593602408 0 -0.13931556210068971 -0.10629227142291391 0 -0.11422347955810171 -0.1204243593602408 0 -0.13445671698849809 -0.1291024538471422 0 -0.13931556210068971 -0.10629227142291391 0 -0.13445671698849809 -0.1291024538471422 0 -0.13931556210068971 -0.10629227142291391 0 -0.1531014227808439 -0.1221458571451004 0 -0.13931556210068971 -0.10629227142291391 0 -0.1531014227808439 -0.1221458571451004 0 -0.15302467802266631 -0.099964594768007481 0 -0.1406917504718985 -0.083199174386461974 0 -0.13931556210068971 -0.10629227142291391 0 -0.15302467802266631 -0.099964594768007481 0 -0.14079925107272581 -0.02334449083682992 0 -0.15349169287978739 -0.035208883327978051 0 -0.15939520176274349 -0.015620398581745401 0 -0.14079925107272581 -0.02334449083682992 0 -0.14275634286812811 -0.006203461430080404 0 -0.15939520176274349 -0.015620398581745401 0 -0.14275634286812811 -0.006203461430080404 0 -0.15939520176274349 -0.015620398581745401 0 -0.15796117991031841 -0.00029962151665172479 0 -0.14079925107272581 -0.02334449083682992 0 -0.14275634286812811 -0.006203461430080404 0 -0.1278640484455188 -0.012334690821253821 0 -0.14275634286812811 -0.006203461430080404 0 -0.1278640484455188 -0.012334690821253821 0 -0.1273771369441013 0.0023450629401116992 0 -0.12411398995058071 -0.026208981462584841 0 -0.14079925107272581 -0.02334449083682992 0 -0.1278640484455188 -0.012334690821253821 0 -0.12411398995058071 -0.026208981462584841 0 -0.14079925107272581 -0.02334449083682992 0 -0.13241258759658719 -0.044529255409706578 0 -0.13891648936515211 -0.064472249171247775 0 -0.13241258759658719 -0.044529255409706578 0 -0.14916280428309589 -0.053864076679432472 0 -0.12197003300458489 -0.067133964797042034 0 -0.13891648936515211 -0.064472249171247775 0 -0.13241258759658719 -0.044529255409706578 0 -0.14079925107272581 -0.02334449083682992 0 -0.13241258759658719 -0.044529255409706578 0 -0.15349169287978739 -0.035208883327978051 0 -0.14916280428309589 -0.053864076679432472 0 -0.15349169287978739 -0.035208883327978051 0 -0.16249228466986629 -0.048723367468166891 0 -0.13241258759658719 -0.044529255409706578 0 -0.14916280428309589 -0.053864076679432472 0 -0.15349169287978739 -0.035208883327978051 0 -0.15349169287978739 -0.035208883327978051 0 -0.16249228466986629 -0.048723367468166891 0 -0.17525401763441231 -0.025979499284370731 0 -0.16249228466986629 -0.048723367468166891 0 -0.17697140997157609 -0.049841549756239563 0 -0.17525401763441231 -0.025979499284370731 0 -0.1601060057786266 -0.063048208625582775 0 -0.14916280428309589 -0.053864076679432472 0 -0.16249228466986629 -0.048723367468166891 0 -0.1601060057786266 -0.063048208625582775 0 -0.16249228466986629 -0.048723367468166891 0 -0.1687761726195266 -0.062055246708151823 0 -0.16249228466986629 -0.048723367468166891 0 -0.1687761726195266 -0.062055246708151823 0 -0.17697140997157609 -0.049841549756239563 0 -0.17868880230873979 -0.073703600228108263 0 -0.17697140997157609 -0.049841549756239563 0 -0.17868880230873979 -0.073703600228108263 0 -0.17697140997157609 -0.049841549756239563 0 -0.1807163674973549 -0.058420493156073998 0 -0.17868880230873979 -0.073703600228108263 0 -0.1687761726195266 -0.062055246708151823 0 -0.17697140997157609 -0.049841549756239563 0 -0.17697140997157609 -0.049841549756239563 0 -0.187061179232277 -0.050545000195171969 0 -0.1807163674973549 -0.058420493156073998 0 -0.17697140997157609 -0.049841549756239563 0 -0.17525401763441231 -0.025979499284370731 0 -0.17697140997157609 -0.049841549756239563 0 -0.1844822702309237 -0.037308153316215523 0 -0.17525401763441231 -0.025979499284370731 0 -0.17697140997157609 -0.049841549756239563 0 -0.187061179232277 -0.050545000195171969 0 -0.1844822702309237 -0.037308153316215523 0 -0.1844822702309237 -0.037308153316215523 0 -0.17525401763441231 -0.025979499284370731 0 -0.19881160556081021 -0.01876222092397466 0 -0.17525401763441231 -0.025979499284370731 0 -0.17967452986780849 -0.0030086181600807401 0 -0.19881160556081021 -0.01876222092397466 0 -0.15349169287978739 -0.035208883327978051 0 -0.17525401763441231 -0.025979499284370731 0 -0.15939520176274349 -0.015620398581745401 0 -0.17525401763441231 -0.025979499284370731 0 -0.15939520176274349 -0.015620398581745401 0 -0.17967452986780849 -0.0030086181600807401 0 -0.15939520176274349 -0.015620398581745401 0 -0.15796117991031841 -0.00029962151665172479 0 -0.17967452986780849 -0.0030086181600807401 0 -0.17967452986780849 -0.0030086181600807401 0 -0.19881160556081021 -0.01876222092397466 0 -0.20680301002479959 -0.0020434230711429339 0 -0.1844822702309237 -0.037308153316215523 0 -0.19881160556081021 -0.01876222092397466 0 -0.19797908447346779 -0.034540675054344362 0 -0.19881160556081021 -0.01876222092397466 0 -0.19797908447346779 -0.034540675054344362 0 -0.2111815313078087 -0.036308133086206937 0 -0.19881160556081021 -0.01876222092397466 0 -0.2111815313078087 -0.036308133086206937 0 -0.19881160556081021 -0.01876222092397466 0 -0.2111815313078087 -0.036308133086206937 0 -0.21993326537292579 -0.016570742696256829 0 -0.19881160556081021 -0.01876222092397466 0 -0.20680301002479959 -0.0020434230711429339 0 -0.21993326537292579 -0.016570742696256829 0 -0.20680301002479959 -0.0020434230711429339 0 -0.21993326537292579 -0.016570742696256829 0 -0.22850437187820721 0.00061554774341724197 0 -0.187061179232277 -0.050545000195171969 0 -0.1807163674973549 -0.058420493156073998 0 -0.19569491766720151 -0.061370611856350392 0 -0.187061179232277 -0.050545000195171969 0 -0.19569491766720151 -0.061370611856350392 0 -0.1974409307943287 -0.045784192890980333 0 -0.19569491766720151 -0.061370611856350392 0 -0.1974409307943287 -0.045784192890980333 0 -0.20783277774853701 -0.056374475910446593 0 -0.187061179232277 -0.050545000195171969 0 -0.1844822702309237 -0.037308153316215523 0 -0.1974409307943287 -0.045784192890980333 0 -0.1844822702309237 -0.037308153316215523 0 -0.1974409307943287 -0.045784192890980333 0 -0.19797908447346779 -0.034540675054344362 0 -0.1974409307943287 -0.045784192890980333 0 -0.19797908447346779 -0.034540675054344362 0 -0.2111815313078087 -0.036308133086206937 0 -0.1974409307943287 -0.045784192890980333 0 -0.2111815313078087 -0.036308133086206937 0 -0.20783277774853701 -0.056374475910446593 0 -0.2111815313078087 -0.036308133086206937 0 -0.2235514570548072 -0.053854045248439182 0 -0.21482267827762841 -0.069082647852091478 0 -0.20783277774853701 -0.056374475910446593 0 -0.2235514570548072 -0.053854045248439182 0 -0.2111815313078087 -0.036308133086206937 0 -0.20783277774853701 -0.056374475910446593 0 -0.2235514570548072 -0.053854045248439182 0 -0.2359213828018043 -0.071399957410672343 0 -0.2235514570548072 -0.053854045248439182 0 -0.23385975453729951 -0.05448316257834377 0 -0.2235514570548072 -0.053854045248439182 0 -0.23385975453729951 -0.05448316257834377 0 -0.23195090370150159 -0.044148728843497582 0 -0.2111815313078087 -0.036308133086206937 0 -0.23195090370150159 -0.044148728843497582 0 -0.2330954250503823 -0.030605580137893669 0 -0.2111815313078087 -0.036308133086206937 0 -0.2235514570548072 -0.053854045248439182 0 -0.23195090370150159 -0.044148728843497582 0 -0.2440152745910836 -0.048529918810766987 0 -0.25210916638036568 -0.025659880210862549 0 -0.23195090370150159 -0.044148728843497582 0 -0.2440152745910836 -0.048529918810766987 0 -0.2330954250503823 -0.030605580137893669 0 -0.2440152745910836 -0.048529918810766987 0 -0.2330954250503823 -0.030605580137893669 0 -0.25210916638036568 -0.025659880210862549 0 -0.2359213828018043 -0.071399957410672343 0 -0.2440152745910836 -0.048529918810766987 0 -0.2460442741291925 -0.056732515276429897 0 -0.2359213828018043 -0.071399957410672343 0 -0.2440152745910836 -0.048529918810766987 0 -0.2359213828018043 -0.071399957410672343 0 -0.23385975453729951 -0.05448316257834377 0 -0.2440152745910836 -0.048529918810766987 0 -0.23385975453729951 -0.05448316257834377 0 -0.23195090370150159 -0.044148728843497582 0 -0.2440152745910836 -0.048529918810766987 0 -0.2440152745910836 -0.048529918810766987 0 -0.2460442741291925 -0.056732515276429897 0 -0.25586239660102372 -0.042106716883949957 0 -0.21993326537292579 -0.016570742696256829 0 -0.2409228609234593 -0.01213331886889705 0 -0.22850437187820721 0.00061554774341724197 0 -0.21993326537292579 -0.016570742696256829 0 -0.2330954250503823 -0.030605580137893669 0 -0.2409228609234593 -0.01213331886889705 0 -0.2111815313078087 -0.036308133086206937 0 -0.21993326537292579 -0.016570742696256829 0 -0.2330954250503823 -0.030605580137893669 0 -0.2330954250503823 -0.030605580137893669 0 -0.2409228609234593 -0.01213331886889705 0 -0.25210916638036568 -0.025659880210862549 0 -0.2409228609234593 -0.01213331886889705 0 -0.25132042997239518 0.0027134119798401068 0 -0.22850437187820721 0.00061554774341724197 0 -0.2409228609234593 -0.01213331886889705 0 -0.26431478179583978 -0.01186883573312463 0 -0.25132042997239518 0.0027134119798401068 0 -0.2409228609234593 -0.01213331886889705 0 -0.26431478179583978 -0.01186883573312463 0 -0.25210916638036568 -0.025659880210862549 0 -0.26431478179583978 -0.01186883573312463 0 -0.25210916638036568 -0.025659880210862549 0 -0.26885463380623098 -0.032431385670777198 0 -0.26431478179583978 -0.01186883573312463 0 -0.28272693982295583 -0.022072801118422261 0 -0.26885463380623098 -0.032431385670777198 0 -0.26431478179583978 -0.01186883573312463 0 -0.2820771903446922 -0.0013122005201030101 0 -0.28272693982295583 -0.022072801118422261 0 -0.26431478179583978 -0.01186883573312463 0 -0.2820771903446922 -0.0013122005201030101 0 -0.26646431581863778 0.01029557754540468 0 -0.2820771903446922 -0.0013122005201030101 0 -0.29531588189047731 -0.01459302740547606 0 -0.28272693982295583 -0.022072801118422261 0 -0.2820771903446922 -0.0013122005201030101 0 -0.29531588189047731 -0.01459302740547606 0 -0.30047775033007851 -0.00039401612408775783 0 -0.28272693982295583 -0.022072801118422261 0 -0.29548818451705972 -0.026431314805352931 0 -0.29006158744840338 -0.043009214960059237 0 -0.29531588189047731 -0.01459302740547606 0 -0.28272693982295583 -0.022072801118422261 0 -0.29548818451705972 -0.026431314805352931 0 -0.30546101391149699 -0.021623392358951481 0 -0.31536924438116293 -0.015921951660718081 0 -0.31269309410946189 -0.035953378537937578 0 -0.29531588189047731 -0.01459302740547606 0 -0.29548818451705972 -0.026431314805352931 0 -0.30546101391149699 -0.021623392358951481 0 -0.29548818451705972 -0.026431314805352931 0 -0.30546101391149699 -0.021623392358951481 0 -0.30306546886548719 -0.032455918975325043 0 -0.30546101391149699 -0.021623392358951481 0 -0.31269309410946189 -0.035953378537937578 0 -0.30546101391149699 -0.021623392358951481 0 -0.30306546886548719 -0.032455918975325043 0 -0.31269309410946189 -0.035953378537937578 0 -0.30546101391149699 -0.021623392358951481 0 -0.30702321298661528 -0.0098616365840560535 0 -0.31536924438116293 -0.015921951660718081 0 -0.30702321298661528 -0.0098616365840560535 0 -0.30047775033007851 -0.00039401612408775783 0 -0.31849217441985911 0.0032242046289520012 0 -0.29531588189047731 -0.01459302740547606 0 -0.30702321298661528 -0.0098616365840560535 0 -0.30047775033007851 -0.00039401612408775783 0 -0.29531588189047731 -0.01459302740547606 0 -0.30546101391149699 -0.021623392358951481 0 -0.30702321298661528 -0.0098616365840560535 0 -0.30785263576887473 -0.062005008750064983 0 -0.31269309410946189 -0.035953378537937578 0 -0.30785263576887473 -0.062005008750064983 0 -0.29006158744840338 -0.043009214960059237 0 -0.31269309410946189 -0.035953378537937578 0 -0.30306546886548719 -0.032455918975325043 0 -0.29006158744840338 -0.043009214960059237 0 -0.31269309410946189 -0.035953378537937578 0 -0.29006158744840338 -0.043009214960059237 0 -0.31269309410946189 -0.035953378537937578 0 -0.29548818451705972 -0.026431314805352931 0 -0.30306546886548719 -0.032455918975325043 0 -0.29006158744840338 -0.043009214960059237 0 -0.30785263576887473 -0.062005008750064983 0 -0.29006158744840338 -0.043009214960059237 0 -0.29043964680931811 -0.063340758069959313 0 -0.29006158744840338 -0.043009214960059237 0 -0.27571433008302992 -0.061323808156972907 0 -0.29043964680931811 -0.063340758069959313 0 -0.27571433008302992 -0.061323808156972907 0 -0.26805293078879788 -0.049870865118244581 0 -0.25908974683711639 -0.062912752445689821 0 -0.29006158744840338 -0.043009214960059237 0 -0.27571433008302992 -0.061323808156972907 0 -0.26805293078879788 -0.049870865118244581 0 -0.28272693982295583 -0.022072801118422261 0 -0.29006158744840338 -0.043009214960059237 0 -0.26885463380623098 -0.032431385670777198 0 -0.29006158744840338 -0.043009214960059237 0 -0.26805293078879788 -0.049870865118244581 0 -0.29006158744840338 -0.043009214960059237 0 -0.26805293078879788 -0.049870865118244581 0 -0.26885463380623098 -0.032431385670777198 0 -0.2440152745910836 -0.048529918810766987 0 -0.25210916638036568 -0.025659880210862549 0 -0.25586239660102372 -0.042106716883949957 0 -0.26805293078879788 -0.049870865118244581 0 -0.26885463380623098 -0.032431385670777198 0 -0.25586239660102372 -0.042106716883949957 0 -0.25210916638036568 -0.025659880210862549 0 -0.26885463380623098 -0.032431385670777198 0 -0.25586239660102372 -0.042106716883949957 0 -0.2460442741291925 -0.056732515276429897 0 -0.26805293078879788 -0.049870865118244581 0 -0.2460442741291925 -0.056732515276429897 0 -0.26805293078879788 -0.049870865118244581 0 -0.25908974683711639 -0.062912752445689821 0 -0.2460442741291925 -0.056732515276429897 0 -0.26805293078879788 -0.049870865118244581 0 -0.25586239660102372 -0.042106716883949957 0 -0.24621250417125429 -0.067242688607955695 0 -0.2460442741291925 -0.056732515276429897 0 -0.25908974683711639 -0.062912752445689821 0 -0.24621250417125429 -0.067242688607955695 0 -0.25908974683711639 -0.062912752445689821 0 -0.252754029676304 -0.071454636367457428 0 -0.24101683233652779 -0.07862751170581421 0 -0.252754029676304 -0.071454636367457428 0 -0.26402766811367417 -0.083484384069295273 0 -0.25908974683711639 -0.062912752445689821 0 -0.252754029676304 -0.071454636367457428 0 -0.26621243399467659 -0.070844567870559746 0 -0.252754029676304 -0.071454636367457428 0 -0.26402766811367417 -0.083484384069295273 0 -0.26621243399467659 -0.070844567870559746 0 -0.24101683233652779 -0.07862751170581421 0 -0.26402766811367417 -0.083484384069295273 0 -0.25454071313255938 -0.097810231909066098 0 -0.26402766811367417 -0.083484384069295273 0 -0.27094601368544552 -0.10060299140421709 0 -0.28369928052750421 -0.089996057638050242 0 -0.26402766811367417 -0.083484384069295273 0 -0.27947639526325851 -0.075047258313383283 0 -0.28369928052750421 -0.089996057638050242 0 -0.27571433008302992 -0.061323808156972907 0 -0.25908974683711639 -0.062912752445689821 0 -0.26621243399467659 -0.070844567870559746 0 -0.27571433008302992 -0.061323808156972907 0 -0.27947639526325851 -0.075047258313383283 0 -0.26621243399467659 -0.070844567870559746 0 -0.26402766811367417 -0.083484384069295273 0 -0.27947639526325851 -0.075047258313383283 0 -0.26621243399467659 -0.070844567870559746 0 -0.25700205454408459 -0.1228995308742117 0 -0.25028307647261949 -0.1119170655065333 0 -0.26806459392859111 -0.11699295211231781 0 -0.25700205454408459 -0.1228995308742117 0 -0.26806459392859111 -0.11699295211231781 0 -0.26633673802341562 -0.13121143084146969 0 -0.2466021228926524 -0.1215603100838341 0 -0.25700205454408459 -0.1228995308742117 0 -0.25028307647261949 -0.1119170655065333 0 -0.25454071313255938 -0.097810231909066098 0 -0.27094601368544552 -0.10060299140421709 0 -0.26806459392859111 -0.11699295211231781 0 -0.25028307647261949 -0.1119170655065333 0 -0.25454071313255938 -0.097810231909066098 0 -0.26806459392859111 -0.11699295211231781 0 -0.25454071313255938 -0.097810231909066098 0 -0.26806459392859111 -0.11699295211231781 0 -0.26402766811367417 -0.083484384069295273 0 -0.25454071313255938 -0.097810231909066098 0 -0.27094601368544552 -0.10060299140421709 0 -0.27094601368544552 -0.10060299140421709 0 -0.28498588272658609 -0.10953694176986691 0 -0.28369928052750421 -0.089996057638050242 0 -0.27094601368544552 -0.10060299140421709 0 -0.26806459392859111 -0.11699295211231781 0 -0.28498588272658609 -0.10953694176986691 0 -0.26806459392859111 -0.11699295211231781 0 -0.28498588272658609 -0.10953694176986691 0 -0.26633673802341562 -0.13121143084146969 0 -0.28498588272658609 -0.10953694176986691 0 -0.26633673802341562 -0.13121143084146969 0 -0.28390483366507108 -0.12795146285425149 0 -0.28498588272658609 -0.10953694176986691 0 -0.26633673802341562 -0.13121143084146969 0 -0.28498588272658609 -0.10953694176986691 0 -0.29939047470698632 -0.1138850881088251 0 -0.28390483366507108 -0.12795146285425149 0 -0.28498588272658609 -0.10953694176986691 0 -0.29939047470698632 -0.1138850881088251 0 -0.30363502742975002 -0.087862452698258112 0 -0.28498588272658609 -0.10953694176986691 0 -0.28369928052750421 -0.089996057638050242 0 -0.30363502742975002 -0.087862452698258112 0 -0.28498588272658609 -0.10953694176986691 0 -0.30363502742975002 -0.087862452698258112 0 -0.31112038415555038 -0.105912916312301 0 -0.30363502742975002 -0.087862452698258112 0 -0.31872509099925939 -0.09489525911115787 0 -0.29939047470698632 -0.1138850881088251 0 -0.30363502742975002 -0.087862452698258112 0 -0.31112038415555038 -0.105912916312301 0 -0.29939047470698632 -0.1138850881088251 0 -0.30363502742975002 -0.087862452698258112 0 -0.31112038415555038 -0.105912916312301 0 -0.29939047470698632 -0.1138850881088251 0 -0.3108150907057583 -0.123289039988229 0 -0.27571433008302992 -0.061323808156972907 0 -0.27947639526325851 -0.075047258313383283 0 -0.29043964680931811 -0.063340758069959313 0 -0.27947639526325851 -0.075047258313383283 0 -0.29326350469267087 -0.075637034816957854 0 -0.29043964680931811 -0.063340758069959313 0 -0.27947639526325851 -0.075047258313383283 0 -0.29326350469267087 -0.075637034816957854 0 -0.28369928052750421 -0.089996057638050242 0 -0.29326350469267087 -0.075637034816957854 0 -0.28369928052750421 -0.089996057638050242 0 -0.30363502742975002 -0.087862452698258112 0 -0.30363502742975002 -0.087862452698258112 0 -0.3147457864693044 -0.074949258596716542 0 -0.31872509099925939 -0.09489525911115787 0 -0.30363502742975002 -0.087862452698258112 0 -0.3147457864693044 -0.074949258596716542 0 -0.30785263576887473 -0.062005008750064983 0 -0.29326350469267087 -0.075637034816957854 0 -0.30363502742975002 -0.087862452698258112 0 -0.30785263576887473 -0.062005008750064983 0 -0.30363502742975002 -0.087862452698258112 0 -0.3147457864693044 -0.074949258596716542 0 -0.30785263576887473 -0.062005008750064983 0 -0.29326350469267087 -0.075637034816957854 0 -0.29043964680931811 -0.063340758069959313 0 -0.30785263576887473 -0.062005008750064983 0 -0.30363502742975002 -0.087862452698258112 0 -0.3147457864693044 -0.074949258596716542 0 -0.3258565455088529 -0.062036064495169851 0 -0.3147457864693044 -0.074949258596716542 0 -0.33306166037992252 -0.0763126202985034 0 -0.3258565455088529 -0.062036064495169851 0 -0.30785263576887473 -0.062005008750064983 0 -0.3147457864693044 -0.074949258596716542 0 -0.3258565455088529 -0.062036064495169851 0 -0.3147457864693044 -0.074949258596716542 0 -0.32890001459834822 -0.087516828956376788 0 -0.31872509099925939 -0.09489525911115787 0 -0.3147457864693044 -0.074949258596716542 0 -0.32890001459834822 -0.087516828956376788 0 -0.33306166037992252 -0.0763126202985034 0 -0.32890001459834822 -0.087516828956376788 0 -0.34026677525099192 -0.090589176101837157 0 -0.33306166037992252 -0.0763126202985034 0 -0.34026677525099192 -0.090589176101837157 0 -0.33306166037992252 -0.0763126202985034 0 -0.34026677525099192 -0.090589176101837157 0 -0.33306166037992252 -0.0763126202985034 0 -0.34512097989852569 -0.077376017677512551 0 -0.3363426704622316 -0.065040097883454634 0 -0.33306166037992252 -0.0763126202985034 0 -0.34512097989852569 -0.077376017677512551 0 -0.3363426704622316 -0.065040097883454634 0 -0.34775082305034588 -0.06364522302323769 0 -0.34512097989852569 -0.077376017677512551 0 -0.33306166037992252 -0.0763126202985034 0 -0.3258565455088529 -0.062036064495169851 0 -0.3363426704622316 -0.065040097883454634 0 -0.33306166037992252 -0.0763126202985034 0 -0.3258565455088529 -0.062036064495169851 0 -0.31112038415555038 -0.105912916312301 0 -0.3108150907057583 -0.123289039988229 0 -0.32269556115348802 -0.1134475374517785 0 -0.32269556115348802 -0.1134475374517785 0 -0.33213803149032362 -0.1206207689722909 0 -0.32288905220234743 -0.1288405143651869 0 -0.3108150907057583 -0.123289039988229 0 -0.32269556115348802 -0.1134475374517785 0 -0.32288905220234743 -0.1288405143651869 0 -0.32269556115348802 -0.1134475374517785 0 -0.31872509099925939 -0.09489525911115787 0 -0.33360553934550968 -0.1041906416325506 0 -0.31112038415555038 -0.105912916312301 0 -0.32269556115348802 -0.1134475374517785 0 -0.31872509099925939 -0.09489525911115787 0 -0.32890001459834822 -0.087516828956376788 0 -0.31872509099925939 -0.09489525911115787 0 -0.33360553934550968 -0.1041906416325506 0 -0.3434725512788051 -0.1026137903417853 0 -0.33360553934550968 -0.1041906416325506 0 -0.3466874303271234 -0.11958926053505441 0 -0.32890001459834822 -0.087516828956376788 0 -0.34026677525099192 -0.090589176101837157 0 -0.33360553934550968 -0.1041906416325506 0 -0.34026677525099192 -0.090589176101837157 0 -0.3434725512788051 -0.1026137903417853 0 -0.33360553934550968 -0.1041906416325506 0 -0.33360553934550968 -0.1041906416325506 0 -0.33213803149032362 -0.1206207689722909 0 -0.3466874303271234 -0.11958926053505441 0 -0.32269556115348802 -0.1134475374517785 0 -0.33360553934550968 -0.1041906416325506 0 -0.33213803149032362 -0.1206207689722909 0 -0.3466874303271234 -0.11958926053505441 0 -0.36980343247362518 -0.1100922289949047 0 -0.35999293180258313 -0.1258522389537349 0 -0.3466874303271234 -0.11958926053505441 0 -0.35333046019159542 -0.096086083097699004 0 -0.36980343247362518 -0.1100922289949047 0 -0.3434725512788051 -0.1026137903417853 0 -0.3466874303271234 -0.11958926053505441 0 -0.35333046019159542 -0.096086083097699004 0 -0.3466874303271234 -0.11958926053505441 0 -0.35333046019159542 -0.096086083097699004 0 -0.34026677525099192 -0.090589176101837157 0 -0.3434725512788051 -0.1026137903417853 0 -0.35333046019159542 -0.096086083097699004 0 -0.35333046019159542 -0.096086083097699004 0 -0.36980343247362518 -0.1100922289949047 0 -0.37347114863240299 -0.089088331268139143 0 -0.36980343247362518 -0.1100922289949047 0 -0.35999293180258313 -0.1258522389537349 0 -0.37152802352755399 -0.13164580699010159 0 -0.36980343247362518 -0.1100922289949047 0 -0.37152802352755399 -0.13164580699010159 0 -0.38235470820745771 -0.123978498660336 0 -0.34775082305034588 -0.06364522302323769 0 -0.35997349005606738 -0.07258290566034345 0 -0.36099236519079719 -0.058965157594587259 0 -0.34775082305034588 -0.06364522302323769 0 -0.34512097989852569 -0.077376017677512551 0 -0.35997349005606738 -0.07258290566034345 0 -0.35333046019159542 -0.096086083097699004 0 -0.35997349005606738 -0.07258290566034345 0 -0.35333046019159542 -0.096086083097699004 0 -0.34512097989852569 -0.077376017677512551 0 -0.35997349005606738 -0.07258290566034345 0 -0.34026677525099192 -0.090589176101837157 0 -0.35333046019159542 -0.096086083097699004 0 -0.34512097989852569 -0.077376017677512551 0 -0.35333046019159542 -0.096086083097699004 0 -0.37347114863240299 -0.089088331268139143 0 -0.35997349005606738 -0.07258290566034345 0 -0.37347114863240299 -0.089088331268139143 0 -0.35997349005606738 -0.07258290566034345 0 -0.37513495807632252 -0.068027960422620465 0 -0.35997349005606738 -0.07258290566034345 0 -0.36099236519079719 -0.058965157594587259 0 -0.37513495807632252 -0.068027960422620465 0 -0.37357085562444819 -0.050327950541553881 0 -0.36099236519079719 -0.058965157594587259 0 -0.37513495807632252 -0.068027960422620465 0 -0.37357085562444819 -0.050327950541553881 0 -0.36080282922430701 -0.047544586661118063 0 -0.36099236519079719 -0.058965157594587259 0 -0.34775082305034588 -0.06364522302323769 0 -0.36099236519079719 -0.058965157594587259 0 -0.34872123511329239 -0.051662319258650009 0 -0.36080282922430701 -0.047544586661118063 0 -0.36099236519079719 -0.058965157594587259 0 -0.34872123511329239 -0.051662319258650009 0 -0.34775082305034588 -0.06364522302323769 0 -0.34872123511329239 -0.051662319258650009 0 -0.33906118872719399 -0.055758100993783748 0 -0.35023980363822049 -0.040197400203048239 0 -0.3638826905141766 -0.035463803005797899 0 -0.34258176142245139 -0.029723406047678591 0 -0.35023980363822049 -0.040197400203048239 0 -0.34258176142245139 -0.029723406047678591 0 -0.35023980363822049 -0.040197400203048239 0 -0.34258176142245139 -0.029723406047678591 0 -0.33960488145915169 -0.038902248398748569 0 -0.34872123511329239 -0.051662319258650009 0 -0.35023980363822049 -0.040197400203048239 0 -0.33950963895876157 -0.046563850177851397 0 -0.36080282922430701 -0.047544586661118063 0 -0.35023980363822049 -0.040197400203048239 0 -0.3638826905141766 -0.035463803005797899 0 -0.36080282922430701 -0.047544586661118063 0 -0.34872123511329239 -0.051662319258650009 0 -0.35023980363822049 -0.040197400203048239 0 -0.37357085562444819 -0.050327950541553881 0 -0.3638826905141766 -0.035463803005797899 0 -0.38712728366555788 -0.02974425569958293 0 -0.37357085562444819 -0.050327950541553881 0 -0.36080282922430701 -0.047544586661118063 0 -0.3638826905141766 -0.035463803005797899 0 -0.3638826905141766 -0.035463803005797899 0 -0.36897360951007507 -0.015245218881805699 0 -0.38712728366555788 -0.02974425569958293 0 -0.36897360951007507 -0.015245218881805699 0 -0.38465333842141641 -0.0066435457767305304 0 -0.36979036210562988 0.0025511841975563729 0 -0.36897360951007507 -0.015245218881805699 0 -0.35319748844548088 -0.0026450940697062141 0 -0.36979036210562988 0.0025511841975563729 0 -0.36897360951007507 -0.015245218881805699 0 -0.35319748844548088 -0.0026450940697062141 0 -0.36897360951007507 -0.015245218881805699 0 -0.35319748844548088 -0.0026450940697062141 0 -0.34557514790129729 -0.01385186480739395 0 -0.35319748844548088 -0.0026450940697062141 0 -0.34557514790129729 -0.01385186480739395 0 -0.33742136738088668 0.0099550307423931228 0 -0.36897360951007507 -0.015245218881805699 0 -0.34557514790129729 -0.01385186480739395 0 -0.34258176142245139 -0.029723406047678591 0 -0.3638826905141766 -0.035463803005797899 0 -0.36897360951007507 -0.015245218881805699 0 -0.34258176142245139 -0.029723406047678591 0 -0.36897360951007507 -0.015245218881805699 0 -0.34258176142245139 -0.029723406047678591 0 -0.34258176142245139 -0.029723406047678591 0 -0.33053696792115572 -0.013249600709362951 0 -0.34557514790129729 -0.01385186480739395 0 -0.34258176142245139 -0.029723406047678591 0 -0.33053696792115572 -0.013249600709362951 0 -0.34258176142245139 -0.029723406047678591 0 -0.33123792958382192 -0.02655418191443467 0 -0.33053696792115572 -0.013249600709362951 0 -0.33123792958382192 -0.02655418191443467 0 -0.33053696792115572 -0.013249600709362951 0 -0.32518110448499649 -0.02265309324021984 0 -0.33123792958382192 -0.02655418191443467 0 -0.32494971957893121 -0.032132124138264453 0 -0.33294009451157502 -0.035012685436647553 0 -0.34258176142245139 -0.029723406047678591 0 -0.33123792958382192 -0.02655418191443467 0 -0.33294009451157502 -0.035012685436647553 0 -0.33053696792115572 -0.013249600709362951 0 -0.31849217441985911 0.0032242046289520012 0 -0.33742136738088668 0.0099550307423931228 0 -0.34557514790129729 -0.01385186480739395 0 -0.33053696792115572 -0.013249600709362951 0 -0.33742136738088668 0.0099550307423931228 0 -0.30702321298661528 -0.0098616365840560535 0 -0.31536924438116293 -0.015921951660718081 0 -0.31849217441985911 0.0032242046289520012 0 -0.31536924438116293 -0.015921951660718081 0 -0.31849217441985911 0.0032242046289520012 0 -0.33053696792115572 -0.013249600709362951 0 -0.31849217441985911 0.0032242046289520012 0 -0.33053696792115572 -0.013249600709362951 0 -0.31536924438116293 -0.015921951660718081 0 -0.31849217441985911 0.0032242046289520012 0 -0.31536924438116293 -0.015921951660718081 0 -0.31269309410946189 -0.035953378537937578 0 -0.31536924438116293 -0.015921951660718081 0 -0.3196636581113782 -0.026330909640423061 0 -0.31269309410946189 -0.035953378537937578 0 -0.33123792958382192 -0.02655418191443467 0 -0.32518110448499649 -0.02265309324021984 0 -0.32494971957893121 -0.032132124138264453 0 -0.32518110448499649 -0.02265309324021984 0 -0.3196636581113782 -0.026330909640423061 0 -0.32494971957893121 -0.032132124138264453 0 -0.33053696792115572 -0.013249600709362951 0 -0.32518110448499649 -0.02265309324021984 0 -0.31536924438116293 -0.015921951660718081 0 -0.32518110448499649 -0.02265309324021984 0 -0.31536924438116293 -0.015921951660718081 0 -0.3196636581113782 -0.026330909640423061 0 -0.31269309410946189 -0.035953378537937578 0 -0.32494971957893121 -0.032132124138264453 0 -0.3196636581113782 -0.026330909640423061 0 -0.31269309410946189 -0.035953378537937578 0 -0.32494971957893121 -0.032132124138264453 0 -0.32589239144387999 -0.038804272667940308 0 -0.32494971957893121 -0.032132124138264453 0 -0.33294009451157502 -0.035012685436647553 0 -0.31269309410946189 -0.035953378537937578 0 -0.32589239144387999 -0.038804272667940308 0 -0.32494971957893121 -0.032132124138264453 0 -0.31269309410946189 -0.035953378537937578 0 -0.32589239144387999 -0.038804272667940308 0 -0.32612594025468172 -0.0479092750983348 0 -0.31269309410946189 -0.035953378537937578 0 -0.3258565455088529 -0.062036064495169851 0 -0.32612594025468172 -0.0479092750983348 0 -0.30785263576887473 -0.062005008750064983 0 -0.31269309410946189 -0.035953378537937578 0 -0.3258565455088529 -0.062036064495169851 0 -0.31269309410946189 -0.035953378537937578 0 -0.3258565455088529 -0.062036064495169851 0 -0.3258565455088529 -0.062036064495169851 0 -0.32612594025468172 -0.0479092750983348 0 -0.32948021068586231 -0.057824552786275359 0 -0.3258565455088529 -0.062036064495169851 0 -0.32948021068586231 -0.057824552786275359 0 -0.33273312926745618 -0.050000536382928867 0 -0.32948021068586231 -0.057824552786275359 0 -0.33906118872719399 -0.055758100993783748 0 -0.32612594025468172 -0.0479092750983348 0 -0.33273312926745618 -0.050000536382928867 0 -0.32948021068586231 -0.057824552786275359 0 -0.32612594025468172 -0.0479092750983348 0 -0.33273312926745618 -0.050000536382928867 0 -0.33275310876475001 -0.043013900128517107 0 -0.3363426704622316 -0.065040097883454634 0 -0.32948021068586231 -0.057824552786275359 0 -0.33906118872719399 -0.055758100993783748 0 -0.3363426704622316 -0.065040097883454634 0 -0.3258565455088529 -0.062036064495169851 0 -0.32948021068586231 -0.057824552786275359 0 -0.3363426704622316 -0.065040097883454634 0 -0.34775082305034588 -0.06364522302323769 0 -0.33906118872719399 -0.055758100993783748 0 -0.34872123511329239 -0.051662319258650009 0 -0.33906118872719399 -0.055758100993783748 0 -0.33950963895876157 -0.046563850177851397 0 -0.33273312926745618 -0.050000536382928867 0 -0.33906118872719399 -0.055758100993783748 0 -0.33950963895876157 -0.046563850177851397 0 -0.35023980363822049 -0.040197400203048239 0 -0.33950963895876157 -0.046563850177851397 0 -0.33960488145915169 -0.038902248398748569 0 -0.33950963895876157 -0.046563850177851397 0 -0.33960488145915169 -0.038902248398748569 0 -0.33275310876475001 -0.043013900128517107 0 -0.34258176142245139 -0.029723406047678591 0 -0.33294009451157502 -0.035012685436647553 0 -0.34258176142245139 -0.029723406047678591 0 -0.33960488145915169 -0.038902248398748569 0 -0.33294009451157502 -0.035012685436647553 0 -0.32589239144387999 -0.038804272667940308 0 -0.33294009451157502 -0.035012685436647553 0 -0.33275310876475001 -0.043013900128517107 0 -0.33960488145915169 -0.038902248398748569 0 -0.33294009451157502 -0.035012685436647553 0 -0.33275310876475001 -0.043013900128517107 0 -0.32589239144387999 -0.038804272667940308 0 -0.32612594025468172 -0.0479092750983348 0 -0.33275310876475001 -0.043013900128517107 0 -0.33273312926745618 -0.050000536382928867 0 -0.33950963895876157 -0.046563850177851397 0 -0.33275310876475001 -0.043013900128517107 0 -0.3072444938386063 -0.24298546540808871 0 -0.29465074886808879 -0.2402547820199166 0 -0.31547147842988582 -0.2330670094454039 0 -0.29465074886808879 -0.2402547820199166 0 -0.31547147842988582 -0.2330670094454039 0 -0.31283906540333922 -0.25031215033235238 0 -0.3072444938386063 -0.24298546540808871 0 -0.31547147842988582 -0.2330670094454039 0 -0.29948497002523827 -0.2483657822867901 0 -0.3072444938386063 -0.24298546540808871 0 -0.29465074886808879 -0.2402547820199166 0 -0.29948497002523827 -0.2483657822867901 0 -0.3072444938386063 -0.24298546540808871 0 -0.30623861516307299 -0.24935013043731349 0 -0.31283906540333922 -0.25031215033235238 0 -0.3072444938386063 -0.24298546540808871 0 -0.30623861516307299 -0.24935013043731349 0 -0.30340245666429422 -0.2199120115188499 0 -0.29465074886808879 -0.2402547820199166 0 -0.31547147842988582 -0.2330670094454039 0 -0.30340245666429422 -0.2199120115188499 0 -0.31790591229007997 -0.21133065133653661 0 -0.31547147842988582 -0.2330670094454039 0 -0.30340245666429422 -0.2199120115188499 0 -0.29465074886808879 -0.2402547820199166 0 -0.28241226381596191 -0.21797562975109799 0 -0.29465074886808879 -0.2402547820199166 0 -0.27816771109320582 -0.2439982651616662 0 -0.28241226381596191 -0.21797562975109799 0 -0.29465074886808879 -0.2402547820199166 0 -0.27383001930629169 -0.24744255459442921 0 -0.28942662192718172 -0.25357945894426132 0 -0.29465074886808879 -0.2402547820199166 0 -0.27383001930629169 -0.24744255459442921 0 -0.29465074886808879 -0.2402547820199166 0 -0.27816771109320582 -0.2439982651616662 0 -0.27383001930629169 -0.24744255459442921 0 -0.28942662192718172 -0.25357945894426132 0 -0.29948497002523827 -0.2483657822867901 0 -0.29465074886808879 -0.2402547820199166 0 -0.27816771109320582 -0.2439982651616662 0 -0.27383001930629169 -0.24744255459442921 0 -0.26926560585898118 -0.2360615599669478 0 -0.27383001930629169 -0.24744255459442921 0 -0.26926560585898118 -0.2360615599669478 0 -0.25855016474293108 -0.24143028331881861 0 -0.27383001930629169 -0.24744255459442921 0 -0.25855016474293108 -0.24143028331881861 0 -0.2565674865322034 -0.25340195958415102 0 -0.27383001930629169 -0.24744255459442921 0 -0.25855016474293108 -0.24143028331881861 0 -0.26926560585898118 -0.2360615599669478 0 -0.25855016474293108 -0.24143028331881861 0 -0.25588924886857078 -0.22577026586403889 0 -0.24327031017957049 -0.23541801204320789 0 -0.25855016474293108 -0.24143028331881861 0 -0.24327031017957049 -0.23541801204320789 0 -0.25855016474293108 -0.24143028331881861 0 -0.25018128361314113 -0.24746468840205441 0 -0.2565674865322034 -0.25340195958415102 0 -0.25855016474293108 -0.24143028331881861 0 -0.25018128361314113 -0.24746468840205441 0 -0.24327031017957049 -0.23541801204320789 0 -0.25855016474293108 -0.24143028331881861 0 -0.25588924886857078 -0.22577026586403889 0 -0.26926560585898118 -0.2360615599669478 0 -0.25588924886857078 -0.22577026586403889 0 -0.26783798195298542 -0.22189041659364681 0 -0.27816771109320582 -0.2439982651616662 0 -0.26926560585898118 -0.2360615599669478 0 -0.28241226381596191 -0.21797562975109799 0 -0.26926560585898118 -0.2360615599669478 0 -0.26783798195298542 -0.22189041659364681 0 -0.28241226381596191 -0.21797562975109799 0 -0.27816771109320582 -0.2439982651616662 0 -0.28241226381596191 -0.21797562975109799 0 -0.26378480926842768 -0.2077542107925027 0 -0.286656816538718 -0.19195299434052959 0 -0.28241226381596191 -0.21797562975109799 0 -0.26783798195298542 -0.22189041659364681 0 -0.26378480926842768 -0.2077542107925027 0 -0.28241226381596191 -0.21797562975109799 0 -0.25588924886857078 -0.22577026586403889 0 -0.26783798195298542 -0.22189041659364681 0 -0.26378480926842768 -0.2077542107925027 0 -0.2448317244682672 -0.19494017856122331 0 -0.24405101732391901 -0.2151790953022156 0 -0.26378480926842768 -0.2077542107925027 0 -0.24405101732391901 -0.2151790953022156 0 -0.25588924886857078 -0.22577026586403889 0 -0.26378480926842768 -0.2077542107925027 0 -0.2448317244682672 -0.19494017856122331 0 -0.26378480926842768 -0.2077542107925027 0 -0.26312512204060101 -0.18530650416748581 0 -0.26378480926842768 -0.2077542107925027 0 -0.286656816538718 -0.19195299434052959 0 -0.26312512204060101 -0.18530650416748581 0 -0.286656816538718 -0.19195299434052959 0 -0.28241226381596191 -0.21797562975109799 0 -0.30591086076688379 -0.19847336016990141 0 -0.286656816538718 -0.19195299434052959 0 -0.28241226381596191 -0.21797562975109799 0 -0.30340245666429422 -0.2199120115188499 0 -0.28241226381596191 -0.21797562975109799 0 -0.30591086076688379 -0.19847336016990141 0 -0.30340245666429422 -0.2199120115188499 0 -0.30591086076688379 -0.19847336016990141 0 -0.31790591229007997 -0.21133065133653661 0 -0.286656816538718 -0.19195299434052959 0 -0.30591086076688379 -0.19847336016990141 0 -0.31180552805921091 -0.17430838359622669 0 -0.31180552805921091 -0.17430838359622669 0 -0.29090136926147409 -0.16593035892996141 0 -0.30878195228896921 -0.15303576335633209 0 -0.286656816538718 -0.19195299434052959 0 -0.29090136926147409 -0.16593035892996141 0 -0.286656816538718 -0.19195299434052959 0 -0.31180552805921091 -0.17430838359622669 0 -0.29090136926147409 -0.16593035892996141 0 -0.286656816538718 -0.19195299434052959 0 -0.29090136926147409 -0.16593035892996141 0 -0.27584707269233227 -0.1739466899300364 0 -0.27584707269233227 -0.1739466899300364 0 -0.26312512204060101 -0.18530650416748581 0 -0.26138401805284373 -0.16490714025156239 0 -0.286656816538718 -0.19195299434052959 0 -0.27584707269233227 -0.1739466899300364 0 -0.26312512204060101 -0.18530650416748581 0 -0.2448317244682672 -0.19494017856122331 0 -0.24561243161261531 -0.1747012618202311 0 -0.26312512204060101 -0.18530650416748581 0 -0.24561243161261531 -0.1747012618202311 0 -0.26312512204060101 -0.18530650416748581 0 -0.26138401805284373 -0.16490714025156239 0 -0.27584707269233227 -0.1739466899300364 0 -0.26138401805284373 -0.16490714025156239 0 -0.27641132505293098 -0.14990407015019561 0 -0.29090136926147409 -0.16593035892996141 0 -0.27584707269233227 -0.1739466899300364 0 -0.27641132505293098 -0.14990407015019561 0 -0.27641132505293098 -0.14990407015019561 0 -0.26295491861235881 -0.14972714028907499 0 -0.26633673802341562 -0.13121143084146969 0 -0.26138401805284373 -0.16490714025156239 0 -0.27641132505293098 -0.14990407015019561 0 -0.26295491861235881 -0.14972714028907499 0 -0.24768759332024501 -0.15288591991307249 0 -0.26633673802341562 -0.13121143084146969 0 -0.24768759332024501 -0.15288591991307249 0 -0.26295491861235881 -0.14972714028907499 0 -0.26633673802341562 -0.13121143084146969 0 -0.24768759332024501 -0.15288591991307249 0 -0.26138401805284373 -0.16490714025156239 0 -0.26295491861235881 -0.14972714028907499 0 -0.25700205454408459 -0.1228995308742117 0 -0.25066558347885931 -0.13251764995053431 0 -0.26633673802341562 -0.13121143084146969 0 -0.24768759332024501 -0.15288591991307249 0 -0.25066558347885931 -0.13251764995053431 0 -0.26633673802341562 -0.13121143084146969 0 -0.2466021228926524 -0.1215603100838341 0 -0.25700205454408459 -0.1228995308742117 0 -0.25066558347885931 -0.13251764995053431 0 -0.27641132505293098 -0.14990407015019561 0 -0.26633673802341562 -0.13121143084146969 0 -0.28390483366507108 -0.12795146285425149 0 -0.27641132505293098 -0.14990407015019561 0 -0.29514592198423018 -0.13990772351939329 0 -0.28390483366507108 -0.12795146285425149 0 -0.29939047470698632 -0.1138850881088251 0 -0.29514592198423018 -0.13990772351939329 0 -0.28390483366507108 -0.12795146285425149 0 -0.29090136926147409 -0.16593035892996141 0 -0.27641132505293098 -0.14990407015019561 0 -0.29514592198423018 -0.13990772351939329 0 -0.29090136926147409 -0.16593035892996141 0 -0.29514592198423018 -0.13990772351939329 0 -0.29514592198423018 -0.13990772351939329 0 -0.30878195228896921 -0.15303576335633209 0 -0.31204687939749698 -0.1371714365216575 0 -0.29090136926147409 -0.16593035892996141 0 -0.29514592198423018 -0.13990772351939329 0 -0.30878195228896921 -0.15303576335633209 0 -0.3108150907057583 -0.123289039988229 0 -0.29514592198423018 -0.13990772351939329 0 -0.31204687939749698 -0.1371714365216575 0 -0.29939047470698632 -0.1138850881088251 0 -0.3108150907057583 -0.123289039988229 0 -0.29514592198423018 -0.13990772351939329 0 -0.29939047470698632 -0.1138850881088251 0 -0.29514592198423018 -0.13990772351939329 0 -0.32288905220234743 -0.1288405143651869 0 -0.32258299715563782 -0.14068177926995709 0 -0.33321030378869931 -0.13646686722665249 0 -0.3108150907057583 -0.123289039988229 0 -0.31204687939749698 -0.1371714365216575 0 -0.32288905220234743 -0.1288405143651869 0 -0.31204687939749698 -0.1371714365216575 0 -0.32288905220234743 -0.1288405143651869 0 -0.32258299715563782 -0.14068177926995709 0 -0.30878195228896921 -0.15303576335633209 0 -0.32482557091518699 -0.15217937608711771 0 -0.32258299715563782 -0.14068177926995709 0 -0.30878195228896921 -0.15303576335633209 0 -0.31204687939749698 -0.1371714365216575 0 -0.32258299715563782 -0.14068177926995709 0 -0.32482557091518699 -0.15217937608711771 0 -0.32258299715563782 -0.14068177926995709 0 -0.33321030378869931 -0.13646686722665249 0 -0.32482557091518699 -0.15217937608711771 0 -0.34004440046265172 -0.14309243797241011 0 -0.33321030378869931 -0.13646686722665249 0 -0.34004440046265172 -0.14309243797241011 0 -0.35498504575946821 -0.15757720561970059 0 -0.3332048416520596 -0.1672909388971599 0 -0.34004440046265172 -0.14309243797241011 0 -0.3332048416520596 -0.1672909388971599 0 -0.32482557091518699 -0.15217937608711771 0 -0.34004440046265172 -0.14309243797241011 0 -0.3332048416520596 -0.1672909388971599 0 -0.3466874303271234 -0.11958926053505441 0 -0.34004440046265172 -0.14309243797241011 0 -0.33213803149032362 -0.1206207689722909 0 -0.32288905220234743 -0.1288405143651869 0 -0.33321030378869931 -0.13646686722665249 0 -0.33213803149032362 -0.1206207689722909 0 -0.3466874303271234 -0.11958926053505441 0 -0.33321030378869931 -0.13646686722665249 0 -0.3466874303271234 -0.11958926053505441 0 -0.34004440046265172 -0.14309243797241011 0 -0.33321030378869931 -0.13646686722665249 0 -0.34004440046265172 -0.14309243797241011 0 -0.33321030378869931 -0.13646686722665249 0 -0.3466874303271234 -0.11958926053505441 0 -0.35676717686891291 -0.14006723761877321 0 -0.35999293180258313 -0.1258522389537349 0 -0.3466874303271234 -0.11958926053505441 0 -0.34004440046265172 -0.14309243797241011 0 -0.35676717686891291 -0.14006723761877321 0 -0.35676717686891291 -0.14006723761877321 0 -0.37152802352755399 -0.13164580699010159 0 -0.37069541475874412 -0.1487336244607225 0 -0.35676717686891291 -0.14006723761877321 0 -0.35999293180258313 -0.1258522389537349 0 -0.37152802352755399 -0.13164580699010159 0 -0.35676717686891291 -0.14006723761877321 0 -0.37069541475874412 -0.1487336244607225 0 -0.35498504575946821 -0.15757720561970059 0 -0.37069541475874412 -0.1487336244607225 0 -0.35498504575946821 -0.15757720561970059 0 -0.37692746124962329 -0.16011968929401549 0 -0.37152802352755399 -0.13164580699010159 0 -0.37069541475874412 -0.1487336244607225 0 -0.38190833683646341 -0.1417380771930716 0 -0.34004440046265172 -0.14309243797241011 0 -0.35676717686891291 -0.14006723761877321 0 -0.35498504575946821 -0.15757720561970059 0 -0.34004440046265172 -0.14309243797241011 0 -0.35498504575946821 -0.15757720561970059 0 -0.35102499454429859 -0.17065527247529391 0 -0.35498504575946821 -0.15757720561970059 0 -0.36992569105628492 -0.1720619732669908 0 -0.35102499454429859 -0.17065527247529391 0 -0.35498504575946821 -0.15757720561970059 0 -0.3332048416520596 -0.1672909388971599 0 -0.35498504575946821 -0.15757720561970059 0 -0.36992569105628492 -0.1720619732669908 0 -0.37692746124962329 -0.16011968929401549 0 -0.35498504575946821 -0.15757720561970059 0 -0.36992569105628492 -0.1720619732669908 0 -0.36802329911298681 -0.18587483615006681 0 -0.36992569105628492 -0.1720619732669908 0 -0.38452179946839471 -0.1862127167391712 0 -0.36802329911298681 -0.18587483615006681 0 -0.36992569105628492 -0.1720619732669908 0 -0.34598439970938172 -0.18569097211732419 0 -0.35102499454429859 -0.17065527247529391 0 -0.36992569105628492 -0.1720619732669908 0 -0.34598439970938172 -0.18569097211732419 0 -0.36992569105628492 -0.1720619732669908 0 -0.34598439970938172 -0.18569097211732419 0 -0.35102499454429859 -0.17065527247529391 0 -0.34598439970938172 -0.18569097211732419 0 -0.3332048416520596 -0.1672909388971599 0 -0.34598439970938172 -0.18569097211732419 0 -0.3332048416520596 -0.1672909388971599 0 -0.32636528284146782 -0.19148943982190991 0 -0.3332048416520596 -0.1672909388971599 0 -0.32636528284146782 -0.19148943982190991 0 -0.31180552805921091 -0.17430838359622669 0 -0.32482557091518699 -0.15217937608711771 0 -0.3332048416520596 -0.1672909388971599 0 -0.31180552805921091 -0.17430838359622669 0 -0.30878195228896921 -0.15303576335633209 0 -0.32482557091518699 -0.15217937608711771 0 -0.31180552805921091 -0.17430838359622669 0 -0.3332048416520596 -0.1672909388971599 0 -0.32636528284146782 -0.19148943982190991 0 -0.30591086076688379 -0.19847336016990141 0 -0.32636528284146782 -0.19148943982190991 0 -0.31790591229007997 -0.21133065133653661 0 -0.30591086076688379 -0.19847336016990141 0 -0.31180552805921091 -0.17430838359622669 0 -0.32636528284146782 -0.19148943982190991 0 -0.32636528284146782 -0.19148943982190991 0 -0.31790591229007997 -0.21133065133653661 0 -0.33039187961118982 -0.20742389982875531 0 -0.31790591229007997 -0.21133065133653661 0 -0.33039187961118982 -0.20742389982875531 0 -0.32870803705144969 -0.21844997174213321 0 -0.33039187961118982 -0.20742389982875531 0 -0.32870803705144969 -0.21844997174213321 0 -0.33850246058748812 -0.21389845468103499 0 -0.32870803705144969 -0.21844997174213321 0 -0.33850246058748812 -0.21389845468103499 0 -0.33596699493009807 -0.21993263715474329 0 -0.33850246058748812 -0.21389845468103499 0 -0.34687159193856038 -0.2183762197826761 0 -0.3403652740897718 -0.22150288532491411 0 -0.33850246058748812 -0.21389845468103499 0 -0.3403652740897718 -0.22150288532491411 0 -0.33596699493009807 -0.21993263715474329 0 -0.33039187961118982 -0.20742389982875531 0 -0.33850246058748812 -0.21389845468103499 0 -0.34047770528546362 -0.2019509815621614 0 -0.33850246058748812 -0.21389845468103499 0 -0.34047770528546362 -0.2019509815621614 0 -0.34737571748628571 -0.2101963969508848 0 -0.34598439970938172 -0.18569097211732419 0 -0.32636528284146782 -0.19148943982190991 0 -0.34047770528546362 -0.2019509815621614 0 -0.32636528284146782 -0.19148943982190991 0 -0.33039187961118982 -0.20742389982875531 0 -0.34047770528546362 -0.2019509815621614 0 -0.34598439970938172 -0.18569097211732419 0 -0.35303310702934909 -0.20231631441727971 0 -0.36343771537771569 -0.19566750525459251 0 -0.34598439970938172 -0.18569097211732419 0 -0.34047770528546362 -0.2019509815621614 0 -0.35303310702934909 -0.20231631441727971 0 -0.36802329911298681 -0.18587483615006681 0 -0.34598439970938172 -0.18569097211732419 0 -0.36343771537771569 -0.19566750525459251 0 -0.35303310702934909 -0.20231631441727971 0 -0.36343771537771569 -0.19566750525459251 0 -0.36388592792924168 -0.20758305467352059 0 -0.36343771537771569 -0.19566750525459251 0 -0.37301156641091737 -0.20337184000283479 0 -0.36388592792924168 -0.20758305467352059 0 -0.36343771537771569 -0.19566750525459251 0 -0.37438048369549509 -0.19384422148204511 0 -0.37301156641091737 -0.20337184000283479 0 -0.36802329911298681 -0.18587483615006681 0 -0.36343771537771569 -0.19566750525459251 0 -0.37438048369549509 -0.19384422148204511 0 -0.37273312771996808 -0.21396345107145709 0 -0.37301156641091737 -0.20337184000283479 0 -0.36388592792924168 -0.20758305467352059 0 -0.37273312771996808 -0.21396345107145709 0 -0.36388592792924168 -0.20758305467352059 0 -0.36460053442081081 -0.21946742083422599 0 -0.36388592792924168 -0.20758305467352059 0 -0.35626724818121019 -0.21440977701126371 0 -0.36460053442081081 -0.21946742083422599 0 -0.35626724818121019 -0.21440977701126371 0 -0.34687159193856038 -0.2183762197826761 0 -0.35361393690670712 -0.22275298964725909 0 -0.35303310702934909 -0.20231631441727971 0 -0.36388592792924168 -0.20758305467352059 0 -0.35626724818121019 -0.21440977701126371 0 -0.35303310702934909 -0.20231631441727971 0 -0.35626724818121019 -0.21440977701126371 0 -0.34737571748628571 -0.2101963969508848 0 -0.34047770528546362 -0.2019509815621614 0 -0.35303310702934909 -0.20231631441727971 0 -0.34737571748628571 -0.2101963969508848 0 -0.33850246058748812 -0.21389845468103499 0 -0.34737571748628571 -0.2101963969508848 0 -0.34687159193856038 -0.2183762197826761 0 -0.35626724818121019 -0.21440977701126371 0 -0.34737571748628571 -0.2101963969508848 0 -0.34687159193856038 -0.2183762197826761 0 -0.34687159193856038 -0.2183762197826761 0 -0.3448729074691318 -0.22568858673477191 0 -0.3403652740897718 -0.22150288532491411 0 -0.34687159193856038 -0.2183762197826761 0 -0.3448729074691318 -0.22568858673477191 0 -0.35361393690670712 -0.22275298964725909 0 -0.3448729074691318 -0.22568858673477191 0 -0.35311939258201253 -0.23120947699362049 0 -0.35361393690670712 -0.22275298964725909 0 -0.3448729074691318 -0.22568858673477191 0 -0.35311939258201253 -0.23120947699362049 0 -0.3466300329275056 -0.23782645962689411 0 -0.35311939258201253 -0.23120947699362049 0 -0.35361393690670712 -0.22275298964725909 0 -0.36278739720748587 -0.22937453583313699 0 -0.35311939258201253 -0.23120947699362049 0 -0.36278739720748587 -0.22937453583313699 0 -0.35743223323550471 -0.2390192939344549 0 -0.35626724818121019 -0.21440977701126371 0 -0.35361393690670712 -0.22275298964725909 0 -0.36460053442081081 -0.21946742083422599 0 -0.36460053442081081 -0.21946742083422599 0 -0.36278739720748587 -0.22937453583313699 0 -0.37306962678156358 -0.22430756502184571 0 -0.35361393690670712 -0.22275298964725909 0 -0.36460053442081081 -0.21946742083422599 0 -0.36278739720748587 -0.22937453583313699 0 -0.36278739720748587 -0.22937453583313699 0 -0.37393716339703942 -0.23401667981853819 0 -0.37306962678156358 -0.22430756502184571 0 -0.36278739720748587 -0.22937453583313699 0 -0.37393716339703942 -0.23401667981853819 0 -0.36594725961251939 -0.23889039006825119 0 -0.37273312771996808 -0.21396345107145709 0 -0.36460053442081081 -0.21946742083422599 0 -0.37306962678156358 -0.22430756502184571 0 -0.37393540655460039 -0.25504906339868932 0 -0.37362469669529808 -0.24416340610428999 0 -0.363557814049559 -0.2486896754833777 0 -0.37362469669529808 -0.24416340610428999 0 -0.36594725961251939 -0.23889039006825119 0 -0.363557814049559 -0.2486896754833777 0 -0.37393716339703942 -0.23401667981853819 0 -0.37362469669529808 -0.24416340610428999 0 -0.36594725961251939 -0.23889039006825119 0 -0.36278739720748587 -0.22937453583313699 0 -0.36594725961251939 -0.23889039006825119 0 -0.35743223323550471 -0.2390192939344549 0 -0.36594725961251939 -0.23889039006825119 0 -0.363557814049559 -0.2486896754833777 0 -0.35743223323550471 -0.2390192939344549 0 -0.363557814049559 -0.2486896754833777 0 -0.35255150303394622 -0.24812522560144931 0 -0.35743223323550471 -0.2390192939344549 0 -0.35311939258201253 -0.23120947699362049 0 -0.35743223323550471 -0.2390192939344549 0 -0.3466300329275056 -0.23782645962689411 0 -0.35255150303394622 -0.24812522560144931 0 -0.35743223323550471 -0.2390192939344549 0 -0.3466300329275056 -0.23782645962689411 0 -0.35255150303394622 -0.24812522560144931 0 -0.3466300329275056 -0.23782645962689411 0 -0.3420777495351906 -0.24844208584564559 0 -0.33131030172746923 -0.25321851497678438 0 -0.33373364759712132 -0.2373308373461466 0 -0.32202724095639168 -0.2495658441092535 0 -0.33131030172746923 -0.25321851497678438 0 -0.33373364759712132 -0.2373308373461466 0 -0.33131030172746923 -0.25321851497678438 0 -0.3420777495351906 -0.24844208584564559 0 -0.33373364759712132 -0.2373308373461466 0 -0.3466300329275056 -0.23782645962689411 0 -0.3420777495351906 -0.24844208584564559 0 -0.33373364759712132 -0.2373308373461466 0 -0.3448729074691318 -0.22568858673477191 0 -0.33373364759712132 -0.2373308373461466 0 -0.33513500532203722 -0.22814340766163391 0 -0.3448729074691318 -0.22568858673477191 0 -0.33373364759712132 -0.2373308373461466 0 -0.3448729074691318 -0.22568858673477191 0 -0.3466300329275056 -0.23782645962689411 0 -0.33373364759712132 -0.2373308373461466 0 -0.3362922079916828 -0.22587923687089109 0 -0.33513500532203722 -0.22814340766163391 0 -0.31547147842988582 -0.2330670094454039 0 -0.3448729074691318 -0.22568858673477191 0 -0.3362922079916828 -0.22587923687089109 0 -0.33513500532203722 -0.22814340766163391 0 -0.3448729074691318 -0.22568858673477191 0 -0.3403652740897718 -0.22150288532491411 0 -0.3362922079916828 -0.22587923687089109 0 -0.3403652740897718 -0.22150288532491411 0 -0.3362922079916828 -0.22587923687089109 0 -0.33596699493009807 -0.21993263715474329 0 -0.32870803705144969 -0.21844997174213321 0 -0.3362922079916828 -0.22587923687089109 0 -0.33596699493009807 -0.21993263715474329 0 -0.33373364759712132 -0.2373308373461466 0 -0.33513500532203722 -0.22814340766163391 0 -0.31790591229007997 -0.21133065133653661 0 -0.32870803705144969 -0.21844997174213321 0 -0.31547147842988582 -0.2330670094454039 0 -0.3362922079916828 -0.22587923687089109 0 -0.31547147842988582 -0.2330670094454039 0 -0.32870803705144969 -0.21844997174213321 0 -0.3362922079916828 -0.22587923687089109 0 -0.31547147842988582 -0.2330670094454039 0 -0.33373364759712132 -0.2373308373461466 0 -0.33513500532203722 -0.22814340766163391 0 -0.31547147842988582 -0.2330670094454039 0 -0.33373364759712132 -0.2373308373461466 0 -0.31547147842988582 -0.2330670094454039 0 -0.32202724095639168 -0.2495658441092535 0 -0.31283906540333922 -0.25031215033235238 0 -0.31547147842988582 -0.2330670094454039 0 -0.32202724095639168 -0.2495658441092535 0 -0.33373364759712132 -0.2373308373461466 0 -0.32202724095639168 -0.2495658441092535 0 -0.42931567121415071 -0.25028064732030619 0 -0.41974440223132548 -0.2277223948390894 0 -0.42931567121415071 -0.25028064732030619 0 -0.43665732485841618 -0.24137016429136929 0 -0.41974440223132548 -0.2277223948390894 0 -0.43487007995442373 -0.25384069753834382 0 -0.42931567121415071 -0.25028064732030619 0 -0.43665732485841618 -0.24137016429136929 0 -0.43665732485841618 -0.24137016429136929 0 -0.41974440223132548 -0.2277223948390894 0 -0.44277641758923081 -0.23102430468348881 0 -0.43377720402095787 -0.21991138490827611 0 -0.41974440223132548 -0.2277223948390894 0 -0.44277641758923081 -0.23102430468348881 0 -0.43377720402095787 -0.21991138490827611 0 -0.41974440223132548 -0.2277223948390894 0 -0.42075205755079043 -0.21398522646416529 0 -0.41974440223132548 -0.2277223948390894 0 -0.40847937369743209 -0.24258689873782929 0 -0.40379864078896821 -0.22147517947459039 0 -0.42931567121415071 -0.25028064732030619 0 -0.41974440223132548 -0.2277223948390894 0 -0.40847937369743209 -0.24258689873782929 0 -0.3945867816951415 -0.25828321704239809 0 -0.40847937369743209 -0.24258689873782929 0 -0.3933004523496676 -0.24484402304582939 0 -0.40847937369743209 -0.24258689873782929 0 -0.3933004523496676 -0.24484402304582939 0 -0.39478669289115392 -0.23309544567896751 0 -0.3933004523496676 -0.24484402304582939 0 -0.38349803953804651 -0.2389949919606586 0 -0.38258347849844832 -0.24967798674395081 0 -0.3933004523496676 -0.24484402304582939 0 -0.38349803953804651 -0.2389949919606586 0 -0.39478669289115392 -0.23309544567896751 0 -0.37393716339703942 -0.23401667981853819 0 -0.37362469669529808 -0.24416340610428999 0 -0.38349803953804651 -0.2389949919606586 0 -0.37393540655460039 -0.25504906339868932 0 -0.37362469669529808 -0.24416340610428999 0 -0.38258347849844832 -0.24967798674395081 0 -0.37362469669529808 -0.24416340610428999 0 -0.38349803953804651 -0.2389949919606586 0 -0.38258347849844832 -0.24967798674395081 0 -0.37306962678156358 -0.22430756502184571 0 -0.38469596054732291 -0.22836918992304631 0 -0.38295547739377761 -0.21861943378263729 0 -0.37273312771996808 -0.21396345107145709 0 -0.37306962678156358 -0.22430756502184571 0 -0.38295547739377761 -0.21861943378263729 0 -0.37393716339703942 -0.23401667981853819 0 -0.38349803953804651 -0.2389949919606586 0 -0.38469596054732291 -0.22836918992304631 0 -0.37393716339703942 -0.23401667981853819 0 -0.37306962678156358 -0.22430756502184571 0 -0.38469596054732291 -0.22836918992304631 0 -0.38349803953804651 -0.2389949919606586 0 -0.38469596054732291 -0.22836918992304631 0 -0.39478669289115392 -0.23309544567896751 0 -0.38469596054732291 -0.22836918992304631 0 -0.39264909581396568 -0.2229573829789786 0 -0.38295547739377761 -0.21861943378263729 0 -0.39264909581396568 -0.2229573829789786 0 -0.39478669289115392 -0.23309544567896751 0 -0.40379864078896821 -0.22147517947459039 0 -0.40847937369743209 -0.24258689873782929 0 -0.39478669289115392 -0.23309544567896751 0 -0.40379864078896821 -0.22147517947459039 0 -0.40847937369743209 -0.24258689873782929 0 -0.40379864078896821 -0.22147517947459039 0 -0.39264909581396568 -0.2229573829789786 0 -0.40379864078896821 -0.22147517947459039 0 -0.39247153470499518 -0.2129117927155128 0 -0.38469596054732291 -0.22836918992304631 0 -0.39264909581396568 -0.2229573829789786 0 -0.39478669289115392 -0.23309544567896751 0 -0.40379864078896821 -0.22147517947459039 0 -0.39911790788050461 -0.2003634602113514 0 -0.40379864078896821 -0.22147517947459039 0 -0.39247153470499518 -0.2129117927155128 0 -0.39911790788050461 -0.2003634602113514 0 -0.40379864078896821 -0.22147517947459039 0 -0.40520524043689871 -0.20626505254016059 0 -0.39911790788050461 -0.2003634602113514 0 -0.40520524043689871 -0.20626505254016059 0 -0.39911790788050461 -0.2003634602113514 0 -0.41017313324850019 -0.2051641423578727 0 -0.40520524043689871 -0.20626505254016059 0 -0.39911790788050461 -0.2003634602113514 0 -0.39247153470499518 -0.2129117927155128 0 -0.38971867217429529 -0.20303686442097379 0 -0.39911790788050461 -0.2003634602113514 0 -0.39247153470499518 -0.2129117927155128 0 -0.38295547739377761 -0.21861943378263729 0 -0.38211351879485039 -0.2092072209849834 0 -0.39264909581396568 -0.2229573829789786 0 -0.39247153470499518 -0.2129117927155128 0 -0.38295547739377761 -0.21861943378263729 0 -0.38211351879485039 -0.2092072209849834 0 -0.38151862494823319 -0.19996558655041019 0 -0.38971867217429529 -0.20303686442097379 0 -0.39247153470499518 -0.2129117927155128 0 -0.38211351879485039 -0.2092072209849834 0 -0.38971867217429529 -0.20303686442097379 0 -0.37273312771996808 -0.21396345107145709 0 -0.37301156641091737 -0.20337184000283479 0 -0.38211351879485039 -0.2092072209849834 0 -0.37301156641091737 -0.20337184000283479 0 -0.38211351879485039 -0.2092072209849834 0 -0.38151862494823319 -0.19996558655041019 0 -0.37273312771996808 -0.21396345107145709 0 -0.38295547739377761 -0.21861943378263729 0 -0.38211351879485039 -0.2092072209849834 0 -0.36802329911298681 -0.18587483615006681 0 -0.37438048369549509 -0.19384422148204511 0 -0.38452179946839471 -0.1862127167391712 0 -0.38151862494823319 -0.19996558655041019 0 -0.38971867217429529 -0.20303686442097379 0 -0.38452179946839471 -0.1862127167391712 0 -0.37438048369549509 -0.19384422148204511 0 -0.38151862494823319 -0.19996558655041019 0 -0.38452179946839471 -0.1862127167391712 0 -0.37438048369549509 -0.19384422148204511 0 -0.37301156641091737 -0.20337184000283479 0 -0.38151862494823319 -0.19996558655041019 0 -0.39911790788050461 -0.2003634602113514 0 -0.39550730918059213 -0.18407841519480589 0 -0.38452179946839471 -0.1862127167391712 0 -0.39911790788050461 -0.2003634602113514 0 -0.40135005364381798 -0.19305297691017151 0 -0.39550730918059213 -0.18407841519480589 0 -0.39911790788050461 -0.2003634602113514 0 -0.39550730918059213 -0.18407841519480589 0 -0.38971867217429529 -0.20303686442097379 0 -0.39911790788050461 -0.2003634602113514 0 -0.38452179946839471 -0.1862127167391712 0 -0.41017313324850019 -0.2051641423578727 0 -0.40060186426567512 -0.18260588987665591 0 -0.40135005364381798 -0.19305297691017151 0 -0.41017313324850019 -0.2051641423578727 0 -0.40060186426567512 -0.18260588987665591 0 -0.39911790788050461 -0.2003634602113514 0 -0.38452179946839471 -0.1862127167391712 0 -0.39911790788050461 -0.2003634602113514 0 -0.40135005364381798 -0.19305297691017151 0 -0.41017313324850019 -0.2051641423578727 0 -0.40882722491020068 -0.19324634934951379 0 -0.40670914653930851 -0.1871811045826946 0 -0.40060186426567512 -0.18260588987665591 0 -0.40882722491020068 -0.19324634934951379 0 -0.41182634361573828 -0.18846823012601879 0 -0.40670914653930851 -0.1871811045826946 0 -0.40882722491020068 -0.19324634934951379 0 -0.41017313324850019 -0.2051641423578727 0 -0.40060186426567512 -0.18260588987665591 0 -0.40882722491020068 -0.19324634934951379 0 -0.41332632127240471 -0.19520135196246871 0 -0.41182634361573828 -0.18846823012601879 0 -0.41182634361573828 -0.18846823012601879 0 -0.42015528071935893 -0.19373976728588371 0 -0.42086010939994178 -0.18624419393877539 0 -0.41332632127240471 -0.19520135196246871 0 -0.41182634361573828 -0.18846823012601879 0 -0.42015528071935893 -0.19373976728588371 0 -0.42015528071935893 -0.19373976728588371 0 -0.41596892406105851 -0.2005599774501266 0 -0.4250272884910265 -0.2012921483654643 0 -0.41596892406105851 -0.2005599774501266 0 -0.41798035083784391 -0.20525037365940721 0 -0.4250272884910265 -0.2012921483654643 0 -0.41332632127240471 -0.19520135196246871 0 -0.42015528071935893 -0.19373976728588371 0 -0.41596892406105851 -0.2005599774501266 0 -0.41596892406105851 -0.2005599774501266 0 -0.41190905555667651 -0.19876129696974801 0 -0.41017313324850019 -0.2051641423578727 0 -0.40882722491020068 -0.19324634934951379 0 -0.41190905555667651 -0.19876129696974801 0 -0.41017313324850019 -0.2051641423578727 0 -0.40882722491020068 -0.19324634934951379 0 -0.41332632127240471 -0.19520135196246871 0 -0.41190905555667651 -0.19876129696974801 0 -0.41332632127240471 -0.19520135196246871 0 -0.41596892406105851 -0.2005599774501266 0 -0.41190905555667651 -0.19876129696974801 0 -0.41974440223132548 -0.2277223948390894 0 -0.40379864078896821 -0.22147517947459039 0 -0.41017313324850019 -0.2051641423578727 0 -0.41974440223132548 -0.2277223948390894 0 -0.41017313324850019 -0.2051641423578727 0 -0.42075205755079043 -0.21398522646416529 0 -0.40379864078896821 -0.22147517947459039 0 -0.40520524043689871 -0.20626505254016059 0 -0.41017313324850019 -0.2051641423578727 0 -0.41974440223132548 -0.2277223948390894 0 -0.41017313324850019 -0.2051641423578727 0 -0.41017313324850019 -0.2051641423578727 0 -0.42075205755079043 -0.21398522646416529 0 -0.41798035083784391 -0.20525037365940721 0 -0.42075205755079043 -0.21398522646416529 0 -0.41798035083784391 -0.20525037365940721 0 -0.4250272884910265 -0.2012921483654643 0 -0.41596892406105851 -0.2005599774501266 0 -0.41017313324850019 -0.2051641423578727 0 -0.41798035083784391 -0.20525037365940721 0 -0.42075205755079043 -0.21398522646416529 0 -0.43601245252430942 -0.20793643678791121 0 -0.4250272884910265 -0.2012921483654643 0 -0.43377720402095787 -0.21991138490827611 0 -0.42075205755079043 -0.21398522646416529 0 -0.43601245252430942 -0.20793643678791121 0 -0.42704416580793209 -0.1915833167308334 0 -0.4250272884910265 -0.2012921483654643 0 -0.43829012180726529 -0.19322062900912909 0 -0.43601245252430942 -0.20793643678791121 0 -0.4250272884910265 -0.2012921483654643 0 -0.43829012180726529 -0.19322062900912909 0 -0.42704416580793209 -0.1915833167308334 0 -0.43088802862206788 -0.18341984505491449 0 -0.43829012180726529 -0.19322062900912909 0 -0.42015528071935893 -0.19373976728588371 0 -0.42704416580793209 -0.1915833167308334 0 -0.42086010939994178 -0.18624419393877539 0 -0.42015528071935893 -0.19373976728588371 0 -0.42704416580793209 -0.1915833167308334 0 -0.4250272884910265 -0.2012921483654643 0 -0.4285734277027195 -0.1734756855885477 0 -0.43088802862206788 -0.18341984505491449 0 -0.41995474680429618 -0.17713819565942951 0 -0.42704416580793209 -0.1915833167308334 0 -0.43088802862206788 -0.18341984505491449 0 -0.42086010939994178 -0.18624419393877539 0 -0.43088802862206788 -0.18341984505491449 0 -0.41995474680429618 -0.17713819565942951 0 -0.42086010939994178 -0.18624419393877539 0 -0.43088802862206788 -0.18341984505491449 0 -0.44104422433457419 -0.1777922577957152 0 -0.43829012180726529 -0.19322062900912909 0 -0.4285734277027195 -0.1734756855885477 0 -0.43088802862206788 -0.18341984505491449 0 -0.44104422433457419 -0.1777922577957152 0 -0.4285734277027195 -0.1734756855885477 0 -0.4344270590450659 -0.1609053943072484 0 -0.44104422433457419 -0.1777922577957152 0 -0.4285734277027195 -0.1734756855885477 0 -0.4344270590450659 -0.1609053943072484 0 -0.4151480566294905 -0.1680004084026471 0 -0.4151480566294905 -0.1680004084026471 0 -0.40323096316088519 -0.16793215078578741 0 -0.41306883257355248 -0.1475019853524365 0 -0.4344270590450659 -0.1609053943072484 0 -0.4151480566294905 -0.1680004084026471 0 -0.41306883257355248 -0.1475019853524365 0 -0.4151480566294905 -0.1680004084026471 0 -0.40690801218449152 -0.1762036959065488 0 -0.40323096316088519 -0.16793215078578741 0 -0.4151480566294905 -0.1680004084026471 0 -0.40690801218449152 -0.1762036959065488 0 -0.4136865446123984 -0.1757543503219206 0 -0.40690801218449152 -0.1762036959065488 0 -0.4136865446123984 -0.1757543503219206 0 -0.41273536283131562 -0.1816751013190569 0 -0.4151480566294905 -0.1680004084026471 0 -0.4136865446123984 -0.1757543503219206 0 -0.41995474680429618 -0.17713819565942951 0 -0.4285734277027195 -0.1734756855885477 0 -0.4151480566294905 -0.1680004084026471 0 -0.41995474680429618 -0.17713819565942951 0 -0.4136865446123984 -0.1757543503219206 0 -0.41995474680429618 -0.17713819565942951 0 -0.41273536283131562 -0.1816751013190569 0 -0.41995474680429618 -0.17713819565942951 0 -0.42086010939994178 -0.18624419393877539 0 -0.41273536283131562 -0.1816751013190569 0 -0.41182634361573828 -0.18846823012601879 0 -0.42086010939994178 -0.18624419393877539 0 -0.41273536283131562 -0.1816751013190569 0 -0.41182634361573828 -0.18846823012601879 0 -0.41273536283131562 -0.1816751013190569 0 -0.4077561458873058 -0.18322680436219499 0 -0.40690801218449152 -0.1762036959065488 0 -0.41273536283131562 -0.1816751013190569 0 -0.4077561458873058 -0.18322680436219499 0 -0.41182634361573828 -0.18846823012601879 0 -0.4077561458873058 -0.18322680436219499 0 -0.40670914653930851 -0.1871811045826946 0 -0.39550730918059213 -0.18407841519480589 0 -0.38736231178750308 -0.177259124355894 0 -0.39189671048067998 -0.1677933701782604 0 -0.40135005364381798 -0.19305297691017151 0 -0.40060186426567512 -0.18260588987665591 0 -0.39550730918059213 -0.18407841519480589 0 -0.4077561458873058 -0.18322680436219499 0 -0.40670914653930851 -0.1871811045826946 0 -0.40060186426567512 -0.18260588987665591 0 -0.39550730918059213 -0.18407841519480589 0 -0.39189671048067998 -0.1677933701782604 0 -0.40060186426567512 -0.18260588987665591 0 -0.39550730918059213 -0.18407841519480589 0 -0.39189671048067998 -0.1677933701782604 0 -0.40690801218449152 -0.1762036959065488 0 -0.4077561458873058 -0.18322680436219499 0 -0.40060186426567512 -0.18260588987665591 0 -0.40690801218449152 -0.1762036959065488 0 -0.40060186426567512 -0.18260588987665591 0 -0.40323096316088519 -0.16793215078578741 0 -0.36992569105628492 -0.1720619732669908 0 -0.38736231178750308 -0.177259124355894 0 -0.39189671048067998 -0.1677933701782604 0 -0.36992569105628492 -0.1720619732669908 0 -0.38452179946839471 -0.1862127167391712 0 -0.38736231178750308 -0.177259124355894 0 -0.39550730918059213 -0.18407841519480589 0 -0.38452179946839471 -0.1862127167391712 0 -0.38736231178750308 -0.177259124355894 0 -0.36992569105628492 -0.1720619732669908 0 -0.38452179946839471 -0.1862127167391712 0 -0.36992569105628492 -0.1720619732669908 0 -0.37692746124962329 -0.16011968929401549 0 -0.39103059528285172 -0.16004763739543851 0 -0.36992569105628492 -0.1720619732669908 0 -0.39189671048067998 -0.1677933701782604 0 -0.39103059528285172 -0.16004763739543851 0 -0.36992569105628492 -0.1720619732669908 0 -0.39103059528285172 -0.16004763739543851 0 -0.37692746124962329 -0.16011968929401549 0 -0.39103059528285172 -0.16004763739543851 0 -0.38828980922767731 -0.15358795645443499 0 -0.39103059528285172 -0.16004763739543851 0 -0.38828980922767731 -0.15358795645443499 0 -0.40060186426567512 -0.18260588987665591 0 -0.39103059528285172 -0.16004763739543851 0 -0.40323096316088519 -0.16793215078578741 0 -0.40060186426567512 -0.18260588987665591 0 -0.39189671048067998 -0.1677933701782604 0 -0.39103059528285172 -0.16004763739543851 0 -0.40060186426567512 -0.18260588987665591 0 -0.39103059528285172 -0.16004763739543851 0 -0.39103059528285172 -0.16004763739543851 0 -0.40323096316088519 -0.16793215078578741 0 -0.41306883257355248 -0.1475019853524365 0 -0.39103059528285172 -0.16004763739543851 0 -0.39795981207507403 -0.14502431583870179 0 -0.41306883257355248 -0.1475019853524365 0 -0.39795981207507403 -0.14502431583870179 0 -0.40633267592073652 -0.13102661860532899 0 -0.41306883257355248 -0.1475019853524365 0 -0.39103059528285172 -0.16004763739543851 0 -0.41306883257355248 -0.1475019853524365 0 -0.39103059528285172 -0.16004763739543851 0 -0.39795981207507403 -0.14502431583870179 0 -0.38828980922767731 -0.15358795645443499 0 -0.39795981207507403 -0.14502431583870179 0 -0.38828980922767731 -0.15358795645443499 0 -0.38190833683646341 -0.1417380771930716 0 -0.38828980922767731 -0.15358795645443499 0 -0.38190833683646341 -0.1417380771930716 0 -0.37945525551812698 -0.15104483685056111 0 -0.37069541475874412 -0.1487336244607225 0 -0.38190833683646341 -0.1417380771930716 0 -0.37945525551812698 -0.15104483685056111 0 -0.37692746124962329 -0.16011968929401549 0 -0.38828980922767731 -0.15358795645443499 0 -0.37945525551812698 -0.15104483685056111 0 -0.37069541475874412 -0.1487336244607225 0 -0.37692746124962329 -0.16011968929401549 0 -0.37945525551812698 -0.15104483685056111 0 -0.37152802352755399 -0.13164580699010159 0 -0.38190833683646341 -0.1417380771930716 0 -0.38235470820745771 -0.123978498660336 0 -0.38190833683646341 -0.1417380771930716 0 -0.39228294530364349 -0.13316426080004001 0 -0.38235470820745771 -0.123978498660336 0 -0.39228294530364349 -0.13316426080004001 0 -0.40633267592073652 -0.13102661860532899 0 -0.39306930808202878 -0.1142539450673672 0 -0.39795981207507403 -0.14502431583870179 0 -0.38190833683646341 -0.1417380771930716 0 -0.39228294530364349 -0.13316426080004001 0 -0.39795981207507403 -0.14502431583870179 0 -0.39228294530364349 -0.13316426080004001 0 -0.40633267592073652 -0.13102661860532899 0 -0.40633267592073652 -0.13102661860532899 0 -0.42371591628165239 -0.12841039464220819 0 -0.41294233195137359 -0.116724400289887 0 -0.40633267592073652 -0.13102661860532899 0 -0.41306883257355248 -0.1475019853524365 0 -0.42371591628165239 -0.12841039464220819 0 -0.4344270590450659 -0.1609053943072484 0 -0.41306883257355248 -0.1475019853524365 0 -0.43782831476482847 -0.1415704877041897 0 -0.41306883257355248 -0.1475019853524365 0 -0.42371591628165239 -0.12841039464220819 0 -0.43782831476482847 -0.1415704877041897 0 -0.42371591628165239 -0.12841039464220819 0 -0.43782831476482847 -0.1415704877041897 0 -0.44295770465017009 -0.12292285668534771 0 -0.43782831476482847 -0.1415704877041897 0 -0.45407528277834919 -0.1346042898317954 0 -0.44295770465017009 -0.12292285668534771 0 -0.43782831476482847 -0.1415704877041897 0 -0.45305184803309972 -0.15210272433296521 0 -0.45407528277834919 -0.1346042898317954 0 -0.4344270590450659 -0.1609053943072484 0 -0.43782831476482847 -0.1415704877041897 0 -0.45305184803309972 -0.15210272433296521 0 -0.45305184803309972 -0.15210272433296521 0 -0.45407528277834919 -0.1346042898317954 0 -0.47213782278640881 -0.13623393318828281 0 -0.45305184803309972 -0.15210272433296521 0 -0.47213782278640881 -0.13623393318828281 0 -0.46702369577757719 -0.16066454859793791 0 -0.45407528277834919 -0.1346042898317954 0 -0.47213782278640881 -0.13623393318828281 0 -0.46296805171726468 -0.11640170438458371 0 -0.47213782278640881 -0.13623393318828281 0 -0.5 -0.14556247672259531 0 -0.48245330698995931 -0.121898764666846 0 -0.5 -0.14556247672259531 0 -0.48245330698995931 -0.121898764666846 0 -0.50000000000000089 -0.1198938119733675 0 -0.47213782278640881 -0.13623393318828281 0 -0.5 -0.14556247672259531 0 -0.48142521519093828 -0.15645589086587239 0 -0.47213782278640881 -0.13623393318828281 0 -0.48142521519093828 -0.15645589086587239 0 -0.47213782278640881 -0.13623393318828281 0 -0.48142521519093828 -0.15645589086587239 0 -0.46702369577757719 -0.16066454859793791 0 -0.48142521519093828 -0.15645589086587239 0 -0.47632052375980027 -0.17461649056753861 0 -0.46702369577757719 -0.16066454859793791 0 -0.48142521519093828 -0.15645589086587239 0 -0.49071260759546798 -0.17667784854346191 0 -0.47632052375980027 -0.17461649056753861 0 -0.47632052375980027 -0.17461649056753861 0 -0.46570520523623959 -0.1757931846103527 0 -0.46702369577757719 -0.16066454859793791 0 -0.48142521519093828 -0.15645589086587239 0 -0.49071260759546798 -0.17667784854346191 0 -0.5 -0.14556247672259531 0 -0.48142521519093828 -0.15645589086587239 0 -0.5 -0.17123114147182319 0 -0.48142521519093828 -0.15645589086587239 0 -0.5 -0.17123114147182319 0 -0.49071260759546798 -0.17667784854346191 0 -0.49071260759546798 -0.17667784854346191 0 -0.49999999999999861 -0.19689980622105099 0 -0.5 -0.17123114147182319 0 -0.49071260759546798 -0.17667784854346191 0 -0.49999999999999861 -0.19689980622105099 0 -0.49071260759546798 -0.17667784854346191 0 -0.47632052375980027 -0.17461649056753861 0 -0.47993034859498662 -0.18922987045237161 0 -0.47632052375980027 -0.17461649056753861 0 -0.46763136520864318 -0.18653340036078911 0 -0.46570520523623959 -0.1757931846103527 0 -0.47632052375980027 -0.17461649056753861 0 -0.46763136520864318 -0.18653340036078911 0 -0.47993034859498662 -0.18922987045237161 0 -0.46570520523623959 -0.1757931846103527 0 -0.45350155965897682 -0.1687850680226157 0 -0.45596312027128949 -0.18794868189772959 0 -0.46763136520864318 -0.18653340036078911 0 -0.46570520523623959 -0.1757931846103527 0 -0.45596312027128949 -0.18794868189772959 0 -0.45305184803309972 -0.15210272433296521 0 -0.46702369577757719 -0.16066454859793791 0 -0.45350155965897682 -0.1687850680226157 0 -0.46570520523623959 -0.1757931846103527 0 -0.46702369577757719 -0.16066454859793791 0 -0.45350155965897682 -0.1687850680226157 0 -0.4344270590450659 -0.1609053943072484 0 -0.45305184803309972 -0.15210272433296521 0 -0.45350155965897682 -0.1687850680226157 0 -0.4344270590450659 -0.1609053943072484 0 -0.45350155965897682 -0.1687850680226157 0 -0.44104422433457419 -0.1777922577957152 0 -0.45350155965897682 -0.1687850680226157 0 -0.44104422433457419 -0.1777922577957152 0 -0.45596312027128949 -0.18794868189772959 0 -0.44104422433457419 -0.1777922577957152 0 -0.43829012180726529 -0.19322062900912909 0 -0.45596312027128949 -0.18794868189772959 0 -0.45013906333809789 -0.2009404811944836 0 -0.43829012180726529 -0.19322062900912909 0 -0.45596312027128949 -0.18794868189772959 0 -0.43601245252430942 -0.20793643678791121 0 -0.45013906333809789 -0.2009404811944836 0 -0.43829012180726529 -0.19322062900912909 0 -0.43377720402095787 -0.21991138490827611 0 -0.43601245252430942 -0.20793643678791121 0 -0.45297794936819918 -0.2159919965998246 0 -0.43601245252430942 -0.20793643678791121 0 -0.45013906333809789 -0.2009404811944836 0 -0.45297794936819918 -0.2159919965998246 0 -0.45013906333809789 -0.2009404811944836 0 -0.45297794936819918 -0.2159919965998246 0 -0.46745167271942573 -0.1996046616778234 0 -0.45297794936819918 -0.2159919965998246 0 -0.46745167271942573 -0.1996046616778234 0 -0.46956062781061803 -0.21704188818370149 0 -0.45013906333809789 -0.2009404811944836 0 -0.46745167271942573 -0.1996046616778234 0 -0.45596312027128949 -0.18794868189772959 0 -0.46763136520864318 -0.18653340036078911 0 -0.46745167271942573 -0.1996046616778234 0 -0.45596312027128949 -0.18794868189772959 0 -0.46745167271942573 -0.1996046616778234 0 -0.47993034859498662 -0.18922987045237161 0 -0.48475058775642699 -0.21058337118561141 0 -0.46763136520864318 -0.18653340036078911 0 -0.46745167271942573 -0.1996046616778234 0 -0.47993034859498662 -0.18922987045237161 0 -0.47993034859498662 -0.18922987045237161 0 -0.49999999999999861 -0.19689980622105099 0 -0.48475058775642699 -0.21058337118561141 0 -0.49071260759546798 -0.17667784854346191 0 -0.47993034859498662 -0.18922987045237161 0 -0.49999999999999861 -0.19689980622105099 0 -0.49999999999999861 -0.19689980622105099 0 -0.48475058775642699 -0.21058337118561141 0 -0.50000000000000355 -0.22426693615016591 0 -0.46745167271942573 -0.1996046616778234 0 -0.48475058775642699 -0.21058337118561141 0 -0.46956062781061803 -0.21704188818370149 0 -0.46956062781061803 -0.21704188818370149 0 -0.47829002665147741 -0.2341248566128927 0 -0.46279731583591321 -0.22891002208815581 0 -0.48475058775642699 -0.21058337118561141 0 -0.46956062781061803 -0.21704188818370149 0 -0.47829002665147741 -0.2341248566128927 0 -0.47829002665147741 -0.2341248566128927 0 -0.49757451855253881 -0.23053548086278239 0 -0.50000000000000355 -0.22426693615016591 0 -0.48475058775642699 -0.21058337118561141 0 -0.47829002665147741 -0.2341248566128927 0 -0.50000000000000355 -0.22426693615016591 0 -0.47829002665147741 -0.2341248566128927 0 -0.50000000000000355 -0.22426693615016591 0 -0.47829002665147741 -0.2341248566128927 0 -0.49757451855253881 -0.23053548086278239 0 -0.47793059070477772 -0.24540990329775009 0 -0.5 -0.25006354863638108 0 -0.49757451855253881 -0.23053548086278239 0 -0.49068252501969761 -0.24549971615663649 0 -0.49757451855253881 -0.23053548086278239 0 -0.49068252501969761 -0.24549971615663649 0 -0.47793059070477772 -0.24540990329775009 0 -0.49757451855253881 -0.23053548086278239 0 -0.47793059070477772 -0.24540990329775009 0 -0.5 -0.25006354863638108 0 -0.49757451855253881 -0.23053548086278239 0 -0.50000000000000355 -0.22426693615016591 0 -0.4872249908214738 -0.25598993182963242 0 -0.49068252501969761 -0.24549971615663649 0 -0.47793059070477772 -0.24540990329775009 0 -0.47829002665147741 -0.2341248566128927 0 -0.47793059070477772 -0.24540990329775009 0 -0.45658005330295048 -0.2439827770756183 0 -0.45658005330295048 -0.2439827770756183 0 -0.46279731583591321 -0.22891002208815581 0 -0.44277641758923081 -0.23102430468348881 0 -0.47829002665147741 -0.2341248566128927 0 -0.45658005330295048 -0.2439827770756183 0 -0.45828666285701658 -0.26028432573271792 0 -0.47793059070477772 -0.24540990329775009 0 -0.45658005330295048 -0.2439827770756183 0 -0.47829002665147741 -0.2341248566128927 0 -0.45658005330295048 -0.2439827770756183 0 -0.46279731583591321 -0.22891002208815581 0 -0.45297794936819918 -0.2159919965998246 0 -0.46956062781061803 -0.21704188818370149 0 -0.46279731583591321 -0.22891002208815581 0 -0.45297794936819918 -0.2159919965998246 0 -0.46279731583591321 -0.22891002208815581 0 -0.44277641758923081 -0.23102430468348881 0 -0.43377720402095787 -0.21991138490827611 0 -0.45297794936819918 -0.2159919965998246 0 -0.44277641758923081 -0.23102430468348881 0 -0.43487007995442373 -0.25384069753834382 0 -0.45658005330295048 -0.2439827770756183 0 -0.43487007995442373 -0.25384069753834382 0 -0.43665732485841618 -0.24137016429136929 0 -0.45658005330295048 -0.2439827770756183 0 -0.43665732485841618 -0.24137016429136929 0 -0.45658005330295048 -0.2439827770756183 0 -0.44277641758923081 -0.23102430468348881 0 -0.42837915354319411 -0.040827216461995969 0 -0.4199205163048339 -0.024265820886729 0 -0.40528095782104068 -0.044243292517360297 0 -0.42343463197652342 -0.05874232933513765 0 -0.42837915354319411 -0.040827216461995969 0 -0.40528095782104068 -0.044243292517360297 0 -0.42343463197652342 -0.05874232933513765 0 -0.40528095782104068 -0.044243292517360297 0 -0.42343463197652342 -0.05874232933513765 0 -0.40528095782104068 -0.044243292517360297 0 -0.40670414160736479 -0.063195666982337848 0 -0.42343463197652342 -0.05874232933513765 0 -0.42837915354319411 -0.040827216461995969 0 -0.44094154444346079 -0.04995238034171972 0 -0.42343463197652342 -0.05874232933513765 0 -0.44158830613200611 -0.073241366152915127 0 -0.44094154444346079 -0.04995238034171972 0 -0.42837915354319411 -0.040827216461995969 0 -0.4342900889778567 -0.026770694848987801 0 -0.4453801544960031 -0.037531923181514312 0 -0.4342900889778567 -0.026770694848987801 0 -0.43033724725149269 -0.0037964727450953309 0 -0.4199205163048339 -0.024265820886729 0 -0.4342900889778567 -0.026770694848987801 0 -0.43033724725149269 -0.0037964727450953309 0 -0.44743337329375982 -0.027432040969604381 0 -0.42837915354319411 -0.040827216461995969 0 -0.4342900889778567 -0.026770694848987801 0 -0.4199205163048339 -0.024265820886729 0 -0.43033724725149269 -0.0037964727450953309 0 -0.4131572459017161 -0.004875649818797438 0 -0.4199205163048339 -0.024265820886729 0 -0.4131572459017161 -0.004875649818797438 0 -0.4199205163048339 -0.024265820886729 0 -0.40195427741026962 -0.018113178269922089 0 -0.4199205163048339 -0.024265820886729 0 -0.40195427741026962 -0.018113178269922089 0 -0.40528095782104068 -0.044243292517360297 0 -0.40195427741026962 -0.018113178269922089 0 -0.38465333842141641 -0.0066435457767305304 0 -0.38712728366555788 -0.02974425569958293 0 -0.40195427741026962 -0.018113178269922089 0 -0.38712728366555788 -0.02974425569958293 0 -0.40528095782104068 -0.044243292517360297 0 -0.40195427741026962 -0.018113178269922089 0 -0.38465333842141641 -0.0066435457767305304 0 -0.40033306733275759 0.0019581273283447299 0 -0.4131572459017161 -0.004875649818797438 0 -0.40195427741026962 -0.018113178269922089 0 -0.40033306733275759 0.0019581273283447299 0 -0.38465333842141641 -0.0066435457767305304 0 -0.40033306733275759 0.0019581273283447299 0 -0.36897360951007507 -0.015245218881805699 0 -0.38465333842141641 -0.0066435457767305304 0 -0.36897360951007507 -0.015245218881805699 0 -0.38465333842141641 -0.0066435457767305304 0 -0.38712728366555788 -0.02974425569958293 0 -0.36897360951007507 -0.015245218881805699 0 -0.38712728366555788 -0.02974425569958293 0 -0.37357085562444819 -0.050327950541553881 0 -0.38712728366555788 -0.02974425569958293 0 -0.39147992867528753 -0.058279446621744307 0 -0.38712728366555788 -0.02974425569958293 0 -0.40528095782104068 -0.044243292517360297 0 -0.38712728366555788 -0.02974425569958293 0 -0.40528095782104068 -0.044243292517360297 0 -0.39147992867528753 -0.058279446621744307 0 -0.40528095782104068 -0.044243292517360297 0 -0.39147992867528753 -0.058279446621744307 0 -0.40670414160736479 -0.063195666982337848 0 -0.37357085562444819 -0.050327950541553881 0 -0.39147992867528753 -0.058279446621744307 0 -0.37513495807632252 -0.068027960422620465 0 -0.39147992867528753 -0.058279446621744307 0 -0.37513495807632252 -0.068027960422620465 0 -0.3944429598887787 -0.078419500118194568 0 -0.37347114863240299 -0.089088331268139143 0 -0.37513495807632252 -0.068027960422620465 0 -0.3944429598887787 -0.078419500118194568 0 -0.37347114863240299 -0.089088331268139143 0 -0.3944429598887787 -0.078419500118194568 0 -0.38844874713165228 -0.097169733216879689 0 -0.3944429598887787 -0.078419500118194568 0 -0.38844874713165228 -0.097169733216879689 0 -0.40907098738890341 -0.097978282768044114 0 -0.39147992867528753 -0.058279446621744307 0 -0.3944429598887787 -0.078419500118194568 0 -0.40670414160736479 -0.063195666982337848 0 -0.3944429598887787 -0.078419500118194568 0 -0.41749625226094061 -0.077358517460495352 0 -0.40670414160736479 -0.063195666982337848 0 -0.39228294530364349 -0.13316426080004001 0 -0.38235470820745771 -0.123978498660336 0 -0.39306930808202878 -0.1142539450673672 0 -0.36980343247362518 -0.1100922289949047 0 -0.38235470820745771 -0.123978498660336 0 -0.39306930808202878 -0.1142539450673672 0 -0.36980343247362518 -0.1100922289949047 0 -0.37347114863240299 -0.089088331268139143 0 -0.38844874713165228 -0.097169733216879689 0 -0.36980343247362518 -0.1100922289949047 0 -0.38844874713165228 -0.097169733216879689 0 -0.39306930808202878 -0.1142539450673672 0 -0.38844874713165228 -0.097169733216879689 0 -0.39306930808202878 -0.1142539450673672 0 -0.40907098738890341 -0.097978282768044114 0 -0.39306930808202878 -0.1142539450673672 0 -0.41294233195137359 -0.116724400289887 0 -0.40907098738890341 -0.097978282768044114 0 -0.40633267592073652 -0.13102661860532899 0 -0.39306930808202878 -0.1142539450673672 0 -0.41294233195137359 -0.116724400289887 0 -0.41294233195137359 -0.116724400289887 0 -0.40907098738890341 -0.097978282768044114 0 -0.42916563782925382 -0.1107160192160596 0 -0.42916563782925382 -0.1107160192160596 0 -0.42904349786494111 -0.093106334976964328 0 -0.44668080241849201 -0.10304266906569499 0 -0.40907098738890341 -0.097978282768044114 0 -0.42916563782925382 -0.1107160192160596 0 -0.42904349786494111 -0.093106334976964328 0 -0.42371591628165239 -0.12841039464220819 0 -0.42916563782925382 -0.1107160192160596 0 -0.44295770465017009 -0.12292285668534771 0 -0.42371591628165239 -0.12841039464220819 0 -0.41294233195137359 -0.116724400289887 0 -0.42916563782925382 -0.1107160192160596 0 -0.42343463197652342 -0.05874232933513765 0 -0.41749625226094061 -0.077358517460495352 0 -0.40670414160736479 -0.063195666982337848 0 -0.40907098738890341 -0.097978282768044114 0 -0.41749625226094061 -0.077358517460495352 0 -0.42904349786494111 -0.093106334976964328 0 -0.3944429598887787 -0.078419500118194568 0 -0.40907098738890341 -0.097978282768044114 0 -0.41749625226094061 -0.077358517460495352 0 -0.41749625226094061 -0.077358517460495352 0 -0.42904349786494111 -0.093106334976964328 0 -0.44158830613200611 -0.073241366152915127 0 -0.42904349786494111 -0.093106334976964328 0 -0.44158830613200611 -0.073241366152915127 0 -0.42343463197652342 -0.05874232933513765 0 -0.44158830613200611 -0.073241366152915127 0 -0.42343463197652342 -0.05874232933513765 0 -0.41749625226094061 -0.077358517460495352 0 -0.44158830613200611 -0.073241366152915127 0 -0.44158830613200611 -0.073241366152915127 0 -0.46118581313569179 -0.071431252447136412 0 -0.45067286806919349 -0.058855770468984832 0 -0.44158830613200611 -0.073241366152915127 0 -0.45067286806919349 -0.058855770468984832 0 -0.44158830613200611 -0.073241366152915127 0 -0.44459286929252761 -0.089545637905493386 0 -0.46105887075467122 -0.088792181426399025 0 -0.42904349786494111 -0.093106334976964328 0 -0.44158830613200611 -0.073241366152915127 0 -0.44459286929252761 -0.089545637905493386 0 -0.44158830613200611 -0.073241366152915127 0 -0.46105887075467122 -0.088792181426399025 0 -0.46105887075467122 -0.088792181426399025 0 -0.46118581313569179 -0.071431252447136412 0 -0.48115195350555812 -0.076249636056848105 0 -0.44158830613200611 -0.073241366152915127 0 -0.46105887075467122 -0.088792181426399025 0 -0.46118581313569179 -0.071431252447136412 0 -0.44295770465017009 -0.12292285668534771 0 -0.44668080241849201 -0.10304266906569499 0 -0.46296805171726468 -0.11640170438458371 0 -0.42916563782925382 -0.1107160192160596 0 -0.44295770465017009 -0.12292285668534771 0 -0.44668080241849201 -0.10304266906569499 0 -0.44459286929252761 -0.089545637905493386 0 -0.46105887075467122 -0.088792181426399025 0 -0.44668080241849201 -0.10304266906569499 0 -0.42904349786494111 -0.093106334976964328 0 -0.44459286929252761 -0.089545637905493386 0 -0.44668080241849201 -0.10304266906569499 0 -0.46105887075467122 -0.088792181426399025 0 -0.46296805171726468 -0.11640170438458371 0 -0.48052943537733628 -0.1043429966998831 0 -0.46105887075467122 -0.088792181426399025 0 -0.44668080241849201 -0.10304266906569499 0 -0.46296805171726468 -0.11640170438458371 0 -0.45407528277834919 -0.1346042898317954 0 -0.44295770465017009 -0.12292285668534771 0 -0.46296805171726468 -0.11640170438458371 0 -0.46296805171726468 -0.11640170438458371 0 -0.48245330698995931 -0.121898764666846 0 -0.48052943537733628 -0.1043429966998831 0 -0.47213782278640881 -0.13623393318828281 0 -0.46296805171726468 -0.11640170438458371 0 -0.48245330698995931 -0.121898764666846 0 -0.46105887075467122 -0.088792181426399025 0 -0.48052943537733628 -0.1043429966998831 0 -0.48052943537733628 -0.1043429966998831 0 -0.50000000000000089 -0.1198938119733675 0 -0.5 -0.090898883536528308 0 -0.48245330698995931 -0.121898764666846 0 -0.48052943537733628 -0.1043429966998831 0 -0.50000000000000089 -0.1198938119733675 0 -0.48052943537733628 -0.1043429966998831 0 -0.50000000000000089 -0.1198938119733675 0 -0.46118581313569179 -0.071431252447136412 0 -0.48115195350555812 -0.076249636056848105 0 -0.46833584839527592 -0.05632992550213807 0 -0.48115195350555812 -0.076249636056848105 0 -0.48490864188954641 -0.055044389119401932 0 -0.46833584839527592 -0.05632992550213807 0 -0.46105887075467122 -0.088792181426399025 0 -0.48052943537733628 -0.1043429966998831 0 -0.48115195350555812 -0.076249636056848105 0 -0.48052943537733628 -0.1043429966998831 0 -0.48115195350555812 -0.076249636056848105 0 -0.5 -0.090898883536528308 0 -0.48115195350555812 -0.076249636056848105 0 -0.5 -0.090898883536528308 0 -0.5 -0.061903955099689163 0 -0.48115195350555812 -0.076249636056848105 0 -0.5 -0.061903955099689163 0 -0.48490864188954641 -0.055044389119401932 0 -0.5 -0.061903955099689163 0 -0.48490864188954641 -0.055044389119401932 0 -0.5 -0.032909026662849998 0 -0.48490864188954641 -0.055044389119401932 0 -0.5 -0.032909026662849998 0 -0.47623700986288742 -0.042296174380792313 0 -0.47623700986288742 -0.042296174380792313 0 -0.45975743000638192 -0.044470174785055258 0 -0.47133789178420182 -0.026132268992706809 0 -0.5 -0.032909026662849998 0 -0.47623700986288742 -0.042296174380792313 0 -0.47133789178420182 -0.026132268992706809 0 -0.48490864188954641 -0.055044389119401932 0 -0.47623700986288742 -0.042296174380792313 0 -0.46833584839527592 -0.05632992550213807 0 -0.46118581313569179 -0.071431252447136412 0 -0.46833584839527592 -0.05632992550213807 0 -0.45067286806919349 -0.058855770468984832 0 -0.47623700986288742 -0.042296174380792313 0 -0.46833584839527592 -0.05632992550213807 0 -0.45975743000638192 -0.044470174785055258 0 -0.46833584839527592 -0.05632992550213807 0 -0.45975743000638192 -0.044470174785055258 0 -0.45067286806919349 -0.058855770468984832 0 -0.45975743000638192 -0.044470174785055258 0 -0.45067286806919349 -0.058855770468984832 0 -0.46833584839527592 -0.05632992550213807 0 -0.45975743000638192 -0.044470174785055258 0 -0.45964620516156041 -0.031574428691672249 0 -0.45975743000638192 -0.044470174785055258 0 -0.44743337329375982 -0.027432040969604381 0 -0.45975743000638192 -0.044470174785055258 0 -0.44743337329375982 -0.027432040969604381 0 -0.45975743000638192 -0.044470174785055258 0 -0.47133789178420182 -0.026132268992706809 0 -0.45964620516156041 -0.031574428691672249 0 -0.45975743000638192 -0.044470174785055258 0 -0.47133789178420182 -0.026132268992706809 0 -0.45975743000638192 -0.044470174785055258 0 -0.4453801544960031 -0.037531923181514312 0 -0.44743337329375982 -0.027432040969604381 0 -0.45975743000638192 -0.044470174785055258 0 -0.4453801544960031 -0.037531923181514312 0 -0.44094154444346079 -0.04995238034171972 0 -0.42837915354319411 -0.040827216461995969 0 -0.4453801544960031 -0.037531923181514312 0 -0.44094154444346079 -0.04995238034171972 0 -0.4453801544960031 -0.037531923181514312 0 -0.44743337329375982 -0.027432040969604381 0 -0.44158830613200611 -0.073241366152915127 0 -0.44094154444346079 -0.04995238034171972 0 -0.45067286806919349 -0.058855770468984832 0 -0.45975743000638192 -0.044470174785055258 0 -0.44094154444346079 -0.04995238034171972 0 -0.45067286806919349 -0.058855770468984832 0 -0.43033724725149269 -0.0037964727450953309 0 -0.45268467479845531 -0.00160063580491273 0 -0.44743337329375982 -0.027432040969604381 0 -0.45268467479845531 -0.00160063580491273 0 -0.44743337329375982 -0.027432040969604381 0 -0.43033724725149269 -0.0037964727450953309 0 -0.44743337329375982 -0.027432040969604381 0 -0.4342900889778567 -0.026770694848987801 0 -0.4453801544960031 -0.037531923181514312 0 -0.44743337329375982 -0.027432040969604381 0 -0.45964620516156041 -0.031574428691672249 0 -0.44743337329375982 -0.027432040969604381 0 -0.46065164258955998 -0.015998841515816709 0 -0.45964620516156041 -0.031574428691672249 0 -0.46065164258955998 -0.015998841515816709 0 -0.47133789178420182 -0.026132268992706809 0 -0.45268467479845531 -0.00160063580491273 0 -0.46065164258955998 -0.015998841515816709 0 -0.47044579822050858 0.003730308873902122 0 -0.45268467479845531 -0.00160063580491273 0 -0.44743337329375982 -0.027432040969604381 0 -0.46065164258955998 -0.015998841515816709 0 -0.46065164258955998 -0.015998841515816709 0 -0.48291835356202167 -0.0077943632003582772 0 -0.47044579822050858 0.003730308873902122 0 -0.46065164258955998 -0.015998841515816709 0 -0.48291835356202167 -0.0077943632003582772 0 -0.47133789178420182 -0.026132268992706809 0 -0.48291835356202167 -0.0077943632003582772 0 -0.47133789178420182 -0.026132268992706809 0 -0.5 -0.032909026662849998 0 -0.48291835356202167 -0.0077943632003582772 0 -0.47133789178420182 -0.026132268992706809 0 -0.5 -0.032909026662849998 0 -0.48291835356202167 -0.0077943632003582772 0 -0.5 -0.0039140982260107426 0 -0.48291835356202167 -0.0077943632003582772 0 -0.5 -0.0039140982260107426 0 -0.48656778433615411 0.0071434676601368312 0 -0.5 -0.0039140982260107426 0 -0.48656778433615411 0.0071434676601368312 0 -0.5 0.02508083021082835 0 -0.5 0.02508083021082835 0 -0.47947476989823978 0.0186146606423227 0 -0.48053744464613157 0.038241937480116027 0 -0.48656778433615411 0.0071434676601368312 0 -0.5 0.02508083021082835 0 -0.47947476989823978 0.0186146606423227 0 -0.47947476989823978 0.0186146606423227 0 -0.48053744464613157 0.038241937480116027 0 -0.45793597630314969 0.024230769359779091 0 -0.48656778433615411 0.0071434676601368312 0 -0.47947476989823978 0.0186146606423227 0 -0.47044579822050858 0.003730308873902122 0 -0.48291835356202167 -0.0077943632003582772 0 -0.48656778433615411 0.0071434676601368312 0 -0.47044579822050858 0.003730308873902122 0 -0.47947476989823978 0.0186146606423227 0 -0.47044579822050858 0.003730308873902122 0 -0.45793597630314969 0.024230769359779091 0 -0.5 0.05407575864766756 0 -0.48053744464613157 0.038241937480116027 0 -0.48160115767747708 0.06010989829645641 0 -0.5 0.02508083021082835 0 -0.5 0.05407575864766756 0 -0.48053744464613157 0.038241937480116027 0 -0.48053744464613157 0.038241937480116027 0 -0.48160115767747708 0.06010989829645641 0 -0.4631872778078443 0.050062174524471058 0 -0.48160115767747708 0.06010989829645641 0 -0.4631872778078443 0.050062174524471058 0 -0.46843857931253879 0.07589357968916309 0 -0.4631872778078443 0.050062174524471058 0 -0.4467001814262947 0.061097152827744368 0 -0.46843857931253879 0.07589357968916309 0 -0.48053744464613157 0.038241937480116027 0 -0.4631872778078443 0.050062174524471058 0 -0.45793597630314969 0.024230769359779091 0 -0.4631872778078443 0.050062174524471058 0 -0.45793597630314969 0.024230769359779091 0 -0.4631872778078443 0.050062174524471058 0 -0.44755765064800451 0.039790068000500847 0 -0.45793597630314969 0.024230769359779091 0 -0.44755765064800451 0.039790068000500847 0 -0.43523671041618939 0.023434885238954581 0 -0.43070758581248142 0.047053180835022322 0 -0.4631872778078443 0.050062174524471058 0 -0.44755765064800451 0.039790068000500847 0 -0.4467001814262947 0.061097152827744368 0 -0.44755765064800451 0.039790068000500847 0 -0.4467001814262947 0.061097152827744368 0 -0.43070758581248142 0.047053180835022322 0 -0.45268467479845531 -0.00160063580491273 0 -0.45793597630314969 0.024230769359779091 0 -0.45268467479845531 -0.00160063580491273 0 -0.47044579822050858 0.003730308873902122 0 -0.45793597630314969 0.024230769359779091 0 -0.44755765064800451 0.039790068000500847 0 -0.45793597630314969 0.024230769359779091 0 -0.43523671041618939 0.023434885238954581 0 -0.45268467479845531 -0.00160063580491273 0 -0.45793597630314969 0.024230769359779091 0 -0.43523671041618939 0.023434885238954581 0 -0.43033724725149269 -0.0037964727450953309 0 -0.45268467479845531 -0.00160063580491273 0 -0.43523671041618939 0.023434885238954581 0 -0.43033724725149269 -0.0037964727450953309 0 -0.41324112120922679 0.019839095479414509 0 -0.43523671041618939 0.023434885238954581 0 -0.4131572459017161 -0.004875649818797438 0 -0.41324112120922679 0.019839095479414509 0 -0.40033306733275759 0.0019581273283447299 0 -0.43033724725149269 -0.0037964727450953309 0 -0.4131572459017161 -0.004875649818797438 0 -0.41324112120922679 0.019839095479414509 0 -0.43033724725149269 -0.0037964727450953309 0 -0.41324112120922679 0.019839095479414509 0 -0.41324112120922679 0.019839095479414509 0 -0.43523671041618939 0.023434885238954581 0 -0.4159879611894004 0.038538653043845933 0 -0.43523671041618939 0.023434885238954581 0 -0.43070758581248142 0.047053180835022322 0 -0.4159879611894004 0.038538653043845933 0 -0.4467001814262947 0.061097152827744368 0 -0.43070758581248142 0.047053180835022322 0 -0.43187545736445182 0.065921103617004775 0 -0.43070758581248142 0.047053180835022322 0 -0.41322656597679058 0.058941655142102069 0 -0.43187545736445182 0.065921103617004775 0 -0.43070758581248142 0.047053180835022322 0 -0.41322656597679058 0.058941655142102069 0 -0.4159879611894004 0.038538653043845933 0 -0.41322656597679058 0.058941655142102069 0 -0.4159879611894004 0.038538653043845933 0 -0.39614499516696089 0.04347466370392436 0 -0.41324112120922679 0.019839095479414509 0 -0.4159879611894004 0.038538653043845933 0 -0.39614499516696089 0.04347466370392436 0 -0.41324112120922679 0.019839095479414509 0 -0.39614499516696089 0.04347466370392436 0 -0.39614499516696089 0.04347466370392436 0 -0.37904886912469499 0.067110231928434197 0 -0.39695674231957478 0.074929810419583368 0 -0.41322656597679058 0.058941655142102069 0 -0.39614499516696089 0.04347466370392436 0 -0.39695674231957478 0.074929810419583368 0 -0.39614499516696089 0.04347466370392436 0 -0.37904886912469499 0.067110231928434197 0 -0.39614499516696089 0.04347466370392436 0 -0.37830855690199738 0.048851891747440382 0 -0.37904886912469499 0.067110231928434197 0 -0.37830855690199738 0.048851891747440382 0 -0.37904886912469499 0.067110231928434197 0 -0.37119345183321822 0.058853827639881867 0 -0.39614499516696089 0.04347466370392436 0 -0.37753126207020948 0.034899308803226177 0 -0.39262774316901877 0.02112007510405265 0 -0.39614499516696089 0.04347466370392436 0 -0.37830855690199738 0.048851891747440382 0 -0.37753126207020948 0.034899308803226177 0 -0.38389636562500351 0.0078670615218947963 0 -0.39262774316901877 0.02112007510405265 0 -0.37274578052696178 0.01868977009819147 0 -0.37753126207020948 0.034899308803226177 0 -0.39262774316901877 0.02112007510405265 0 -0.37274578052696178 0.01868977009819147 0 -0.38465333842141641 -0.0066435457767305304 0 -0.38389636562500351 0.0078670615218947963 0 -0.40033306733275759 0.0019581273283447299 0 -0.38389636562500351 0.0078670615218947963 0 -0.37274578052696178 0.01868977009819147 0 -0.36979036210562988 0.0025511841975563729 0 -0.38465333842141641 -0.0066435457767305304 0 -0.38389636562500351 0.0078670615218947963 0 -0.36979036210562988 0.0025511841975563729 0 -0.38389636562500351 0.0078670615218947963 0 -0.40033306733275759 0.0019581273283447299 0 -0.39262774316901877 0.02112007510405265 0 -0.41324112120922679 0.019839095479414509 0 -0.40033306733275759 0.0019581273283447299 0 -0.39262774316901877 0.02112007510405265 0 -0.41324112120922679 0.019839095479414509 0 -0.39614499516696089 0.04347466370392436 0 -0.39262774316901877 0.02112007510405265 0 -0.38940712396436111 0.098535478259042519 0 -0.39976920250104669 0.086913075381088473 0 -0.40655062222011962 0.096340958868671334 0 -0.39063101314785642 0.1199442217017349 0 -0.40655062222011962 0.096340958868671334 0 -0.40795026737523371 0.1101441825861223 0 -0.39063101314785642 0.1199442217017349 0 -0.38940712396436111 0.098535478259042519 0 -0.40655062222011962 0.096340958868671334 0 -0.39063101314785642 0.1199442217017349 0 -0.40655062222011962 0.096340958868671334 0 -0.39063101314785642 0.1199442217017349 0 -0.40795026737523371 0.1101441825861223 0 -0.40406865080306442 0.1250183431131778 0 -0.39063101314785642 0.1199442217017349 0 -0.37896648635229202 0.10715504183998489 0 -0.36716541190589658 0.118616890008602 0 -0.39063101314785642 0.1199442217017349 0 -0.37896648635229202 0.10715504183998489 0 -0.38940712396436111 0.098535478259042519 0 -0.37896648635229202 0.10715504183998489 0 -0.38940712396436111 0.098535478259042519 0 -0.37643332436138899 0.09558572737664002 0 -0.38119130922167832 0.078766060501995444 0 -0.3856317933390121 0.08567132342606161 0 -0.39695674231957478 0.074929810419583368 0 -0.37643332436138899 0.09558572737664002 0 -0.3856317933390121 0.08567132342606161 0 -0.37016311523106599 0.083751267223082917 0 -0.38119130922167832 0.078766060501995444 0 -0.3856317933390121 0.08567132342606161 0 -0.37016311523106599 0.083751267223082917 0 -0.38940712396436111 0.098535478259042519 0 -0.37643332436138899 0.09558572737664002 0 -0.3856317933390121 0.08567132342606161 0 -0.39695674231957478 0.074929810419583368 0 -0.37201358599706058 0.070711840939253895 0 -0.38119130922167832 0.078766060501995444 0 -0.39695674231957478 0.074929810419583368 0 -0.37201358599706058 0.070711840939253895 0 -0.37904886912469499 0.067110231928434197 0 -0.39695674231957478 0.074929810419583368 0 -0.37201358599706058 0.070711840939253895 0 -0.39695674231957478 0.074929810419583368 0 -0.39976920250104669 0.086913075381088473 0 -0.42189989864208899 0.079147779899912826 0 -0.38940712396436111 0.098535478259042519 0 -0.3856317933390121 0.08567132342606161 0 -0.39976920250104669 0.086913075381088473 0 -0.3856317933390121 0.08567132342606161 0 -0.39695674231957478 0.074929810419583368 0 -0.39976920250104669 0.086913075381088473 0 -0.42189989864208899 0.079147779899912826 0 -0.41823283762125668 0.10021421029095 0 -0.40655062222011962 0.096340958868671334 0 -0.39976920250104669 0.086913075381088473 0 -0.42189989864208899 0.079147779899912826 0 -0.40655062222011962 0.096340958868671334 0 -0.39695674231957478 0.074929810419583368 0 -0.42189989864208899 0.079147779899912826 0 -0.41322656597679058 0.058941655142102069 0 -0.39695674231957478 0.074929810419583368 0 -0.42189989864208899 0.079147779899912826 0 -0.43187545736445182 0.065921103617004775 0 -0.42189989864208899 0.079147779899912826 0 -0.44684305496460319 0.083365749380242285 0 -0.41322656597679058 0.058941655142102069 0 -0.43187545736445182 0.065921103617004775 0 -0.42189989864208899 0.079147779899912826 0 -0.42189989864208899 0.079147779899912826 0 -0.43230900050581528 0.10074033507248679 0 -0.44684305496460319 0.083365749380242285 0 -0.42189989864208899 0.079147779899912826 0 -0.43230900050581528 0.10074033507248679 0 -0.41823283762125668 0.10021421029095 0 -0.42189989864208899 0.079147779899912826 0 -0.44684305496460319 0.083365749380242285 0 -0.43230900050581528 0.10074033507248679 0 -0.41823283762125668 0.10021421029095 0 -0.42245439936302609 0.1146977950275566 0 -0.41823283762125668 0.10021421029095 0 -0.40795026737523371 0.1101441825861223 0 -0.42245439936302609 0.1146977950275566 0 -0.41823283762125668 0.10021421029095 0 -0.40655062222011962 0.096340958868671334 0 -0.40795026737523371 0.1101441825861223 0 -0.40795026737523371 0.1101441825861223 0 -0.42245439936302609 0.1146977950275566 0 -0.41854804079657681 0.1335618185962307 0 -0.40795026737523371 0.1101441825861223 0 -0.41854804079657681 0.1335618185962307 0 -0.40795026737523371 0.1101441825861223 0 -0.41854804079657681 0.1335618185962307 0 -0.40406865080306442 0.1250183431131778 0 -0.4361514068569779 0.1212930370016405 0 -0.42245439936302609 0.1146977950275566 0 -0.41854804079657681 0.1335618185962307 0 -0.43230900050581528 0.10074033507248679 0 -0.4361514068569779 0.1212930370016405 0 -0.42245439936302609 0.1146977950275566 0 -0.4361514068569779 0.1212930370016405 0 -0.45131059104818438 0.10389771754541841 0 -0.45603072582896947 0.12415654782577901 0 -0.43230900050581528 0.10074033507248679 0 -0.4361514068569779 0.1212930370016405 0 -0.45131059104818438 0.10389771754541841 0 -0.43230900050581528 0.10074033507248679 0 -0.45131059104818438 0.10389771754541841 0 -0.44684305496460319 0.083365749380242285 0 -0.45131059104818438 0.10389771754541841 0 -0.46040635620489312 0.091287960740373597 0 -0.47503319949424611 0.10199479634667059 0 -0.45131059104818438 0.10389771754541841 0 -0.45603072582896947 0.12415654782577901 0 -0.47503319949424611 0.10199479634667059 0 -0.4467001814262947 0.061097152827744368 0 -0.43187545736445182 0.065921103617004775 0 -0.44684305496460319 0.083365749380242285 0 -0.45131059104818438 0.10389771754541841 0 -0.44684305496460319 0.083365749380242285 0 -0.46040635620489312 0.091287960740373597 0 -0.46040635620489312 0.091287960740373597 0 -0.46843857931253879 0.07589357968916309 0 -0.47503319949424611 0.10199479634667059 0 -0.44684305496460319 0.083365749380242285 0 -0.46040635620489312 0.091287960740373597 0 -0.46843857931253879 0.07589357968916309 0 -0.4631872778078443 0.050062174524471058 0 -0.46843857931253879 0.07589357968916309 0 -0.4467001814262947 0.061097152827744368 0 -0.44684305496460319 0.083365749380242285 0 -0.46843857931253879 0.07589357968916309 0 -0.48160115767747708 0.06010989829645641 0 -0.46843857931253879 0.07589357968916309 0 -0.5 0.083070687084506711 0 -0.46843857931253879 0.07589357968916309 0 -0.5 0.083070687084506711 0 -0.47503319949424611 0.10199479634667059 0 -0.5 0.05407575864766756 0 -0.48160115767747708 0.06010989829645641 0 -0.5 0.083070687084506711 0 -0.45603072582896947 0.12415654782577901 0 -0.47503319949424611 0.10199479634667059 0 -0.47840746745339868 0.1318715347448986 0 -0.5 0.083070687084506711 0 -0.47503319949424611 0.10199479634667059 0 -0.5 0.11206561552134579 0 -0.47503319949424611 0.10199479634667059 0 -0.5 0.11206561552134579 0 -0.47840746745339868 0.1318715347448986 0 -0.5 0.11206561552134579 0 -0.47840746745339868 0.1318715347448986 0 -0.5 0.14106054395818479 0 -0.47840746745339868 0.1318715347448986 0 -0.4813713775429343 0.15534342778339541 0 -0.45584990199199521 0.14839652371063539 0 -0.47840746745339868 0.1318715347448986 0 -0.4813713775429343 0.15534342778339541 0 -0.5 0.14106054395818479 0 -0.4813713775429343 0.15534342778339541 0 -0.5 0.14106054395818479 0 -0.5 0.17005547239502389 0 -0.4813713775429343 0.15534342778339541 0 -0.5 0.17005547239502389 0 -0.47888983910924399 0.1833910978263659 0 -0.5 0.17005547239502389 0 -0.47888983910924399 0.1833910978263659 0 -0.49999999999999639 0.19905040083186301 0 -0.4813713775429343 0.15534342778339541 0 -0.47888983910924399 0.1833910978263659 0 -0.46013732273498392 0.17116473448995881 0 -0.4813713775429343 0.15534342778339541 0 -0.47888983910924399 0.1833910978263659 0 -0.4813713775429343 0.15534342778339541 0 -0.46013732273498392 0.17116473448995881 0 -0.45584990199199521 0.14839652371063539 0 -0.47888983910924399 0.1833910978263659 0 -0.46013732273498392 0.17116473448995881 0 -0.4553652866229031 0.19812390853730849 0 -0.46013732273498392 0.17116473448995881 0 -0.43974358763926291 0.18039709061644729 0 -0.4553652866229031 0.19812390853730849 0 -0.46013732273498392 0.17116473448995881 0 -0.45584990199199521 0.14839652371063539 0 -0.42914581421791992 0.156979454606339 0 -0.46013732273498392 0.17116473448995881 0 -0.43974358763926291 0.18039709061644729 0 -0.42914581421791992 0.156979454606339 0 -0.43890233478009338 0.1378395493323826 0 -0.45584990199199521 0.14839652371063539 0 -0.42914581421791992 0.156979454606339 0 -0.4361514068569779 0.1212930370016405 0 -0.45603072582896947 0.12415654782577901 0 -0.43890233478009338 0.1378395493323826 0 -0.45603072582896947 0.12415654782577901 0 -0.43890233478009338 0.1378395493323826 0 -0.45584990199199521 0.14839652371063539 0 -0.45603072582896947 0.12415654782577901 0 -0.47840746745339868 0.1318715347448986 0 -0.45584990199199521 0.14839652371063539 0 -0.48510068849613291 0.2464952989699998 0 -0.5 0.22952651967534751 0 -0.5 0.27058277969487637 0 -0.48510068849613291 0.2464952989699998 0 -0.47450648191078398 0.23293413722231679 0 -0.4662317729600568 0.24711617116125539 0 -0.48510068849613291 0.2464952989699998 0 -0.5 0.22952651967534751 0 -0.47450648191078398 0.23293413722231679 0 -0.5 0.22952651967534751 0 -0.47450648191078398 0.23293413722231679 0 -0.47640830067555312 0.21143876786933641 0 -0.47450648191078398 0.23293413722231679 0 -0.47640830067555312 0.21143876786933641 0 -0.47640830067555312 0.21143876786933641 0 -0.49999999999999639 0.19905040083186301 0 -0.5 0.22952651967534751 0 -0.47640830067555312 0.21143876786933641 0 -0.49999999999999639 0.19905040083186301 0 -0.47888983910924399 0.1833910978263659 0 -0.47640830067555312 0.21143876786933641 0 -0.49999999999999639 0.19905040083186301 0 -0.47888983910924399 0.1833910978263659 0 -0.47640830067555312 0.21143876786933641 0 -0.47888983910924399 0.1833910978263659 0 -0.47640830067555312 0.21143876786933641 0 -0.4553652866229031 0.19812390853730849 0 -0.43974358763926291 0.18039709061644729 0 -0.4553652866229031 0.19812390853730849 0 -0.43067986422853077 0.20940139548392031 0 -0.4553652866229031 0.19812390853730849 0 -0.45283971357182312 0.22381499832142371 0 -0.43067986422853077 0.20940139548392031 0 -0.47640830067555312 0.21143876786933641 0 -0.4553652866229031 0.19812390853730849 0 -0.45283971357182312 0.22381499832142371 0 -0.47640830067555312 0.21143876786933641 0 -0.45283971357182312 0.22381499832142371 0 -0.47450648191078398 0.23293413722231679 0 -0.45283971357182312 0.22381499832142371 0 -0.45078000859246359 0.24156244513336969 0 -0.47450648191078398 0.23293413722231679 0 -0.47640830067555312 0.21143876786933641 0 -0.45283971357182312 0.22381499832142371 0 -0.45283971357182312 0.22381499832142371 0 -0.43294786837480398 0.2404538296894207 0 -0.42927112646809362 0.23619122877351181 0 -0.45283971357182312 0.22381499832142371 0 -0.42927112646809362 0.23619122877351181 0 -0.45283971357182312 0.22381499832142371 0 -0.42927112646809362 0.23619122877351181 0 -0.43067986422853077 0.20940139548392031 0 -0.45283971357182312 0.22381499832142371 0 -0.45078000859246359 0.24156244513336969 0 -0.43294786837480398 0.2404538296894207 0 -0.43294786837480398 0.2404538296894207 0 -0.44957601688056159 0.25938839971938082 0 -0.45078000859246359 0.24156244513336969 0 -0.43294786837480398 0.2404538296894207 0 -0.44957601688056159 0.25938839971938082 0 -0.45078000859246359 0.24156244513336969 0 -0.4662317729600568 0.24711617116125539 0 -0.44957601688056159 0.25938839971938082 0 -0.47450648191078398 0.23293413722231679 0 -0.45078000859246359 0.24156244513336969 0 -0.4662317729600568 0.24711617116125539 0 -0.42927112646809362 0.23619122877351181 0 -0.40439403923729561 0.237116777479636 0 -0.40570253936436479 0.24856745922560119 0 -0.42927112646809362 0.23619122877351181 0 -0.40570253936436479 0.24856745922560119 0 -0.43294786837480398 0.2404538296894207 0 -0.42927112646809362 0.23619122877351181 0 -0.40570253936436479 0.24856745922560119 0 -0.42927112646809362 0.23619122877351181 0 -0.41099867150134572 0.22378265931279079 0 -0.43067986422853077 0.20940139548392031 0 -0.42927112646809362 0.23619122877351181 0 -0.41099867150134572 0.22378265931279079 0 -0.40439403923729561 0.237116777479636 0 -0.40693149157881192 0.20854646138297669 0 -0.43067986422853077 0.20940139548392031 0 -0.41468845130467291 0.19268004053423909 0 -0.41099867150134572 0.22378265931279079 0 -0.40693149157881192 0.20854646138297669 0 -0.43067986422853077 0.20940139548392031 0 -0.43974358763926291 0.18039709061644729 0 -0.43067986422853077 0.20940139548392031 0 -0.41468845130467291 0.19268004053423909 0 -0.40693149157881192 0.20854646138297669 0 -0.41468845130467291 0.19268004053423909 0 -0.3971577940731173 0.19827573187671929 0 -0.41468845130467291 0.19268004053423909 0 -0.3971577940731173 0.19827573187671929 0 -0.39721082993519219 0.18448993107768991 0 -0.3971577940731173 0.19827573187671929 0 -0.38589476142810619 0.19424352100093389 0 -0.39721082993519219 0.18448993107768991 0 -0.38589476142810619 0.19424352100093389 0 -0.37633455857784293 0.18261391494179069 0 -0.37360736010814782 0.20134128663860251 0 -0.38589476142810619 0.19424352100093389 0 -0.388204088430469 0.2080493245121296 0 -0.37360736010814782 0.20134128663860251 0 -0.3971577940731173 0.19827573187671929 0 -0.38589476142810619 0.19424352100093389 0 -0.388204088430469 0.2080493245121296 0 -0.388204088430469 0.2080493245121296 0 -0.37752279527241261 0.21261086987475841 0 -0.37360736010814782 0.20134128663860251 0 -0.388204088430469 0.2080493245121296 0 -0.39698893960476778 0.22105750592270679 0 -0.38334950790794681 0.2216260941536595 0 -0.388204088430469 0.2080493245121296 0 -0.37752279527241261 0.21261086987475841 0 -0.38334950790794681 0.2216260941536595 0 -0.40693149157881192 0.20854646138297669 0 -0.3971577940731173 0.19827573187671929 0 -0.388204088430469 0.2080493245121296 0 -0.40693149157881192 0.20854646138297669 0 -0.388204088430469 0.2080493245121296 0 -0.39698893960476778 0.22105750592270679 0 -0.41099867150134572 0.22378265931279079 0 -0.40693149157881192 0.20854646138297669 0 -0.39698893960476778 0.22105750592270679 0 -0.41099867150134572 0.22378265931279079 0 -0.39817935363044121 0.2307605800777236 0 -0.39698893960476778 0.22105750592270679 0 -0.41099867150134572 0.22378265931279079 0 -0.39817935363044121 0.2307605800777236 0 -0.40439403923729561 0.237116777479636 0 -0.39817935363044121 0.2307605800777236 0 -0.39698893960476778 0.22105750592270679 0 -0.38938082192181989 0.23429513208400299 0 -0.39698893960476778 0.22105750592270679 0 -0.38334950790794681 0.2216260941536595 0 -0.38938082192181989 0.23429513208400299 0 -0.37752279527241261 0.21261086987475841 0 -0.38334950790794681 0.2216260941536595 0 -0.37349668708843092 0.2226496950895116 0 -0.38334950790794681 0.2216260941536595 0 -0.37780308712422273 0.23309721308500589 0 -0.37349668708843092 0.2226496950895116 0 -0.38334950790794681 0.2216260941536595 0 -0.37780308712422273 0.23309721308500589 0 -0.38938082192181989 0.23429513208400299 0 -0.37780308712422273 0.23309721308500589 0 -0.38938082192181989 0.23429513208400299 0 -0.38455494932564349 0.24416718140159829 0 -0.38938082192181989 0.23429513208400299 0 -0.38455494932564349 0.24416718140159829 0 -0.39556747567899392 0.24292135359640349 0 -0.37780308712422273 0.23309721308500589 0 -0.37552267705158737 0.2431978490864326 0 -0.38455494932564349 0.24416718140159829 0 -0.37552267705158737 0.2431978490864326 0 -0.38455494932564349 0.24416718140159829 0 -0.37675611103540763 0.25409865512553548 0 -0.38455494932564349 0.24416718140159829 0 -0.39556747567899392 0.24292135359640349 0 -0.38900306751682168 0.25733661077056619 0 -0.39556747567899392 0.24292135359640349 0 -0.40570253936436479 0.24856745922560119 0 -0.38900306751682168 0.25733661077056619 0 -0.39817935363044121 0.2307605800777236 0 -0.38938082192181989 0.23429513208400299 0 -0.39556747567899392 0.24292135359640349 0 -0.39817935363044121 0.2307605800777236 0 -0.39556747567899392 0.24292135359640349 0 -0.40439403923729561 0.237116777479636 0 -0.39556747567899392 0.24292135359640349 0 -0.40439403923729561 0.237116777479636 0 -0.40570253936436479 0.24856745922560119 0 -0.40439403923729561 0.237116777479636 0 -0.40570253936436479 0.24856745922560119 0 -0.41854804079657681 0.1335618185962307 0 -0.42914581421791992 0.156979454606339 0 -0.40043471814444209 0.15516303321545699 0 -0.41854804079657681 0.1335618185962307 0 -0.39914528189259102 0.13642314956862331 0 -0.40406865080306442 0.1250183431131778 0 -0.4361514068569779 0.1212930370016405 0 -0.43890233478009338 0.1378395493323826 0 -0.41854804079657681 0.1335618185962307 0 -0.41854804079657681 0.1335618185962307 0 -0.42914581421791992 0.156979454606339 0 -0.43890233478009338 0.1378395493323826 0 -0.41854804079657681 0.1335618185962307 0 -0.42914581421791992 0.156979454606339 0 -0.43974358763926291 0.18039709061644729 0 -0.42914581421791992 0.156979454606339 0 -0.43974358763926291 0.18039709061644729 0 -0.42914581421791992 0.156979454606339 0 -0.41320507520050959 0.17295104721716609 0 -0.43974358763926291 0.18039709061644729 0 -0.41468845130467291 0.19268004053423909 0 -0.41320507520050959 0.17295104721716609 0 -0.41468845130467291 0.19268004053423909 0 -0.41320507520050959 0.17295104721716609 0 -0.39721082993519219 0.18448993107768991 0 -0.42914581421791992 0.156979454606339 0 -0.41320507520050959 0.17295104721716609 0 -0.40043471814444209 0.15516303321545699 0 -0.41320507520050959 0.17295104721716609 0 -0.39020731289493082 0.17075062011690681 0 -0.40043471814444209 0.15516303321545699 0 -0.41320507520050959 0.17295104721716609 0 -0.39721082993519219 0.18448993107768991 0 -0.39020731289493082 0.17075062011690681 0 -0.38589476142810619 0.19424352100093389 0 -0.39721082993519219 0.18448993107768991 0 -0.37633455857784293 0.18261391494179069 0 -0.39721082993519219 0.18448993107768991 0 -0.37633455857784293 0.18261391494179069 0 -0.39020731289493082 0.17075062011690681 0 -0.37604315808934557 0.1616159605326225 0 -0.39020731289493082 0.17075062011690681 0 -0.40043471814444209 0.15516303321545699 0 -0.37633455857784293 0.18261391494179069 0 -0.37604315808934557 0.1616159605326225 0 -0.39020731289493082 0.17075062011690681 0 -0.37604315808934557 0.1616159605326225 0 -0.40043471814444209 0.15516303321545699 0 -0.37471140407559322 0.1435474845347986 0 -0.40043471814444209 0.15516303321545699 0 -0.39914528189259102 0.13642314956862331 0 -0.37471140407559322 0.1435474845347986 0 -0.41854804079657681 0.1335618185962307 0 -0.40043471814444209 0.15516303321545699 0 -0.39914528189259102 0.13642314956862331 0 -0.39063101314785642 0.1199442217017349 0 -0.39914528189259102 0.13642314956862331 0 -0.40406865080306442 0.1250183431131778 0 -0.39063101314785642 0.1199442217017349 0 -0.37471140407559322 0.1435474845347986 0 -0.39063101314785642 0.1199442217017349 0 -0.39914528189259102 0.13642314956862331 0 -0.37471140407559322 0.1435474845347986 0 -0.39063101314785642 0.1199442217017349 0 -0.37471140407559322 0.1435474845347986 0 -0.36716541190589658 0.118616890008602 0 -0.35994195951422209 0.1344452768815545 0 -0.37471140407559322 0.1435474845347986 0 -0.36716541190589658 0.118616890008602 0 -0.35994195951422209 0.1344452768815545 0 -0.36716541190589658 0.118616890008602 0 -0.35352278934268327 0.12307152153672141 0 -0.34641309729257957 0.13731862859844601 0 -0.34013489564456101 0.1359120708212119 0 -0.34492978578452338 0.1096826786703838 0 -0.35994195951422209 0.1344452768815545 0 -0.34641309729257957 0.13731862859844601 0 -0.35352278934268327 0.12307152153672141 0 -0.35994195951422209 0.1344452768815545 0 -0.34641309729257957 0.13731862859844601 0 -0.35789709495435779 0.14967185972920441 0 -0.34641309729257957 0.13731862859844601 0 -0.34789640880063583 0.16495457852650819 0 -0.34475730797662613 0.16425129963789131 0 -0.34641309729257957 0.13731862859844601 0 -0.34789640880063583 0.16495457852650819 0 -0.34641309729257957 0.13731862859844601 0 -0.35789709495435779 0.14967185972920441 0 -0.34789640880063583 0.16495457852650819 0 -0.34641309729257957 0.13731862859844601 0 -0.34475730797662613 0.16425129963789131 0 -0.34013489564456101 0.1359120708212119 0 -0.35994195951422209 0.1344452768815545 0 -0.35789709495435779 0.14967185972920441 0 -0.37471140407559322 0.1435474845347986 0 -0.37471140407559322 0.1435474845347986 0 -0.35879179500333003 0.16715074736786231 0 -0.35789709495435779 0.14967185972920441 0 -0.37471140407559322 0.1435474845347986 0 -0.35879179500333003 0.16715074736786231 0 -0.37604315808934557 0.1616159605326225 0 -0.37471140407559322 0.1435474845347986 0 -0.35879179500333003 0.16715074736786231 0 -0.37604315808934557 0.1616159605326225 0 -0.36770080355277779 0.17295393471821821 0 -0.35879179500333003 0.16715074736786231 0 -0.37633455857784293 0.18261391494179069 0 -0.37604315808934557 0.1616159605326225 0 -0.36770080355277779 0.17295393471821821 0 -0.37633455857784293 0.18261391494179069 0 -0.36024484160731629 0.17922248672973989 0 -0.36412185028301147 0.19234279238731111 0 -0.37633455857784293 0.18261391494179069 0 -0.36770080355277779 0.17295393471821821 0 -0.36024484160731629 0.17922248672973989 0 -0.36770080355277779 0.17295393471821821 0 -0.36024484160731629 0.17922248672973989 0 -0.35879179500333003 0.16715074736786231 0 -0.34475730797662613 0.16425129963789131 0 -0.34937972030869158 0.1925905284545705 0 -0.34475730797662613 0.16425129963789131 0 -0.33955964773429331 0.17429409395644799 0 -0.34937972030869158 0.1925905284545705 0 -0.34789640880063583 0.16495457852650819 0 -0.34937972030869158 0.1925905284545705 0 -0.36024484160731629 0.17922248672973989 0 -0.34789640880063583 0.16495457852650819 0 -0.34937972030869158 0.1925905284545705 0 -0.34789640880063583 0.16495457852650819 0 -0.34475730797662613 0.16425129963789131 0 -0.34937972030869158 0.1925905284545705 0 -0.35789709495435779 0.14967185972920441 0 -0.35879179500333003 0.16715074736786231 0 -0.34789640880063583 0.16495457852650819 0 -0.36024484160731629 0.17922248672973989 0 -0.35879179500333003 0.16715074736786231 0 -0.34789640880063583 0.16495457852650819 0 -0.34475730797662613 0.16425129963789131 0 -0.33718479128260948 0.15937809544746401 0 -0.33738994680948231 0.15124435901621999 0 -0.34475730797662613 0.16425129963789131 0 -0.33718479128260948 0.15937809544746401 0 -0.33813633189250208 0.16634522180797001 0 -0.34475730797662613 0.16425129963789131 0 -0.33813633189250208 0.16634522180797001 0 -0.33955964773429331 0.17429409395644799 0 -0.33813633189250208 0.16634522180797001 0 -0.33104358057647992 0.16745739819007679 0 -0.33955964773429331 0.17429409395644799 0 -0.33718479128260948 0.15937809544746401 0 -0.33813633189250208 0.16634522180797001 0 -0.33104358057647992 0.16745739819007679 0 -0.33718479128260948 0.15937809544746401 0 -0.33104358057647992 0.16745739819007679 0 -0.33026858376101731 0.15190637449176561 0 -0.33104358057647992 0.16745739819007679 0 -0.33403331992976748 0.18227938602527921 0 -0.31962491903722229 0.18594758427241961 0 -0.33955964773429331 0.17429409395644799 0 -0.33403331992976748 0.18227938602527921 0 -0.34937972030869158 0.1925905284545705 0 -0.33104358057647992 0.16745739819007679 0 -0.33955964773429331 0.17429409395644799 0 -0.33403331992976748 0.18227938602527921 0 -0.31962491903722229 0.18594758427241961 0 -0.31796283648197832 0.1633337389314328 0 -0.30596240671843039 0.18080678990447141 0 -0.31962491903722229 0.18594758427241961 0 -0.31796283648197832 0.1633337389314328 0 -0.33104358057647992 0.16745739819007679 0 -0.31962491903722229 0.18594758427241961 0 -0.31796283648197832 0.1633337389314328 0 -0.33104358057647992 0.16745739819007679 0 -0.31796283648197832 0.1633337389314328 0 -0.33026858376101731 0.15190637449176561 0 -0.31796283648197832 0.1633337389314328 0 -0.31630075392673418 0.14071989359044609 0 -0.31796283648197832 0.1633337389314328 0 -0.31630075392673418 0.14071989359044609 0 -0.33026858376101731 0.15190637449176561 0 -0.31630075392673418 0.14071989359044609 0 -0.32855297285770901 0.13997743418302819 0 -0.33026858376101731 0.15190637449176561 0 -0.31630075392673418 0.14071989359044609 0 -0.30835875028686138 0.12836861128214669 0 -0.32196666651361477 0.12487749701900901 0 -0.31630075392673418 0.14071989359044609 0 -0.32855297285770901 0.13997743418302819 0 -0.32196666651361477 0.12487749701900901 0 -0.32855297285770901 0.13997743418302819 0 -0.33106980320980312 0.1246503866679774 0 -0.32196666651361477 0.12487749701900901 0 -0.32855297285770901 0.13997743418302819 0 -0.34013489564456101 0.1359120708212119 0 -0.3346041553825978 0.14477395468276741 0 -0.32855297285770901 0.13997743418302819 0 -0.34013489564456101 0.1359120708212119 0 -0.33106980320980312 0.1246503866679774 0 -0.34475730797662613 0.16425129963789131 0 -0.34013489564456101 0.1359120708212119 0 -0.34013489564456101 0.1359120708212119 0 -0.33738994680948231 0.15124435901621999 0 -0.3346041553825978 0.14477395468276741 0 -0.34475730797662613 0.16425129963789131 0 -0.34013489564456101 0.1359120708212119 0 -0.33738994680948231 0.15124435901621999 0 -0.33718479128260948 0.15937809544746401 0 -0.33738994680948231 0.15124435901621999 0 -0.33026858376101731 0.15190637449176561 0 -0.33738994680948231 0.15124435901621999 0 -0.33026858376101731 0.15190637449176561 0 -0.3346041553825978 0.14477395468276741 0 -0.32855297285770901 0.13997743418302819 0 -0.33026858376101731 0.15190637449176561 0 -0.3346041553825978 0.14477395468276741 0 -0.35208907389890948 0.24306917690434299 0 -0.33787454055877381 0.24529314191448051 0 -0.34142207509263922 0.25572960106260723 0 -0.35208907389890948 0.24306917690434299 0 -0.34508884738596168 0.2342440782649087 0 -0.33787454055877381 0.24529314191448051 0 -0.35689366634974828 0.23865726176967661 0 -0.35926376548055328 0.2486735779402334 0 -0.35208907389890948 0.24306917690434299 0 -0.35926376548055328 0.2486735779402334 0 -0.36665925593476811 0.2402392529692276 0 -0.36723308052532222 0.25309369692869038 0 -0.35689366634974828 0.23865726176967661 0 -0.35926376548055328 0.2486735779402334 0 -0.36665925593476811 0.2402392529692276 0 -0.37552267705158737 0.2431978490864326 0 -0.36665925593476811 0.2402392529692276 0 -0.36723308052532222 0.25309369692869038 0 -0.37780308712422273 0.23309721308500589 0 -0.37552267705158737 0.2431978490864326 0 -0.36665925593476811 0.2402392529692276 0 -0.37780308712422273 0.23309721308500589 0 -0.36665925593476811 0.2402392529692276 0 -0.36843053074319038 0.2307028505946831 0 -0.3637449320256837 0.23462317477255459 0 -0.36665925593476811 0.2402392529692276 0 -0.36843053074319038 0.2307028505946831 0 -0.35689366634974828 0.23865726176967661 0 -0.3637449320256837 0.23462317477255459 0 -0.36304404037139409 0.23042929735762199 0 -0.35689366634974828 0.23865726176967661 0 -0.3637449320256837 0.23462317477255459 0 -0.36665925593476811 0.2402392529692276 0 -0.35689366634974828 0.23865726176967661 0 -0.36304404037139409 0.23042929735762199 0 -0.36041387714694573 0.22521835140317789 0 -0.36304404037139409 0.23042929735762199 0 -0.36843053074319038 0.2307028505946831 0 -0.36573719559140289 0.222944848248018 0 -0.3637449320256837 0.23462317477255459 0 -0.36304404037139409 0.23042929735762199 0 -0.36843053074319038 0.2307028505946831 0 -0.37780308712422273 0.23309721308500589 0 -0.36843053074319038 0.2307028505946831 0 -0.37349668708843092 0.2226496950895116 0 -0.36843053074319038 0.2307028505946831 0 -0.37349668708843092 0.2226496950895116 0 -0.36573719559140289 0.222944848248018 0 -0.37349668708843092 0.2226496950895116 0 -0.36573719559140289 0.222944848248018 0 -0.36813700589141007 0.21491629458094519 0 -0.36304404037139409 0.23042929735762199 0 -0.36573719559140289 0.222944848248018 0 -0.36041387714694573 0.22521835140317789 0 -0.36573719559140289 0.222944848248018 0 -0.36041387714694573 0.22521835140317789 0 -0.36096209089537368 0.21759825830877291 0 -0.36041387714694573 0.22521835140317789 0 -0.35785158193032179 0.22427444164843771 0 -0.36096209089537368 0.21759825830877291 0 -0.35689366634974828 0.23865726176967661 0 -0.35785158193032179 0.22427444164843771 0 -0.35313669332921982 0.21562389511212349 0 -0.35785158193032179 0.22427444164843771 0 -0.35313669332921982 0.21562389511212349 0 -0.36096209089537368 0.21759825830877291 0 -0.35689366634974828 0.23865726176967661 0 -0.35313669332921982 0.21562389511212349 0 -0.35208907389890948 0.24306917690434299 0 -0.34508884738596168 0.2342440782649087 0 -0.35073439710380072 0.2178298526794567 0 -0.34508884738596168 0.2342440782649087 0 -0.35073439710380072 0.2178298526794567 0 -0.33965737798236312 0.2307841415613546 0 -0.35208907389890948 0.24306917690434299 0 -0.35073439710380072 0.2178298526794567 0 -0.35689366634974828 0.23865726176967661 0 -0.35073439710380072 0.2178298526794567 0 -0.35313669332921982 0.21562389511212349 0 -0.35689366634974828 0.23865726176967661 0 -0.35208907389890948 0.24306917690434299 0 -0.35073439710380072 0.2178298526794567 0 -0.35689366634974828 0.23865726176967661 0 -0.36041387714694573 0.22521835140317789 0 -0.35785158193032179 0.22427444164843771 0 -0.35073439710380072 0.2178298526794567 0 -0.34937972030869158 0.1925905284545705 0 -0.35313669332921982 0.21562389511212349 0 -0.36104277081305908 0.20594574517185199 0 -0.34937972030869158 0.1925905284545705 0 -0.35073439710380072 0.2178298526794567 0 -0.35313669332921982 0.21562389511212349 0 -0.34937972030869158 0.1925905284545705 0 -0.35313669332921982 0.21562389511212349 0 -0.34937972030869158 0.1925905284545705 0 -0.35073439710380072 0.2178298526794567 0 -0.34937972030869158 0.1925905284545705 0 -0.34310613959102931 0.2055031457500841 0 -0.35073439710380072 0.2178298526794567 0 -0.34310613959102931 0.2055031457500841 0 -0.34102096872395049 0.21330790674795511 0 -0.35073439710380072 0.2178298526794567 0 -0.34102096872395049 0.21330790674795511 0 -0.34050958406480097 0.2204489809667724 0 -0.35313669332921982 0.21562389511212349 0 -0.36096209089537368 0.21759825830877291 0 -0.36104277081305908 0.20594574517185199 0 -0.36573719559140289 0.222944848248018 0 -0.36096209089537368 0.21759825830877291 0 -0.36813700589141007 0.21491629458094519 0 -0.36096209089537368 0.21759825830877291 0 -0.36813700589141007 0.21491629458094519 0 -0.36104277081305908 0.20594574517185199 0 -0.37752279527241261 0.21261086987475841 0 -0.37349668708843092 0.2226496950895116 0 -0.36813700589141007 0.21491629458094519 0 -0.37752279527241261 0.21261086987475841 0 -0.36813700589141007 0.21491629458094519 0 -0.37360736010814782 0.20134128663860251 0 -0.36813700589141007 0.21491629458094519 0 -0.36104277081305908 0.20594574517185199 0 -0.37360736010814782 0.20134128663860251 0 -0.37633455857784293 0.18261391494179069 0 -0.37360736010814782 0.20134128663860251 0 -0.36412185028301147 0.19234279238731111 0 -0.36104277081305908 0.20594574517185199 0 -0.37360736010814782 0.20134128663860251 0 -0.36412185028301147 0.19234279238731111 0 -0.36024484160731629 0.17922248672973989 0 -0.36412185028301147 0.19234279238731111 0 -0.34937972030869158 0.1925905284545705 0 -0.36104277081305908 0.20594574517185199 0 -0.36412185028301147 0.19234279238731111 0 -0.34937972030869158 0.1925905284545705 0 -0.33403331992976748 0.18227938602527921 0 -0.34937972030869158 0.1925905284545705 0 -0.33132558757267788 0.19645560619981381 0 -0.34937972030869158 0.1925905284545705 0 -0.33132558757267788 0.19645560619981381 0 -0.34310613959102931 0.2055031457500841 0 -0.33132558757267788 0.19645560619981381 0 -0.33206760714527173 0.20694684499318661 0 -0.34310613959102931 0.2055031457500841 0 -0.33403331992976748 0.18227938602527921 0 -0.31962491903722229 0.18594758427241961 0 -0.33132558757267788 0.19645560619981381 0 -0.31962491903722229 0.18594758427241961 0 -0.33132558757267788 0.19645560619981381 0 -0.32128700159246643 0.2085614296134064 0 -0.31962491903722229 0.18594758427241961 0 -0.32128700159246643 0.2085614296134064 0 -0.31094130810426679 0.20146887601233149 0 -0.31962491903722229 0.18594758427241961 0 -0.32128700159246643 0.2085614296134064 0 -0.32128700159246643 0.2085614296134064 0 -0.30991457648112369 0.2265504040794763 0 -0.30833129431909739 0.21334832502430981 0 -0.32128700159246643 0.2085614296134064 0 -0.30833129431909739 0.21334832502430981 0 -0.31094130810426679 0.20146887601233149 0 -0.32128700159246643 0.2085614296134064 0 -0.334517009846864 0.21514148884522391 0 -0.33414886994078158 0.22469785659874761 0 -0.334517009846864 0.21514148884522391 0 -0.33206760714527173 0.20694684499318661 0 -0.34102096872395049 0.21330790674795511 0 -0.33132558757267788 0.19645560619981381 0 -0.32128700159246643 0.2085614296134064 0 -0.33206760714527173 0.20694684499318661 0 -0.32128700159246643 0.2085614296134064 0 -0.334517009846864 0.21514148884522391 0 -0.33206760714527173 0.20694684499318661 0 -0.33206760714527173 0.20694684499318661 0 -0.34310613959102931 0.2055031457500841 0 -0.34102096872395049 0.21330790674795511 0 -0.334517009846864 0.21514148884522391 0 -0.34102096872395049 0.21330790674795511 0 -0.34050958406480097 0.2204489809667724 0 -0.33965737798236312 0.2307841415613546 0 -0.33414886994078158 0.22469785659874761 0 -0.32294908414771051 0.231175274954393 0 -0.34050958406480097 0.2204489809667724 0 -0.33965737798236312 0.2307841415613546 0 -0.33414886994078158 0.22469785659874761 0 -0.334517009846864 0.21514148884522391 0 -0.34050958406480097 0.2204489809667724 0 -0.33414886994078158 0.22469785659874761 0 -0.35073439710380072 0.2178298526794567 0 -0.34050958406480097 0.2204489809667724 0 -0.33965737798236312 0.2307841415613546 0 -0.32128700159246643 0.2085614296134064 0 -0.33414886994078158 0.22469785659874761 0 -0.32294908414771051 0.231175274954393 0 -0.32128700159246643 0.2085614296134064 0 -0.32294908414771051 0.231175274954393 0 -0.32128700159246643 0.2085614296134064 0 -0.32294908414771051 0.231175274954393 0 -0.30991457648112369 0.2265504040794763 0 -0.32294908414771051 0.231175274954393 0 -0.30659471691689572 0.242716670786389 0 -0.30991457648112369 0.2265504040794763 0 -0.32294908414771051 0.231175274954393 0 -0.30659471691689572 0.242716670786389 0 -0.32493898666941562 0.25370598596143412 0 -0.33965737798236312 0.2307841415613546 0 -0.32294908414771051 0.231175274954393 0 -0.33787454055877381 0.24529314191448051 0 -0.32294908414771051 0.231175274954393 0 -0.33787454055877381 0.24529314191448051 0 -0.32493898666941562 0.25370598596143412 0 -0.34508884738596168 0.2342440782649087 0 -0.33965737798236312 0.2307841415613546 0 -0.33787454055877381 0.24529314191448051 0 -0.28392805579818597 0.24584677119781029 0 -0.30659471691689572 0.242716670786389 0 -0.29475597619187288 0.23283261746471121 0 -0.28392805579818597 0.24584677119781029 0 -0.29475597619187288 0.23283261746471121 0 -0.28109078806307641 0.23123665432302171 0 -0.30991457648112369 0.2265504040794763 0 -0.2995127007984647 0.22240216811521779 0 -0.29475597619187288 0.23283261746471121 0 -0.30659471691689572 0.242716670786389 0 -0.30991457648112369 0.2265504040794763 0 -0.29475597619187288 0.23283261746471121 0 -0.30991457648112369 0.2265504040794763 0 -0.2995127007984647 0.22240216811521779 0 -0.30833129431909739 0.21334832502430981 0 -0.2995127007984647 0.22240216811521779 0 -0.29475597619187288 0.23283261746471121 0 -0.28658767146556752 0.2208426317688808 0 -0.29475597619187288 0.23283261746471121 0 -0.28658767146556752 0.2208426317688808 0 -0.28109078806307641 0.23123665432302171 0 -0.28658767146556752 0.2208426317688808 0 -0.28549164962408852 0.20589081089837991 0 -0.27599235506858921 0.213338138612501 0 -0.2995127007984647 0.22240216811521779 0 -0.28658767146556752 0.2208426317688808 0 -0.29782091388006071 0.2077851852193662 0 -0.28658767146556752 0.2208426317688808 0 -0.28549164962408852 0.20589081089837991 0 -0.29782091388006071 0.2077851852193662 0 -0.2995127007984647 0.22240216811521779 0 -0.30833129431909739 0.21334832502430981 0 -0.29782091388006071 0.2077851852193662 0 -0.30833129431909739 0.21334832502430981 0 -0.29782091388006071 0.2077851852193662 0 -0.31094130810426679 0.20146887601233149 0 -0.31094130810426679 0.20146887601233149 0 -0.28918285092023371 0.18809301854234381 0 -0.30596240671843039 0.18080678990447141 0 -0.31094130810426679 0.20146887601233149 0 -0.28918285092023371 0.18809301854234381 0 -0.31962491903722229 0.18594758427241961 0 -0.31094130810426679 0.20146887601233149 0 -0.30596240671843039 0.18080678990447141 0 -0.29782091388006071 0.2077851852193662 0 -0.31094130810426679 0.20146887601233149 0 -0.28918285092023371 0.18809301854234381 0 -0.28549164962408852 0.20589081089837991 0 -0.28918285092023371 0.18809301854234381 0 -0.27469451239495962 0.19856643751398209 0 -0.28549164962408852 0.20589081089837991 0 -0.29782091388006071 0.2077851852193662 0 -0.28918285092023371 0.18809301854234381 0 -0.27469451239495962 0.19856643751398209 0 -0.25846339158769432 0.19477026040294029 0 -0.26742439373620053 0.1747171610723561 0 -0.27469451239495962 0.19856643751398209 0 -0.25846339158769432 0.19477026040294029 0 -0.26373521695980739 0.20854805576629271 0 -0.25846339158769432 0.19477026040294029 0 -0.25264776582176801 0.2054066783297176 0 -0.24512564856919611 0.1966003761625241 0 -0.25846339158769432 0.19477026040294029 0 -0.26373521695980739 0.20854805576629271 0 -0.25264776582176801 0.2054066783297176 0 -0.26373521695980739 0.20854805576629271 0 -0.25264776582176801 0.2054066783297176 0 -0.25326648915379463 0.21765104414027969 0 -0.26373521695980739 0.20854805576629271 0 -0.25326648915379463 0.21765104414027969 0 -0.26696116117740232 0.2188897629996385 0 -0.26373521695980739 0.20854805576629271 0 -0.27599235506858921 0.213338138612501 0 -0.26696116117740232 0.2188897629996385 0 -0.27469451239495962 0.19856643751398209 0 -0.26373521695980739 0.20854805576629271 0 -0.27599235506858921 0.213338138612501 0 -0.28549164962408852 0.20589081089837991 0 -0.27469451239495962 0.19856643751398209 0 -0.27599235506858921 0.213338138612501 0 -0.28658767146556752 0.2208426317688808 0 -0.27599235506858921 0.213338138612501 0 -0.27366575233363138 0.22408994750137051 0 -0.28658767146556752 0.2208426317688808 0 -0.27366575233363138 0.22408994750137051 0 -0.28109078806307641 0.23123665432302171 0 -0.27366575233363138 0.22408994750137051 0 -0.28109078806307641 0.23123665432302171 0 -0.26613842301448931 0.22948780180005629 0 -0.27366575233363138 0.22408994750137051 0 -0.26613842301448931 0.22948780180005629 0 -0.27599235506858921 0.213338138612501 0 -0.27366575233363138 0.22408994750137051 0 -0.26696116117740232 0.2188897629996385 0 -0.27366575233363138 0.22408994750137051 0 -0.26613842301448931 0.22948780180005629 0 -0.26696116117740232 0.2188897629996385 0 -0.25326648915379463 0.21765104414027969 0 -0.26613842301448931 0.22948780180005629 0 -0.25326648915379463 0.21765104414027969 0 -0.26613842301448931 0.22948780180005629 0 -0.26696116117740232 0.2188897629996385 0 -0.26613842301448931 0.22948780180005629 0 -0.25250373055295899 0.22903132158689779 0 -0.2468893326351202 0.24329134098969171 0 -0.25326648915379463 0.21765104414027969 0 -0.26613842301448931 0.22948780180005629 0 -0.25250373055295899 0.22903132158689779 0 -0.26613842301448931 0.22948780180005629 0 -0.2468893326351202 0.24329134098969171 0 -0.26613842301448931 0.22948780180005629 0 -0.26514282027817931 0.24842266601513599 0 -0.2468893326351202 0.24329134098969171 0 -0.28392805579818597 0.24584677119781029 0 -0.26613842301448931 0.22948780180005629 0 -0.26514282027817931 0.24842266601513599 0 -0.28392805579818597 0.24584677119781029 0 -0.26613842301448931 0.22948780180005629 0 -0.28392805579818597 0.24584677119781029 0 -0.28109078806307641 0.23123665432302171 0 -0.26613842301448931 0.22948780180005629 0 -0.29674228528268098 0.14167201189203629 0 -0.29210011904845101 0.16519073176382951 0 -0.2788144627000812 0.14703818685698561 0 -0.29674228528268098 0.14167201189203629 0 -0.2788144627000812 0.14703818685698561 0 -0.2804226891664876 0.12940513594623221 0 -0.29674228528268098 0.14167201189203629 0 -0.2804226891664876 0.12940513594623221 0 -0.29563289833704792 0.1211109261551389 0 -0.29674228528268098 0.14167201189203629 0 -0.30835875028686138 0.12836861128214669 0 -0.29563289833704792 0.1211109261551389 0 -0.31630075392673418 0.14071989359044609 0 -0.29674228528268098 0.14167201189203629 0 -0.30835875028686138 0.12836861128214669 0 -0.31796283648197832 0.1633337389314328 0 -0.31630075392673418 0.14071989359044609 0 -0.29674228528268098 0.14167201189203629 0 -0.31796283648197832 0.1633337389314328 0 -0.30596240671843039 0.18080678990447141 0 -0.29210011904845101 0.16519073176382951 0 -0.31796283648197832 0.1633337389314328 0 -0.29674228528268098 0.14167201189203629 0 -0.29210011904845101 0.16519073176382951 0 -0.28918285092023371 0.18809301854234381 0 -0.30596240671843039 0.18080678990447141 0 -0.29210011904845101 0.16519073176382951 0 -0.28918285092023371 0.18809301854234381 0 -0.29210011904845101 0.16519073176382951 0 -0.26742439373620053 0.1747171610723561 0 -0.29210011904845101 0.16519073176382951 0 -0.26645859331151961 0.15770478106228089 0 -0.2788144627000812 0.14703818685698561 0 -0.29210011904845101 0.16519073176382951 0 -0.26645859331151961 0.15770478106228089 0 -0.26742439373620053 0.1747171610723561 0 -0.28918285092023371 0.18809301854234381 0 -0.27469451239495962 0.19856643751398209 0 -0.26742439373620053 0.1747171610723561 0 -0.28918285092023371 0.18809301854234381 0 -0.26742439373620053 0.1747171610723561 0 -0.25846339158769432 0.19477026040294029 0 -0.26742439373620053 0.1747171610723561 0 -0.2425545525554833 0.18325607046718431 0 -0.26742439373620053 0.1747171610723561 0 -0.24566593655216731 0.1613413036023684 0 -0.2425545525554833 0.18325607046718431 0 -0.26742439373620053 0.1747171610723561 0 -0.24566593655216731 0.1613413036023684 0 -0.26645859331151961 0.15770478106228089 0 -0.26742439373620053 0.1747171610723561 0 -0.24566593655216731 0.1613413036023684 0 -0.26645859331151961 0.15770478106228089 0 -0.26077588748637798 0.14053443996503889 0 -0.24566593655216731 0.1613413036023684 0 -0.26645859331151961 0.15770478106228089 0 -0.2788144627000812 0.14703818685698561 0 -0.26077588748637798 0.14053443996503889 0 -0.2788144627000812 0.14703818685698561 0 -0.2804226891664876 0.12940513594623221 0 -0.26077588748637798 0.14053443996503889 0 -0.2804226891664876 0.12940513594623221 0 -0.26077588748637798 0.14053443996503889 0 -0.26620622488190782 0.1187168322113534 0 -0.26077588748637798 0.14053443996503889 0 -0.25033803458298193 0.12914144363467839 0 -0.2394413917758374 0.14053574488666021 0 -0.26077588748637798 0.14053443996503889 0 -0.25033803458298193 0.12914144363467839 0 -0.26620622488190782 0.1187168322113534 0 -0.25033803458298193 0.12914144363467839 0 -0.25364395357421121 0.10678394025260531 0 -0.26620622488190782 0.1187168322113534 0 -0.25364395357421121 0.10678394025260531 0 -0.26910496068450029 0.10059928658519129 0 -0.26340159681891351 0.087305486383429762 0 -0.25364395357421121 0.10678394025260531 0 -0.26910496068450029 0.10059928658519129 0 -0.26620622488190782 0.1187168322113534 0 -0.26910496068450029 0.10059928658519129 0 -0.28436437631082973 0.10735841859683989 0 -0.28176033911896858 0.090840469038767704 0 -0.26910496068450029 0.10059928658519129 0 -0.26620622488190782 0.1187168322113534 0 -0.28436437631082973 0.10735841859683989 0 -0.2804226891664876 0.12940513594623221 0 -0.26620622488190782 0.1187168322113534 0 -0.28436437631082973 0.10735841859683989 0 -0.2804226891664876 0.12940513594623221 0 -0.29563289833704792 0.1211109261551389 0 -0.28436437631082973 0.10735841859683989 0 -0.29563289833704792 0.1211109261551389 0 -0.28436437631082973 0.10735841859683989 0 -0.30333203744139958 0.1018092028156232 0 -0.28436437631082973 0.10735841859683989 0 -0.30333203744139958 0.1018092028156232 0 -0.29505738772415852 0.092466809089677027 0 -0.28436437631082973 0.10735841859683989 0 -0.29505738772415852 0.092466809089677027 0 -0.28176033911896858 0.090840469038767704 0 -0.30333203744139958 0.1018092028156232 0 -0.31115114737422961 0.1134627277541034 0 -0.31621893882499519 0.096173217231134644 0 -0.29563289833704792 0.1211109261551389 0 -0.30333203744139958 0.1018092028156232 0 -0.31115114737422961 0.1134627277541034 0 -0.30835875028686138 0.12836861128214669 0 -0.29563289833704792 0.1211109261551389 0 -0.31115114737422961 0.1134627277541034 0 -0.2988364877494265 0.069896585727329402 0 -0.3095990562077543 0.082833834969606807 0 -0.31708477734686968 0.066938799678275263 0 -0.2988364877494265 0.069896585727329402 0 -0.30266664287706341 0.054708362279179482 0 -0.31708477734686968 0.066938799678275263 0 -0.2988364877494265 0.069896585727329402 0 -0.28935545939309398 0.062964548691125152 0 -0.30266664287706341 0.054708362279179482 0 -0.30333203744139958 0.1018092028156232 0 -0.3095990562077543 0.082833834969606807 0 -0.31621893882499519 0.096173217231134644 0 -0.30333203744139958 0.1018092028156232 0 -0.3095990562077543 0.082833834969606807 0 -0.29505738772415852 0.092466809089677027 0 -0.3095990562077543 0.082833834969606807 0 -0.29687345717375091 0.081902945336330912 0 -0.29505738772415852 0.092466809089677027 0 -0.2988364877494265 0.069896585727329402 0 -0.3095990562077543 0.082833834969606807 0 -0.29687345717375091 0.081902945336330912 0 -0.29687345717375091 0.081902945336330912 0 -0.28176033911896858 0.090840469038767704 0 -0.2804463735768567 0.075556206852953223 0 -0.29687345717375091 0.081902945336330912 0 -0.29505738772415852 0.092466809089677027 0 -0.28176033911896858 0.090840469038767704 0 -0.2988364877494265 0.069896585727329402 0 -0.28935545939309398 0.062964548691125152 0 -0.2804463735768567 0.075556206852953223 0 -0.2988364877494265 0.069896585727329402 0 -0.29687345717375091 0.081902945336330912 0 -0.2804463735768567 0.075556206852953223 0 -0.28935545939309398 0.062964548691125152 0 -0.28020443427428848 0.065937434716272045 0 -0.28232948387749679 0.060243429622273227 0 -0.28935545939309398 0.062964548691125152 0 -0.28020443427428848 0.065937434716272045 0 -0.2804463735768567 0.075556206852953223 0 -0.2804463735768567 0.075556206852953223 0 -0.26340159681891351 0.087305486383429762 0 -0.26195798501385009 0.070226375813507561 0 -0.28020443427428848 0.065937434716272045 0 -0.26195798501385009 0.070226375813507561 0 -0.2800946942601637 0.055740888585776333 0 -0.28020443427428848 0.065937434716272045 0 -0.2804463735768567 0.075556206852953223 0 -0.26195798501385009 0.070226375813507561 0 -0.26195798501385009 0.070226375813507561 0 -0.2800946942601637 0.055740888585776333 0 -0.26910496068450029 0.10059928658519129 0 -0.28176033911896858 0.090840469038767704 0 -0.26340159681891351 0.087305486383429762 0 -0.28176033911896858 0.090840469038767704 0 -0.2804463735768567 0.075556206852953223 0 -0.26340159681891351 0.087305486383429762 0 -0.26340159681891351 0.087305486383429762 0 -0.26195798501385009 0.070226375813507561 0 -0.24382127576753621 0.084711863041238192 0 -0.25364395357421121 0.10678394025260531 0 -0.26340159681891351 0.087305486383429762 0 -0.24382127576753621 0.084711863041238192 0 -0.26195798501385009 0.070226375813507561 0 -0.24382127576753621 0.084711863041238192 0 -0.26195798501385009 0.070226375813507561 0 -0.26253060434091768 0.04486583530805522 0 -0.24534917185526489 0.049526218608574313 0 -0.26253060434091768 0.04486583530805522 0 -0.25642639863326749 0.02710060176493858 0 -0.24534917185526489 0.049526218608574313 0 -0.26253060434091768 0.04486583530805522 0 -0.27431483662099609 0.037465275048419483 0 -0.25642639863326749 0.02710060176493858 0 -0.26253060434091768 0.04486583530805522 0 -0.27431483662099609 0.037465275048419483 0 -0.2800946942601637 0.055740888585776333 0 -0.26195798501385009 0.070226375813507561 0 -0.26253060434091768 0.04486583530805522 0 -0.2800946942601637 0.055740888585776333 0 -0.28020443427428848 0.065937434716272045 0 -0.2800946942601637 0.055740888585776333 0 -0.28232948387749679 0.060243429622273227 0 -0.26431478179583978 -0.01186883573312463 0 -0.25132042997239518 0.0027134119798401068 0 -0.26646431581863778 0.01029557754540468 0 -0.25132042997239518 0.0027134119798401068 0 -0.25642639863326749 0.02710060176493858 0 -0.26646431581863778 0.01029557754540468 0 -0.27431483662099609 0.037465275048419483 0 -0.25642639863326749 0.02710060176493858 0 -0.27962863155723588 0.021383722316491719 0 -0.25642639863326749 0.02710060176493858 0 -0.27962863155723588 0.021383722316491719 0 -0.26646431581863778 0.01029557754540468 0 -0.2820771903446922 -0.0013122005201030101 0 -0.27962863155723588 0.021383722316491719 0 -0.26646431581863778 0.01029557754540468 0 -0.2820771903446922 -0.0013122005201030101 0 -0.30047775033007851 -0.00039401612408775783 0 -0.29196914664965867 0.01010181790504874 0 -0.2820771903446922 -0.0013122005201030101 0 -0.27962863155723588 0.021383722316491719 0 -0.29196914664965867 0.01010181790504874 0 -0.27962863155723588 0.021383722316491719 0 -0.29196914664965867 0.01010181790504874 0 -0.3056930143666281 0.020729765947894 0 -0.27962863155723588 0.021383722316491719 0 -0.3056930143666281 0.020729765947894 0 -0.2928938543133956 0.038235327266834943 0 -0.3056930143666281 0.020729765947894 0 -0.2928938543133956 0.038235327266834943 0 -0.3056930143666281 0.020729765947894 0 -0.30086997028822832 0.039148022070134687 0 -0.32164524631629432 0.022555155554494829 0 -0.30086997028822832 0.039148022070134687 0 -0.32164524631629432 0.022555155554494829 0 -0.3056930143666281 0.020729765947894 0 -0.31849217441985911 0.0032242046289520012 0 -0.30047775033007851 -0.00039401612408775783 0 -0.3056930143666281 0.020729765947894 0 -0.31849217441985911 0.0032242046289520012 0 -0.30047775033007851 -0.00039401612408775783 0 -0.29196914664965867 0.01010181790504874 0 -0.3056930143666281 0.020729765947894 0 -0.2800946942601637 0.055740888585776333 0 -0.30086997028822832 0.039148022070134687 0 -0.28935545939309398 0.062964548691125152 0 -0.2800946942601637 0.055740888585776333 0 -0.30266664287706341 0.054708362279179482 0 -0.2800946942601637 0.055740888585776333 0 -0.2928938543133956 0.038235327266834943 0 -0.2800946942601637 0.055740888585776333 0 -0.30086997028822832 0.039148022070134687 0 -0.30266664287706341 0.054708362279179482 0 -0.28935545939309398 0.062964548691125152 0 -0.2800946942601637 0.055740888585776333 0 -0.28232948387749679 0.060243429622273227 0 -0.2800946942601637 0.055740888585776333 0 -0.2928938543133956 0.038235327266834943 0 -0.30086997028822832 0.039148022070134687 0 -0.27431483662099609 0.037465275048419483 0 -0.27962863155723588 0.021383722316491719 0 -0.2928938543133956 0.038235327266834943 0 -0.27431483662099609 0.037465275048419483 0 -0.2800946942601637 0.055740888585776333 0 -0.2928938543133956 0.038235327266834943 0 -0.3056930143666281 0.020729765947894 0 -0.2928938543133956 0.038235327266834943 0 -0.30086997028822832 0.039148022070134687 0 -0.30086997028822832 0.039148022070134687 0 -0.30266664287706341 0.054708362279179482 0 -0.3262676586483656 0.050894384371173287 0 -0.30266664287706341 0.054708362279179482 0 -0.3262676586483656 0.050894384371173287 0 -0.31708477734686968 0.066938799678275263 0 -0.3262676586483656 0.050894384371173287 0 -0.32164524631629432 0.022555155554494829 0 -0.30086997028822832 0.039148022070134687 0 -0.3262676586483656 0.050894384371173287 0 -0.32164524631629432 0.022555155554494829 0 -0.3262676586483656 0.050894384371173287 0 -0.32164524631629432 0.022555155554494829 0 -0.34047985126035502 0.026774828886197279 0 -0.3419631627684111 0.054410778814259472 0 -0.34047985126035502 0.026774828886197279 0 -0.3262676586483656 0.050894384371173287 0 -0.3419631627684111 0.054410778814259472 0 -0.34047985126035502 0.026774828886197279 0 -0.3262676586483656 0.050894384371173287 0 -0.3419631627684111 0.054410778814259472 0 -0.33089007098043072 0.079233613187852742 0 -0.3056930143666281 0.020729765947894 0 -0.31849217441985911 0.0032242046289520012 0 -0.32164524631629432 0.022555155554494829 0 -0.31849217441985911 0.0032242046289520012 0 -0.32164524631629432 0.022555155554494829 0 -0.33742136738088668 0.0099550307423931228 0 -0.31849217441985911 0.0032242046289520012 0 -0.32164524631629432 0.022555155554494829 0 -0.32164524631629432 0.022555155554494829 0 -0.33742136738088668 0.0099550307423931228 0 -0.32164524631629432 0.022555155554494829 0 -0.34047985126035502 0.026774828886197279 0 -0.33742136738088668 0.0099550307423931228 0 -0.35319748844548088 -0.0026450940697062141 0 -0.33742136738088668 0.0099550307423931228 0 -0.35319748844548088 -0.0026450940697062141 0 -0.33742136738088668 0.0099550307423931228 0 -0.35568472126330458 0.01398178967161531 0 -0.34047985126035502 0.026774828886197279 0 -0.35568472126330458 0.01398178967161531 0 -0.36050468596179641 0.029201478886372499 0 -0.34047985126035502 0.026774828886197279 0 -0.33742136738088668 0.0099550307423931228 0 -0.35568472126330458 0.01398178967161531 0 -0.35568472126330458 0.01398178967161531 0 -0.36050468596179641 0.029201478886372499 0 -0.37274578052696178 0.01868977009819147 0 -0.37753126207020948 0.034899308803226177 0 -0.36050468596179641 0.029201478886372499 0 -0.37274578052696178 0.01868977009819147 0 -0.35319748844548088 -0.0026450940697062141 0 -0.35568472126330458 0.01398178967161531 0 -0.36979036210562988 0.0025511841975563729 0 -0.35568472126330458 0.01398178967161531 0 -0.37274578052696178 0.01868977009819147 0 -0.36979036210562988 0.0025511841975563729 0 -0.35367539322405089 0.052192583201526178 0 -0.35229578078182711 0.042127528613546239 0 -0.36485581069452189 0.048057973279375742 0 -0.35367539322405089 0.052192583201526178 0 -0.36174043644781612 0.059537200304905107 0 -0.34707042967454638 0.066493871458924422 0 -0.3419631627684111 0.054410778814259472 0 -0.35367539322405089 0.052192583201526178 0 -0.34707042967454638 0.066493871458924422 0 -0.3419631627684111 0.054410778814259472 0 -0.35367539322405089 0.052192583201526178 0 -0.35229578078182711 0.042127528613546239 0 -0.34047985126035502 0.026774828886197279 0 -0.36050468596179641 0.029201478886372499 0 -0.35229578078182711 0.042127528613546239 0 -0.3419631627684111 0.054410778814259472 0 -0.34047985126035502 0.026774828886197279 0 -0.35229578078182711 0.042127528613546239 0 -0.36050468596179641 0.029201478886372499 0 -0.35229578078182711 0.042127528613546239 0 -0.36485581069452189 0.048057973279375742 0 -0.37753126207020948 0.034899308803226177 0 -0.36050468596179641 0.029201478886372499 0 -0.36485581069452189 0.048057973279375742 0 -0.37830855690199738 0.048851891747440382 0 -0.37753126207020948 0.034899308803226177 0 -0.36485581069452189 0.048057973279375742 0 -0.37830855690199738 0.048851891747440382 0 -0.36485581069452189 0.048057973279375742 0 -0.37119345183321822 0.058853827639881867 0 -0.35367539322405089 0.052192583201526178 0 -0.36485581069452189 0.048057973279375742 0 -0.36174043644781612 0.059537200304905107 0 -0.36485581069452189 0.048057973279375742 0 -0.36174043644781612 0.059537200304905107 0 -0.37119345183321822 0.058853827639881867 0 -0.37201358599706058 0.070711840939253895 0 -0.36026946930678239 0.075913175113325196 0 -0.34707042967454638 0.066493871458924422 0 -0.37904886912469499 0.067110231928434197 0 -0.37119345183321822 0.058853827639881867 0 -0.37201358599706058 0.070711840939253895 0 -0.37201358599706058 0.070711840939253895 0 -0.34707042967454638 0.066493871458924422 0 -0.36174043644781612 0.059537200304905107 0 -0.37119345183321822 0.058853827639881867 0 -0.37201358599706058 0.070711840939253895 0 -0.36174043644781612 0.059537200304905107 0 -0.37201358599706058 0.070711840939253895 0 -0.34707042967454638 0.066493871458924422 0 -0.37201358599706058 0.070711840939253895 0 -0.36026946930678239 0.075913175113325196 0 -0.37016311523106599 0.083751267223082917 0 -0.38119130922167832 0.078766060501995444 0 -0.37201358599706058 0.070711840939253895 0 -0.37016311523106599 0.083751267223082917 0 -0.3419631627684111 0.054410778814259472 0 -0.34707042967454638 0.066493871458924422 0 -0.34344647427646718 0.082046728742321648 0 -0.36026946930678239 0.075913175113325196 0 -0.35274187612612162 0.077211514003190262 0 -0.34707042967454638 0.066493871458924422 0 -0.35274187612612162 0.077211514003190262 0 -0.34707042967454638 0.066493871458924422 0 -0.34344647427646718 0.082046728742321648 0 -0.35295667425925747 0.085123838591775802 0 -0.35001973748798287 0.095551702326820934 0 -0.34344647427646718 0.082046728742321648 0 -0.35274187612612162 0.077211514003190262 0 -0.35295667425925747 0.085123838591775802 0 -0.34344647427646718 0.082046728742321648 0 -0.35274187612612162 0.077211514003190262 0 -0.35295667425925747 0.085123838591775802 0 -0.35935833950511731 0.08139738194217451 0 -0.35295667425925747 0.085123838591775802 0 -0.35935833950511731 0.08139738194217451 0 -0.35921694390059838 0.089411865944371699 0 -0.36026946930678239 0.075913175113325196 0 -0.35274187612612162 0.077211514003190262 0 -0.35935833950511731 0.08139738194217451 0 -0.35295667425925747 0.085123838591775802 0 -0.35921694390059838 0.089411865944371699 0 -0.35001973748798287 0.095551702326820934 0 -0.35921694390059838 0.089411865944371699 0 -0.37016311523106599 0.083751267223082917 0 -0.36611800641667808 0.094109198156665408 0 -0.36026946930678239 0.075913175113325196 0 -0.35935833950511731 0.08139738194217451 0 -0.37016311523106599 0.083751267223082917 0 -0.35935833950511731 0.08139738194217451 0 -0.35921694390059838 0.089411865944371699 0 -0.37016311523106599 0.083751267223082917 0 -0.37643332436138899 0.09558572737664002 0 -0.37016311523106599 0.083751267223082917 0 -0.36611800641667808 0.094109198156665408 0 -0.37643332436138899 0.09558572737664002 0 -0.36831342086492491 0.1042920553550029 0 -0.36611800641667808 0.094109198156665408 0 -0.37896648635229202 0.10715504183998489 0 -0.37643332436138899 0.09558572737664002 0 -0.36831342086492491 0.1042920553550029 0 -0.36831342086492491 0.1042920553550029 0 -0.35948680904503588 0.10793893666500461 0 -0.35938862515943509 0.099383552161339872 0 -0.35921694390059838 0.089411865944371699 0 -0.35938862515943509 0.099383552161339872 0 -0.36611800641667808 0.094109198156665408 0 -0.36831342086492491 0.1042920553550029 0 -0.35938862515943509 0.099383552161339872 0 -0.36611800641667808 0.094109198156665408 0 -0.37896648635229202 0.10715504183998489 0 -0.36831342086492491 0.1042920553550029 0 -0.36716541190589658 0.118616890008602 0 -0.36831342086492491 0.1042920553550029 0 -0.35948680904503588 0.10793893666500461 0 -0.36716541190589658 0.118616890008602 0 -0.35948680904503588 0.10793893666500461 0 -0.36716541190589658 0.118616890008602 0 -0.35375916145188291 0.11350041634001019 0 -0.34641309729257957 0.13731862859844601 0 -0.34492978578452338 0.1096826786703838 0 -0.34641309729257957 0.13731862859844601 0 -0.35352278934268327 0.12307152153672141 0 -0.34492978578452338 0.1096826786703838 0 -0.36716541190589658 0.118616890008602 0 -0.35352278934268327 0.12307152153672141 0 -0.35375916145188291 0.11350041634001019 0 -0.35375916145188291 0.11350041634001019 0 -0.34492978578452338 0.1096826786703838 0 -0.35317683324139082 0.10499755452017361 0 -0.35352278934268327 0.12307152153672141 0 -0.35375916145188291 0.11350041634001019 0 -0.34492978578452338 0.1096826786703838 0 -0.34492978578452338 0.1096826786703838 0 -0.35001973748798287 0.095551702326820934 0 -0.34344647427646718 0.082046728742321648 0 -0.34492978578452338 0.1096826786703838 0 -0.34344647427646718 0.082046728742321648 0 -0.35921694390059838 0.089411865944371699 0 -0.35938862515943509 0.099383552161339872 0 -0.35001973748798287 0.095551702326820934 0 -0.35938862515943509 0.099383552161339872 0 -0.35317683324139082 0.10499755452017361 0 -0.35001973748798287 0.095551702326820934 0 -0.35948680904503588 0.10793893666500461 0 -0.35938862515943509 0.099383552161339872 0 -0.35317683324139082 0.10499755452017361 0 -0.35948680904503588 0.10793893666500461 0 -0.35375916145188291 0.11350041634001019 0 -0.35317683324139082 0.10499755452017361 0 -0.34492978578452338 0.1096826786703838 0 -0.35317683324139082 0.10499755452017361 0 -0.35001973748798287 0.095551702326820934 0 -0.33551248331249578 0.10757284200453231 0 -0.32636827877939262 0.096437598311714251 0 -0.33089007098043072 0.079233613187852742 0 -0.34492978578452338 0.1096826786703838 0 -0.33551248331249578 0.10757284200453231 0 -0.34344647427646718 0.082046728742321648 0 -0.34013489564456101 0.1359120708212119 0 -0.33551248331249578 0.10757284200453231 0 -0.33106980320980312 0.1246503866679774 0 -0.33551248331249578 0.10757284200453231 0 -0.33106980320980312 0.1246503866679774 0 -0.3276422557938925 0.11637059862038419 0 -0.34013489564456101 0.1359120708212119 0 -0.33551248331249578 0.10757284200453231 0 -0.34013489564456101 0.1359120708212119 0 -0.34492978578452338 0.1096826786703838 0 -0.33551248331249578 0.10757284200453231 0 -0.33551248331249578 0.10757284200453231 0 -0.3276422557938925 0.11637059862038419 0 -0.32202007013965611 0.108381668790018 0 -0.31115114737422961 0.1134627277541034 0 -0.32196666651361477 0.12487749701900901 0 -0.32202007013965611 0.108381668790018 0 -0.32196666651361477 0.12487749701900901 0 -0.3276422557938925 0.11637059862038419 0 -0.32202007013965611 0.108381668790018 0 -0.33106980320980312 0.1246503866679774 0 -0.32196666651361477 0.12487749701900901 0 -0.3276422557938925 0.11637059862038419 0 -0.30835875028686138 0.12836861128214669 0 -0.31115114737422961 0.1134627277541034 0 -0.32196666651361477 0.12487749701900901 0 -0.31115114737422961 0.1134627277541034 0 -0.32202007013965611 0.108381668790018 0 -0.31621893882499519 0.096173217231134644 0 -0.32636827877939262 0.096437598311714251 0 -0.32202007013965611 0.108381668790018 0 -0.31621893882499519 0.096173217231134644 0 -0.33551248331249578 0.10757284200453231 0 -0.32636827877939262 0.096437598311714251 0 -0.32202007013965611 0.108381668790018 0 -0.32636827877939262 0.096437598311714251 0 -0.3206518095107353 0.086423961441370711 0 -0.33089007098043072 0.079233613187852742 0 -0.3095990562077543 0.082833834969606807 0 -0.31621893882499519 0.096173217231134644 0 -0.3206518095107353 0.086423961441370711 0 -0.32636827877939262 0.096437598311714251 0 -0.31621893882499519 0.096173217231134644 0 -0.3206518095107353 0.086423961441370711 0 -0.3206518095107353 0.086423961441370711 0 -0.3195564285114475 0.078857552319276381 0 -0.33089007098043072 0.079233613187852742 0 -0.3095990562077543 0.082833834969606807 0 -0.3206518095107353 0.086423961441370711 0 -0.3195564285114475 0.078857552319276381 0 -0.3095990562077543 0.082833834969606807 0 -0.3195564285114475 0.078857552319276381 0 -0.31708477734686968 0.066938799678275263 0 -0.3262676586483656 0.050894384371173287 0 -0.31708477734686968 0.066938799678275263 0 -0.33089007098043072 0.079233613187852742 0 -0.3195564285114475 0.078857552319276381 0 -0.31708477734686968 0.066938799678275263 0 -0.33089007098043072 0.079233613187852742 0 -0.3262676586483656 0.050894384371173287 0 -0.33089007098043072 0.079233613187852742 0 -0.3419631627684111 0.054410778814259472 0 -0.34344647427646718 0.082046728742321648 0 -0.3419631627684111 0.054410778814259472 0 -0.34344647427646718 0.082046728742321648 0 -0.33089007098043072 0.079233613187852742 0 -0.33551248331249578 0.10757284200453231 0 -0.34344647427646718 0.082046728742321648 0 -0.33089007098043072 0.079233613187852742 0 -0.33551248331249578 0.10757284200453231 0 -0.33089007098043072 0.079233613187852742 0 -0.38413367002432852 0.48466820949397371 0 -0.39197467039505129 0.46611734068214988 0 -0.41460981883164078 0.48516798004791117 0 -0.3981750166650535 0.50000000000000056 0 -0.38413367002432852 0.48466820949397371 0 -0.41460981883164078 0.48516798004791117 0 -0.3981750166650535 0.50000000000000056 0 -0.38413367002432852 0.48466820949397371 0 -0.37107410569903487 0.5 0 -0.39197467039505129 0.46611734068214988 0 -0.36482960672615539 0.47476559140937902 0 -0.38413367002432852 0.48466820949397371 0 -0.39197467039505129 0.46611734068214988 0 -0.36580706476392733 0.47631646954851292 0 -0.38785270990024268 0.44600589254376838 0 -0.39197467039505129 0.46611734068214988 0 -0.37006527051019528 0.45259743283909409 0 -0.39197467039505129 0.46611734068214988 0 -0.37006527051019528 0.45259743283909409 0 -0.36482960672615539 0.47476559140937902 0 -0.38785270990024268 0.44600589254376838 0 -0.37388199021079188 0.43349662060099697 0 -0.37006527051019528 0.45259743283909409 0 -0.38785270990024268 0.44600589254376838 0 -0.40320620376676342 0.45007503942677379 0 -0.39595691431975 0.42995942871021692 0 -0.38785270990024268 0.44600589254376838 0 -0.40320620376676342 0.45007503942677379 0 -0.39197467039505129 0.46611734068214988 0 -0.40320620376676342 0.45007503942677379 0 -0.39197467039505129 0.46611734068214988 0 -0.41277096383307582 0.46532813801804862 0 -0.40320620376676342 0.45007503942677379 0 -0.42781315099835598 0.44205737320498029 0 -0.39595691431975 0.42995942871021692 0 -0.40320620376676342 0.45007503942677379 0 -0.41277096383307582 0.46532813801804862 0 -0.42781315099835598 0.44205737320498029 0 -0.42781315099835598 0.44205737320498029 0 -0.43466730821188831 0.46706657063262308 0 -0.44460389203804629 0.44806533343805571 0 -0.42781315099835598 0.44205737320498029 0 -0.4310446209982266 0.47033596009582029 0 -0.42781315099835598 0.44205737320498029 0 -0.43466730821188831 0.46706657063262308 0 -0.4310446209982266 0.47033596009582029 0 -0.41277096383307582 0.46532813801804862 0 -0.42781315099835598 0.44205737320498029 0 -0.4310446209982266 0.47033596009582029 0 -0.43466730821188831 0.46706657063262308 0 -0.4310446209982266 0.47033596009582029 0 -0.4310446209982266 0.47033596009582029 0 -0.43443441043131342 0.50000000000000755 0 -0.4447827686264566 0.47926022536349122 0 -0.4310446209982266 0.47033596009582029 0 -0.41460981883164078 0.48516798004791117 0 -0.4310446209982266 0.47033596009582029 0 -0.41460981883164078 0.48516798004791117 0 -0.42409839095234109 0.48887598503593521 0 -0.43466730821188831 0.46706657063262308 0 -0.4310446209982266 0.47033596009582029 0 -0.4447827686264566 0.47926022536349122 0 -0.39197467039505129 0.46611734068214988 0 -0.41277096383307582 0.46532813801804862 0 -0.41460981883164078 0.48516798004791117 0 -0.41277096383307582 0.46532813801804862 0 -0.4310446209982266 0.47033596009582029 0 -0.41460981883164078 0.48516798004791117 0 -0.3981750166650535 0.50000000000000056 0 -0.41460981883164078 0.48516798004791117 0 -0.3981750166650535 0.50000000000000056 0 -0.41460981883164078 0.48516798004791117 0 -0.41630471354818338 0.5 0 -0.41460981883164078 0.48516798004791117 0 -0.41630471354818338 0.5 0 -0.42409839095234109 0.48887598503593521 0 -0.41630471354818338 0.5 0 -0.43443441043131342 0.50000000000000755 0 -0.42409839095234109 0.48887598503593521 0 -0.4310446209982266 0.47033596009582029 0 -0.43443441043131342 0.50000000000000755 0 -0.4310446209982266 0.47033596009582029 0 -0.43443441043131342 0.50000000000000755 0 -0.42409839095234109 0.48887598503593521 0 -0.43443441043131342 0.50000000000000755 0 -0.4447827686264566 0.47926022536349122 0 -0.4595127163698095 0.50000000000000022 0 -0.5 0.5 0 -0.47335596745111108 0.44169355163120572 0 -0.5 0.40038011321019712 0 -0.43466730821188831 0.46706657063262308 0 -0.4447827686264566 0.47926022536349122 0 -0.44899911668232212 0.46303481381032341 0 -0.4447827686264566 0.47926022536349122 0 -0.46015144363500948 0.47359397987248231 0 -0.44899911668232212 0.46303481381032341 0 -0.4447827686264566 0.47926022536349122 0 -0.46015144363500948 0.47359397987248231 0 -0.4595127163698095 0.50000000000000022 0 -0.46015144363500948 0.47359397987248231 0 -0.4595127163698095 0.50000000000000022 0 -0.46015144363500948 0.47359397987248231 0 -0.4595127163698095 0.50000000000000022 0 -0.5 0.5 0 -0.46015144363500948 0.47359397987248231 0 -0.5 0.5 0 -0.47335596745111108 0.44169355163120572 0 -0.46015144363500948 0.47359397987248231 0 -0.47335596745111108 0.44169355163120572 0 -0.46079017090020952 0.44718795974496428 0 -0.46079017090020952 0.44718795974496428 0 -0.44460389203804629 0.44806533343805571 0 -0.45590269758544211 0.43346995798949911 0 -0.47335596745111108 0.44169355163120572 0 -0.46079017090020952 0.44718795974496428 0 -0.45590269758544211 0.43346995798949911 0 -0.46015144363500948 0.47359397987248231 0 -0.46079017090020952 0.44718795974496428 0 -0.44899911668232212 0.46303481381032341 0 -0.46015144363500948 0.47359397987248231 0 -0.46079017090020952 0.44718795974496428 0 -0.43466730821188831 0.46706657063262308 0 -0.44899911668232212 0.46303481381032341 0 -0.44460389203804629 0.44806533343805571 0 -0.42781315099835598 0.44205737320498029 0 -0.44460389203804629 0.44806533343805571 0 -0.44268906624812487 0.42665452579602331 0 -0.46079017090020952 0.44718795974496428 0 -0.44899911668232212 0.46303481381032341 0 -0.44460389203804629 0.44806533343805571 0 -0.44460389203804629 0.44806533343805571 0 -0.44268906624812487 0.42665452579602331 0 -0.45590269758544211 0.43346995798949911 0 -0.44268906624812487 0.42665452579602331 0 -0.45186506472241439 0.42144574071262142 0 -0.45590269758544211 0.43346995798949911 0 -0.44268906624812487 0.42665452579602331 0 -0.45186506472241439 0.42144574071262142 0 -0.44576315445017062 0.40546276927260178 0 -0.44268906624812487 0.42665452579602331 0 -0.44576315445017062 0.40546276927260178 0 -0.42458168099848842 0.41377878631413989 0 -0.46310534060592018 0.42019570979236182 0 -0.47346151536459102 0.41731684507507272 0 -0.46374026742882618 0.39151162716981691 0 -0.45186506472241439 0.42144574071262142 0 -0.46310534060592018 0.42019570979236182 0 -0.44576315445017062 0.40546276927260178 0 -0.47335596745111108 0.44169355163120572 0 -0.46310534060592018 0.42019570979236182 0 -0.45590269758544211 0.43346995798949911 0 -0.45186506472241439 0.42144574071262142 0 -0.46310534060592018 0.42019570979236182 0 -0.45590269758544211 0.43346995798949911 0 -0.47335596745111108 0.44169355163120572 0 -0.46310534060592018 0.42019570979236182 0 -0.47346151536459102 0.41731684507507272 0 -0.47335596745111108 0.44169355163120572 0 -0.47346151536459102 0.41731684507507272 0 -0.5 0.40038011321019712 0 -0.47346151536459102 0.41731684507507272 0 -0.5 0.40038011321019712 0 -0.47533567507008778 0.39330498401591851 0 -0.47346151536459102 0.41731684507507272 0 -0.47533567507008778 0.39330498401591851 0 -0.47346151536459102 0.41731684507507272 0 -0.47533567507008778 0.39330498401591851 0 -0.46374026742882618 0.39151162716981691 0 -0.5 0.40038011321019712 0 -0.47533567507008778 0.39330498401591851 0 -0.47720983477558448 0.36929312295676431 0 -0.47533567507008778 0.39330498401591851 0 -0.47720983477558448 0.36929312295676431 0 -0.47533567507008778 0.39330498401591851 0 -0.46374026742882618 0.39151162716981691 0 -0.47720983477558448 0.36929312295676431 0 -0.46374026742882618 0.39151162716981691 0 -0.45297946443592813 0.37787116286410599 0 -0.46437519425173218 0.36282754454727217 0 -0.46374026742882618 0.39151162716981691 0 -0.45297946443592813 0.37787116286410599 0 -0.44807155782876301 0.39051600802545461 0 -0.46374026742882618 0.39151162716981691 0 -0.46437519425173218 0.36282754454727217 0 -0.46310534060592018 0.42019570979236182 0 -0.46374026742882618 0.39151162716981691 0 -0.46310534060592018 0.42019570979236182 0 -0.46374026742882618 0.39151162716981691 0 -0.44576315445017062 0.40546276927260178 0 -0.46374026742882618 0.39151162716981691 0 -0.44576315445017062 0.40546276927260178 0 -0.44807155782876301 0.39051600802545461 0 -0.44576315445017062 0.40546276927260178 0 -0.44807155782876301 0.39051600802545461 0 -0.43603237714897469 0.39502180629923989 0 -0.45297946443592813 0.37787116286410599 0 -0.44807155782876301 0.39051600802545461 0 -0.44039528146883089 0.37985126846070372 0 -0.44807155782876301 0.39051600802545461 0 -0.44039528146883089 0.37985126846070372 0 -0.43603237714897469 0.39502180629923989 0 -0.44039528146883089 0.37985126846070372 0 -0.42135021099862069 0.38550019942329938 0 -0.43603237714897469 0.39502180629923989 0 -0.44039528146883089 0.37985126846070372 0 -0.42135021099862069 0.38550019942329938 0 -0.43330693618304927 0.36743111704715392 0 -0.42135021099862069 0.38550019942329938 0 -0.3928737426436214 0.38288862872844909 0 -0.41811874099875312 0.35722161253245888 0 -0.42135021099862069 0.38550019942329938 0 -0.42458168099848842 0.41377878631413989 0 -0.40302940150938782 0.40252809503019821 0 -0.44576315445017062 0.40546276927260178 0 -0.43603237714897469 0.39502180629923989 0 -0.42458168099848842 0.41377878631413989 0 -0.42135021099862069 0.38550019942329938 0 -0.42458168099848842 0.41377878631413989 0 -0.42135021099862069 0.38550019942329938 0 -0.43603237714897469 0.39502180629923989 0 -0.42458168099848842 0.41377878631413989 0 -0.42781315099835598 0.44205737320498029 0 -0.42458168099848842 0.41377878631413989 0 -0.39595691431975 0.42995942871021692 0 -0.42781315099835598 0.44205737320498029 0 -0.44268906624812487 0.42665452579602331 0 -0.42458168099848842 0.41377878631413989 0 -0.42781315099835598 0.44205737320498029 0 -0.42458168099848842 0.41377878631413989 0 -0.42458168099848842 0.41377878631413989 0 -0.39595691431975 0.42995942871021692 0 -0.40302940150938782 0.40252809503019821 0 -0.39595691431975 0.42995942871021692 0 -0.38133644129271771 0.41060795377957438 0 -0.40302940150938782 0.40252809503019821 0 -0.39595691431975 0.42995942871021692 0 -0.38133644129271771 0.41060795377957438 0 -0.37388199021079188 0.43349662060099697 0 -0.38785270990024268 0.44600589254376838 0 -0.39595691431975 0.42995942871021692 0 -0.37388199021079188 0.43349662060099697 0 -0.39595691431975 0.42995942871021692 0 -0.38133644129271771 0.41060795377957438 0 -0.38133644129271771 0.41060795377957438 0 -0.3928737426436214 0.38288862872844909 0 -0.36671596826568531 0.39125647884893172 0 -0.3928737426436214 0.38288862872844909 0 -0.37126589511329411 0.37377724987418581 0 -0.36671596826568531 0.39125647884893172 0 -0.42135021099862069 0.38550019942329938 0 -0.3928737426436214 0.38288862872844909 0 -0.40302940150938782 0.40252809503019821 0 -0.38133644129271771 0.41060795377957438 0 -0.3928737426436214 0.38288862872844909 0 -0.40302940150938782 0.40252809503019821 0 -0.39068435811404417 0.36093702398180222 0 -0.39395667907880888 0.34326368506717603 0 -0.41811874099875312 0.35722161253245888 0 -0.3928737426436214 0.38288862872844909 0 -0.39068435811404417 0.36093702398180222 0 -0.41811874099875312 0.35722161253245888 0 -0.3928737426436214 0.38288862872844909 0 -0.39068435811404417 0.36093702398180222 0 -0.37126589511329411 0.37377724987418581 0 -0.39068435811404417 0.36093702398180222 0 -0.37302608715873109 0.35758434449273291 0 -0.37126589511329411 0.37377724987418581 0 -0.39395667907880888 0.34326368506717603 0 -0.37302608715873109 0.35758434449273291 0 -0.39068435811404417 0.36093702398180222 0 -0.39395667907880888 0.34326368506717603 0 -0.37302608715873109 0.35758434449273291 0 -0.37563375498023588 0.33893957100260502 0 -0.39395667907880888 0.34326368506717603 0 -0.37302608715873109 0.35758434449273291 0 -0.37563375498023588 0.33893957100260502 0 -0.3809584867257152 0.31995934924364311 0 -0.39395667907880888 0.34326368506717603 0 -0.3809584867257152 0.31995934924364311 0 -0.40019053093036899 0.31727751782089808 0 -0.39395667907880888 0.34326368506717603 0 -0.40019053093036899 0.31727751782089808 0 -0.39395667907880888 0.34326368506717603 0 -0.414887270998886 0.32894302564161831 0 -0.39395667907880888 0.34326368506717603 0 -0.414887270998886 0.32894302564161831 0 -0.414887270998886 0.32894302564161831 0 -0.41811874099875312 0.35722161253245888 0 -0.39395667907880888 0.34326368506717603 0 -0.414887270998886 0.32894302564161831 0 -0.41811874099875312 0.35722161253245888 0 -0.414887270998886 0.32894302564161831 0 -0.4287524947490482 0.33739992334137159 0 -0.41811874099875312 0.35722161253245888 0 -0.414887270998886 0.32894302564161831 0 -0.42784370751339318 0.3200782636988328 0 -0.41182569378737999 0.30215117016961263 0 -0.414887270998886 0.32894302564161831 0 -0.41182569378737999 0.30215117016961263 0 -0.40019053093036899 0.31727751782089808 0 -0.414887270998886 0.32894302564161831 0 -0.41182569378737999 0.30215117016961263 0 -0.414887270998886 0.32894302564161831 0 -0.42784370751339318 0.3200782636988328 0 -0.42784370751339318 0.3200782636988328 0 -0.44080014402789969 0.3112135017560464 0 -0.414887270998886 0.32894302564161831 0 -0.42784370751339318 0.3200782636988328 0 -0.4287524947490482 0.33739992334137159 0 -0.42784370751339318 0.3200782636988328 0 -0.4287524947490482 0.33739992334137159 0 -0.44455732798665581 0.33082357613192309 0 -0.4287524947490482 0.33739992334137159 0 -0.43835542624755341 0.34993313870202492 0 -0.44455732798665581 0.33082357613192309 0 -0.4287524947490482 0.33739992334137159 0 -0.41811874099875312 0.35722161253245888 0 -0.43835542624755341 0.34993313870202492 0 -0.41811874099875312 0.35722161253245888 0 -0.43330693618304927 0.36743111704715392 0 -0.43835542624755341 0.34993313870202492 0 -0.42135021099862069 0.38550019942329938 0 -0.41811874099875312 0.35722161253245888 0 -0.42135021099862069 0.38550019942329938 0 -0.41811874099875312 0.35722161253245888 0 -0.43330693618304927 0.36743111704715392 0 -0.44039528146883089 0.37985126846070372 0 -0.43330693618304927 0.36743111704715392 0 -0.44831502120148831 0.36464936611728249 0 -0.5 0.40038011321019712 0 -0.47720983477558448 0.36929312295676431 0 -0.5 0.32588146503443682 0 -0.43330693618304927 0.36743111704715392 0 -0.44831502120148831 0.36464936611728249 0 -0.43835542624755341 0.34993313870202492 0 -0.45297946443592813 0.37787116286410599 0 -0.44039528146883089 0.37985126846070372 0 -0.44831502120148831 0.36464936611728249 0 -0.44831502120148831 0.36464936611728249 0 -0.45212261815241361 0.34847541748464589 0 -0.43835542624755341 0.34993313870202492 0 -0.46437519425173218 0.36282754454727217 0 -0.46501012107463818 0.3341434619247271 0 -0.45212261815241361 0.34847541748464589 0 -0.46437519425173218 0.36282754454727217 0 -0.46501012107463818 0.3341434619247271 0 -0.44831502120148831 0.36464936611728249 0 -0.45212261815241361 0.34847541748464589 0 -0.46437519425173218 0.36282754454727217 0 -0.45297946443592813 0.37787116286410599 0 -0.44831502120148831 0.36464936611728249 0 -0.46437519425173218 0.36282754454727217 0 -0.46374026742882618 0.39151162716981691 0 -0.46437519425173218 0.36282754454727217 0 -0.47720983477558448 0.36929312295676431 0 -0.47720983477558448 0.36929312295676431 0 -0.4790839944810813 0.34528126189761021 0 -0.5 0.32588146503443682 0 -0.46437519425173218 0.36282754454727217 0 -0.47720983477558448 0.36929312295676431 0 -0.4790839944810813 0.34528126189761021 0 -0.46437519425173218 0.36282754454727217 0 -0.4790839944810813 0.34528126189761021 0 -0.46501012107463818 0.3341434619247271 0 -0.47720983477558448 0.36929312295676431 0 -0.4790839944810813 0.34528126189761021 0 -0.5 0.32588146503443682 0 -0.48095815418657811 0.32126940083845601 0 -0.48438341280173691 0.2990237851864897 0 -0.4790839944810813 0.34528126189761021 0 -0.5 0.32588146503443682 0 -0.48095815418657811 0.32126940083845601 0 -0.4790839944810813 0.34528126189761021 0 -0.48095815418657811 0.32126940083845601 0 -0.4790839944810813 0.34528126189761021 0 -0.48095815418657811 0.32126940083845601 0 -0.46501012107463818 0.3341434619247271 0 -0.48095815418657811 0.32126940083845601 0 -0.46501012107463818 0.3341434619247271 0 -0.46564504789754418 0.30545937930218209 0 -0.46501012107463818 0.3341434619247271 0 -0.46564504789754418 0.30545937930218209 0 -0.45334860311094782 0.31584311053598302 0 -0.46501012107463818 0.3341434619247271 0 -0.44455732798665581 0.33082357613192309 0 -0.45334860311094782 0.31584311053598302 0 -0.46501012107463818 0.3341434619247271 0 -0.46564504789754418 0.30545937930218209 0 -0.45212261815241361 0.34847541748464589 0 -0.46501012107463818 0.3341434619247271 0 -0.44455732798665581 0.33082357613192309 0 -0.45212261815241361 0.34847541748464589 0 -0.43835542624755341 0.34993313870202492 0 -0.44455732798665581 0.33082357613192309 0 -0.45334860311094782 0.31584311053598302 0 -0.44455732798665581 0.33082357613192309 0 -0.44080014402789969 0.3112135017560464 0 -0.42784370751339318 0.3200782636988328 0 -0.44455732798665581 0.33082357613192309 0 -0.44080014402789969 0.3112135017560464 0 -0.45334860311094782 0.31584311053598302 0 -0.44080014402789969 0.3112135017560464 0 -0.45212090372732222 0.29751224224269018 0 -0.44080014402789969 0.3112135017560464 0 -0.45212090372732222 0.29751224224269018 0 -0.43098419661848369 0.29848737705662681 0 -0.45212090372732222 0.29751224224269018 0 -0.44106680473088589 0.27968718865599468 0 -0.43098419661848369 0.29848737705662681 0 -0.45212090372732222 0.29751224224269018 0 -0.46878861662768212 0.293945894508436 0 -0.46620416538631942 0.27832296974934079 0 -0.45212090372732222 0.29751224224269018 0 -0.46620416538631942 0.27832296974934079 0 -0.44106680473088589 0.27968718865599468 0 -0.45334860311094782 0.31584311053598302 0 -0.45212090372732222 0.29751224224269018 0 -0.46564504789754418 0.30545937930218209 0 -0.45212090372732222 0.29751224224269018 0 -0.46564504789754418 0.30545937930218209 0 -0.46878861662768212 0.293945894508436 0 -0.48095815418657811 0.32126940083845601 0 -0.46564504789754418 0.30545937930218209 0 -0.47422271850004488 0.30257989257828583 0 -0.48095815418657811 0.32126940083845601 0 -0.48283231389207593 0.29725753977930192 0 -0.48095815418657811 0.32126940083845601 0 -0.48283231389207593 0.29725753977930192 0 -0.48438341280173691 0.2990237851864897 0 -0.48095815418657811 0.32126940083845601 0 -0.48283231389207593 0.29725753977930192 0 -0.47422271850004488 0.30257989257828583 0 -0.5 0.32588146503443682 0 -0.48438341280173691 0.2990237851864897 0 -0.5 0.27058277969487637 0 -0.48283231389207593 0.29725753977930192 0 -0.48438341280173691 0.2990237851864897 0 -0.48283231389207593 0.29725753977930192 0 -0.47422271850004488 0.30257989257828583 0 -0.46878861662768212 0.293945894508436 0 -0.46564504789754418 0.30545937930218209 0 -0.47422271850004488 0.30257989257828583 0 -0.46878861662768212 0.293945894508436 0 -0.48283231389207593 0.29725753977930192 0 -0.46620416538631942 0.27832296974934079 0 -0.4832665619079245 0.29169392479429618 0 -0.48272378290968532 0.2745465744653578 0 -0.46620416538631942 0.27832296974934079 0 -0.48283231389207593 0.29725753977930192 0 -0.46878861662768212 0.293945894508436 0 -0.46620416538631942 0.27832296974934079 0 -0.48283231389207593 0.29725753977930192 0 -0.4832665619079245 0.29169392479429618 0 -0.46620416538631942 0.27832296974934079 0 -0.48283231389207593 0.29725753977930192 0 -0.4832665619079245 0.29169392479429618 0 -0.48438341280173691 0.2990237851864897 0 -0.48283231389207593 0.29725753977930192 0 -0.4832665619079245 0.29169392479429618 0 -0.4832665619079245 0.29169392479429618 0 -0.48438341280173691 0.2990237851864897 0 -0.5 0.27058277969487637 0 -0.48510068849613291 0.2464952989699998 0 -0.5 0.27058277969487637 0 -0.47736829551405641 0.25971614189080378 0 -0.4832665619079245 0.29169392479429618 0 -0.5 0.27058277969487637 0 -0.48272378290968532 0.2745465744653578 0 -0.5 0.27058277969487637 0 -0.48272378290968532 0.2745465744653578 0 -0.47736829551405641 0.25971614189080378 0 -0.48272378290968532 0.2745465744653578 0 -0.47736829551405641 0.25971614189080378 0 -0.46620416538631942 0.27832296974934079 0 -0.48510068849613291 0.2464952989699998 0 -0.4662317729600568 0.24711617116125539 0 -0.47736829551405641 0.25971614189080378 0 -0.4662317729600568 0.24711617116125539 0 -0.47736829551405641 0.25971614189080378 0 -0.44957601688056159 0.25938839971938082 0 -0.47736829551405641 0.25971614189080378 0 -0.46620416538631942 0.27832296974934079 0 -0.44957601688056159 0.25938839971938082 0 -0.46620416538631942 0.27832296974934079 0 -0.44957601688056159 0.25938839971938082 0 -0.46620416538631942 0.27832296974934079 0 -0.44106680473088589 0.27968718865599468 0 -0.44957601688056159 0.25938839971938082 0 -0.44106680473088589 0.27968718865599468 0 -0.44957601688056159 0.25938839971938082 0 -0.42702456861835142 0.26373592368695459 0 -0.43294786837480398 0.2404538296894207 0 -0.44957601688056159 0.25938839971938082 0 -0.42702456861835142 0.26373592368695459 0 -0.43294786837480398 0.2404538296894207 0 -0.40570253936436479 0.24856745922560119 0 -0.42702456861835142 0.26373592368695459 0 -0.40570253936436479 0.24856745922560119 0 -0.40876411657587441 0.27535931469760672 0 -0.40570253936436479 0.24856745922560119 0 -0.42702456861835142 0.26373592368695459 0 -0.40876411657587441 0.27535931469760672 0 -0.42702456861835142 0.26373592368695459 0 -0.40876411657587441 0.27535931469760672 0 -0.42393307606619501 0.28388419485335897 0 -0.44106680473088589 0.27968718865599468 0 -0.42702456861835142 0.26373592368695459 0 -0.42393307606619501 0.28388419485335897 0 -0.44106680473088589 0.27968718865599468 0 -0.42393307606619501 0.28388419485335897 0 -0.43098419661848369 0.29848737705662681 0 -0.42393307606619501 0.28388419485335897 0 -0.43098419661848369 0.29848737705662681 0 -0.41182569378737999 0.30215117016961263 0 -0.42784370751339318 0.3200782636988328 0 -0.44080014402789969 0.3112135017560464 0 -0.43098419661848369 0.29848737705662681 0 -0.42784370751339318 0.3200782636988328 0 -0.43098419661848369 0.29848737705662681 0 -0.41182569378737999 0.30215117016961263 0 -0.40876411657587441 0.27535931469760672 0 -0.42393307606619501 0.28388419485335897 0 -0.41182569378737999 0.30215117016961263 0 -0.40876411657587441 0.27535931469760672 0 -0.41182569378737999 0.30215117016961263 0 -0.40876411657587441 0.27535931469760672 0 -0.41182569378737999 0.30215117016961263 0 -0.38942632587964537 0.29641120061531351 0 -0.40876411657587441 0.27535931469760672 0 -0.38942632587964537 0.29641120061531351 0 -0.38778179087320769 0.27529621765694001 0 -0.40019053093036899 0.31727751782089808 0 -0.41182569378737999 0.30215117016961263 0 -0.38942632587964537 0.29641120061531351 0 -0.3809584867257152 0.31995934924364311 0 -0.38942632587964537 0.29641120061531351 0 -0.36990774782730562 0.30465198401604282 0 -0.3809584867257152 0.31995934924364311 0 -0.40019053093036899 0.31727751782089808 0 -0.38942632587964537 0.29641120061531351 0 -0.38942632587964537 0.29641120061531351 0 -0.38778179087320769 0.27529621765694001 0 -0.37124129201382 0.2841753332327091 0 -0.38942632587964537 0.29641120061531351 0 -0.37124129201382 0.2841753332327091 0 -0.36990774782730562 0.30465198401604282 0 -0.38778179087320769 0.27529621765694001 0 -0.37230359566927929 0.26610576231553251 0 -0.37124129201382 0.2841753332327091 0 -0.38778179087320769 0.27529621765694001 0 -0.38900306751682168 0.25733661077056619 0 -0.37230359566927929 0.26610576231553251 0 -0.38900306751682168 0.25733661077056619 0 -0.37230359566927929 0.26610576231553251 0 -0.37675611103540763 0.25409865512553548 0 -0.38900306751682168 0.25733661077056619 0 -0.37230359566927929 0.26610576231553251 0 -0.38455494932564349 0.24416718140159829 0 -0.37675611103540763 0.25409865512553548 0 -0.38900306751682168 0.25733661077056619 0 -0.40570253936436479 0.24856745922560119 0 -0.40876411657587441 0.27535931469760672 0 -0.38900306751682168 0.25733661077056619 0 -0.40570253936436479 0.24856745922560119 0 -0.38900306751682168 0.25733661077056619 0 -0.40876411657587441 0.27535931469760672 0 -0.38778179087320769 0.27529621765694001 0 -0.38900306751682168 0.25733661077056619 0 -0.35344375069401829 0.26830850112922933 0 -0.35479842748912699 0.29354782535411539 0 -0.33783775680192157 0.27023153782616838 0 -0.35344375069401829 0.26830850112922933 0 -0.35479842748912699 0.29354782535411539 0 -0.35926376548055328 0.2486735779402334 0 -0.35208907389890948 0.24306917690434299 0 -0.35344375069401829 0.26830850112922933 0 -0.35208907389890948 0.24306917690434299 0 -0.35344375069401829 0.26830850112922933 0 -0.34142207509263922 0.25572960106260723 0 -0.35208907389890948 0.24306917690434299 0 -0.35344375069401829 0.26830850112922933 0 -0.35344375069401829 0.26830850112922933 0 -0.33783775680192157 0.27023153782616838 0 -0.34142207509263922 0.25572960106260723 0 -0.35344375069401829 0.26830850112922933 0 -0.36723308052532222 0.25309369692869038 0 -0.37230359566927929 0.26610576231553251 0 -0.35926376548055328 0.2486735779402334 0 -0.35344375069401829 0.26830850112922933 0 -0.36723308052532222 0.25309369692869038 0 -0.37552267705158737 0.2431978490864326 0 -0.37675611103540763 0.25409865512553548 0 -0.36723308052532222 0.25309369692869038 0 -0.37675611103540763 0.25409865512553548 0 -0.36723308052532222 0.25309369692869038 0 -0.37230359566927929 0.26610576231553251 0 -0.35344375069401829 0.26830850112922933 0 -0.37230359566927929 0.26610576231553251 0 -0.37124129201382 0.2841753332327091 0 -0.37124129201382 0.2841753332327091 0 -0.36990774782730562 0.30465198401604282 0 -0.35479842748912699 0.29354782535411539 0 -0.35344375069401829 0.26830850112922933 0 -0.37124129201382 0.2841753332327091 0 -0.35479842748912699 0.29354782535411539 0 -0.36990774782730562 0.30465198401604282 0 -0.35479842748912699 0.29354782535411539 0 -0.35615310428423591 0.31878714957900162 0 -0.35479842748912699 0.29354782535411539 0 -0.35615310428423591 0.31878714957900162 0 -0.35479842748912699 0.29354782535411539 0 -0.33790089425573833 0.30106400074382289 0 -0.35615310428423591 0.31878714957900162 0 -0.35479842748912699 0.29354782535411539 0 -0.32994760687178648 0.28429515218691809 0 -0.33783775680192157 0.27023153782616838 0 -0.35479842748912699 0.29354782535411539 0 -0.32994760687178648 0.28429515218691809 0 -0.33790089425573833 0.30106400074382289 0 -0.33790089425573833 0.30106400074382289 0 -0.31376474629655843 0.30225304786416751 0 -0.33257481532433891 0.31836647764434117 0 -0.32994760687178648 0.28429515218691809 0 -0.33790089425573833 0.30106400074382289 0 -0.31376474629655843 0.30225304786416751 0 -0.32994760687178648 0.28429515218691809 0 -0.31376474629655843 0.30225304786416751 0 -0.30745975664346697 0.28108303278283259 0 -0.32994760687178648 0.28429515218691809 0 -0.32025265357816562 0.27050697347699348 0 -0.30745975664346697 0.28108303278283259 0 -0.32994760687178648 0.28429515218691809 0 -0.32025265357816562 0.27050697347699348 0 -0.33783775680192157 0.27023153782616838 0 -0.33783775680192157 0.27023153782616838 0 -0.34142207509263922 0.25572960106260723 0 -0.32493898666941562 0.25370598596143412 0 -0.33787454055877381 0.24529314191448051 0 -0.34142207509263922 0.25572960106260723 0 -0.32493898666941562 0.25370598596143412 0 -0.32025265357816562 0.27050697347699348 0 -0.32493898666941562 0.25370598596143412 0 -0.3017176885818823 0.26220574059556451 0 -0.32025265357816562 0.27050697347699348 0 -0.33783775680192157 0.27023153782616838 0 -0.32493898666941562 0.25370598596143412 0 -0.28392805579818597 0.24584677119781029 0 -0.30659471691689572 0.242716670786389 0 -0.3017176885818823 0.26220574059556451 0 -0.30659471691689572 0.242716670786389 0 -0.32493898666941562 0.25370598596143412 0 -0.3017176885818823 0.26220574059556451 0 -0.32025265357816562 0.27050697347699348 0 -0.3017176885818823 0.26220574059556451 0 -0.30745975664346697 0.28108303278283259 0 -0.3017176885818823 0.26220574059556451 0 -0.30745975664346697 0.28108303278283259 0 -0.28581088023419748 0.27213864639403801 0 -0.28392805579818597 0.24584677119781029 0 -0.3017176885818823 0.26220574059556451 0 -0.28392805579818597 0.24584677119781029 0 -0.3017176885818823 0.26220574059556451 0 -0.28581088023419748 0.27213864639403801 0 -0.28392805579818597 0.24584677119781029 0 -0.28581088023419748 0.27213864639403801 0 -0.26655259030946182 0.26726307071448002 0 -0.28392805579818597 0.24584677119781029 0 -0.26514282027817931 0.24842266601513599 0 -0.26655259030946182 0.26726307071448002 0 -0.28581088023419748 0.27213864639403801 0 -0.26655259030946182 0.26726307071448002 0 -0.26709784128719349 0.28662765883125513 0 -0.26655259030946182 0.26726307071448002 0 -0.26709784128719349 0.28662765883125513 0 -0.24190471242523851 0.27972751922608308 0 -0.26655259030946182 0.26726307071448002 0 -0.24943129659764751 0.26000894523212309 0 -0.24190471242523851 0.27972751922608308 0 -0.26514282027817931 0.24842266601513599 0 -0.26655259030946182 0.26726307071448002 0 -0.24943129659764751 0.26000894523212309 0 -0.26514282027817931 0.24842266601513599 0 -0.24943129659764751 0.26000894523212309 0 -0.2468893326351202 0.24329134098969171 0 -0.25616918259472732 0.30236015827283808 0 -0.26709784128719349 0.28662765883125513 0 -0.24190471242523851 0.27972751922608308 0 -0.28581088023419748 0.27213864639403801 0 -0.26709784128719349 0.28662765883125513 0 -0.29016097772449478 0.2935014559625142 0 -0.26709784128719349 0.28662765883125513 0 -0.27491611994182802 0.30516871221215541 0 -0.29016097772449478 0.2935014559625142 0 -0.25616918259472732 0.30236015827283808 0 -0.27491611994182802 0.30516871221215541 0 -0.27043365276421599 0.32499279731959319 0 -0.25616918259472732 0.30236015827283808 0 -0.26709784128719349 0.28662765883125513 0 -0.27491611994182802 0.30516871221215541 0 -0.27491611994182802 0.30516871221215541 0 -0.29016097772449478 0.2935014559625142 0 -0.29169578744288521 0.31398791816734961 0 -0.30745975664346697 0.28108303278283259 0 -0.28581088023419748 0.27213864639403801 0 -0.29016097772449478 0.2935014559625142 0 -0.31376474629655843 0.30225304786416751 0 -0.30745975664346697 0.28108303278283259 0 -0.29016097772449478 0.2935014559625142 0 -0.31376474629655843 0.30225304786416751 0 -0.29016097772449478 0.2935014559625142 0 -0.29169578744288521 0.31398791816734961 0 -0.31376474629655843 0.30225304786416751 0 -0.31074538478735791 0.32738191455196902 0 -0.29169578744288521 0.31398791816734961 0 -0.31074538478735791 0.32738191455196902 0 -0.29170910681836448 0.3316805874579164 0 -0.29169578744288521 0.31398791816734961 0 -0.31074538478735791 0.32738191455196902 0 -0.30097258616365841 0.34441487088432199 0 -0.31556783578130437 0.34561409599239279 0 -0.31074538478735791 0.32738191455196902 0 -0.29170910681836448 0.3316805874579164 0 -0.30097258616365841 0.34441487088432199 0 -0.29170910681836448 0.3316805874579164 0 -0.28469812293370489 0.34762543636634829 0 -0.30097258616365841 0.34441487088432199 0 -0.29170910681836448 0.3316805874579164 0 -0.27043365276421599 0.32499279731959319 0 -0.28469812293370489 0.34762543636634829 0 -0.29170910681836448 0.3316805874579164 0 -0.29169578744288521 0.31398791816734961 0 -0.27043365276421599 0.32499279731959319 0 -0.27491611994182802 0.30516871221215541 0 -0.29169578744288521 0.31398791816734961 0 -0.27043365276421599 0.32499279731959319 0 -0.27043365276421599 0.32499279731959319 0 -0.26243222306204511 0.35090504016953772 0 -0.28469812293370489 0.34762543636634829 0 -0.27043365276421599 0.32499279731959319 0 -0.28469812293370489 0.34762543636634829 0 -0.27043365276421599 0.32499279731959319 0 -0.25002058798003007 0.3320526588471332 0 -0.26243222306204511 0.35090504016953772 0 -0.25616918259472732 0.30236015827283808 0 -0.27043365276421599 0.32499279731959319 0 -0.25616918259472732 0.30236015827283808 0 -0.27043365276421599 0.32499279731959319 0 -0.25002058798003007 0.3320526588471332 0 -0.25717133997193298 0.37426095615225607 0 -0.26243222306204511 0.35090504016953772 0 -0.27169383631612543 0.36953364855257259 0 -0.25717133997193298 0.37426095615225607 0 -0.26243222306204511 0.35090504016953772 0 -0.24481421723968019 0.36490975255658048 0 -0.27524778858216448 0.35766291394235578 0 -0.28324842690769031 0.36508823660180101 0 -0.28469812293370489 0.34762543636634829 0 -0.26243222306204511 0.35090504016953772 0 -0.27524778858216448 0.35766291394235578 0 -0.27169383631612543 0.36953364855257259 0 -0.26243222306204511 0.35090504016953772 0 -0.27524778858216448 0.35766291394235578 0 -0.28469812293370489 0.34762543636634829 0 -0.27524778858216448 0.35766291394235578 0 -0.27169383631612543 0.36953364855257259 0 -0.28324842690769031 0.36508823660180101 0 -0.27169383631612543 0.36953364855257259 0 -0.28324842690769031 0.36508823660180101 0 -0.28209338532393202 0.38222600668133688 0 -0.28324842690769031 0.36508823660180101 0 -0.28469812293370489 0.34762543636634829 0 -0.29896259310319367 0.37025807541310352 0 -0.28324842690769031 0.36508823660180101 0 -0.29896259310319367 0.37025807541310352 0 -0.28209338532393202 0.38222600668133688 0 -0.28469812293370489 0.34762543636634829 0 -0.29896259310319367 0.37025807541310352 0 -0.28469812293370489 0.34762543636634829 0 -0.30097258616365841 0.34441487088432199 0 -0.29896259310319367 0.37025807541310352 0 -0.30097258616365841 0.34441487088432199 0 -0.30971140611047582 0.35873879640362499 0 -0.29896259310319367 0.37025807541310352 0 -0.30097258616365841 0.34441487088432199 0 -0.29896259310319367 0.37025807541310352 0 -0.30097258616365841 0.34441487088432199 0 -0.30971140611047582 0.35873879640362499 0 -0.31556783578130437 0.34561409599239279 0 -0.30971140611047582 0.35873879640362499 0 -0.29896259310319367 0.37025807541310352 0 -0.31229554397435733 0.37005867265250031 0 -0.29896259310319367 0.37025807541310352 0 -0.31229554397435733 0.37005867265250031 0 -0.30732872976294823 0.38353215772995369 0 -0.31229554397435733 0.37005867265250031 0 -0.32118050234516199 0.36201264788746418 0 -0.32091897818789411 0.37757395005697603 0 -0.30971140611047582 0.35873879640362499 0 -0.31229554397435733 0.37005867265250031 0 -0.32118050234516199 0.36201264788746418 0 -0.32118050234516199 0.36201264788746418 0 -0.33508210951592582 0.36870163953731322 0 -0.32091897818789411 0.37757395005697603 0 -0.33508210951592582 0.36870163953731322 0 -0.35209549523865291 0.37190500391828912 0 -0.33393211710626841 0.38433234248782061 0 -0.32118050234516199 0.36201264788746418 0 -0.33508210951592582 0.36870163953731322 0 -0.33321476088078839 0.35466849371962073 0 -0.33508210951592582 0.36870163953731322 0 -0.33321476088078839 0.35466849371962073 0 -0.34577529297467657 0.36353966338233001 0 -0.33321476088078839 0.35466849371962073 0 -0.34577529297467657 0.36353966338233001 0 -0.34447532111727192 0.34884924989517158 0 -0.33321476088078839 0.35466849371962073 0 -0.33003563329740881 0.33925758124412497 0 -0.34447532111727192 0.34884924989517158 0 -0.32118050234516199 0.36201264788746418 0 -0.33321476088078839 0.35466849371962073 0 -0.31556783578130437 0.34561409599239279 0 -0.30971140611047582 0.35873879640362499 0 -0.32118050234516199 0.36201264788746418 0 -0.31556783578130437 0.34561409599239279 0 -0.33321476088078839 0.35466849371962073 0 -0.31556783578130437 0.34561409599239279 0 -0.33003563329740881 0.33925758124412497 0 -0.31074538478735791 0.32738191455196902 0 -0.33257481532433891 0.31836647764434117 0 -0.33003563329740881 0.33925758124412497 0 -0.31074538478735791 0.32738191455196902 0 -0.31556783578130437 0.34561409599239279 0 -0.33003563329740881 0.33925758124412497 0 -0.31376474629655843 0.30225304786416751 0 -0.31074538478735791 0.32738191455196902 0 -0.33257481532433891 0.31836647764434117 0 -0.33790089425573833 0.30106400074382289 0 -0.33257481532433891 0.31836647764434117 0 -0.35615310428423591 0.31878714957900162 0 -0.33257481532433891 0.31836647764434117 0 -0.33003563329740881 0.33925758124412497 0 -0.34490357793898208 0.33379293979876401 0 -0.33003563329740881 0.33925758124412497 0 -0.34490357793898208 0.33379293979876401 0 -0.34447532111727192 0.34884924989517158 0 -0.34490357793898208 0.33379293979876401 0 -0.34447532111727192 0.34884924989517158 0 -0.35750778107934472 0.34402647380388779 0 -0.35615310428423591 0.31878714957900162 0 -0.35750778107934472 0.34402647380388779 0 -0.34490357793898208 0.33379293979876401 0 -0.35615310428423591 0.31878714957900162 0 -0.35750778107934472 0.34402647380388779 0 -0.33257481532433891 0.31836647764434117 0 -0.34490357793898208 0.33379293979876401 0 -0.35615310428423591 0.31878714957900162 0 -0.3809584867257152 0.31995934924364311 0 -0.36990774782730562 0.30465198401604282 0 -0.35615310428423591 0.31878714957900162 0 -0.37563375498023588 0.33893957100260502 0 -0.3809584867257152 0.31995934924364311 0 -0.35615310428423591 0.31878714957900162 0 -0.37563375498023588 0.33893957100260502 0 -0.35615310428423591 0.31878714957900162 0 -0.35750778107934472 0.34402647380388779 0 -0.37563375498023588 0.33893957100260502 0 -0.37302608715873109 0.35758434449273291 0 -0.35750778107934472 0.34402647380388779 0 -0.37302608715873109 0.35758434449273291 0 -0.35750778107934472 0.34402647380388779 0 -0.35541488053243109 0.35781034742230239 0 -0.37302608715873109 0.35758434449273291 0 -0.35209549523865291 0.37190500391828912 0 -0.35541488053243109 0.35781034742230239 0 -0.37302608715873109 0.35758434449273291 0 -0.37126589511329411 0.37377724987418581 0 -0.35209549523865291 0.37190500391828912 0 -0.37302608715873109 0.35758434449273291 0 -0.35209549523865291 0.37190500391828912 0 -0.33508210951592582 0.36870163953731322 0 -0.35209549523865291 0.37190500391828912 0 -0.34577529297467657 0.36353966338233001 0 -0.35209549523865291 0.37190500391828912 0 -0.34577529297467657 0.36353966338233001 0 -0.35209549523865291 0.37190500391828912 0 -0.34577529297467657 0.36353966338233001 0 -0.35541488053243109 0.35781034742230239 0 -0.34577529297467657 0.36353966338233001 0 -0.34447532111727192 0.34884924989517158 0 -0.35541488053243109 0.35781034742230239 0 -0.34447532111727192 0.34884924989517158 0 -0.35750778107934472 0.34402647380388779 0 -0.35541488053243109 0.35781034742230239 0 -0.35026082972236822 0.40458613969335172 0 -0.34862050747833878 0.38874946299455448 0 -0.33552343261133938 0.40009846525415782 0 -0.35026082972236822 0.40458613969335172 0 -0.34862050747833878 0.38874946299455448 0 -0.36671596826568531 0.39125647884893172 0 -0.35209549523865291 0.37190500391828912 0 -0.34862050747833878 0.38874946299455448 0 -0.33393211710626841 0.38433234248782061 0 -0.35209549523865291 0.37190500391828912 0 -0.34862050747833878 0.38874946299455448 0 -0.36671596826568531 0.39125647884893172 0 -0.35209549523865291 0.37190500391828912 0 -0.36671596826568531 0.39125647884893172 0 -0.37126589511329411 0.37377724987418581 0 -0.35209549523865291 0.37190500391828912 0 -0.36671596826568531 0.39125647884893172 0 -0.38133644129271771 0.41060795377957438 0 -0.36671596826568531 0.39125647884893172 0 -0.35026082972236822 0.40458613969335172 0 -0.36671596826568531 0.39125647884893172 0 -0.36333227490387549 0.41594406858258898 0 -0.38133644129271771 0.41060795377957438 0 -0.36671596826568531 0.39125647884893172 0 -0.36333227490387549 0.41594406858258898 0 -0.38133644129271771 0.41060795377957438 0 -0.36333227490387549 0.41594406858258898 0 -0.37388199021079188 0.43349662060099697 0 -0.36333227490387549 0.41594406858258898 0 -0.37388199021079188 0.43349662060099697 0 -0.35906691460358248 0.43302642702751659 0 -0.36333227490387549 0.41594406858258898 0 -0.35906691460358248 0.43302642702751659 0 -0.35160825139420282 0.41805423523185442 0 -0.35906691460358248 0.43302642702751659 0 -0.34586475289765162 0.42738691828786168 0 -0.34964894770477822 0.45067928662270329 0 -0.35906691460358248 0.43302642702751659 0 -0.34586475289765162 0.42738691828786168 0 -0.35160825139420282 0.41805423523185442 0 -0.35026082972236822 0.40458613969335172 0 -0.36333227490387549 0.41594406858258898 0 -0.35160825139420282 0.41805423523185442 0 -0.34586475289765162 0.42738691828786168 0 -0.35160825139420282 0.41805423523185442 0 -0.33955069738530769 0.4144169953609998 0 -0.35026082972236822 0.40458613969335172 0 -0.35160825139420282 0.41805423523185442 0 -0.33955069738530769 0.4144169953609998 0 -0.35026082972236822 0.40458613969335172 0 -0.33955069738530769 0.4144169953609998 0 -0.33552343261133938 0.40009846525415782 0 -0.33446828868340289 0.42659298183602629 0 -0.325081577553051 0.41169961094141633 0 -0.33955069738530769 0.4144169953609998 0 -0.33446828868340289 0.42659298183602629 0 -0.325081577553051 0.41169961094141633 0 -0.33955069738530769 0.4144169953609998 0 -0.325081577553051 0.41169961094141633 0 -0.33552343261133938 0.40009846525415782 0 -0.33446828868340289 0.42659298183602629 0 -0.32353211865850812 0.43458959004027897 0 -0.33054677899099522 0.44587833955602901 0 -0.34586475289765162 0.42738691828786168 0 -0.33446828868340289 0.42659298183602629 0 -0.34964894770477822 0.45067928662270329 0 -0.34586475289765162 0.42738691828786168 0 -0.33446828868340289 0.42659298183602629 0 -0.34586475289765162 0.42738691828786168 0 -0.33955069738530769 0.4144169953609998 0 -0.33446828868340289 0.42659298183602629 0 -0.33446828868340289 0.42659298183602629 0 -0.31463215430362917 0.42521109444957261 0 -0.33446828868340289 0.42659298183602629 0 -0.31463215430362917 0.42521109444957261 0 -0.32353211865850812 0.43458959004027897 0 -0.31463215430362917 0.42521109444957261 0 -0.32353211865850812 0.43458959004027897 0 -0.30632691414132052 0.4383163993433048 0 -0.325081577553051 0.41169961094141633 0 -0.31576873897388319 0.39675968105735149 0 -0.30808160252936673 0.4121977433748496 0 -0.31463215430362917 0.42521109444957261 0 -0.325081577553051 0.41169961094141633 0 -0.30808160252936673 0.4121977433748496 0 -0.33446828868340289 0.42659298183602629 0 -0.31463215430362917 0.42521109444957261 0 -0.325081577553051 0.41169961094141633 0 -0.325081577553051 0.41169961094141633 0 -0.31576873897388319 0.39675968105735149 0 -0.33552343261133938 0.40009846525415782 0 -0.325081577553051 0.41169961094141633 0 -0.31576873897388319 0.39675968105735149 0 -0.34862050747833878 0.38874946299455448 0 -0.33552343261133938 0.40009846525415782 0 -0.33393211710626841 0.38433234248782061 0 -0.31576873897388319 0.39675968105735149 0 -0.33552343261133938 0.40009846525415782 0 -0.33393211710626841 0.38433234248782061 0 -0.35209549523865291 0.37190500391828912 0 -0.33393211710626841 0.38433234248782061 0 -0.33508210951592582 0.36870163953731322 0 -0.33393211710626841 0.38433234248782061 0 -0.32091897818789411 0.37757395005697603 0 -0.31576873897388319 0.39675968105735149 0 -0.32091897818789411 0.37757395005697603 0 -0.30732872976294823 0.38353215772995369 0 -0.31576873897388319 0.39675968105735149 0 -0.33393211710626841 0.38433234248782061 0 -0.31576873897388319 0.39675968105735149 0 -0.33393211710626841 0.38433234248782061 0 -0.32091897818789411 0.37757395005697603 0 -0.31229554397435733 0.37005867265250031 0 -0.32091897818789411 0.37757395005697603 0 -0.30732872976294823 0.38353215772995369 0 -0.29896259310319367 0.37025807541310352 0 -0.30732872976294823 0.38353215772995369 0 -0.29700674132229032 0.39540516601558717 0 -0.29896259310319367 0.37025807541310352 0 -0.29700674132229032 0.39540516601558717 0 -0.31576873897388319 0.39675968105735149 0 -0.30732872976294823 0.38353215772995369 0 -0.29896259310319367 0.37025807541310352 0 -0.30732872976294823 0.38353215772995369 0 -0.29700674132229032 0.39540516601558717 0 -0.30259284054109448 0.40478096048040529 0 -0.29641605771867308 0.41403951143914192 0 -0.31576873897388319 0.39675968105735149 0 -0.29700674132229032 0.39540516601558717 0 -0.30259284054109448 0.40478096048040529 0 -0.31576873897388319 0.39675968105735149 0 -0.30732872976294823 0.38353215772995369 0 -0.29700674132229032 0.39540516601558717 0 -0.31576873897388319 0.39675968105735149 0 -0.30259284054109448 0.40478096048040529 0 -0.30808160252936673 0.4121977433748496 0 -0.29700674132229032 0.39540516601558717 0 -0.28209338532393202 0.38222600668133688 0 -0.27839968129949771 0.4031848713431353 0 -0.29896259310319367 0.37025807541310352 0 -0.29700674132229032 0.39540516601558717 0 -0.28209338532393202 0.38222600668133688 0 -0.27169383631612543 0.36953364855257259 0 -0.28209338532393202 0.38222600668133688 0 -0.26324903299479457 0.38988604216182182 0 -0.27839968129949771 0.4031848713431353 0 -0.26324903299479457 0.38988604216182182 0 -0.26044543261494202 0.40722350202507612 0 -0.28209338532393202 0.38222600668133688 0 -0.27839968129949771 0.4031848713431353 0 -0.26324903299479457 0.38988604216182182 0 -0.26324903299479457 0.38988604216182182 0 -0.26044543261494202 0.40722350202507612 0 -0.24448809762487089 0.40050868906775772 0 -0.25717133997193298 0.37426095615225607 0 -0.26324903299479457 0.38988604216182182 0 -0.24074374520667241 0.38242687998337299 0 -0.25717133997193298 0.37426095615225607 0 -0.27169383631612543 0.36953364855257259 0 -0.26324903299479457 0.38988604216182182 0 -0.25382358621835049 0.43542260228310259 0 -0.27015352040741047 0.42211248350195679 0 -0.2459368307481366 0.42042542405070832 0 -0.27015352040741047 0.42211248350195679 0 -0.2459368307481366 0.42042542405070832 0 -0.26044543261494202 0.40722350202507612 0 -0.2459368307481366 0.42042542405070832 0 -0.24448809762487089 0.40050868906775772 0 -0.26044543261494202 0.40722350202507612 0 -0.27015352040741047 0.42211248350195679 0 -0.2459368307481366 0.42042542405070832 0 -0.27839968129949771 0.4031848713431353 0 -0.26044543261494202 0.40722350202507612 0 -0.27015352040741047 0.42211248350195679 0 -0.27839968129949771 0.4031848713431353 0 -0.27015352040741047 0.42211248350195679 0 -0.2950508895413867 0.42055225661807089 0 -0.25382358621835049 0.43542260228310259 0 -0.27015352040741047 0.42211248350195679 0 -0.27451598641054692 0.44016370142941202 0 -0.27015352040741047 0.42211248350195679 0 -0.28251112199335982 0.43211478794536817 0 -0.27451598641054692 0.44016370142941202 0 -0.28251112199335982 0.43211478794536817 0 -0.29479601992385501 0.42382920706312738 0 -0.29069111349206073 0.44135124015641658 0 -0.29479601992385501 0.42382920706312738 0 -0.29069111349206073 0.44135124015641658 0 -0.27015352040741047 0.42211248350195679 0 -0.28251112199335982 0.43211478794536817 0 -0.29479601992385501 0.42382920706312738 0 -0.27015352040741047 0.42211248350195679 0 -0.29479601992385501 0.42382920706312738 0 -0.27015352040741047 0.42211248350195679 0 -0.29479601992385501 0.42382920706312738 0 -0.2950508895413867 0.42055225661807089 0 -0.29479601992385501 0.42382920706312738 0 -0.2950508895413867 0.42055225661807089 0 -0.29700674132229032 0.39540516601558717 0 -0.2950508895413867 0.42055225661807089 0 -0.29641605771867308 0.41403951143914192 0 -0.29700674132229032 0.39540516601558717 0 -0.27839968129949771 0.4031848713431353 0 -0.2950508895413867 0.42055225661807089 0 -0.29700674132229032 0.39540516601558717 0 -0.2950508895413867 0.42055225661807089 0 -0.2950508895413867 0.42055225661807089 0 -0.29641605771867308 0.41403951143914192 0 -0.31463215430362917 0.42521109444957261 0 -0.2950508895413867 0.42055225661807089 0 -0.30808160252936673 0.4121977433748496 0 -0.30259284054109448 0.40478096048040529 0 -0.29641605771867308 0.41403951143914192 0 -0.30808160252936673 0.4121977433748496 0 -0.2950508895413867 0.42055225661807089 0 -0.29641605771867308 0.41403951143914192 0 -0.30808160252936673 0.4121977433748496 0 -0.31463215430362917 0.42521109444957261 0 -0.29479601992385501 0.42382920706312738 0 -0.2950508895413867 0.42055225661807089 0 -0.31463215430362917 0.42521109444957261 0 -0.29479601992385501 0.42382920706312738 0 -0.30632691414132052 0.4383163993433048 0 -0.29479601992385501 0.42382920706312738 0 -0.30632691414132052 0.4383163993433048 0 -0.29069111349206073 0.44135124015641658 0 -0.31463215430362917 0.42521109444957261 0 -0.29479601992385501 0.42382920706312738 0 -0.30632691414132052 0.4383163993433048 0 -0.3106014077299023 0.45452137664490028 0 -0.31918078655937843 0.44538174228416588 0 -0.30632691414132052 0.4383163993433048 0 -0.29796494780926752 0.45236230629258078 0 -0.3106014077299023 0.45452137664490028 0 -0.30632691414132052 0.4383163993433048 0 -0.29796494780926752 0.45236230629258078 0 -0.29069111349206073 0.44135124015641658 0 -0.3106014077299023 0.45452137664490028 0 -0.30192672627001949 0.46374394226332799 0 -0.31684143562260331 0.46858494716702748 0 -0.30192672627001949 0.46374394226332799 0 -0.31684143562260331 0.46858494716702748 0 -0.29796494780926752 0.45236230629258078 0 -0.3106014077299023 0.45452137664490028 0 -0.30192672627001949 0.46374394226332799 0 -0.28701201691743577 0.45890293735962839 0 -0.28352738281579593 0.4755269213664215 0 -0.30192672627001949 0.46374394226332799 0 -0.28701201691743577 0.45890293735962839 0 -0.30030559437380339 0.47420586516231239 0 -0.30192672627001949 0.46374394226332799 0 -0.28701201691743577 0.45890293735962839 0 -0.29796494780926752 0.45236230629258078 0 -0.30192672627001949 0.46374394226332799 0 -0.28701201691743577 0.45890293735962839 0 -0.28701201691743577 0.45890293735962839 0 -0.29069111349206073 0.44135124015641658 0 -0.28701201691743577 0.45890293735962839 0 -0.29069111349206073 0.44135124015641658 0 -0.27451598641054692 0.44016370142941202 0 -0.29796494780926752 0.45236230629258078 0 -0.28701201691743577 0.45890293735962839 0 -0.29069111349206073 0.44135124015641658 0 -0.28251112199335982 0.43211478794536817 0 -0.29069111349206073 0.44135124015641658 0 -0.27451598641054692 0.44016370142941202 0 -0.28701201691743577 0.45890293735962839 0 -0.27451598641054692 0.44016370142941202 0 -0.2629045594346644 0.45107815732999917 0 -0.28701201691743577 0.45890293735962839 0 -0.2629045594346644 0.45107815732999917 0 -0.28701201691743577 0.45890293735962839 0 -0.27023974482395158 0.46466667776273851 0 -0.28352738281579593 0.4755269213664215 0 -0.28701201691743577 0.45890293735962839 0 -0.27023974482395158 0.46466667776273851 0 -0.2629045594346644 0.45107815732999917 0 -0.27023974482395158 0.46466667776273851 0 -0.2629045594346644 0.45107815732999917 0 -0.2489120775907421 0.45611132706247232 0 -0.27023974482395158 0.46466667776273851 0 -0.24576275637927339 0.47027392540463459 0 -0.2489120775907421 0.45611132706247232 0 -0.25382358621835049 0.43542260228310259 0 -0.2629045594346644 0.45107815732999917 0 -0.2387971019518931 0.44325337730036979 0 -0.2629045594346644 0.45107815732999917 0 -0.2387971019518931 0.44325337730036979 0 -0.2629045594346644 0.45107815732999917 0 -0.2387971019518931 0.44325337730036979 0 -0.2489120775907421 0.45611132706247232 0 -0.25382358621835049 0.43542260228310259 0 -0.27451598641054692 0.44016370142941202 0 -0.2629045594346644 0.45107815732999917 0 -0.26267046183496029 0.5 0 -0.26550391405888962 0.48189416376756322 0 -0.24740973726578031 0.48747235416832729 0 -0.26550391405888962 0.48189416376756322 0 -0.24576275637927339 0.47027392540463459 0 -0.24740973726578031 0.48747235416832729 0 -0.27023974482395158 0.46466667776273851 0 -0.26550391405888962 0.48189416376756322 0 -0.24576275637927339 0.47027392540463459 0 -0.27023974482395158 0.46466667776273851 0 -0.26550391405888962 0.48189416376756322 0 -0.28352738281579593 0.4755269213664215 0 -0.26550391405888962 0.48189416376756322 0 -0.28004274871415491 0.49215090537321432 0 -0.28352738281579593 0.4755269213664215 0 -0.26267046183496029 0.5 0 -0.26550391405888962 0.48189416376756322 0 -0.28004274871415491 0.49215090537321432 0 -0.26267046183496029 0.5 0 -0.28004274871415491 0.49215090537321432 0 -0.28977137280097909 0.5 0 -0.28004274871415491 0.49215090537321432 0 -0.29422506909847679 0.48481709335143458 0 -0.28977137280097909 0.5 0 -0.29422506909847679 0.48481709335143458 0 -0.28977137280097909 0.5 0 -0.30059562840125281 0.49523014277448563 0 -0.29422506909847679 0.48481709335143458 0 -0.28352738281579593 0.4755269213664215 0 -0.30030559437380339 0.47420586516231239 0 -0.28004274871415491 0.49215090537321432 0 -0.29422506909847679 0.48481709335143458 0 -0.28352738281579593 0.4755269213664215 0 -0.28701201691743577 0.45890293735962839 0 -0.28352738281579593 0.4755269213664215 0 -0.30030559437380339 0.47420586516231239 0 -0.28004274871415491 0.49215090537321432 0 -0.28352738281579593 0.4755269213664215 0 -0.30192672627001949 0.46374394226332799 0 -0.30030559437380339 0.47420586516231239 0 -0.31684143562260331 0.46858494716702748 0 -0.30030559437380339 0.47420586516231239 0 -0.3087338265938282 0.48140676030859753 0 -0.31684143562260331 0.46858494716702748 0 -0.29422506909847679 0.48481709335143458 0 -0.30030559437380339 0.47420586516231239 0 -0.3087338265938282 0.48140676030859753 0 -0.28977137280097909 0.5 0 -0.30059562840125281 0.49523014277448563 0 -0.31687228376699761 0.5 0 -0.3087338265938282 0.48140676030859753 0 -0.30059562840125281 0.49523014277448563 0 -0.32200695450955369 0.48840862565278359 0 -0.30059562840125281 0.49523014277448563 0 -0.32200695450955369 0.48840862565278359 0 -0.29422506909847679 0.48481709335143458 0 -0.3087338265938282 0.48140676030859753 0 -0.30059562840125281 0.49523014277448563 0 -0.30059562840125281 0.49523014277448563 0 -0.31687228376699761 0.5 0 -0.32200695450955369 0.48840862565278359 0 -0.31687228376699761 0.5 0 -0.32200695450955369 0.48840862565278359 0 -0.33307541777069588 0.49179723018598798 0 -0.32200695450955369 0.48840862565278359 0 -0.34341828061785462 0.48158710853108161 0 -0.32200695450955369 0.48840862565278359 0 -0.33307541777069588 0.49179723018598798 0 -0.34341828061785462 0.48158710853108161 0 -0.33307541777069588 0.49179723018598798 0 -0.34341828061785462 0.48158710853108161 0 -0.34397319473301619 0.5 0 -0.31687228376699761 0.5 0 -0.33307541777069588 0.49179723018598798 0 -0.34397319473301619 0.5 0 -0.32200695450955369 0.48840862565278359 0 -0.34341828061785462 0.48158710853108161 0 -0.32987443399239552 0.47516769423785971 0 -0.34341828061785462 0.48158710853108161 0 -0.32987443399239552 0.47516769423785971 0 -0.34602126269748001 0.46829680282094799 0 -0.32987443399239552 0.47516769423785971 0 -0.31870391104731738 0.47862303310617538 0 -0.31684143562260331 0.46858494716702748 0 -0.32200695450955369 0.48840862565278359 0 -0.32987443399239552 0.47516769423785971 0 -0.31870391104731738 0.47862303310617538 0 -0.3087338265938282 0.48140676030859753 0 -0.32200695450955369 0.48840862565278359 0 -0.31870391104731738 0.47862303310617538 0 -0.3087338265938282 0.48140676030859753 0 -0.31870391104731738 0.47862303310617538 0 -0.31684143562260331 0.46858494716702748 0 -0.31684143562260331 0.46858494716702748 0 -0.32297313966047753 0.4563916054492167 0 -0.33347739267942988 0.46163483110378051 0 -0.32987443399239552 0.47516769423785971 0 -0.31684143562260331 0.46858494716702748 0 -0.33347739267942988 0.46163483110378051 0 -0.3106014077299023 0.45452137664490028 0 -0.31684143562260331 0.46858494716702748 0 -0.32297313966047753 0.4563916054492167 0 -0.32353211865850812 0.43458959004027897 0 -0.30632691414132052 0.4383163993433048 0 -0.31918078655937843 0.44538174228416588 0 -0.3106014077299023 0.45452137664490028 0 -0.32297313966047753 0.4563916054492167 0 -0.31918078655937843 0.44538174228416588 0 -0.32297313966047753 0.4563916054492167 0 -0.31918078655937843 0.44538174228416588 0 -0.33054677899099522 0.44587833955602901 0 -0.32353211865850812 0.43458959004027897 0 -0.31918078655937843 0.44538174228416588 0 -0.33054677899099522 0.44587833955602901 0 -0.33054677899099522 0.44587833955602901 0 -0.33347739267942988 0.46163483110378051 0 -0.34964894770477822 0.45067928662270329 0 -0.33446828868340289 0.42659298183602629 0 -0.34964894770477822 0.45067928662270329 0 -0.33446828868340289 0.42659298183602629 0 -0.33054677899099522 0.44587833955602901 0 -0.34964894770477822 0.45067928662270329 0 -0.32297313966047753 0.4563916054492167 0 -0.33054677899099522 0.44587833955602901 0 -0.33347739267942988 0.46163483110378051 0 -0.33347739267942988 0.46163483110378051 0 -0.34602126269748001 0.46829680282094799 0 -0.34964894770477822 0.45067928662270329 0 -0.32987443399239552 0.47516769423785971 0 -0.33347739267942988 0.46163483110378051 0 -0.34602126269748001 0.46829680282094799 0 -0.34964894770477822 0.45067928662270329 0 -0.36482960672615539 0.47476559140937902 0 -0.34602126269748001 0.46829680282094799 0 -0.34964894770477822 0.45067928662270329 0 -0.36482960672615539 0.47476559140937902 0 -0.37388199021079188 0.43349662060099697 0 -0.35906691460358248 0.43302642702751659 0 -0.37006527051019528 0.45259743283909409 0 -0.35906691460358248 0.43302642702751659 0 -0.34964894770477822 0.45067928662270329 0 -0.37006527051019528 0.45259743283909409 0 -0.34964894770477822 0.45067928662270329 0 -0.37006527051019528 0.45259743283909409 0 -0.36482960672615539 0.47476559140937902 0 -0.39197467039505129 0.46611734068214988 0 -0.36580706476392733 0.47631646954851292 0 -0.36482960672615539 0.47476559140937902 0 -0.38413367002432852 0.48466820949397371 0 -0.36580706476392733 0.47631646954851292 0 -0.36922226322768142 0.48798439540463678 0 -0.36580706476392733 0.47631646954851292 0 -0.36482960672615539 0.47476559140937902 0 -0.36580706476392733 0.47631646954851292 0 -0.36011621247549508 0.48220740160321018 0 -0.36922226322768142 0.48798439540463678 0 -0.36580706476392733 0.47631646954851292 0 -0.36482960672615539 0.47476559140937902 0 -0.36011621247549508 0.48220740160321018 0 -0.38413367002432852 0.48466820949397371 0 -0.36922226322768142 0.48798439540463678 0 -0.37107410569903487 0.5 0 -0.36922226322768142 0.48798439540463678 0 -0.37107410569903487 0.5 0 -0.35730384704185653 0.49038344312244059 0 -0.36011621247549508 0.48220740160321018 0 -0.36922226322768142 0.48798439540463678 0 -0.35730384704185653 0.49038344312244059 0 -0.34341828061785462 0.48158710853108161 0 -0.36011621247549508 0.48220740160321018 0 -0.35730384704185653 0.49038344312244059 0 -0.37107410569903487 0.5 0 -0.35730384704185653 0.49038344312244059 0 -0.34397319473301619 0.5 0 -0.34341828061785462 0.48158710853108161 0 -0.35730384704185653 0.49038344312244059 0 -0.34397319473301619 0.5 0 -0.34341828061785462 0.48158710853108161 0 -0.36482960672615539 0.47476559140937902 0 -0.36011621247549508 0.48220740160321018 0 -0.34341828061785462 0.48158710853108161 0 -0.34602126269748001 0.46829680282094799 0 -0.36482960672615539 0.47476559140937902 0 -0.34341828061785462 0.48158710853108161 0 -0.36482960672615539 0.47476559140937902 0 -0.14108182703901029 0.47856052106912539 0 -0.15218575011213231 0.48928026053456308 0 -0.15838645381207381 0.47784012782054008 0 -0.14108182703901029 0.47856052106912539 0 -0.15141758041572639 0.46790752156545012 0 -0.15838645381207381 0.47784012782054008 0 -0.14108182703901029 0.47856052106912539 0 -0.15218575011213231 0.48928026053456308 0 -0.14103512141071931 0.48261116844817892 0 -0.14108182703901029 0.47856052106912539 0 -0.15218575011213231 0.48928026053456308 0 -0.14103512141071931 0.48261116844817892 0 -0.14108182703901029 0.47856052106912539 0 -0.15218575011213231 0.48928026053456308 0 -0.14247376316698551 0.5 0 -0.1632896731852537 0.50000000000000155 0 -0.15218575011213231 0.48928026053456308 0 -0.14247376316698551 0.5 0 -0.14194011071192181 0.49099964735320722 0 -0.14103512141071931 0.48261116844817892 0 -0.15218575011213231 0.48928026053456308 0 -0.14194011071192181 0.49099964735320722 0 -0.14247376316698551 0.5 0 -0.13206580815784999 0.49210716043008701 0 -0.1216578531487173 0.50000000000000155 0 -0.13206580815784999 0.49210716043008701 0 -0.1215246548466888 0.48036061179670092 0 -0.1216578531487173 0.50000000000000155 0 -0.14103512141071931 0.48261116844817892 0 -0.13206580815784999 0.49210716043008701 0 -0.1215246548466888 0.48036061179670092 0 -0.14103512141071931 0.48261116844817892 0 -0.14194011071192181 0.49099964735320722 0 -0.13206580815784999 0.49210716043008701 0 -0.14247376316698551 0.5 0 -0.14194011071192181 0.49099964735320722 0 -0.13206580815784999 0.49210716043008701 0 -0.14103512141071931 0.48261116844817892 0 -0.14108182703901029 0.47856052106912539 0 -0.1215246548466888 0.48036061179670092 0 -0.14108182703901029 0.47856052106912539 0 -0.11987972175203609 0.45809198546251739 0 -0.1215246548466888 0.48036061179670092 0 -0.14108182703901029 0.47856052106912539 0 -0.14131813266979709 0.45806640035822538 0 -0.11987972175203609 0.45809198546251739 0 -0.14108182703901029 0.47856052106912539 0 -0.11987972175203609 0.45809198546251739 0 -0.12509104342100061 0.44188941827772182 0 -0.14131813266979709 0.45806640035822538 0 -0.11987972175203609 0.45809198546251739 0 -0.12509104342100061 0.44188941827772182 0 -0.14155443830058789 0.43757227964732542 0 -0.14131813266979709 0.45806640035822538 0 -0.14155443830058789 0.43757227964732542 0 -0.1590732886589914 0.44456462379371309 0 -0.14157918638415079 0.43542594817740249 0 -0.1590732886589914 0.44456462379371309 0 -0.1665175895587078 0.4467511244817659 0 -0.14157918638415079 0.43542594817740249 0 -0.1665175895587078 0.4467511244817659 0 -0.15486041744653839 0.43233395996053492 0 -0.14157918638415079 0.43542594817740249 0 -0.14155443830058789 0.43757227964732542 0 -0.14890115189103559 0.44846787442591368 0 -0.1590732886589914 0.44456462379371309 0 -0.1665175895587078 0.4467511244817659 0 -0.14157918638415079 0.43542594817740249 0 -0.14155443830058789 0.43757227964732542 0 -0.14890115189103559 0.44846787442591368 0 -0.14131813266979709 0.45806640035822538 0 -0.14155443830058789 0.43757227964732542 0 -0.1590732886589914 0.44456462379371309 0 -0.14155443830058789 0.43757227964732542 0 -0.14131813266979709 0.45806640035822538 0 -0.14890115189103559 0.44846787442591368 0 -0.15489186999573309 0.45643812449532861 0 -0.1590732886589914 0.44456462379371309 0 -0.14108182703901029 0.47856052106912539 0 -0.14131813266979709 0.45806640035822538 0 -0.14108182703901029 0.47856052106912539 0 -0.14131813266979709 0.45806640035822538 0 -0.15141758041572639 0.46790752156545012 0 -0.14890115189103559 0.44846787442591368 0 -0.14131813266979709 0.45806640035822538 0 -0.15489186999573309 0.45643812449532861 0 -0.14131813266979709 0.45806640035822538 0 -0.15489186999573309 0.45643812449532861 0 -0.15141758041572639 0.46790752156545012 0 -0.15489186999573309 0.45643812449532861 0 -0.15141758041572639 0.46790752156545012 0 -0.1637083375647361 0.46571847743475431 0 -0.15489186999573309 0.45643812449532861 0 -0.1637083375647361 0.46571847743475431 0 -0.16576602081972819 0.45650349861697093 0 -0.1637083375647361 0.46571847743475431 0 -0.1745644688617857 0.46423929942095737 0 -0.17520348646433229 0.47613194070040032 0 -0.1637083375647361 0.46571847743475431 0 -0.16576602081972819 0.45650349861697093 0 -0.1745644688617857 0.46423929942095737 0 -0.1590732886589914 0.44456462379371309 0 -0.17659213901739471 0.45155696794010108 0 -0.1590732886589914 0.44456462379371309 0 -0.1665175895587078 0.4467511244817659 0 -0.17659213901739471 0.45155696794010108 0 -0.16576602081972819 0.45650349861697093 0 -0.1590732886589914 0.44456462379371309 0 -0.17659213901739471 0.45155696794010108 0 -0.1665175895587078 0.4467511244817659 0 -0.1659354897241099 0.43449929542802312 0 -0.15486041744653839 0.43233395996053492 0 -0.15489186999573309 0.45643812449532861 0 -0.16576602081972819 0.45650349861697093 0 -0.1590732886589914 0.44456462379371309 0 -0.1665175895587078 0.4467511244817659 0 -0.1740586998674569 0.43899754936367941 0 -0.1659354897241099 0.43449929542802312 0 -0.1740586998674569 0.43899754936367941 0 -0.17659213901739471 0.45155696794010108 0 -0.1868590329817707 0.43357197228301869 0 -0.1665175895587078 0.4467511244817659 0 -0.1740586998674569 0.43899754936367941 0 -0.17659213901739471 0.45155696794010108 0 -0.1745644688617857 0.46423929942095737 0 -0.18738907724301901 0.4651958722260251 0 -0.17520348646433229 0.47613194070040032 0 -0.17659213901739471 0.45155696794010108 0 -0.1745644688617857 0.46423929942095737 0 -0.18738907724301901 0.4651958722260251 0 -0.16576602081972819 0.45650349861697093 0 -0.17659213901739471 0.45155696794010108 0 -0.1745644688617857 0.46423929942095737 0 -0.17520348646433229 0.47613194070040032 0 -0.17737148462513211 0.4885994124146576 0 -0.1949767913905355 0.48049775525153071 0 -0.18738907724301901 0.4651958722260251 0 -0.17520348646433229 0.47613194070040032 0 -0.1949767913905355 0.48049775525153071 0 -0.17520348646433229 0.47613194070040032 0 -0.1660045063390565 0.48636736612135473 0 -0.17737148462513211 0.4885994124146576 0 -0.17520348646433229 0.47613194070040032 0 -0.15838645381207381 0.47784012782054008 0 -0.1660045063390565 0.48636736612135473 0 -0.1637083375647361 0.46571847743475431 0 -0.17520348646433229 0.47613194070040032 0 -0.15838645381207381 0.47784012782054008 0 -0.15141758041572639 0.46790752156545012 0 -0.1637083375647361 0.46571847743475431 0 -0.15838645381207381 0.47784012782054008 0 -0.15218575011213231 0.48928026053456308 0 -0.1632896731852537 0.50000000000000155 0 -0.15218575011213231 0.48928026053456308 0 -0.15838645381207381 0.47784012782054008 0 -0.1660045063390565 0.48636736612135473 0 -0.15218575011213231 0.48928026053456308 0 -0.1632896731852537 0.50000000000000155 0 -0.1660045063390565 0.48636736612135473 0 -0.1632896731852537 0.50000000000000155 0 -0.1660045063390565 0.48636736612135473 0 -0.17737148462513211 0.4885994124146576 0 -0.1632896731852537 0.50000000000000155 0 -0.18738296574648311 0.5 0 -0.17737148462513211 0.4885994124146576 0 -0.18738296574648311 0.5 0 -0.17737148462513211 0.4885994124146576 0 -0.1949767913905355 0.48049775525153071 0 -0.18738296574648311 0.5 0 -0.1949767913905355 0.48049775525153071 0 -0.21147625830771241 0.5 0 -0.1949767913905355 0.48049775525153071 0 -0.2193327115732171 0.47785732409434201 0 -0.2030958722774939 0.45571464818868052 0 -0.1949767913905355 0.48049775525153071 0 -0.21147625830771241 0.5 0 -0.2193327115732171 0.47785732409434201 0 -0.21147625830771241 0.5 0 -0.2193327115732171 0.47785732409434201 0 -0.23556955086894171 0.50000000000000278 0 -0.2193327115732171 0.47785732409434201 0 -0.24740973726578031 0.48747235416832729 0 -0.23556955086894171 0.50000000000000278 0 -0.2193327115732171 0.47785732409434201 0 -0.23556955086894171 0.50000000000000278 0 -0.2193327115732171 0.47785732409434201 0 -0.24576275637927339 0.47027392540463459 0 -0.24740973726578031 0.48747235416832729 0 -0.26267046183496029 0.5 0 -0.24740973726578031 0.48747235416832729 0 -0.23556955086894171 0.50000000000000278 0 -0.2387971019518931 0.44325337730036979 0 -0.2489120775907421 0.45611132706247232 0 -0.22784244863720851 0.45419089524536999 0 -0.24576275637927339 0.47027392540463459 0 -0.2489120775907421 0.45611132706247232 0 -0.22784244863720851 0.45419089524536999 0 -0.2193327115732171 0.47785732409434201 0 -0.24576275637927339 0.47027392540463459 0 -0.22784244863720851 0.45419089524536999 0 -0.2387971019518931 0.44325337730036979 0 -0.22784244863720851 0.45419089524536999 0 -0.22695118484456259 0.43760496865691229 0 -0.22784244863720851 0.45419089524536999 0 -0.22695118484456259 0.43760496865691229 0 -0.21077827595677989 0.43843038173964088 0 -0.2387971019518931 0.44325337730036979 0 -0.22695118484456259 0.43760496865691229 0 -0.23717077667227929 0.4322920750106754 0 -0.22784244863720851 0.45419089524536999 0 -0.21077827595677989 0.43843038173964088 0 -0.2030958722774939 0.45571464818868052 0 -0.2193327115732171 0.47785732409434201 0 -0.22784244863720851 0.45419089524536999 0 -0.2030958722774939 0.45571464818868052 0 -0.2193327115732171 0.47785732409434201 0 -0.2030958722774939 0.45571464818868052 0 -0.18738907724301901 0.4651958722260251 0 -0.1949767913905355 0.48049775525153071 0 -0.2030958722774939 0.45571464818868052 0 -0.17659213901739471 0.45155696794010108 0 -0.18738907724301901 0.4651958722260251 0 -0.2030958722774939 0.45571464818868052 0 -0.17659213901739471 0.45155696794010108 0 -0.2030958722774939 0.45571464818868052 0 -0.1868590329817707 0.43357197228301869 0 -0.21077827595677989 0.43843038173964088 0 -0.2030958722774939 0.45571464818868052 0 -0.1868590329817707 0.43357197228301869 0 -0.2030958722774939 0.45571464818868052 0 -0.1868590329817707 0.43357197228301869 0 -0.21077827595677989 0.43843038173964088 0 -0.20038953475864499 0.42285930103310698 0 -0.1868590329817707 0.43357197228301869 0 -0.20038953475864499 0.42285930103310698 0 -0.18865851951403981 0.41114723081592358 0 -0.1868590329817707 0.43357197228301869 0 -0.20038953475864499 0.42285930103310698 0 -0.18865851951403981 0.41114723081592358 0 -0.20316386533702549 0.40742415296633488 0 -0.20038953475864499 0.42285930103310698 0 -0.20316386533702549 0.40742415296633488 0 -0.22016732100465239 0.41985811398850509 0 -0.20316386533702549 0.40742415296633488 0 -0.22016732100465239 0.41985811398850509 0 -0.21769018938602511 0.40540249138439582 0 -0.20316386533702549 0.40742415296633488 0 -0.22016732100465239 0.41985811398850509 0 -0.21077827595677989 0.43843038173964088 0 -0.20038953475864499 0.42285930103310698 0 -0.22016732100465239 0.41985811398850509 0 -0.22695118484456259 0.43760496865691229 0 -0.22016732100465239 0.41985811398850509 0 -0.23717077667227929 0.4322920750106754 0 -0.22695118484456259 0.43760496865691229 0 -0.21077827595677989 0.43843038173964088 0 -0.22016732100465239 0.41985811398850509 0 -0.22016732100465239 0.41985811398850509 0 -0.23358788463652869 0.41983625247023992 0 -0.23717077667227929 0.4322920750106754 0 -0.22016732100465239 0.41985811398850509 0 -0.23717077667227929 0.4322920750106754 0 -0.22016732100465239 0.41985811398850509 0 -0.23115288141678619 0.40759276862782062 0 -0.21769018938602511 0.40540249138439582 0 -0.22016732100465239 0.41985811398850509 0 -0.23115288141678619 0.40759276862782062 0 -0.23358788463652869 0.41983625247023992 0 -0.23115288141678619 0.40759276862782062 0 -0.2459368307481366 0.42042542405070832 0 -0.24448809762487089 0.40050868906775772 0 -0.23115288141678619 0.40759276862782062 0 -0.23358788463652869 0.41983625247023992 0 -0.2459368307481366 0.42042542405070832 0 -0.25382358621835049 0.43542260228310259 0 -0.2459368307481366 0.42042542405070832 0 -0.23717077667227929 0.4322920750106754 0 -0.25382358621835049 0.43542260228310259 0 -0.2387971019518931 0.44325337730036979 0 -0.23717077667227929 0.4322920750106754 0 -0.23358788463652869 0.41983625247023992 0 -0.2459368307481366 0.42042542405070832 0 -0.23717077667227929 0.4322920750106754 0 -0.26324903299479457 0.38988604216182182 0 -0.24074374520667241 0.38242687998337299 0 -0.24448809762487089 0.40050868906775772 0 -0.24074374520667241 0.38242687998337299 0 -0.24448809762487089 0.40050868906775772 0 -0.22634736018434309 0.39356380059118778 0 -0.23115288141678619 0.40759276862782062 0 -0.24448809762487089 0.40050868906775772 0 -0.22634736018434309 0.39356380059118778 0 -0.23115288141678619 0.40759276862782062 0 -0.22634736018434309 0.39356380059118778 0 -0.21769018938602511 0.40540249138439582 0 -0.24074374520667241 0.38242687998337299 0 -0.22634736018434309 0.39356380059118778 0 -0.21798062289891881 0.38062313327343511 0 -0.24074374520667241 0.38242687998337299 0 -0.21798062289891881 0.38062313327343511 0 -0.22441740966967141 0.36662202833489849 0 -0.21798062289891881 0.38062313327343511 0 -0.2053182195646632 0.38898911660535768 0 -0.20402060209966261 0.36833430411321649 0 -0.22634736018434309 0.39356380059118778 0 -0.21798062289891881 0.38062313327343511 0 -0.2053182195646632 0.38898911660535768 0 -0.22634736018434309 0.39356380059118778 0 -0.2053182195646632 0.38898911660535768 0 -0.21769018938602511 0.40540249138439582 0 -0.20316386533702549 0.40742415296633488 0 -0.2053182195646632 0.38898911660535768 0 -0.21769018938602511 0.40540249138439582 0 -0.20316386533702549 0.40742415296633488 0 -0.2053182195646632 0.38898911660535768 0 -0.18616040966939809 0.39499019194416529 0 -0.20316386533702549 0.40742415296633488 0 -0.18616040966939809 0.39499019194416529 0 -0.18865851951403981 0.41114723081592358 0 -0.20316386533702549 0.40742415296633488 0 -0.18616040966939809 0.39499019194416529 0 -0.2053182195646632 0.38898911660535768 0 -0.1927326532436788 0.38193994064591369 0 -0.18616040966939809 0.39499019194416529 0 -0.2053182195646632 0.38898911660535768 0 -0.1927326532436788 0.38193994064591369 0 -0.20402060209966261 0.36833430411321649 0 -0.1927326532436788 0.38193994064591369 0 -0.18374665136976759 0.37937871402705908 0 -0.18616040966939809 0.39499019194416529 0 -0.1744309637910503 0.37769149803556362 0 -0.1642142843906749 0.3789418502636645 0 -0.1838985270783616 0.39091510453828221 0 -0.1642142843906749 0.3789418502636645 0 -0.18616040966939809 0.39499019194416529 0 -0.1838985270783616 0.39091510453828221 0 -0.1927326532436788 0.38193994064591369 0 -0.18374665136976759 0.37937871402705908 0 -0.18362379452965399 0.37004657989153639 0 -0.18374665136976759 0.37937871402705908 0 -0.1744309637910503 0.37769149803556362 0 -0.1838985270783616 0.39091510453828221 0 -0.1642142843906749 0.3789418502636645 0 -0.18616040966939809 0.39499019194416529 0 -0.18374665136976759 0.37937871402705908 0 -0.1744309637910503 0.37769149803556362 0 -0.18362379452965399 0.37004657989153639 0 -0.18374665136976759 0.37937871402705908 0 -0.18616040966939809 0.39499019194416529 0 -0.18374665136976759 0.37937871402705908 0 -0.1838985270783616 0.39091510453828221 0 -0.18374665136976759 0.37937871402705908 0 -0.18616040966939809 0.39499019194416529 0 -0.1838985270783616 0.39091510453828221 0 -0.1642142843906749 0.3789418502636645 0 -0.1639919076143399 0.3974747808383628 0 -0.1489802686125267 0.38257497248127392 0 -0.1642142843906749 0.3789418502636645 0 -0.1639919076143399 0.3974747808383628 0 -0.18616040966939809 0.39499019194416529 0 -0.1744309637910503 0.37769149803556362 0 -0.1642142843906749 0.3789418502636645 0 -0.15874130784498061 0.37213542046662212 0 -0.1639919076143399 0.3974747808383628 0 -0.17750104491285451 0.40432040146684922 0 -0.17119334285363949 0.41366940226894577 0 -0.18865851951403981 0.41114723081592358 0 -0.18616040966939809 0.39499019194416529 0 -0.18865851951403981 0.41114723081592358 0 -0.17750104491285451 0.40432040146684922 0 -0.18616040966939809 0.39499019194416529 0 -0.1639919076143399 0.3974747808383628 0 -0.17750104491285451 0.40432040146684922 0 -0.18616040966939809 0.39499019194416529 0 -0.18865851951403981 0.41114723081592358 0 -0.17750104491285451 0.40432040146684922 0 -0.17119334285363949 0.41366940226894577 0 -0.18865851951403981 0.41114723081592358 0 -0.17459283461559361 0.42601523789076512 0 -0.17119334285363949 0.41366940226894577 0 -0.18865851951403981 0.41114723081592358 0 -0.1868590329817707 0.43357197228301869 0 -0.17459283461559361 0.42601523789076512 0 -0.1740586998674569 0.43899754936367941 0 -0.1868590329817707 0.43357197228301869 0 -0.17459283461559361 0.42601523789076512 0 -0.1740586998674569 0.43899754936367941 0 -0.17459283461559361 0.42601523789076512 0 -0.1659354897241099 0.43449929542802312 0 -0.17459283461559361 0.42601523789076512 0 -0.1659354897241099 0.43449929542802312 0 -0.16085192275254509 0.42420597718500008 0 -0.1659354897241099 0.43449929542802312 0 -0.16085192275254509 0.42420597718500008 0 -0.15486041744653839 0.43233395996053492 0 -0.1639919076143399 0.3974747808383628 0 -0.17119334285363949 0.41366940226894577 0 -0.1558060921739825 0.41026488178479492 0 -0.17459283461559361 0.42601523789076512 0 -0.16085192275254509 0.42420597718500008 0 -0.17119334285363949 0.41366940226894577 0 -0.16085192275254509 0.42420597718500008 0 -0.17119334285363949 0.41366940226894577 0 -0.1558060921739825 0.41026488178479492 0 -0.1558060921739825 0.41026488178479492 0 -0.1418117271851779 0.41525834053060801 0 -0.14204426798620681 0.39509073288381358 0 -0.16085192275254509 0.42420597718500008 0 -0.1558060921739825 0.41026488178479492 0 -0.1418117271851779 0.41525834053060801 0 -0.1418117271851779 0.41525834053060801 0 -0.14157918638415079 0.43542594817740249 0 -0.16085192275254509 0.42420597718500008 0 -0.1418117271851779 0.41525834053060801 0 -0.15486041744653839 0.43233395996053492 0 -0.1418117271851779 0.41525834053060801 0 -0.15486041744653839 0.43233395996053492 0 -0.14157918638415079 0.43542594817740249 0 -0.14155443830058789 0.43757227964732542 0 -0.14157918638415079 0.43542594817740249 0 -0.14155443830058789 0.43757227964732542 0 -0.14157918638415079 0.43542594817740249 0 -0.12025274126089 0.42574105579372712 0 -0.14155443830058789 0.43757227964732542 0 -0.1161249595423428 0.42742254588607831 0 -0.14157918638415079 0.43542594817740249 0 -0.12025274126089 0.42574105579372712 0 -0.1418117271851779 0.41525834053060801 0 -0.14157918638415079 0.43542594817740249 0 -0.12025274126089 0.42574105579372712 0 -0.14155443830058789 0.43757227964732542 0 -0.12025274126089 0.42574105579372712 0 -0.1161249595423428 0.42742254588607831 0 -0.12509104342100061 0.44188941827772182 0 -0.14155443830058789 0.43757227964732542 0 -0.1161249595423428 0.42742254588607831 0 -0.1418117271851779 0.41525834053060801 0 -0.1277268958593005 0.40709158096490278 0 -0.12025274126089 0.42574105579372712 0 -0.1418117271851779 0.41525834053060801 0 -0.1277268958593005 0.40709158096490278 0 -0.14204426798620681 0.39509073288381358 0 -0.1277268958593005 0.40709158096490278 0 -0.14204426798620681 0.39509073288381358 0 -0.1224972888069677 0.39405447109156733 0 -0.13238272395945991 0.37847398983736519 0 -0.1224972888069677 0.39405447109156733 0 -0.13238272395945991 0.37847398983736519 0 -0.14204426798620681 0.39509073288381358 0 -0.1224972888069677 0.39405447109156733 0 -0.13238272395945991 0.37847398983736519 0 -0.1489802686125267 0.38257497248127392 0 -0.14204426798620681 0.39509073288381358 0 -0.1639919076143399 0.3974747808383628 0 -0.1558060921739825 0.41026488178479492 0 -0.14204426798620681 0.39509073288381358 0 -0.1639919076143399 0.3974747808383628 0 -0.1489802686125267 0.38257497248127392 0 -0.14204426798620681 0.39509073288381358 0 -0.1418117271851779 0.41525834053060801 0 -0.14204426798620681 0.39509073288381358 0 -0.15552397359905151 0.35856797270850038 0 -0.1422681591119519 0.36289350858316322 0 -0.15574239997404821 0.34165669361972989 0 -0.1422681591119519 0.36289350858316322 0 -0.15574239997404821 0.34165669361972989 0 -0.13774544015442541 0.3595862213862932 0 -0.1344905665345571 0.34689990383467079 0 -0.15574239997404821 0.34165669361972989 0 -0.1422681591119519 0.36289350858316322 0 -0.13774544015442541 0.3595862213862932 0 -0.15574239997404821 0.34165669361972989 0 -0.1642142843906749 0.3789418502636645 0 -0.1422681591119519 0.36289350858316322 0 -0.13238272395945991 0.37847398983736519 0 -0.1489802686125267 0.38257497248127392 0 -0.1422681591119519 0.36289350858316322 0 -0.1642142843906749 0.3789418502636645 0 -0.1422681591119519 0.36289350858316322 0 -0.15874130784498061 0.37213542046662212 0 -0.1642142843906749 0.3789418502636645 0 -0.1489802686125267 0.38257497248127392 0 -0.1422681591119519 0.36289350858316322 0 -0.15552397359905151 0.35856797270850038 0 -0.1422681591119519 0.36289350858316322 0 -0.15874130784498061 0.37213542046662212 0 -0.1422681591119519 0.36289350858316322 0 -0.13774544015442541 0.3595862213862932 0 -0.12881796099468981 0.36725667352730101 0 -0.13238272395945991 0.37847398983736519 0 -0.12881796099468981 0.36725667352730101 0 -0.114951385737499 0.37611001703161828 0 -0.1422681591119519 0.36289350858316322 0 -0.13774544015442541 0.3595862213862932 0 -0.13238272395945991 0.37847398983736519 0 -0.1422681591119519 0.36289350858316322 0 -0.13238272395945991 0.37847398983736519 0 -0.1422681591119519 0.36289350858316322 0 -0.12881796099468981 0.36725667352730101 0 -0.13774544015442541 0.3595862213862932 0 -0.12881796099468981 0.36725667352730101 0 -0.13085154266849261 0.35745626259395852 0 -0.12881796099468981 0.36725667352730101 0 -0.13085154266849261 0.35745626259395852 0 -0.1223522029902982 0.35608225162756879 0 -0.13085154266849261 0.35745626259395852 0 -0.1344905665345571 0.34689990383467079 0 -0.1223522029902982 0.35608225162756879 0 -0.1344905665345571 0.34689990383467079 0 -0.1215793900664241 0.33965542352680428 0 -0.1223522029902982 0.35608225162756879 0 -0.13774544015442541 0.3595862213862932 0 -0.13085154266849261 0.35745626259395852 0 -0.1344905665345571 0.34689990383467079 0 -0.13871584827508379 0.32805163350527011 0 -0.1213981112161233 0.32606083512094008 0 -0.1215793900664241 0.33965542352680428 0 -0.1344905665345571 0.34689990383467079 0 -0.13871584827508379 0.32805163350527011 0 -0.1215793900664241 0.33965542352680428 0 -0.13871584827508379 0.32805163350527011 0 -0.122665507124936 0.30739316482981133 0 -0.1213981112161233 0.32606083512094008 0 -0.13871584827508379 0.32805163350527011 0 -0.1433184724342442 0.30536206331891741 0 -0.122665507124936 0.30739316482981133 0 -0.13871584827508379 0.32805163350527011 0 -0.1692166408361446 0.32041987865629651 0 -0.1433184724342442 0.30536206331891741 0 -0.1344905665345571 0.34689990383467079 0 -0.13871584827508379 0.32805163350527011 0 -0.15574239997404821 0.34165669361972989 0 -0.13871584827508379 0.32805163350527011 0 -0.15574239997404821 0.34165669361972989 0 -0.1692166408361446 0.32041987865629651 0 -0.15574239997404821 0.34165669361972989 0 -0.16882657531294051 0.33343050367394028 0 -0.16727942812343491 0.34541839291957183 0 -0.16882657531294051 0.33343050367394028 0 -0.1740652221397718 0.31676208059972089 0 -0.17253785706623809 0.33742704001517521 0 -0.15574239997404821 0.34165669361972989 0 -0.1692166408361446 0.32041987865629651 0 -0.15574239997404821 0.34165669361972989 0 -0.16882657531294051 0.33343050367394028 0 -0.1692166408361446 0.32041987865629651 0 -0.17253785706623809 0.33742704001517521 0 -0.17248005025835489 0.34536210115862542 0 -0.16727942812343491 0.34541839291957183 0 -0.16882657531294051 0.33343050367394028 0 -0.17253785706623809 0.33742704001517521 0 -0.16727942812343491 0.34541839291957183 0 -0.16882657531294051 0.33343050367394028 0 -0.1692166408361446 0.32041987865629651 0 -0.1740652221397718 0.31676208059972089 0 -0.18300185264204469 0.32280423575908729 0 -0.1740652221397718 0.31676208059972089 0 -0.17819295282042311 0.34345902717413063 0 -0.18300185264204469 0.32280423575908729 0 -0.1740652221397718 0.31676208059972089 0 -0.18269088169824049 0.29918306369286279 0 -0.18300185264204469 0.32280423575908729 0 -0.17819295282042311 0.34345902717413063 0 -0.18331282358584941 0.34642540782531189 0 -0.1740652221397718 0.31676208059972089 0 -0.17819295282042311 0.34345902717413063 0 -0.1740652221397718 0.31676208059972089 0 -0.17253785706623809 0.33742704001517521 0 -0.17819295282042311 0.34345902717413063 0 -0.18300185264204469 0.32280423575908729 0 -0.18331282358584941 0.34642540782531189 0 -0.17253785706623809 0.33742704001517521 0 -0.17819295282042311 0.34345902717413063 0 -0.17248005025835489 0.34536210115862542 0 -0.17819295282042311 0.34345902717413063 0 -0.17266476351591969 0.35237730914779941 0 -0.18362379452965399 0.37004657989153639 0 -0.17819295282042311 0.34345902717413063 0 -0.18331282358584941 0.34642540782531189 0 -0.18362379452965399 0.37004657989153639 0 -0.17819295282042311 0.34345902717413063 0 -0.18362379452965399 0.37004657989153639 0 -0.18331282358584941 0.34642540782531189 0 -0.18362379452965399 0.37004657989153639 0 -0.19396205315185269 0.35773027909378607 0 -0.18331282358584941 0.34642540782531189 0 -0.18362379452965399 0.37004657989153639 0 -0.17819295282042311 0.34345902717413063 0 -0.17266476351591969 0.35237730914779941 0 -0.17248005025835489 0.34536210115862542 0 -0.17266476351591969 0.35237730914779941 0 -0.16727942812343491 0.34541839291957183 0 -0.16404697378228 0.35342911006401911 0 -0.15552397359905151 0.35856797270850038 0 -0.15574239997404821 0.34165669361972989 0 -0.16404697378228 0.35342911006401911 0 -0.17266476351591969 0.35237730914779941 0 -0.17248005025835489 0.34536210115862542 0 -0.16727942812343491 0.34541839291957183 0 -0.17266476351591969 0.35237730914779941 0 -0.1697011683865553 0.35883091161224728 0 -0.16404697378228 0.35342911006401911 0 -0.1697011683865553 0.35883091161224728 0 -0.16404697378228 0.35342911006401911 0 -0.1633701090946704 0.36372338037626623 0 -0.15552397359905151 0.35856797270850038 0 -0.16404697378228 0.35342911006401911 0 -0.1633701090946704 0.36372338037626623 0 -0.15574239997404821 0.34165669361972989 0 -0.16727942812343491 0.34541839291957183 0 -0.16404697378228 0.35342911006401911 0 -0.15874130784498061 0.37213542046662212 0 -0.18362379452965399 0.37004657989153639 0 -0.15874130784498061 0.37213542046662212 0 -0.1633701090946704 0.36372338037626623 0 -0.18362379452965399 0.37004657989153639 0 -0.15552397359905151 0.35856797270850038 0 -0.15874130784498061 0.37213542046662212 0 -0.1633701090946704 0.36372338037626623 0 -0.17266476351591969 0.35237730914779941 0 -0.1697011683865553 0.35883091161224728 0 -0.18362379452965399 0.37004657989153639 0 -0.1697011683865553 0.35883091161224728 0 -0.1633701090946704 0.36372338037626623 0 -0.18362379452965399 0.37004657989153639 0 -0.1744309637910503 0.37769149803556362 0 -0.15874130784498061 0.37213542046662212 0 -0.18362379452965399 0.37004657989153639 0 -0.18374665136976759 0.37937871402705908 0 -0.18362379452965399 0.37004657989153639 0 -0.1927326532436788 0.38193994064591369 0 -0.18362379452965399 0.37004657989153639 0 -0.20402060209966261 0.36833430411321649 0 -0.18362379452965399 0.37004657989153639 0 -0.20402060209966261 0.36833430411321649 0 -0.18362379452965399 0.37004657989153639 0 -0.19396205315185269 0.35773027909378607 0 -0.20402060209966261 0.36833430411321649 0 -0.19396205315185269 0.35773027909378607 0 -0.208999317395312 0.3446492875548014 0 -0.20402060209966261 0.36833430411321649 0 -0.18331282358584941 0.34642540782531189 0 -0.19396205315185269 0.35773027909378607 0 -0.208999317395312 0.3446492875548014 0 -0.208999317395312 0.3446492875548014 0 -0.20402060209966261 0.36833430411321649 0 -0.22441740966967141 0.36662202833489849 0 -0.20402060209966261 0.36833430411321649 0 -0.22441740966967141 0.36662202833489849 0 -0.21798062289891881 0.38062313327343511 0 -0.20402060209966261 0.36833430411321649 0 -0.22441740966967141 0.36662202833489849 0 -0.208999317395312 0.3446492875548014 0 -0.23479591562654789 0.35148704487088239 0 -0.2313273246892763 0.33558392302215828 0 -0.208999317395312 0.3446492875548014 0 -0.22441740966967141 0.36662202833489849 0 -0.23479591562654789 0.35148704487088239 0 -0.25002058798003007 0.3320526588471332 0 -0.26243222306204511 0.35090504016953772 0 -0.23479591562654789 0.35148704487088239 0 -0.26243222306204511 0.35090504016953772 0 -0.23479591562654789 0.35148704487088239 0 -0.24481421723968019 0.36490975255658048 0 -0.22441740966967141 0.36662202833489849 0 -0.24481421723968019 0.36490975255658048 0 -0.24074374520667241 0.38242687998337299 0 -0.22441740966967141 0.36662202833489849 0 -0.24481421723968019 0.36490975255658048 0 -0.22441740966967141 0.36662202833489849 0 -0.23479591562654789 0.35148704487088239 0 -0.24481421723968019 0.36490975255658048 0 -0.25717133997193298 0.37426095615225607 0 -0.24074374520667241 0.38242687998337299 0 -0.24481421723968019 0.36490975255658048 0 -0.25616918259472732 0.30236015827283808 0 -0.25002058798003007 0.3320526588471332 0 -0.23403114015321011 0.31709209002172778 0 -0.25002058798003007 0.3320526588471332 0 -0.23479591562654789 0.35148704487088239 0 -0.2313273246892763 0.33558392302215828 0 -0.25002058798003007 0.3320526588471332 0 -0.2313273246892763 0.33558392302215828 0 -0.23403114015321011 0.31709209002172778 0 -0.208999317395312 0.3446492875548014 0 -0.2313273246892763 0.33558392302215828 0 -0.21850591254547599 0.32628872173457818 0 -0.23403114015321011 0.31709209002172778 0 -0.21850591254547599 0.32628872173457818 0 -0.21603293622121081 0.30879617143541382 0 -0.2313273246892763 0.33558392302215828 0 -0.23403114015321011 0.31709209002172778 0 -0.21850591254547599 0.32628872173457818 0 -0.21850591254547599 0.32628872173457818 0 -0.20213884426837089 0.32532213663878978 0 -0.21603293622121081 0.30879617143541382 0 -0.20213884426837089 0.32532213663878978 0 -0.19725183072938909 0.30509230858372249 0 -0.21603293622121081 0.30879617143541382 0 -0.208999317395312 0.3446492875548014 0 -0.21850591254547599 0.32628872173457818 0 -0.20213884426837089 0.32532213663878978 0 -0.18331282358584941 0.34642540782531189 0 -0.208999317395312 0.3446492875548014 0 -0.20213884426837089 0.32532213663878978 0 -0.18300185264204469 0.32280423575908729 0 -0.18331282358584941 0.34642540782531189 0 -0.20213884426837089 0.32532213663878978 0 -0.18300185264204469 0.32280423575908729 0 -0.20213884426837089 0.32532213663878978 0 -0.19725183072938909 0.30509230858372249 0 -0.19725183072938909 0.30509230858372249 0 -0.1906964717749009 0.28656541518329992 0 -0.18269088169824049 0.29918306369286279 0 -0.18300185264204469 0.32280423575908729 0 -0.19725183072938909 0.30509230858372249 0 -0.18269088169824049 0.29918306369286279 0 -0.19725183072938909 0.30509230858372249 0 -0.1906964717749009 0.28656541518329992 0 -0.20894999777156681 0.28788282879288141 0 -0.1906964717749009 0.28656541518329992 0 -0.20894999777156681 0.28788282879288141 0 -0.19560748054403571 0.27391850694798181 0 -0.19725183072938909 0.30509230858372249 0 -0.20894999777156681 0.28788282879288141 0 -0.21603293622121081 0.30879617143541382 0 -0.20894999777156681 0.28788282879288141 0 -0.21603293622121081 0.30879617143541382 0 -0.23010937568771669 0.29589673977315029 0 -0.23403114015321011 0.31709209002172778 0 -0.21603293622121081 0.30879617143541382 0 -0.23010937568771669 0.29589673977315029 0 -0.20894999777156681 0.28788282879288141 0 -0.23010937568771669 0.29589673977315029 0 -0.2234747025956966 0.27824585991597089 0 -0.23010937568771669 0.29589673977315029 0 -0.24190471242523851 0.27972751922608308 0 -0.2234747025956966 0.27824585991597089 0 -0.25616918259472732 0.30236015827283808 0 -0.24190471242523851 0.27972751922608308 0 -0.25616918259472732 0.30236015827283808 0 -0.23010937568771669 0.29589673977315029 0 -0.24190471242523851 0.27972751922608308 0 -0.25616918259472732 0.30236015827283808 0 -0.23403114015321011 0.31709209002172778 0 -0.23010937568771669 0.29589673977315029 0 -0.24943129659764751 0.26000894523212309 0 -0.24190471242523851 0.27972751922608308 0 -0.22764024225575111 0.25709488017932702 0 -0.22764024225575111 0.25709488017932702 0 -0.2468893326351202 0.24329134098969171 0 -0.24943129659764751 0.26000894523212309 0 -0.22764024225575111 0.25709488017932702 0 -0.2468893326351202 0.24329134098969171 0 -0.24190471242523851 0.27972751922608308 0 -0.22764024225575111 0.25709488017932702 0 -0.24190471242523851 0.27972751922608308 0 -0.2234747025956966 0.27824585991597089 0 -0.22764024225575111 0.25709488017932702 0 -0.2234747025956966 0.27824585991597089 0 -0.22764024225575111 0.25709488017932702 0 -0.20876918483820989 0.27062733160841262 0 -0.22764024225575111 0.25709488017932702 0 -0.21239874098331929 0.25437807278244762 0 -0.20876918483820989 0.27062733160841262 0 -0.22764024225575111 0.25709488017932702 0 -0.20876918483820989 0.27062733160841262 0 -0.21239874098331929 0.25437807278244762 0 -0.20876918483820989 0.27062733160841262 0 -0.2025020270240801 0.26019521754276942 0 -0.21239874098331929 0.25437807278244762 0 -0.2025020270240801 0.26019521754276942 0 -0.2046840695697589 0.2451395929661444 0 -0.20894999777156681 0.28788282879288141 0 -0.2234747025956966 0.27824585991597089 0 -0.20876918483820989 0.27062733160841262 0 -0.20894999777156681 0.28788282879288141 0 -0.20876918483820989 0.27062733160841262 0 -0.19560748054403571 0.27391850694798181 0 -0.19560748054403571 0.27391850694798181 0 -0.18940688912330481 0.25610334311205268 0 -0.18232207730982461 0.27116889680334472 0 -0.20876918483820989 0.27062733160841262 0 -0.19560748054403571 0.27391850694798181 0 -0.2025020270240801 0.26019521754276942 0 -0.1906964717749009 0.28656541518329992 0 -0.19560748054403571 0.27391850694798181 0 -0.18232207730982461 0.27116889680334472 0 -0.19560748054403571 0.27391850694798181 0 -0.2025020270240801 0.26019521754276942 0 -0.18940688912330481 0.25610334311205268 0 -0.2025020270240801 0.26019521754276942 0 -0.18940688912330481 0.25610334311205268 0 -0.2046840695697589 0.2451395929661444 0 -0.18940688912330481 0.25610334311205268 0 -0.17508206900779469 0.25918785244088571 0 -0.18195408303730121 0.23534357450296481 0 -0.18940688912330481 0.25610334311205268 0 -0.17508206900779469 0.25918785244088571 0 -0.18232207730982461 0.27116889680334472 0 -0.16225317791305921 0.25358582624422438 0 -0.1601147340924314 0.27132493958040771 0 -0.14746997276257359 0.25293699741112718 0 -0.17508206900779469 0.25918785244088571 0 -0.16225317791305921 0.25358582624422438 0 -0.1601147340924314 0.27132493958040771 0 -0.1601147340924314 0.27132493958040771 0 -0.18232207730982461 0.27116889680334472 0 -0.1715163911286523 0.28419500503467149 0 -0.17508206900779469 0.25918785244088571 0 -0.1601147340924314 0.27132493958040771 0 -0.18232207730982461 0.27116889680334472 0 -0.1906964717749009 0.28656541518329992 0 -0.18232207730982461 0.27116889680334472 0 -0.18269088169824049 0.29918306369286279 0 -0.18232207730982461 0.27116889680334472 0 -0.18269088169824049 0.29918306369286279 0 -0.1715163911286523 0.28419500503467149 0 -0.18232207730982461 0.27116889680334472 0 -0.18269088169824049 0.29918306369286279 0 -0.1906964717749009 0.28656541518329992 0 -0.18269088169824049 0.29918306369286279 0 -0.18300185264204469 0.32280423575908729 0 -0.18269088169824049 0.29918306369286279 0 -0.1692166408361446 0.32041987865629651 0 -0.18269088169824049 0.29918306369286279 0 -0.1692166408361446 0.32041987865629651 0 -0.1740652221397718 0.31676208059972089 0 -0.18269088169824049 0.29918306369286279 0 -0.1692166408361446 0.32041987865629651 0 -0.16093787141411231 0.2951031200620709 0 -0.1433184724342442 0.30536206331891741 0 -0.1692166408361446 0.32041987865629651 0 -0.18269088169824049 0.29918306369286279 0 -0.16093787141411231 0.2951031200620709 0 -0.18269088169824049 0.29918306369286279 0 -0.1715163911286523 0.28419500503467149 0 -0.16093787141411231 0.2951031200620709 0 -0.1601147340924314 0.27132493958040771 0 -0.1715163911286523 0.28419500503467149 0 -0.16093787141411231 0.2951031200620709 0 -0.1601147340924314 0.27132493958040771 0 -0.16093787141411231 0.2951031200620709 0 -0.140940242444347 0.28770890845956881 0 -0.16093787141411231 0.2951031200620709 0 -0.140940242444347 0.28770890845956881 0 -0.16093787141411231 0.2951031200620709 0 -0.140940242444347 0.28770890845956881 0 -0.1433184724342442 0.30536206331891741 0 -0.1433184724342442 0.30536206331891741 0 -0.12743472451084159 0.29349567440048657 0 -0.122665507124936 0.30739316482981133 0 -0.140940242444347 0.28770890845956881 0 -0.1433184724342442 0.30536206331891741 0 -0.12743472451084159 0.29349567440048657 0 -0.140940242444347 0.28770890845956881 0 -0.1209426134745812 0.28031469685706822 0 -0.140940242444347 0.28770890845956881 0 -0.12743472451084159 0.29349567440048657 0 -0.1209426134745812 0.28031469685706822 0 -0.140940242444347 0.28770890845956881 0 -0.12748957136376979 0.2697364722205553 0 -0.1209426134745812 0.28031469685706822 0 -0.140940242444347 0.28770890845956881 0 -0.1385418352730507 0.26582091200169278 0 -0.12748957136376979 0.2697364722205553 0 -0.1385418352730507 0.26582091200169278 0 -0.1252623291810667 0.25912953992318971 0 -0.13357218109292621 0.2499317644564327 0 -0.1385418352730507 0.26582091200169278 0 -0.14746997276257359 0.25293699741112718 0 -0.13357218109292621 0.2499317644564327 0 -0.1385418352730507 0.26582091200169278 0 -0.12748957136376979 0.2697364722205553 0 -0.1252623291810667 0.25912953992318971 0 -0.1252623291810667 0.25912953992318971 0 -0.13357218109292621 0.2499317644564327 0 -0.1213089330464012 0.24626659804535689 0 -0.1601147340924314 0.27132493958040771 0 -0.1385418352730507 0.26582091200169278 0 -0.14746997276257359 0.25293699741112718 0 -0.1601147340924314 0.27132493958040771 0 -0.140940242444347 0.28770890845956881 0 -0.1385418352730507 0.26582091200169278 0 -0.095230237001734636 0.27080743213428882 0 -0.101831548476812 0.26048951589785008 0 -0.1165241005361865 0.26558405137515151 0 -0.095230237001734636 0.27080743213428882 0 -0.1209426134745812 0.28031469685706822 0 -0.095230237001734636 0.27080743213428882 0 -0.101831548476812 0.26048951589785008 0 -0.101831548476812 0.26048951589785008 0 -0.112097455783086 0.24444379951602521 0 -0.096974545082976191 0.25880538532589209 0 -0.101831548476812 0.26048951589785008 0 -0.112097455783086 0.24444379951602521 0 -0.095230237001734636 0.27080743213428882 0 -0.096974545082976191 0.25880538532589209 0 -0.101831548476812 0.26048951589785008 0 -0.096974545082976191 0.25880538532589209 0 -0.101831548476812 0.26048951589785008 0 -0.101831548476812 0.26048951589785008 0 -0.1165241005361865 0.26558405137515151 0 -0.101831548476812 0.26048951589785008 0 -0.11521273165378559 0.25497892835963998 0 -0.112097455783086 0.24444379951602521 0 -0.101831548476812 0.26048951589785008 0 -0.1165241005361865 0.26558405137515151 0 -0.11521273165378559 0.25497892835963998 0 -0.1252623291810667 0.25912953992318971 0 -0.11521273165378559 0.25497892835963998 0 -0.1213089330464012 0.24626659804535689 0 -0.12748957136376979 0.2697364722205553 0 -0.1252623291810667 0.25912953992318971 0 -0.1165241005361865 0.26558405137515151 0 -0.1252623291810667 0.25912953992318971 0 -0.1165241005361865 0.26558405137515151 0 -0.11521273165378559 0.25497892835963998 0 -0.12748957136376979 0.2697364722205553 0 -0.1165241005361865 0.26558405137515151 0 -0.11826192468166601 0.27279143104315778 0 -0.095230237001734636 0.27080743213428882 0 -0.1165241005361865 0.26558405137515151 0 -0.11826192468166601 0.27279143104315778 0 -0.095230237001734636 0.27080743213428882 0 -0.11826192468166601 0.27279143104315778 0 -0.1209426134745812 0.28031469685706822 0 -0.12748957136376979 0.2697364722205553 0 -0.11826192468166601 0.27279143104315778 0 -0.1209426134745812 0.28031469685706822 0 -0.1209426134745812 0.28031469685706822 0 -0.099156256926613839 0.29556062278638268 0 -0.12743472451084159 0.29349567440048657 0 -0.1209426134745812 0.28031469685706822 0 -0.099156256926613839 0.29556062278638268 0 -0.12743472451084159 0.29349567440048657 0 -0.122665507124936 0.30739316482981133 0 -0.099156256926613839 0.29556062278638268 0 -0.1041414057358224 0.31201579539373148 0 -0.099156256926613839 0.29556062278638268 0 -0.091673901452025128 0.31746800270450398 0 -0.122665507124936 0.30739316482981133 0 -0.1041414057358224 0.31201579539373148 0 -0.099156256926613839 0.29556062278638268 0 -0.095230237001734636 0.27080743213428882 0 -0.1209426134745812 0.28031469685706822 0 -0.099156256926613839 0.29556062278638268 0 -0.081993310338176556 0.29149688165626692 0 -0.071574905525993715 0.28647654560898889 0 -0.088307373389434785 0.26824767274871397 0 -0.095230237001734636 0.27080743213428882 0 -0.099156256926613839 0.29556062278638268 0 -0.081993310338176556 0.29149688165626692 0 -0.099156256926613839 0.29556062278638268 0 -0.0773699003786468 0.31080654871569757 0 -0.091673901452025128 0.31746800270450398 0 -0.099156256926613839 0.29556062278638268 0 -0.0773699003786468 0.31080654871569757 0 -0.081993310338176556 0.29149688165626692 0 -0.0773699003786468 0.31080654871569757 0 -0.099156256926613839 0.29556062278638268 0 -0.081993310338176556 0.29149688165626692 0 -0.0773699003786468 0.31080654871569757 0 -0.081993310338176556 0.29149688165626692 0 -0.0773699003786468 0.31080654871569757 0 -0.07000108740115632 0.31024084673351238 0 -0.081993310338176556 0.29149688165626692 0 -0.07000108740115632 0.31024084673351238 0 -0.07082691849754412 0.29686868922251758 0 -0.081993310338176556 0.29149688165626692 0 -0.07000108740115632 0.31024084673351238 0 -0.06406362287003417 0.30105685935529619 0 -0.07000108740115632 0.31024084673351238 0 -0.07082691849754412 0.29686868922251758 0 -0.06406362287003417 0.30105685935529619 0 -0.07000108740115632 0.31024084673351238 0 -0.05903493703298672 0.30842013861035528 0 -0.081993310338176556 0.29149688165626692 0 -0.071574905525993715 0.28647654560898889 0 -0.07082691849754412 0.29686868922251758 0 -0.071574905525993715 0.28647654560898889 0 -0.07082691849754412 0.29686868922251758 0 -0.064150197611200194 0.29028153745804169 0 -0.06406362287003417 0.30105685935529619 0 -0.07082691849754412 0.29686868922251758 0 -0.064150197611200194 0.29028153745804169 0 -0.071574905525993715 0.28647654560898889 0 -0.064150197611200194 0.29028153745804169 0 -0.066272470786091969 0.27951596978905408 0 -0.066272470786091969 0.27951596978905408 0 -0.064867048676514966 0.26815492676469338 0 -0.075116873927680253 0.27479103085629453 0 -0.066272470786091969 0.27951596978905408 0 -0.064867048676514966 0.26815492676469338 0 -0.056753075498150757 0.28085207326825551 0 -0.064867048676514966 0.26815492676469338 0 -0.075116873927680253 0.27479103085629453 0 -0.074399806026204385 0.26466482186588819 0 -0.075116873927680253 0.27479103085629453 0 -0.079975847673146208 0.26885948770409202 0 -0.074399806026204385 0.26466482186588819 0 -0.071574905525993715 0.28647654560898889 0 -0.066272470786091969 0.27951596978905408 0 -0.075116873927680253 0.27479103085629453 0 -0.095230237001734636 0.27080743213428882 0 -0.081993310338176556 0.29149688165626692 0 -0.095230237001734636 0.27080743213428882 0 -0.081993310338176556 0.29149688165626692 0 -0.088307373389434785 0.26824767274871397 0 -0.071574905525993715 0.28647654560898889 0 -0.088307373389434785 0.26824767274871397 0 -0.071574905525993715 0.28647654560898889 0 -0.075116873927680253 0.27479103085629453 0 -0.088307373389434785 0.26824767274871397 0 -0.079975847673146208 0.26885948770409202 0 -0.084329260359261832 0.26677674789216088 0 -0.074399806026204385 0.26466482186588819 0 -0.075116873927680253 0.27479103085629453 0 -0.079975847673146208 0.26885948770409202 0 -0.088307373389434785 0.26824767274871397 0 -0.079975847673146208 0.26885948770409202 0 -0.084329260359261832 0.26677674789216088 0 -0.088307373389434785 0.26824767274871397 0 -0.095230237001734636 0.27080743213428882 0 -0.096974545082976191 0.25880538532589209 0 -0.088307373389434785 0.26824767274871397 0 -0.084329260359261832 0.26677674789216088 0 -0.088307373389434785 0.26824767274871397 0 -0.095230237001734636 0.27080743213428882 0 -0.088307373389434785 0.26824767274871397 0 -0.096974545082976191 0.25880538532589209 0 -0.073553522625709841 0.25068431627396631 0 -0.088715331182393942 0.2449718195011524 0 -0.096974545082976191 0.25880538532589209 0 -0.084329260359261832 0.26677674789216088 0 -0.073553522625709841 0.25068431627396631 0 -0.096974545082976191 0.25880538532589209 0 -0.073553522625709841 0.25068431627396631 0 -0.096974545082976191 0.25880538532589209 0 -0.088307373389434785 0.26824767274871397 0 -0.096974545082976191 0.25880538532589209 0 -0.084329260359261832 0.26677674789216088 0 -0.088307373389434785 0.26824767274871397 0 -0.084329260359261832 0.26677674789216088 0 -0.073553522625709841 0.25068431627396631 0 -0.074399806026204385 0.26466482186588819 0 -0.064867048676514966 0.26815492676469338 0 -0.073553522625709841 0.25068431627396631 0 -0.050450936449665702 0.26047062327699849 0 -0.064867048676514966 0.26815492676469338 0 -0.073553522625709841 0.25068431627396631 0 -0.074399806026204385 0.26466482186588819 0 -0.073553522625709841 0.25068431627396631 0 -0.050450936449665702 0.26047062327699849 0 -0.050132500168443887 0.2425632472220397 0 -0.064867048676514966 0.26815492676469338 0 -0.050450936449665702 0.26047062327699849 0 -0.056753075498150757 0.28085207326825551 0 -0.050450936449665702 0.26047062327699849 0 -0.056753075498150757 0.28085207326825551 0 -0.041567118232982071 0.28155035039042642 0 -0.050450936449665702 0.26047062327699849 0 -0.032664289439585513 0.26886008103247921 0 -0.041567118232982071 0.28155035039042642 0 -0.032664289439585513 0.26886008103247921 0 -0.025724023578003428 0.28484302527062832 0 -0.041567118232982071 0.28155035039042642 0 -0.050450936449665702 0.26047062327699849 0 -0.032664289439585513 0.26886008103247921 0 -0.029881977245259539 0.25372898958001938 0 -0.050450936449665702 0.26047062327699849 0 -0.029881977245259539 0.25372898958001938 0 -0.050132500168443887 0.2425632472220397 0 -0.029881977245259539 0.25372898958001938 0 -0.019473314891880141 0.26767922737850353 0 -0.0082457657602449386 0.25246627485226031 0 -0.032664289439585513 0.26886008103247921 0 -0.029881977245259539 0.25372898958001938 0 -0.019473314891880141 0.26767922737850353 0 -0.019473314891880141 0.26767922737850353 0 -0.0042610585373493576 0.2771562680236046 0 -0.025724023578003428 0.28484302527062832 0 -0.032664289439585513 0.26886008103247921 0 -0.019473314891880141 0.26767922737850353 0 -0.025724023578003428 0.28484302527062832 0 -0.019473314891880141 0.26767922737850353 0 -0.0042610585373493576 0.2771562680236046 0 -0.0082457657602449386 0.25246627485226031 0 -0.0042610585373493576 0.2771562680236046 0 -0.0082457657602449386 0.25246627485226031 0 0.0071094060709509964 0.26564087220093879 0 -0.0069555348311276686 0.31079851600377723 0 -0.00058836015198596755 0.32088344941533808 0 0.0054341821912287152 0.30403492879740468 0 -0.013098506886936411 0.29875518722530359 0 -0.0069555348311276686 0.31079851600377723 0 0.0054341821912287152 0.30403492879740468 0 -0.013098506886936411 0.29875518722530359 0 -0.0069555348311276686 0.31079851600377723 0 -0.020687787070248039 0.31403805852116051 0 -0.0042610585373493576 0.2771562680236046 0 -0.013098506886936411 0.29875518722530359 0 -0.025724023578003428 0.28484302527062832 0 -0.0042610585373493576 0.2771562680236046 0 -0.013098506886936411 0.29875518722530359 0 0.0054341821912287152 0.30403492879740468 0 -0.013098506886936411 0.29875518722530359 0 -0.025724023578003428 0.28484302527062832 0 -0.02904570801181227 0.30414560716861699 0 -0.013098506886936411 0.29875518722530359 0 -0.02904570801181227 0.30414560716861699 0 -0.020687787070248039 0.31403805852116051 0 -0.02904570801181227 0.30414560716861699 0 -0.034308890996313193 0.31619803717231232 0 -0.020687787070248039 0.31403805852116051 0 -0.02904570801181227 0.30414560716861699 0 -0.04581664775108537 0.30961879620062571 0 -0.039958169045478269 0.29575445567546388 0 -0.02904570801181227 0.30414560716861699 0 -0.04581664775108537 0.30961879620062571 0 -0.034308890996313193 0.31619803717231232 0 -0.025724023578003428 0.28484302527062832 0 -0.02904570801181227 0.30414560716861699 0 -0.039958169045478269 0.29575445567546388 0 -0.025724023578003428 0.28484302527062832 0 -0.039958169045478269 0.29575445567546388 0 -0.041567118232982071 0.28155035039042642 0 -0.039958169045478269 0.29575445567546388 0 -0.041567118232982071 0.28155035039042642 0 -0.055410192489386563 0.29691908750413831 0 -0.056753075498150757 0.28085207326825551 0 -0.041567118232982071 0.28155035039042642 0 -0.055410192489386563 0.29691908750413831 0 -0.064150197611200194 0.29028153745804169 0 -0.056753075498150757 0.28085207326825551 0 -0.055410192489386563 0.29691908750413831 0 -0.06406362287003417 0.30105685935529619 0 -0.064150197611200194 0.29028153745804169 0 -0.055410192489386563 0.29691908750413831 0 -0.064150197611200194 0.29028153745804169 0 -0.066272470786091969 0.27951596978905408 0 -0.056753075498150757 0.28085207326825551 0 -0.04581664775108537 0.30961879620062571 0 -0.055410192489386563 0.29691908750413831 0 -0.05903493703298672 0.30842013861035528 0 -0.04581664775108537 0.30961879620062571 0 -0.039958169045478269 0.29575445567546388 0 -0.055410192489386563 0.29691908750413831 0 -0.06406362287003417 0.30105685935529619 0 -0.055410192489386563 0.29691908750413831 0 -0.05903493703298672 0.30842013861035528 0 -0.04581664775108537 0.30961879620062571 0 -0.05999398685661865 0.32296608029812152 0 -0.042756171354298787 0.3224483405388896 0 -0.05999398685661865 0.32296608029812152 0 -0.04261807333459134 0.33512561188054663 0 -0.042756171354298787 0.3224483405388896 0 -0.04581664775108537 0.30961879620062571 0 -0.05903493703298672 0.30842013861035528 0 -0.05999398685661865 0.32296608029812152 0 -0.05999398685661865 0.32296608029812152 0 -0.056804034856699187 0.33429177223338907 0 -0.04261807333459134 0.33512561188054663 0 -0.056804034856699187 0.33429177223338907 0 -0.046192251460743447 0.34598703554363702 0 -0.071259793987160716 0.33632540193228971 0 -0.046192251460743447 0.34598703554363702 0 -0.071259793987160716 0.33632540193228971 0 -0.05999398685661865 0.32296608029812152 0 -0.04261807333459134 0.33512561188054663 0 -0.05999398685661865 0.32296608029812152 0 -0.056804034856699187 0.33429177223338907 0 -0.064831017760781137 0.32924814232959693 0 -0.056804034856699187 0.33429177223338907 0 -0.04261807333459134 0.33512561188054663 0 -0.046192251460743447 0.34598703554363702 0 -0.04261807333459134 0.33512561188054663 0 -0.034276320251641283 0.34282206612864702 0 -0.046192251460743447 0.34598703554363702 0 -0.04261807333459134 0.33512561188054663 0 -0.034276320251641283 0.34282206612864702 0 -0.031043257832885369 0.32833317714284199 0 -0.04261807333459134 0.33512561188054663 0 -0.042756171354298787 0.3224483405388896 0 -0.031043257832885369 0.32833317714284199 0 -0.04581664775108537 0.30961879620062571 0 -0.042756171354298787 0.3224483405388896 0 -0.034308890996313193 0.31619803717231232 0 -0.042756171354298787 0.3224483405388896 0 -0.034308890996313193 0.31619803717231232 0 -0.031043257832885369 0.32833317714284199 0 -0.020687787070248039 0.31403805852116051 0 -0.031043257832885369 0.32833317714284199 0 -0.01426308592107553 0.32709781564023149 0 -0.034308890996313193 0.31619803717231232 0 -0.020687787070248039 0.31403805852116051 0 -0.031043257832885369 0.32833317714284199 0 -0.025032962324117471 0.33875149869244531 0 -0.01426308592107553 0.32709781564023149 0 -0.014716180493599089 0.34442071988127893 0 -0.031043257832885369 0.32833317714284199 0 -0.025032962324117471 0.33875149869244531 0 -0.01426308592107553 0.32709781564023149 0 -0.034276320251641283 0.34282206612864702 0 -0.025032962324117471 0.33875149869244531 0 -0.023787543000920942 0.34541073846433867 0 -0.034276320251641283 0.34282206612864702 0 -0.031043257832885369 0.32833317714284199 0 -0.025032962324117471 0.33875149869244531 0 -0.025032962324117471 0.33875149869244531 0 -0.014716180493599089 0.34442071988127893 0 -0.023787543000920942 0.34541073846433867 0 -0.0025616559074486049 0.3329031852911295 0 -0.01426308592107553 0.32709781564023149 0 -0.014716180493599089 0.34442071988127893 0 -0.0025616559074486049 0.3329031852911295 0 -0.002583240235104544 0.34489224502179239 0 -0.014716180493599089 0.34442071988127893 0 -0.0069555348311276686 0.31079851600377723 0 -0.020687787070248039 0.31403805852116051 0 -0.01426308592107553 0.32709781564023149 0 -0.0025616559074486049 0.3329031852911295 0 -0.00058836015198596755 0.32088344941533808 0 -0.01426308592107553 0.32709781564023149 0 -0.0069555348311276686 0.31079851600377723 0 -0.00058836015198596755 0.32088344941533808 0 -0.01426308592107553 0.32709781564023149 0 -0.012102714267097759 0.36590539057294968 0 -0.001064505034491721 0.37161458349227261 0 0.0039428335920915006 0.36531030276633031 0 -0.021124708934325921 0.35564866915498361 0 0.0039428335920915006 0.36531030276633031 0 -0.001064505034491721 0.37161458349227261 0 -0.017677659244944521 0.37122807787390621 0 -0.017803283764421592 0.37921609746689411 0 -0.012102714267097759 0.36590539057294968 0 -0.001064505034491721 0.37161458349227261 0 -0.017677659244944521 0.37122807787390621 0 -0.012102714267097759 0.36590539057294968 0 -0.021124708934325921 0.35564866915498361 0 0.0039428335920915006 0.36531030276633031 0 -0.0064988099748367559 0.35299106404641623 0 -0.021124708934325921 0.35564866915498361 0 0.0039428335920915006 0.36531030276633031 0 -0.0064988099748367559 0.35299106404641623 0 -0.002583240235104544 0.34489224502179239 0 0.0032447233134405931 0.35422125060834359 0 -0.0064988099748367559 0.35299106404641623 0 -0.002583240235104544 0.34489224502179239 0 -0.014716180493599089 0.34442071988127893 0 -0.0064988099748367559 0.35299106404641623 0 -0.014716180493599089 0.34442071988127893 0 -0.021124708934325921 0.35564866915498361 0 -0.021124708934325921 0.35564866915498361 0 -0.03312405361854439 0.36059385714354403 0 -0.039104805720823227 0.35618275869992938 0 -0.014716180493599089 0.34442071988127893 0 -0.021124708934325921 0.35564866915498361 0 -0.023787543000920942 0.34541073846433867 0 -0.034276320251641283 0.34282206612864702 0 -0.021124708934325921 0.35564866915498361 0 -0.023787543000920942 0.34541073846433867 0 -0.021124708934325921 0.35564866915498361 0 -0.0246585823330631 0.36616539344166837 0 -0.03312405361854439 0.36059385714354403 0 -0.0246585823330631 0.36616539344166837 0 -0.033447590357386023 0.36570071259042941 0 -0.03312405361854439 0.36059385714354403 0 -0.012102714267097759 0.36590539057294968 0 -0.021124708934325921 0.35564866915498361 0 -0.0246585823330631 0.36616539344166837 0 -0.017677659244944521 0.37122807787390621 0 -0.032897312064139907 0.37411907212457252 0 -0.017803283764421592 0.37921609746689411 0 -0.012102714267097759 0.36590539057294968 0 -0.0246585823330631 0.36616539344166837 0 -0.017677659244944521 0.37122807787390621 0 -0.0246585823330631 0.36616539344166837 0 -0.017677659244944521 0.37122807787390621 0 -0.032897312064139907 0.37411907212457252 0 -0.0246585823330631 0.36616539344166837 0 -0.032897312064139907 0.37411907212457252 0 -0.0246585823330631 0.36616539344166837 0 -0.032897312064139907 0.37411907212457252 0 -0.033447590357386023 0.36570071259042941 0 -0.032897312064139907 0.37411907212457252 0 -0.059723517795068168 0.36506026769318489 0 -0.032897312064139907 0.37411907212457252 0 -0.033447590357386023 0.36570071259042941 0 -0.04311041341379776 0.36192452765193173 0 -0.032897312064139907 0.37411907212457252 0 -0.046925961112427347 0.36446589286881009 0 -0.059723517795068168 0.36506026769318489 0 -0.032897312064139907 0.37411907212457252 0 -0.049098878804771373 0.3725140996878949 0 -0.043775979817191349 0.37615739516056462 0 -0.03312405361854439 0.36059385714354403 0 -0.04311041341379776 0.36192452765193173 0 -0.039104805720823227 0.35618275869992938 0 -0.033447590357386023 0.36570071259042941 0 -0.03312405361854439 0.36059385714354403 0 -0.04311041341379776 0.36192452765193173 0 -0.032897312064139907 0.37411907212457252 0 -0.04311041341379776 0.36192452765193173 0 -0.046925961112427347 0.36446589286881009 0 -0.034276320251641283 0.34282206612864702 0 -0.021124708934325921 0.35564866915498361 0 -0.046192251460743447 0.34598703554363702 0 -0.021124708934325921 0.35564866915498361 0 -0.039104805720823227 0.35618275869992938 0 -0.046192251460743447 0.34598703554363702 0 -0.021124708934325921 0.35564866915498361 0 -0.046192251460743447 0.34598703554363702 0 -0.039104805720823227 0.35618275869992938 0 -0.046192251460743447 0.34598703554363702 0 -0.051972601176704672 0.35675970400555063 0 -0.04311041341379776 0.36192452765193173 0 -0.039104805720823227 0.35618275869992938 0 -0.051972601176704672 0.35675970400555063 0 -0.046192251460743447 0.34598703554363702 0 -0.066911938965716039 0.35448421406914471 0 -0.071259793987160716 0.33632540193228971 0 -0.046192251460743447 0.34598703554363702 0 -0.051972601176704672 0.35675970400555063 0 -0.066911938965716039 0.35448421406914471 0 -0.051972601176704672 0.35675970400555063 0 -0.059723517795068168 0.36506026769318489 0 -0.066911938965716039 0.35448421406914471 0 -0.032897312064139907 0.37411907212457252 0 -0.049098878804771373 0.3725140996878949 0 -0.059723517795068168 0.36506026769318489 0 -0.049098878804771373 0.3725140996878949 0 -0.056089193364373929 0.37273715424054699 0 -0.050724207312953518 0.37700173675436199 0 -0.051972601176704672 0.35675970400555063 0 -0.046925961112427347 0.36446589286881009 0 -0.059723517795068168 0.36506026769318489 0 -0.04311041341379776 0.36192452765193173 0 -0.051972601176704672 0.35675970400555063 0 -0.046925961112427347 0.36446589286881009 0 -0.049098878804771373 0.3725140996878949 0 -0.059723517795068168 0.36506026769318489 0 -0.056089193364373929 0.37273715424054699 0 -0.059723517795068168 0.36506026769318489 0 -0.056089193364373929 0.37273715424054699 0 -0.062564083944274151 0.37264302620600032 0 -0.062075486208271788 0.37468365416042188 0 -0.062564083944274151 0.37264302620600032 0 -0.062075486208271788 0.37468365416042188 0 -0.062564083944274151 0.37264302620600032 0 -0.064607287490063475 0.3752877934920828 0 -0.069626031180744216 0.37451783031500979 0 -0.079039419043354958 0.3748493973737258 0 -0.082597891671162132 0.35089307241393791 0 -0.062564083944274151 0.37264302620600032 0 -0.066911938965716039 0.35448421406914471 0 -0.062564083944274151 0.37264302620600032 0 -0.069626031180744216 0.37451783031500979 0 -0.064607287490063475 0.3752877934920828 0 -0.062564083944274151 0.37264302620600032 0 -0.069626031180744216 0.37451783031500979 0 -0.082597891671162132 0.35089307241393791 0 -0.062564083944274151 0.37264302620600032 0 -0.082597891671162132 0.35089307241393791 0 -0.059723517795068168 0.36506026769318489 0 -0.062564083944274151 0.37264302620600032 0 -0.066911938965716039 0.35448421406914471 0 -0.090941745129797052 0.36956363188929697 0 -0.082597891671162132 0.35089307241393791 0 -0.097939085056313616 0.35825468271447503 0 -0.079039419043354958 0.3748493973737258 0 -0.090941745129797052 0.36956363188929697 0 -0.082597891671162132 0.35089307241393791 0 -0.082597891671162132 0.35089307241393791 0 -0.097939085056313616 0.35825468271447503 0 -0.099795521962392192 0.34663223796478099 0 -0.066911938965716039 0.35448421406914471 0 -0.071259793987160716 0.33632540193228971 0 -0.082597891671162132 0.35089307241393791 0 -0.066911938965716039 0.35448421406914471 0 -0.079003984513522238 0.34200566120660753 0 -0.066911938965716039 0.35448421406914471 0 -0.071259793987160716 0.33632540193228971 0 -0.079003984513522238 0.34200566120660753 0 -0.062564083944274151 0.37264302620600032 0 -0.082597891671162132 0.35089307241393791 0 -0.066911938965716039 0.35448421406914471 0 -0.056804034856699187 0.33429177223338907 0 -0.064831017760781137 0.32924814232959693 0 -0.071259793987160716 0.33632540193228971 0 -0.071259793987160716 0.33632540193228971 0 -0.079659291821908368 0.33308803351003258 0 -0.071259793987160716 0.33632540193228971 0 -0.079003984513522238 0.34200566120660753 0 -0.079659291821908368 0.33308803351003258 0 -0.0773699003786468 0.31080654871569757 0 -0.07000108740115632 0.31024084673351238 0 -0.05999398685661865 0.32296608029812152 0 -0.0773699003786468 0.31080654871569757 0 -0.071259793987160716 0.33632540193228971 0 -0.0773699003786468 0.31080654871569757 0 -0.071259793987160716 0.33632540193228971 0 -0.079659291821908368 0.33308803351003258 0 -0.0773699003786468 0.31080654871569757 0 -0.05999398685661865 0.32296608029812152 0 -0.0773699003786468 0.31080654871569757 0 -0.064831017760781137 0.32924814232959693 0 -0.071259793987160716 0.33632540193228971 0 -0.0773699003786468 0.31080654871569757 0 -0.05999398685661865 0.32296608029812152 0 -0.064831017760781137 0.32924814232959693 0 -0.07000108740115632 0.31024084673351238 0 -0.05903493703298672 0.30842013861035528 0 -0.05999398685661865 0.32296608029812152 0 -0.091673901452025128 0.31746800270450398 0 -0.079659291821908368 0.33308803351003258 0 -0.1026316993980491 0.32914311862187462 0 -0.0773699003786468 0.31080654871569757 0 -0.091673901452025128 0.31746800270450398 0 -0.079659291821908368 0.33308803351003258 0 -0.082597891671162132 0.35089307241393791 0 -0.1026316993980491 0.32914311862187462 0 -0.082597891671162132 0.35089307241393791 0 -0.079003984513522238 0.34200566120660753 0 -0.1026316993980491 0.32914311862187462 0 -0.079003984513522238 0.34200566120660753 0 -0.079659291821908368 0.33308803351003258 0 -0.1026316993980491 0.32914311862187462 0 -0.082597891671162132 0.35089307241393791 0 -0.1026316993980491 0.32914311862187462 0 -0.099795521962392192 0.34663223796478099 0 -0.1026316993980491 0.32914311862187462 0 -0.11309959964963499 0.35023802862820708 0 -0.099795521962392192 0.34663223796478099 0 -0.1041414057358224 0.31201579539373148 0 -0.091673901452025128 0.31746800270450398 0 -0.1026316993980491 0.32914311862187462 0 -0.122665507124936 0.30739316482981133 0 -0.1041414057358224 0.31201579539373148 0 -0.1026316993980491 0.32914311862187462 0 -0.122665507124936 0.30739316482981133 0 -0.1026316993980491 0.32914311862187462 0 -0.1213981112161233 0.32606083512094008 0 -0.122665507124936 0.30739316482981133 0 -0.1026316993980491 0.32914311862187462 0 -0.1026316993980491 0.32914311862187462 0 -0.1215793900664241 0.33965542352680428 0 -0.11309959964963499 0.35023802862820708 0 -0.1026316993980491 0.32914311862187462 0 -0.1213981112161233 0.32606083512094008 0 -0.1215793900664241 0.33965542352680428 0 -0.1215793900664241 0.33965542352680428 0 -0.11309959964963499 0.35023802862820708 0 -0.1223522029902982 0.35608225162756879 0 -0.11309959964963499 0.35023802862820708 0 -0.1223522029902982 0.35608225162756879 0 -0.1091573093543224 0.361674516205302 0 -0.12881796099468981 0.36725667352730101 0 -0.1223522029902982 0.35608225162756879 0 -0.11881971476920231 0.36528086459794751 0 -0.12881796099468981 0.36725667352730101 0 -0.11881971476920231 0.36528086459794751 0 -0.114951385737499 0.37611001703161828 0 -0.11881971476920231 0.36528086459794751 0 -0.1091573093543224 0.361674516205302 0 -0.114951385737499 0.37611001703161828 0 -0.1223522029902982 0.35608225162756879 0 -0.11881971476920231 0.36528086459794751 0 -0.1091573093543224 0.361674516205302 0 -0.1091573093543224 0.361674516205302 0 -0.1012990589455684 0.36953412384373102 0 -0.097939085056313616 0.35825468271447503 0 -0.1091573093543224 0.361674516205302 0 -0.1012990589455684 0.36953412384373102 0 -0.114951385737499 0.37611001703161828 0 -0.090941745129797052 0.36956363188929697 0 -0.1012990589455684 0.36953412384373102 0 -0.098890550417286477 0.38099249480062602 0 -0.090941745129797052 0.36956363188929697 0 -0.1012990589455684 0.36953412384373102 0 -0.097939085056313616 0.35825468271447503 0 -0.11309959964963499 0.35023802862820708 0 -0.097939085056313616 0.35825468271447503 0 -0.099795521962392192 0.34663223796478099 0 -0.11309959964963499 0.35023802862820708 0 -0.1091573093543224 0.361674516205302 0 -0.097939085056313616 0.35825468271447503 0 -0.094424665366596924 0.39634464281418252 0 -0.11202845405726 0.40531330452479791 0 -0.098926296137628822 0.41605616341005208 0 -0.1085605322944487 0.39079571404043828 0 -0.094424665366596924 0.39634464281418252 0 -0.11202845405726 0.40531330452479791 0 -0.1085605322944487 0.39079571404043828 0 -0.098890550417286477 0.38099249480062602 0 -0.114951385737499 0.37611001703161828 0 -0.1085605322944487 0.39079571404043828 0 -0.094424665366596924 0.39634464281418252 0 -0.098890550417286477 0.38099249480062602 0 -0.1012990589455684 0.36953412384373102 0 -0.098890550417286477 0.38099249480062602 0 -0.114951385737499 0.37611001703161828 0 -0.1085605322944487 0.39079571404043828 0 -0.114951385737499 0.37611001703161828 0 -0.1224972888069677 0.39405447109156733 0 -0.13238272395945991 0.37847398983736519 0 -0.114951385737499 0.37611001703161828 0 -0.1224972888069677 0.39405447109156733 0 -0.1277268958593005 0.40709158096490278 0 -0.1224972888069677 0.39405447109156733 0 -0.11202845405726 0.40531330452479791 0 -0.1085605322944487 0.39079571404043828 0 -0.1224972888069677 0.39405447109156733 0 -0.11202845405726 0.40531330452479791 0 -0.11202845405726 0.40531330452479791 0 -0.12025274126089 0.42574105579372712 0 -0.098926296137628822 0.41605616341005208 0 -0.12025274126089 0.42574105579372712 0 -0.098926296137628822 0.41605616341005208 0 -0.1277268958593005 0.40709158096490278 0 -0.11202845405726 0.40531330452479791 0 -0.12025274126089 0.42574105579372712 0 -0.12025274126089 0.42574105579372712 0 -0.1161249595423428 0.42742254588607831 0 -0.098926296137628822 0.41605616341005208 0 -0.12509104342100061 0.44188941827772182 0 -0.1161249595423428 0.42742254588607831 0 -0.098677616465060528 0.43762344985591101 0 -0.1161249595423428 0.42742254588607831 0 -0.090695480784097504 0.41727281212483158 0 -0.1161249595423428 0.42742254588607831 0 -0.090695480784097504 0.41727281212483158 0 -0.098677616465060528 0.43762344985591101 0 -0.1161249595423428 0.42742254588607831 0 -0.098926296137628822 0.41605616341005208 0 -0.090695480784097504 0.41727281212483158 0 -0.098926296137628822 0.41605616341005208 0 -0.077599851014367602 0.40637127102637732 0 -0.094424665366596924 0.39634464281418252 0 -0.098926296137628822 0.41605616341005208 0 -0.077599851014367602 0.40637127102637732 0 -0.098926296137628822 0.41605616341005208 0 -0.090695480784097504 0.41727281212483158 0 -0.077599851014367602 0.40637127102637732 0 -0.090695480784097504 0.41727281212483158 0 -0.077599851014367602 0.40637127102637732 0 -0.077475511178084946 0.4171549142493044 0 -0.077475511178084946 0.4171549142493044 0 -0.098677616465060528 0.43762344985591101 0 -0.090695480784097504 0.41727281212483158 0 -0.077475511178084946 0.4171549142493044 0 -0.098677616465060528 0.43762344985591101 0 -0.077475511178084946 0.4171549142493044 0 -0.078698858269308614 0.44343419105434712 0 -0.098677616465060528 0.43762344985591101 0 -0.077475511178084946 0.4171549142493044 0 -0.059178928229814701 0.4365201208845606 0 -0.055106871557328428 0.42305161159228227 0 -0.077475511178084946 0.4171549142493044 0 -0.059178928229814701 0.4365201208845606 0 -0.078698858269308614 0.44343419105434712 0 -0.077475511178084946 0.4171549142493044 0 -0.056273405891107527 0.39668637864269979 0 -0.077599851014367602 0.40637127102637732 0 -0.077475511178084946 0.4171549142493044 0 -0.056273405891107527 0.39668637864269979 0 -0.077599851014367602 0.40637127102637732 0 -0.056273405891107527 0.39668637864269979 0 -0.077599851014367602 0.40637127102637732 0 -0.078331801269405671 0.3911923311589619 0 -0.056273405891107527 0.39668637864269979 0 -0.094424665366596924 0.39634464281418252 0 -0.077599851014367602 0.40637127102637732 0 -0.078331801269405671 0.3911923311589619 0 -0.094424665366596924 0.39634464281418252 0 -0.078331801269405671 0.3911923311589619 0 -0.087166581823546807 0.38268142547449258 0 -0.079039419043354958 0.3748493973737258 0 -0.078331801269405671 0.3911923311589619 0 -0.087166581823546807 0.38268142547449258 0 -0.090941745129797052 0.36956363188929697 0 -0.098890550417286477 0.38099249480062602 0 -0.087166581823546807 0.38268142547449258 0 -0.094424665366596924 0.39634464281418252 0 -0.098890550417286477 0.38099249480062602 0 -0.087166581823546807 0.38268142547449258 0 -0.079039419043354958 0.3748493973737258 0 -0.090941745129797052 0.36956363188929697 0 -0.087166581823546807 0.38268142547449258 0 -0.078331801269405671 0.3911923311589619 0 -0.070241768304658683 0.38125320512289401 0 -0.062400115896225239 0.38328565763688038 0 -0.078331801269405671 0.3911923311589619 0 -0.047880784994249512 0.38858413326022379 0 -0.069626031180744216 0.37451783031500979 0 -0.079039419043354958 0.3748493973737258 0 -0.070241768304658683 0.38125320512289401 0 -0.078331801269405671 0.3911923311589619 0 -0.062400115896225239 0.38328565763688038 0 -0.047880784994249512 0.38858413326022379 0 -0.079039419043354958 0.3748493973737258 0 -0.078331801269405671 0.3911923311589619 0 -0.070241768304658683 0.38125320512289401 0 -0.070241768304658683 0.38125320512289401 0 -0.064210651178174066 0.37904237845721811 0 -0.062400115896225239 0.38328565763688038 0 -0.069626031180744216 0.37451783031500979 0 -0.070241768304658683 0.38125320512289401 0 -0.064210651178174066 0.37904237845721811 0 -0.069626031180744216 0.37451783031500979 0 -0.064210651178174066 0.37904237845721811 0 -0.064607287490063475 0.3752877934920828 0 -0.062075486208271788 0.37468365416042188 0 -0.064210651178174066 0.37904237845721811 0 -0.064607287490063475 0.3752877934920828 0 -0.062075486208271788 0.37468365416042188 0 -0.064210651178174066 0.37904237845721811 0 -0.059083848751135488 0.37840884602566088 0 -0.059083848751135488 0.37840884602566088 0 -0.062400115896225239 0.38328565763688038 0 -0.054293362626053041 0.38162223819359442 0 -0.062075486208271788 0.37468365416042188 0 -0.062564083944274151 0.37264302620600032 0 -0.059083848751135488 0.37840884602566088 0 -0.062564083944274151 0.37264302620600032 0 -0.054293362626053041 0.38162223819359442 0 -0.062564083944274151 0.37264302620600032 0 -0.059083848751135488 0.37840884602566088 0 -0.054293362626053041 0.38162223819359442 0 -0.056089193364373929 0.37273715424054699 0 -0.062564083944274151 0.37264302620600032 0 -0.054293362626053041 0.38162223819359442 0 -0.059083848751135488 0.37840884602566088 0 -0.054293362626053041 0.38162223819359442 0 -0.064210651178174066 0.37904237845721811 0 -0.059083848751135488 0.37840884602566088 0 -0.062400115896225239 0.38328565763688038 0 -0.062400115896225239 0.38328565763688038 0 -0.047880784994249512 0.38858413326022379 0 -0.054293362626053041 0.38162223819359442 0 -0.047880784994249512 0.38858413326022379 0 -0.054293362626053041 0.38162223819359442 0 -0.047880784994249512 0.38858413326022379 0 -0.054293362626053041 0.38162223819359442 0 -0.046254793771615982 0.3870143995575549 0 -0.047836657145122599 0.38128015361824008 0 -0.054293362626053041 0.38162223819359442 0 -0.046254793771615982 0.3870143995575549 0 -0.054293362626053041 0.38162223819359442 0 -0.046254793771615982 0.3870143995575549 0 -0.047880784994249512 0.38858413326022379 0 -0.046254793771615982 0.3870143995575549 0 -0.056089193364373929 0.37273715424054699 0 -0.050724207312953518 0.37700173675436199 0 -0.054293362626053041 0.38162223819359442 0 -0.049098878804771373 0.3725140996878949 0 -0.050724207312953518 0.37700173675436199 0 -0.043775979817191349 0.37615739516056462 0 -0.047836657145122599 0.38128015361824008 0 -0.050724207312953518 0.37700173675436199 0 -0.043775979817191349 0.37615739516056462 0 -0.047836657145122599 0.38128015361824008 0 -0.050724207312953518 0.37700173675436199 0 -0.054293362626053041 0.38162223819359442 0 -0.078331801269405671 0.3911923311589619 0 -0.047880784994249512 0.38858413326022379 0 -0.056273405891107527 0.39668637864269979 0 -0.047880784994249512 0.38858413326022379 0 -0.056273405891107527 0.39668637864269979 0 -0.045094078598563243 0.39160955589403151 0 -0.056273405891107527 0.39668637864269979 0 -0.048342871606355781 0.40097934792702961 0 -0.045094078598563243 0.39160955589403151 0 -0.047880784994249512 0.38858413326022379 0 -0.056273405891107527 0.39668637864269979 0 -0.056273405891107527 0.39668637864269979 0 -0.045094078598563243 0.39160955589403151 0 -0.056273405891107527 0.39668637864269979 0 -0.048342871606355781 0.40097934792702961 0 -0.051161828253680347 0.40954535298997258 0 -0.04342775431262437 0.39341862168501102 0 -0.028839939204686131 0.40925606551247828 0 -0.042973684961738069 0.41592643291826231 0 -0.048342871606355781 0.40097934792702961 0 -0.04342775431262437 0.39341862168501102 0 -0.042973684961738069 0.41592643291826231 0 -0.041701311968281377 0.39006881248802111 0 -0.02243782954129785 0.40299049140363558 0 -0.041701311968281377 0.39006881248802111 0 -0.03457878247319518 0.38683428693719679 0 -0.02243782954129785 0.40299049140363558 0 -0.04342775431262437 0.39341862168501102 0 -0.041701311968281377 0.39006881248802111 0 -0.02243782954129785 0.40299049140363558 0 -0.04342775431262437 0.39341862168501102 0 -0.028839939204686131 0.40925606551247828 0 -0.04342775431262437 0.39341862168501102 0 -0.042973684961738069 0.41592643291826231 0 -0.04342775431262437 0.39341862168501102 0 -0.02243782954129785 0.40299049140363558 0 -0.028839939204686131 0.40925606551247828 0 -0.048342871606355781 0.40097934792702961 0 -0.04342775431262437 0.39341862168501102 0 -0.045094078598563243 0.39160955589403151 0 -0.04342775431262437 0.39341862168501102 0 -0.045094078598563243 0.39160955589403151 0 -0.043479046219812342 0.39087612776318198 0 -0.04342775431262437 0.39341862168501102 0 -0.043479046219812342 0.39087612776318198 0 -0.045094078598563243 0.39160955589403151 0 -0.043479046219812342 0.39087612776318198 0 -0.045094078598563243 0.39160955589403151 0 -0.043479046219812342 0.39087612776318198 0 -0.045172553619539632 0.38973569244798251 0 -0.04342775431262437 0.39341862168501102 0 -0.045094078598563243 0.39160955589403151 0 -0.04342775431262437 0.39341862168501102 0 -0.043479046219812342 0.39087612776318198 0 -0.041701311968281377 0.39006881248802111 0 -0.047836657145122599 0.38128015361824008 0 -0.043775979817191349 0.37615739516056462 0 -0.043608491196287617 0.38445965616034072 0 -0.043775979817191349 0.37615739516056462 0 -0.043608491196287617 0.38445965616034072 0 -0.032897312064139907 0.37411907212457252 0 -0.043775979817191349 0.37615739516056462 0 -0.043608491196287617 0.38445965616034072 0 -0.047836657145122599 0.38128015361824008 0 -0.043608491196287617 0.38445965616034072 0 -0.046254793771615982 0.3870143995575549 0 -0.043542573639619581 0.38772713043400647 0 -0.041701311968281377 0.39006881248802111 0 -0.03457878247319518 0.38683428693719679 0 -0.043608491196287617 0.38445965616034072 0 -0.043542573639619581 0.38772713043400647 0 -0.03457878247319518 0.38683428693719679 0 -0.043608491196287617 0.38445965616034072 0 -0.046254793771615982 0.3870143995575549 0 -0.043608491196287617 0.38445965616034072 0 -0.046254793771615982 0.3870143995575549 0 -0.043542573639619581 0.38772713043400647 0 -0.043608491196287617 0.38445965616034072 0 -0.043542573639619581 0.38772713043400647 0 -0.047880784994249512 0.38858413326022379 0 -0.045094078598563243 0.39160955589403151 0 -0.047880784994249512 0.38858413326022379 0 -0.045094078598563243 0.39160955589403151 0 -0.045172553619539632 0.38973569244798251 0 -0.047880784994249512 0.38858413326022379 0 -0.045172553619539632 0.38973569244798251 0 -0.046254793771615982 0.3870143995575549 0 -0.045172553619539632 0.38973569244798251 0 -0.046254793771615982 0.3870143995575549 0 -0.043542573639619581 0.38772713043400647 0 -0.046254793771615982 0.3870143995575549 0 -0.043542573639619581 0.38772713043400647 0 -0.043479046219812342 0.39087612776318198 0 -0.045172553619539632 0.38973569244798251 0 -0.043542573639619581 0.38772713043400647 0 -0.043479046219812342 0.39087612776318198 0 -0.043542573639619581 0.38772713043400647 0 -0.043542573639619581 0.38772713043400647 0 -0.041701311968281377 0.39006881248802111 0 -0.043479046219812342 0.39087612776318198 0 -0.043542573639619581 0.38772713043400647 0 -0.041701311968281377 0.39006881248802111 0 -0.043479046219812342 0.39087612776318198 0 -0.041701311968281377 0.39006881248802111 0 -0.043542573639619581 0.38772713043400647 0 -0.03457878247319518 0.38683428693719679 0 -0.041701311968281377 0.39006881248802111 0 -0.03457878247319518 0.38683428693719679 0 -0.032897312064139907 0.37411907212457252 0 -0.043608491196287617 0.38445965616034072 0 -0.032897312064139907 0.37411907212457252 0 -0.043608491196287617 0.38445965616034072 0 -0.03457878247319518 0.38683428693719679 0 -0.03457878247319518 0.38683428693719679 0 -0.017803283764421592 0.37921609746689411 0 -0.03457878247319518 0.38683428693719679 0 -0.017803283764421592 0.37921609746689411 0 -0.019390911734903489 0.38532149046890818 0 -0.032897312064139907 0.37411907212457252 0 -0.017803283764421592 0.37921609746689411 0 -0.032897312064139907 0.37411907212457252 0 -0.03457878247319518 0.38683428693719679 0 -0.017803283764421592 0.37921609746689411 0 -0.03457878247319518 0.38683428693719679 0 -0.019390911734903489 0.38532149046890818 0 -0.019390911734903489 0.38532149046890818 0 -0.02243782954129785 0.40299049140363558 0 -0.0064316016559190746 0.3999483233353413 0 -0.03457878247319518 0.38683428693719679 0 -0.019390911734903489 0.38532149046890818 0 -0.02243782954129785 0.40299049140363558 0 -0.0064316016559190746 0.3999483233353413 0 -0.0042030409966118051 0.38380869400061962 0 0.010437450069317761 0.40463061763750507 0 -0.001064505034491721 0.37161458349227261 0 -0.017803283764421592 0.37921609746689411 0 -0.001064505034491721 0.37161458349227261 0 -0.017803283764421592 0.37921609746689411 0 -0.0042030409966118051 0.38380869400061962 0 -0.019390911734903489 0.38532149046890818 0 -0.0064316016559190746 0.3999483233353413 0 -0.0042030409966118051 0.38380869400061962 0 -0.017803283764421592 0.37921609746689411 0 -0.0042030409966118051 0.38380869400061962 0 -0.017803283764421592 0.37921609746689411 0 -0.019390911734903489 0.38532149046890818 0 -0.0042030409966118051 0.38380869400061962 0 -0.019390911734903489 0.38532149046890818 0 -0.0042030409966118051 0.38380869400061962 0 -0.014252124096747171 0.42509350933994478 0 0.0048617880261327502 0.44584476697033082 0 -0.014252124096747171 0.42509350933994478 0 -0.010454900682288101 0.44126855924159908 0 0.0048617880261327502 0.44584476697033082 0 -0.014252124096747171 0.42509350933994478 0 -0.0026301228576318379 0.42717885202372191 0 0.0048617880261327502 0.44584476697033082 0 -0.014252124096747171 0.42509350933994478 0 -0.0026301228576318379 0.42717885202372191 0 -0.003174347114314008 0.41591217031924949 0 -0.02243782954129785 0.40299049140363558 0 -0.0064316016559190746 0.3999483233353413 0 -0.003174347114314008 0.41591217031924949 0 -0.02243782954129785 0.40299049140363558 0 -0.003174347114314008 0.41591217031924949 0 -0.02243782954129785 0.40299049140363558 0 -0.014252124096747171 0.42509350933994478 0 -0.003174347114314008 0.41591217031924949 0 -0.014252124096747171 0.42509350933994478 0 -0.003174347114314008 0.41591217031924949 0 -0.014252124096747171 0.42509350933994478 0 -0.028839939204686131 0.40925606551247828 0 -0.02243782954129785 0.40299049140363558 0 -0.014252124096747171 0.42509350933994478 0 -0.028839939204686131 0.40925606551247828 0 -0.014252124096747171 0.42509350933994478 0 -0.028839939204686131 0.40925606551247828 0 -0.022470349574322469 0.43190483207895858 0 -0.014252124096747171 0.42509350933994478 0 -0.022470349574322469 0.43190483207895858 0 -0.010454900682288101 0.44126855924159908 0 -0.014252124096747171 0.42509350933994478 0 -0.022470349574322469 0.43190483207895858 0 -0.022470349574322469 0.43190483207895858 0 -0.010454900682288101 0.44126855924159908 0 -0.022470349574322469 0.43190483207895858 0 -0.042646571141636773 0.43214117214318359 0 -0.04231945732153318 0.44835591136810488 0 -0.022470349574322469 0.43190483207895858 0 -0.042646571141636773 0.43214117214318359 0 -0.042973684961738069 0.41592643291826231 0 -0.042646571141636773 0.43214117214318359 0 -0.042973684961738069 0.41592643291826231 0 -0.022470349574322469 0.43190483207895858 0 -0.042973684961738069 0.41592643291826231 0 -0.028839939204686131 0.40925606551247828 0 -0.022470349574322469 0.43190483207895858 0 -0.042973684961738069 0.41592643291826231 0 -0.077475511178084946 0.4171549142493044 0 -0.051161828253680347 0.40954535298997258 0 -0.055106871557328428 0.42305161159228227 0 -0.077475511178084946 0.4171549142493044 0 -0.056273405891107527 0.39668637864269979 0 -0.051161828253680347 0.40954535298997258 0 -0.048342871606355781 0.40097934792702961 0 -0.042973684961738069 0.41592643291826231 0 -0.051161828253680347 0.40954535298997258 0 -0.042973684961738069 0.41592643291826231 0 -0.051161828253680347 0.40954535298997258 0 -0.042973684961738069 0.41592643291826231 0 -0.051161828253680347 0.40954535298997258 0 -0.055106871557328428 0.42305161159228227 0 -0.042646571141636773 0.43214117214318359 0 -0.059178928229814701 0.4365201208845606 0 -0.055106871557328428 0.42305161159228227 0 -0.042646571141636773 0.43214117214318359 0 -0.042973684961738069 0.41592643291826231 0 -0.055106871557328428 0.42305161159228227 0 -0.042646571141636773 0.43214117214318359 0 -0.059178928229814701 0.4365201208845606 0 -0.049245987713513212 0.44319563894678482 0 -0.059178928229814701 0.4365201208845606 0 -0.050742244958162368 0.46439359559444437 0 -0.049245987713513212 0.44319563894678482 0 -0.050742244958162368 0.46439359559444437 0 -0.044608833217136261 0.45025336211807931 0 -0.059178928229814701 0.4365201208845606 0 -0.050742244958162368 0.46439359559444437 0 -0.065484051744298263 0.4513847118260722 0 -0.059178928229814701 0.4365201208845606 0 -0.049245987713513212 0.44319563894678482 0 -0.050742244958162368 0.46439359559444437 0 -0.050742244958162368 0.46439359559444437 0 -0.061707257777874093 0.47273252787991399 0 -0.073231504917427276 0.46237159316971249 0 -0.050742244958162368 0.46439359559444437 0 -0.073231504917427276 0.46237159316971249 0 -0.0419800222431604 0.46518140433549732 0 -0.04231945732153318 0.44835591136810488 0 -0.025697431038521311 0.45487791879973932 0 -0.0419800222431604 0.46518140433549732 0 -0.04231945732153318 0.44835591136810488 0 -0.0419800222431604 0.46518140433549732 0 -0.044608833217136261 0.45025336211807931 0 -0.04231945732153318 0.44835591136810488 0 -0.050742244958162368 0.46439359559444437 0 -0.0419800222431604 0.46518140433549732 0 -0.050742244958162368 0.46439359559444437 0 -0.0419800222431604 0.46518140433549732 0 -0.044608833217136261 0.45025336211807931 0 -0.022470349574322469 0.43190483207895858 0 -0.04231945732153318 0.44835591136810488 0 -0.042646571141636773 0.43214117214318359 0 -0.049245987713513212 0.44319563894678482 0 -0.04231945732153318 0.44835591136810488 0 -0.042646571141636773 0.43214117214318359 0 -0.04231945732153318 0.44835591136810488 0 -0.049245987713513212 0.44319563894678482 0 -0.044608833217136261 0.45025336211807931 0 -0.04231945732153318 0.44835591136810488 0 -0.044608833217136261 0.45025336211807931 0 -0.04231945732153318 0.44835591136810488 0 -0.022470349574322469 0.43190483207895858 0 -0.04231945732153318 0.44835591136810488 0 -0.022362297003099281 0.44511471557515531 0 -0.04231945732153318 0.44835591136810488 0 -0.022362297003099281 0.44511471557515531 0 -0.025697431038521311 0.45487791879973932 0 -0.022470349574322469 0.43190483207895858 0 -0.022362297003099281 0.44511471557515531 0 -0.010454900682288101 0.44126855924159908 0 -0.022362297003099281 0.44511471557515531 0 -0.025697431038521311 0.45487791879973932 0 -0.01311544116488466 0.453963754661173 0 -0.0419800222431604 0.46518140433549732 0 -0.025697431038521311 0.45487791879973932 0 -0.01345201465746383 0.46774634869629322 0 -0.0419800222431604 0.46518140433549732 0 -0.01345201465746383 0.46774634869629322 0 -0.025697431038521311 0.45487791879973932 0 -0.01311544116488466 0.453963754661173 0 -0.01345201465746383 0.46774634869629322 0 -0.0094095992007081283 0.46654139838691122 0 -0.010427957625441169 0.46801824073108461 0 0.0053167838454733218 0.46943384557929257 0 -0.0094095992007081283 0.46654139838691122 0 0.0015605482097463411 0.45063228640423969 0 -0.010427957625441169 0.46801824073108461 0 0.0053167838454733218 0.46943384557929257 0 -0.0094095992007081283 0.46654139838691122 0 0.0080738590363113663 0.46132998490476868 0 -0.01311544116488466 0.453963754661173 0 -0.0094095992007081283 0.46654139838691122 0 0.0015605482097463411 0.45063228640423969 0 -0.01311544116488466 0.453963754661173 0 -0.01345201465746383 0.46774634869629322 0 -0.0094095992007081283 0.46654139838691122 0 -0.01345201465746383 0.46774634869629322 0 -0.010427957625441169 0.46801824073108461 0 -0.01345201465746383 0.46774634869629322 0 -0.0094095992007081283 0.46654139838691122 0 -0.01345201465746383 0.46774634869629322 0 -0.0094095992007081283 0.46654139838691122 0 -0.010427957625441169 0.46801824073108461 0 -0.0094095992007081283 0.46654139838691122 0 -0.010427957625441169 0.46801824073108461 0 -0.01311544116488466 0.453963754661173 0 -0.010454900682288101 0.44126855924159908 0 0.0015605482097463411 0.45063228640423969 0 -0.010454900682288101 0.44126855924159908 0 0.0048617880261327502 0.44584476697033082 0 0.0015605482097463411 0.45063228640423969 0 -0.010454900682288101 0.44126855924159908 0 0.0015605482097463411 0.45063228640423969 0 -0.022362297003099281 0.44511471557515531 0 -0.01311544116488466 0.453963754661173 0 -0.010454900682288101 0.44126855924159908 0 -0.0067005321321746969 0.5 0 -0.003880604538310756 0.48346324919380129 0 -0.021454488019086362 0.48400912036554289 0 -0.01345201465746383 0.46774634869629322 0 -0.010427957625441169 0.46801824073108461 0 -0.021454488019086362 0.48400912036554289 0 -0.010427957625441169 0.46801824073108461 0 -0.003880604538310756 0.48346324919380129 0 -0.021454488019086362 0.48400912036554289 0 -0.010427957625441169 0.46801824073108461 0 -0.001026908195020756 0.47486914558720472 0 0.0053167838454733218 0.46943384557929257 0 -0.010427957625441169 0.46801824073108461 0 -0.003880604538310756 0.48346324919380129 0 -0.001026908195020756 0.47486914558720472 0 -0.010427957625441169 0.46801824073108461 0 -0.021454488019086362 0.48400912036554289 0 -0.01345201465746383 0.46774634869629322 0 -0.021454488019086362 0.48400912036554289 0 -0.032447842195153342 0.48378293317924542 0 -0.01345201465746383 0.46774634869629322 0 -0.032447842195153342 0.48378293317924542 0 -0.041758062999807367 0.47618372532725728 0 -0.01345201465746383 0.46774634869629322 0 -0.041758062999807367 0.47618372532725728 0 -0.021454488019086362 0.48400912036554289 0 -0.032481018412731863 0.50000000000000089 0 -0.033555046977316587 0.49207813668870121 0 -0.021454488019086362 0.48400912036554289 0 -0.032481018412731863 0.50000000000000089 0 -0.021454488019086362 0.48400912036554289 0 -0.033555046977316587 0.49207813668870121 0 -0.032447842195153342 0.48378293317924542 0 -0.0067005321321746969 0.5 0 -0.021454488019086362 0.48400912036554289 0 -0.032481018412731863 0.50000000000000089 0 -0.033555046977316587 0.49207813668870121 0 -0.039964975186860582 0.49999999999999872 0 -0.042139887415076342 0.49281443204190178 0 -0.032481018412731863 0.50000000000000089 0 -0.033555046977316587 0.49207813668870121 0 -0.039964975186860582 0.49999999999999872 0 -0.042139887415076342 0.49281443204190178 0 -0.041758062999807367 0.47618372532725728 0 -0.033555046977316587 0.49207813668870121 0 -0.042139887415076342 0.49281443204190178 0 -0.032447842195153342 0.48378293317924542 0 -0.042139887415076342 0.49281443204190178 0 -0.046725468384182907 0.47766439368476649 0 -0.039964975186860582 0.49999999999999872 0 -0.042139887415076342 0.49281443204190178 0 -0.053580454847170257 0.49193017513362319 0 -0.039964975186860582 0.49999999999999872 0 -0.042139887415076342 0.49281443204190178 0 -0.042139887415076342 0.49281443204190178 0 -0.046725468384182907 0.47766439368476649 0 -0.041758062999807367 0.47618372532725728 0 -0.0419800222431604 0.46518140433549732 0 -0.01345201465746383 0.46774634869629322 0 -0.041758062999807367 0.47618372532725728 0 -0.042139887415076342 0.49281443204190178 0 -0.032447842195153342 0.48378293317924542 0 -0.041758062999807367 0.47618372532725728 0 -0.046725468384182907 0.47766439368476649 0 -0.041758062999807367 0.47618372532725728 0 -0.0419800222431604 0.46518140433549732 0 -0.046725468384182907 0.47766439368476649 0 -0.041758062999807367 0.47618372532725728 0 -0.050742244958162368 0.46439359559444437 0 -0.0419800222431604 0.46518140433549732 0 -0.046725468384182907 0.47766439368476649 0 -0.0419800222431604 0.46518140433549732 0 -0.041758062999807367 0.47618372532725728 0 -0.046725468384182907 0.47766439368476649 0 -0.061707257777874093 0.47273252787991399 0 -0.071702929972361051 0.48510959578984503 0 -0.046725468384182907 0.47766439368476649 0 -0.071702929972361051 0.48510959578984503 0 -0.050742244958162368 0.46439359559444437 0 -0.046725468384182907 0.47766439368476649 0 -0.061707257777874093 0.47273252787991399 0 -0.050742244958162368 0.46439359559444437 0 -0.046725468384182907 0.47766439368476649 0 -0.046725468384182907 0.47766439368476649 0 -0.053580454847170257 0.49193017513362319 0 -0.071702929972361051 0.48510959578984503 0 -0.039964975186860582 0.49999999999999872 0 -0.053580454847170257 0.49193017513362319 0 -0.067195934507479516 0.5 0 -0.042139887415076342 0.49281443204190178 0 -0.046725468384182907 0.47766439368476649 0 -0.053580454847170257 0.49193017513362319 0 -0.053580454847170257 0.49193017513362319 0 -0.067195934507479516 0.5 0 -0.071702929972361051 0.48510959578984503 0 -0.067195934507479516 0.5 0 -0.071702929972361051 0.48510959578984503 0 -0.094426893828098324 0.5 0 -0.071702929972361051 0.48510959578984503 0 -0.096680391560538939 0.49255479789492401 0 -0.071702929972361051 0.48510959578984503 0 -0.094426893828098324 0.5 0 -0.096680391560538939 0.49255479789492401 0 -0.071702929972361051 0.48510959578984503 0 -0.094342239683345888 0.46564946071770819 0 -0.096680391560538939 0.49255479789492401 0 -0.071702929972361051 0.48510959578984503 0 -0.073231504917427276 0.46237159316971249 0 -0.094342239683345888 0.46564946071770819 0 -0.061707257777874093 0.47273252787991399 0 -0.071702929972361051 0.48510959578984503 0 -0.073231504917427276 0.46237159316971249 0 -0.050742244958162368 0.46439359559444437 0 -0.073231504917427276 0.46237159316971249 0 -0.065484051744298263 0.4513847118260722 0 -0.059178928229814701 0.4365201208845606 0 -0.065484051744298263 0.4513847118260722 0 -0.078698858269308614 0.44343419105434712 0 -0.073231504917427276 0.46237159316971249 0 -0.065484051744298263 0.4513847118260722 0 -0.078698858269308614 0.44343419105434712 0 -0.078698858269308614 0.44343419105434712 0 -0.094342239683345888 0.46564946071770819 0 -0.098677616465060528 0.43762344985591101 0 -0.073231504917427276 0.46237159316971249 0 -0.078698858269308614 0.44343419105434712 0 -0.094342239683345888 0.46564946071770819 0 -0.094342239683345888 0.46564946071770819 0 -0.098677616465060528 0.43762344985591101 0 -0.11987972175203609 0.45809198546251739 0 -0.098677616465060528 0.43762344985591101 0 -0.11987972175203609 0.45809198546251739 0 -0.12509104342100061 0.44188941827772182 0 -0.098677616465060528 0.43762344985591101 0 -0.11987972175203609 0.45809198546251739 0 -0.094342239683345888 0.46564946071770819 0 -0.11987972175203609 0.45809198546251739 0 -0.1215246548466888 0.48036061179670092 0 -0.1215246548466888 0.48036061179670092 0 -0.1216578531487173 0.50000000000000155 0 -0.096680391560538939 0.49255479789492401 0 -0.1216578531487173 0.50000000000000155 0 -0.094426893828098324 0.5 0 -0.096680391560538939 0.49255479789492401 0 -0.1216578531487173 0.50000000000000155 0 -0.096680391560538939 0.49255479789492401 0 -0.094342239683345888 0.46564946071770819 0 -0.1215246548466888 0.48036061179670092 0 -0.096680391560538939 0.49255479789492401 0 -0.16310986573530631 0.084156321085019567 0 -0.17544541039362899 0.09436804860009354 0 -0.15783765240444911 0.096274401630791262 0 -0.16310986573530631 0.084156321085019567 0 -0.15783765240444911 0.096274401630791262 0 -0.16310986573530631 0.084156321085019567 0 -0.1657815390990264 0.070802932860687437 0 -0.15463431661472629 0.07014553381523804 0 -0.16310986573530631 0.084156321085019567 0 -0.1657815390990264 0.070802932860687437 0 -0.17966236107341149 0.074300518116336353 0 -0.1657815390990264 0.070802932860687437 0 -0.17966236107341149 0.074300518116336353 0 -0.1657196129726615 0.054609358426155781 0 -0.1657815390990264 0.070802932860687437 0 -0.15463431661472629 0.07014553381523804 0 -0.1657196129726615 0.054609358426155781 0 -0.17966236107341149 0.074300518116336353 0 -0.1657196129726615 0.054609358426155781 0 -0.19326118210642521 0.060262893486061127 0 -0.17966236107341149 0.074300518116336353 0 -0.1657196129726615 0.054609358426155781 0 -0.16310986573530631 0.084156321085019567 0 -0.17966236107341149 0.074300518116336353 0 -0.17544541039362899 0.09436804860009354 0 -0.17966236107341149 0.074300518116336353 0 -0.17544541039362899 0.09436804860009354 0 -0.19360510917416149 0.093991677806516877 0 -0.17966236107341149 0.074300518116336353 0 -0.19360510917416149 0.093991677806516877 0 -0.17544541039362899 0.09436804860009354 0 -0.18934336527218601 0.1087413065502997 0 -0.19360510917416149 0.093991677806516877 0 -0.17544541039362899 0.09436804860009354 0 -0.16911410870225951 0.1087440664115976 0 -0.18934336527218601 0.1087413065502997 0 -0.18039056500006781 0.12121373119240569 0 -0.16911410870225951 0.1087440664115976 0 -0.18934336527218601 0.1087413065502997 0 -0.18039056500006781 0.12121373119240569 0 -0.16911410870225951 0.1087440664115976 0 -0.18039056500006781 0.12121373119240569 0 -0.16911410870225951 0.1087440664115976 0 -0.15507510040999009 0.1056512286087255 0 -0.18039056500006781 0.12121373119240569 0 -0.15507510040999009 0.1056512286087255 0 -0.1628447509754036 0.1248738178506951 0 -0.15507510040999009 0.1056512286087255 0 -0.15358711882774939 0.11801712706942639 0 -0.18039056500006781 0.12121373119240569 0 -0.1628447509754036 0.1248738178506951 0 -0.15507510040999009 0.1056512286087255 0 -0.17544541039362899 0.09436804860009354 0 -0.16911410870225951 0.1087440664115976 0 -0.15783765240444911 0.096274401630791262 0 -0.16911410870225951 0.1087440664115976 0 -0.15783765240444911 0.096274401630791262 0 -0.16911410870225951 0.1087440664115976 0 -0.15783765240444911 0.096274401630791262 0 -0.15507510040999009 0.1056512286087255 0 -0.15783765240444911 0.096274401630791262 0 -0.14455303356647331 0.096744639073681929 0 -0.15139402388202119 0.11108495737684999 0 -0.14455303356647331 0.096744639073681929 0 -0.15139402388202119 0.11108495737684999 0 -0.12991930243541749 0.1020465165188278 0 -0.15783765240444911 0.096274401630791262 0 -0.15507510040999009 0.1056512286087255 0 -0.15139402388202119 0.11108495737684999 0 -0.15783765240444911 0.096274401630791262 0 -0.15139402388202119 0.11108495737684999 0 -0.15139402388202119 0.11108495737684999 0 -0.12991930243541749 0.1020465165188278 0 -0.14495039535959489 0.12589551312290931 0 -0.1628447509754036 0.1248738178506951 0 -0.15358711882774939 0.11801712706942639 0 -0.14495039535959489 0.12589551312290931 0 -0.15358711882774939 0.11801712706942639 0 -0.15139402388202119 0.11108495737684999 0 -0.14495039535959489 0.12589551312290931 0 -0.15507510040999009 0.1056512286087255 0 -0.15358711882774939 0.11801712706942639 0 -0.15139402388202119 0.11108495737684999 0 -0.15139402388202119 0.11108495737684999 0 -0.14495039535959489 0.12589551312290931 0 -0.12991930243541749 0.1020465165188278 0 -0.14495039535959489 0.12589551312290931 0 -0.12991930243541749 0.1020465165188278 0 -0.14495039535959489 0.12589551312290931 0 -0.13028426483969929 0.13221647237215789 0 -0.14455303356647331 0.096744639073681929 0 -0.12991930243541749 0.1020465165188278 0 -0.13683438329036771 0.088098653177494879 0 -0.12991930243541749 0.1020465165188278 0 -0.13683438329036771 0.088098653177494879 0 -0.1248370695698198 0.083226530136874921 0 -0.13683438329036771 0.088098653177494879 0 -0.13729578978526799 0.073558919561796721 0 -0.1248370695698198 0.083226530136874921 0 -0.13683438329036771 0.088098653177494879 0 -0.14756672109485969 0.08491666059629295 0 -0.13729578978526799 0.073558919561796721 0 -0.14455303356647331 0.096744639073681929 0 -0.13683438329036771 0.088098653177494879 0 -0.14756672109485969 0.08491666059629295 0 -0.14756672109485969 0.08491666059629295 0 -0.13729578978526799 0.073558919561796721 0 -0.16310986573530631 0.084156321085019567 0 -0.14756672109485969 0.08491666059629295 0 -0.15463431661472629 0.07014553381523804 0 -0.16310986573530631 0.084156321085019567 0 -0.15783765240444911 0.096274401630791262 0 -0.14756672109485969 0.08491666059629295 0 -0.15783765240444911 0.096274401630791262 0 -0.14756672109485969 0.08491666059629295 0 -0.15783765240444911 0.096274401630791262 0 -0.14455303356647331 0.096744639073681929 0 -0.14756672109485969 0.08491666059629295 0 -0.14756672109485969 0.08491666059629295 0 -0.15463431661472629 0.07014553381523804 0 -0.13729578978526799 0.073558919561796721 0 -0.15463431661472629 0.07014553381523804 0 -0.13729578978526799 0.073558919561796721 0 -0.14428807100988511 0.057223156242914672 0 -0.13729578978526799 0.073558919561796721 0 -0.1311901693420546 0.060374133793646992 0 -0.14428807100988511 0.057223156242914672 0 -0.13729578978526799 0.073558919561796721 0 -0.12498233095038511 0.069533312171706482 0 -0.1248370695698198 0.083226530136874921 0 -0.13729578978526799 0.073558919561796721 0 -0.1311901693420546 0.060374133793646992 0 -0.12498233095038511 0.069533312171706482 0 -0.1311901693420546 0.060374133793646992 0 -0.1304591025064194 0.044551821316570157 0 -0.1169815729820268 0.057446916627697332 0 -0.1311901693420546 0.060374133793646992 0 -0.1304591025064194 0.044551821316570157 0 -0.14428807100988511 0.057223156242914672 0 -0.1304591025064194 0.044551821316570157 0 -0.1338093633065561 0.031702984145267947 0 -0.14718764802187309 0.041237794311798179 0 -0.1304591025064194 0.044551821316570157 0 -0.1338093633065561 0.031702984145267947 0 -0.120950474974805 0.030974477430810402 0 -0.14718764802187309 0.041237794311798179 0 -0.14507935476777459 0.024735833563247479 0 -0.16332082262574071 0.033969476032413119 0 -0.1338093633065561 0.031702984145267947 0 -0.14718764802187309 0.041237794311798179 0 -0.14507935476777459 0.024735833563247479 0 -0.1304591025064194 0.044551821316570157 0 -0.14718764802187309 0.041237794311798179 0 -0.14428807100988511 0.057223156242914672 0 -0.15463431661472629 0.07014553381523804 0 -0.14428807100988511 0.057223156242914672 0 -0.1657196129726615 0.054609358426155781 0 -0.14718764802187309 0.041237794311798179 0 -0.14428807100988511 0.057223156242914672 0 -0.1657196129726615 0.054609358426155781 0 -0.1273771369441013 0.0023450629401116992 0 -0.12537023626190849 0.01701499410391356 0 -0.14358534871595791 0.0085390787577918573 0 -0.14275634286812811 -0.006203461430080404 0 -0.1273771369441013 0.0023450629401116992 0 -0.14358534871595791 0.0085390787577918573 0 -0.1338093633065561 0.031702984145267947 0 -0.12537023626190849 0.01701499410391356 0 -0.14507935476777459 0.024735833563247479 0 -0.12537023626190849 0.01701499410391356 0 -0.14507935476777459 0.024735833563247479 0 -0.14358534871595791 0.0085390787577918573 0 -0.1338093633065561 0.031702984145267947 0 -0.12537023626190849 0.01701499410391356 0 -0.120950474974805 0.030974477430810402 0 -0.14507935476777459 0.024735833563247479 0 -0.14358534871595791 0.0085390787577918573 0 -0.1631610812614456 0.0141265482177085 0 -0.15796117991031841 -0.00029962151665172479 0 -0.14358534871595791 0.0085390787577918573 0 -0.1631610812614456 0.0141265482177085 0 -0.14275634286812811 -0.006203461430080404 0 -0.15796117991031841 -0.00029962151665172479 0 -0.14358534871595791 0.0085390787577918573 0 -0.15796117991031841 -0.00029962151665172479 0 -0.17967452986780849 -0.0030086181600807401 0 -0.1631610812614456 0.0141265482177085 0 -0.1631610812614456 0.0141265482177085 0 -0.18063081477410151 0.02444866588981499 0 -0.16332082262574071 0.033969476032413119 0 -0.14507935476777459 0.024735833563247479 0 -0.1631610812614456 0.0141265482177085 0 -0.16332082262574071 0.033969476032413119 0 -0.17967452986780849 -0.0030086181600807401 0 -0.1631610812614456 0.0141265482177085 0 -0.18063081477410151 0.02444866588981499 0 -0.17967452986780849 -0.0030086181600807401 0 -0.18063081477410151 0.02444866588981499 0 -0.19591489879339791 0.012499298725408061 0 -0.1657196129726615 0.054609358426155781 0 -0.16332082262574071 0.033969476032413119 0 -0.1853408533429271 0.041769259974547668 0 -0.14718764802187309 0.041237794311798179 0 -0.1657196129726615 0.054609358426155781 0 -0.16332082262574071 0.033969476032413119 0 -0.18063081477410151 0.02444866588981499 0 -0.16332082262574071 0.033969476032413119 0 -0.1853408533429271 0.041769259974547668 0 -0.1657196129726615 0.054609358426155781 0 -0.1853408533429271 0.041769259974547668 0 -0.19326118210642521 0.060262893486061127 0 -0.1853408533429271 0.041769259974547668 0 -0.19326118210642521 0.060262893486061127 0 -0.20638984228336041 0.047204147208118788 0 -0.18063081477410151 0.02444866588981499 0 -0.1853408533429271 0.041769259974547668 0 -0.2003712226561333 0.029120430419108619 0 -0.1853408533429271 0.041769259974547668 0 -0.20638984228336041 0.047204147208118788 0 -0.2003712226561333 0.029120430419108619 0 -0.20638984228336041 0.047204147208118788 0 -0.2003712226561333 0.029120430419108619 0 -0.21890969838457369 0.03387481538926377 0 -0.20638984228336041 0.047204147208118788 0 -0.2248274879423891 0.050626958701997932 0 -0.21890969838457369 0.03387481538926377 0 -0.20638984228336041 0.047204147208118788 0 -0.2248274879423891 0.050626958701997932 0 -0.21240822864659401 0.064474545157398255 0 -0.19326118210642521 0.060262893486061127 0 -0.20638984228336041 0.047204147208118788 0 -0.21240822864659401 0.064474545157398255 0 -0.17967452986780849 -0.0030086181600807401 0 -0.20680301002479959 -0.0020434230711429339 0 -0.19591489879339791 0.012499298725408061 0 -0.18063081477410151 0.02444866588981499 0 -0.19591489879339791 0.012499298725408061 0 -0.2003712226561333 0.029120430419108619 0 -0.2003712226561333 0.029120430419108619 0 -0.2150412283584397 0.01492639532749848 0 -0.21890969838457369 0.03387481538926377 0 -0.19591489879339791 0.012499298725408061 0 -0.2003712226561333 0.029120430419108619 0 -0.2150412283584397 0.01492639532749848 0 -0.20680301002479959 -0.0020434230711429339 0 -0.19591489879339791 0.012499298725408061 0 -0.2150412283584397 0.01492639532749848 0 -0.20680301002479959 -0.0020434230711429339 0 -0.2150412283584397 0.01492639532749848 0 -0.22850437187820721 0.00061554774341724197 0 -0.2150412283584397 0.01492639532749848 0 -0.22850437187820721 0.00061554774341724197 0 -0.23416676111704099 0.01917273774715204 0 -0.23416676111704099 0.01917273774715204 0 -0.21890969838457369 0.03387481538926377 0 -0.23451298379830759 0.036058925104307242 0 -0.2150412283584397 0.01492639532749848 0 -0.23416676111704099 0.01917273774715204 0 -0.21890969838457369 0.03387481538926377 0 -0.25132042997239518 0.0027134119798401068 0 -0.25642639863326749 0.02710060176493858 0 -0.23416676111704099 0.01917273774715204 0 -0.25642639863326749 0.02710060176493858 0 -0.23416676111704099 0.01917273774715204 0 -0.23451298379830759 0.036058925104307242 0 -0.25132042997239518 0.0027134119798401068 0 -0.22850437187820721 0.00061554774341724197 0 -0.23416676111704099 0.01917273774715204 0 -0.2248274879423891 0.050626958701997932 0 -0.234130504556473 0.067172247096954504 0 -0.21240822864659401 0.064474545157398255 0 -0.2248274879423891 0.050626958701997932 0 -0.21890969838457369 0.03387481538926377 0 -0.23451298379830759 0.036058925104307242 0 -0.25642639863326749 0.02710060176493858 0 -0.23451298379830759 0.036058925104307242 0 -0.24534917185526489 0.049526218608574313 0 -0.2248274879423891 0.050626958701997932 0 -0.23451298379830759 0.036058925104307242 0 -0.24534917185526489 0.049526218608574313 0 -0.26195798501385009 0.070226375813507561 0 -0.24534917185526489 0.049526218608574313 0 -0.234130504556473 0.067172247096954504 0 -0.2248274879423891 0.050626958701997932 0 -0.24534917185526489 0.049526218608574313 0 -0.234130504556473 0.067172247096954504 0 -0.26195798501385009 0.070226375813507561 0 -0.24382127576753621 0.084711863041238192 0 -0.234130504556473 0.067172247096954504 0 -0.24382127576753621 0.084711863041238192 0 -0.22568456652122221 0.099197350268968809 0 -0.24382127576753621 0.084711863041238192 0 -0.221160002309051 0.081738136999685213 0 -0.22568456652122221 0.099197350268968809 0 -0.221160002309051 0.081738136999685213 0 -0.20949418686790969 0.097522886253834359 0 -0.22568456652122221 0.099197350268968809 0 -0.24382127576753621 0.084711863041238192 0 -0.221160002309051 0.081738136999685213 0 -0.234130504556473 0.067172247096954504 0 -0.221160002309051 0.081738136999685213 0 -0.234130504556473 0.067172247096954504 0 -0.21240822864659401 0.064474545157398255 0 -0.221160002309051 0.081738136999685213 0 -0.21240822864659401 0.064474545157398255 0 -0.19789508720454749 0.077516785054754192 0 -0.221160002309051 0.081738136999685213 0 -0.19789508720454749 0.077516785054754192 0 -0.20949418686790969 0.097522886253834359 0 -0.17966236107341149 0.074300518116336353 0 -0.19789508720454749 0.077516785054754192 0 -0.19360510917416149 0.093991677806516877 0 -0.19789508720454749 0.077516785054754192 0 -0.19360510917416149 0.093991677806516877 0 -0.20949418686790969 0.097522886253834359 0 -0.19326118210642521 0.060262893486061127 0 -0.21240822864659401 0.064474545157398255 0 -0.19789508720454749 0.077516785054754192 0 -0.17966236107341149 0.074300518116336353 0 -0.19326118210642521 0.060262893486061127 0 -0.19789508720454749 0.077516785054754192 0 -0.20040659369392541 0.1193864456313013 0 -0.18934336527218601 0.1087413065502997 0 -0.2075478572749084 0.11368283749669961 0 -0.18039056500006781 0.12121373119240569 0 -0.20040659369392541 0.1193864456313013 0 -0.18934336527218601 0.1087413065502997 0 -0.19360510917416149 0.093991677806516877 0 -0.2075478572749084 0.11368283749669961 0 -0.18934336527218601 0.1087413065502997 0 -0.19360510917416149 0.093991677806516877 0 -0.2075478572749084 0.11368283749669961 0 -0.19360510917416149 0.093991677806516877 0 -0.20949418686790969 0.097522886253834359 0 -0.2075478572749084 0.11368283749669961 0 -0.2075478572749084 0.11368283749669961 0 -0.22568456652122221 0.099197350268968809 0 -0.20949418686790969 0.097522886253834359 0 -0.2075478572749084 0.11368283749669961 0 -0.22568456652122221 0.099197350268968809 0 -0.2075478572749084 0.11368283749669961 0 -0.22488407219564061 0.1186598638475915 0 -0.22370276663374011 0.1364982034250237 0 -0.20040659369392541 0.1193864456313013 0 -0.2075478572749084 0.11368283749669961 0 -0.20214902218410111 0.13458958866239301 0 -0.20040659369392541 0.1193864456313013 0 -0.2075478572749084 0.11368283749669961 0 -0.2075478572749084 0.11368283749669961 0 -0.22488407219564061 0.1186598638475915 0 -0.22568456652122221 0.099197350268968809 0 -0.22488407219564061 0.1186598638475915 0 -0.23975573915859391 0.1186480270080747 0 -0.23562440086935879 0.12869665656040569 0 -0.22488407219564061 0.1186598638475915 0 -0.22568456652122221 0.099197350268968809 0 -0.23888908650362611 0.1045060591559635 0 -0.24382127576753621 0.084711863041238192 0 -0.22568456652122221 0.099197350268968809 0 -0.23888908650362611 0.1045060591559635 0 -0.25364395357421121 0.10678394025260531 0 -0.24382127576753621 0.084711863041238192 0 -0.23888908650362611 0.1045060591559635 0 -0.25033803458298193 0.12914144363467839 0 -0.25364395357421121 0.10678394025260531 0 -0.23975573915859391 0.1186480270080747 0 -0.22488407219564061 0.1186598638475915 0 -0.23888908650362611 0.1045060591559635 0 -0.23975573915859391 0.1186480270080747 0 -0.25364395357421121 0.10678394025260531 0 -0.23888908650362611 0.1045060591559635 0 -0.23975573915859391 0.1186480270080747 0 -0.25033803458298193 0.12914144363467839 0 -0.23975573915859391 0.1186480270080747 0 -0.23562440086935879 0.12869665656040569 0 -0.25033803458298193 0.12914144363467839 0 -0.2394413917758374 0.14053574488666021 0 -0.23562440086935879 0.12869665656040569 0 -0.2394413917758374 0.14053574488666021 0 -0.23562440086935879 0.12869665656040569 0 -0.22370276663374011 0.1364982034250237 0 -0.22488407219564061 0.1186598638475915 0 -0.23562440086935879 0.12869665656040569 0 -0.22370276663374011 0.1364982034250237 0 -0.2394413917758374 0.14053574488666021 0 -0.22370276663374011 0.1364982034250237 0 -0.22390747936813421 0.14796544613238069 0 -0.22390747936813421 0.14796544613238069 0 -0.22774584105848089 0.15976823357977049 0 -0.2168312664826515 0.15850745189495519 0 -0.2394413917758374 0.14053574488666021 0 -0.22390747936813421 0.14796544613238069 0 -0.24566593655216731 0.1613413036023684 0 -0.22390747936813421 0.14796544613238069 0 -0.24566593655216731 0.1613413036023684 0 -0.26077588748637798 0.14053443996503889 0 -0.2394413917758374 0.14053574488666021 0 -0.24566593655216731 0.1613413036023684 0 -0.24566593655216731 0.1613413036023684 0 -0.2425545525554833 0.18325607046718431 0 -0.22457868183097049 0.171258732689378 0 -0.2425545525554833 0.18325607046718431 0 -0.2235130486054053 0.18492553164669809 0 -0.22457868183097049 0.171258732689378 0 -0.2425545525554833 0.18325607046718431 0 -0.2235130486054053 0.18492553164669809 0 -0.2315679775879351 0.19375458513227489 0 -0.2235130486054053 0.18492553164669809 0 -0.22457868183097049 0.171258732689378 0 -0.209750232499154 0.17791844316711489 0 -0.24566593655216731 0.1613413036023684 0 -0.22774584105848089 0.15976823357977049 0 -0.22457868183097049 0.171258732689378 0 -0.22390747936813421 0.14796544613238069 0 -0.24566593655216731 0.1613413036023684 0 -0.22774584105848089 0.15976823357977049 0 -0.22774584105848089 0.15976823357977049 0 -0.22457868183097049 0.171258732689378 0 -0.2168312664826515 0.15850745189495519 0 -0.2168312664826515 0.15850745189495519 0 -0.21186753860838101 0.16733255095299371 0 -0.20758447520558959 0.15683863127083711 0 -0.22457868183097049 0.171258732689378 0 -0.2168312664826515 0.15850745189495519 0 -0.21186753860838101 0.16733255095299371 0 -0.21186753860838101 0.16733255095299371 0 -0.209750232499154 0.17791844316711489 0 -0.20173639765426299 0.1643971743801825 0 -0.21186753860838101 0.16733255095299371 0 -0.20758447520558959 0.15683863127083711 0 -0.20173639765426299 0.1643971743801825 0 -0.20758447520558959 0.15683863127083711 0 -0.20173639765426299 0.1643971743801825 0 -0.20024290349544879 0.15519061181074151 0 -0.22457868183097049 0.171258732689378 0 -0.21186753860838101 0.16733255095299371 0 -0.209750232499154 0.17791844316711489 0 -0.19610042498268601 0.17522502183351021 0 -0.19038698318195549 0.16711234260031069 0 -0.17752183765376101 0.1775748035498933 0 -0.19610042498268601 0.17522502183351021 0 -0.19785886193094021 0.18900131099286041 0 -0.17752183765376101 0.1775748035498933 0 -0.19785886193094021 0.18900131099286041 0 -0.17752183765376101 0.1775748035498933 0 -0.209750232499154 0.17791844316711489 0 -0.19610042498268601 0.17522502183351021 0 -0.19785886193094021 0.18900131099286041 0 -0.209750232499154 0.17791844316711489 0 -0.19610042498268601 0.17522502183351021 0 -0.20173639765426299 0.1643971743801825 0 -0.20173639765426299 0.1643971743801825 0 -0.1927705130470404 0.15866088515044 0 -0.20024290349544879 0.15519061181074151 0 -0.19610042498268601 0.17522502183351021 0 -0.20173639765426299 0.1643971743801825 0 -0.19038698318195549 0.16711234260031069 0 -0.20173639765426299 0.1643971743801825 0 -0.19038698318195549 0.16711234260031069 0 -0.1927705130470404 0.15866088515044 0 -0.19038698318195549 0.16711234260031069 0 -0.1927705130470404 0.15866088515044 0 -0.18413510522225521 0.16259499244525211 0 -0.1927705130470404 0.15866088515044 0 -0.19507878308752141 0.1486405391940768 0 -0.1852646507768699 0.1545619776798173 0 -0.19507878308752141 0.1486405391940768 0 -0.18706065072040501 0.14468661846275019 0 -0.1852646507768699 0.1545619776798173 0 -0.19507878308752141 0.1486405391940768 0 -0.20024290349544879 0.15519061181074151 0 -0.20390252305447459 0.15036513687703029 0 -0.1927705130470404 0.15866088515044 0 -0.19507878308752141 0.1486405391940768 0 -0.20024290349544879 0.15519061181074151 0 -0.19507878308752141 0.1486405391940768 0 -0.202312374299252 0.1441640524023215 0 -0.19563802519160789 0.13807458821396759 0 -0.19507878308752141 0.1486405391940768 0 -0.202312374299252 0.1441640524023215 0 -0.20390252305447459 0.15036513687703029 0 -0.19507878308752141 0.1486405391940768 0 -0.19563802519160789 0.13807458821396759 0 -0.18706065072040501 0.14468661846275019 0 -0.18039056500006781 0.12121373119240569 0 -0.20214902218410111 0.13458958866239301 0 -0.18039056500006781 0.12121373119240569 0 -0.20040659369392541 0.1193864456313013 0 -0.20214902218410111 0.13458958866239301 0 -0.18039056500006781 0.12121373119240569 0 -0.19563802519160789 0.13807458821396759 0 -0.20214902218410111 0.13458958866239301 0 -0.18039056500006781 0.12121373119240569 0 -0.19563802519160789 0.13807458821396759 0 -0.202312374299252 0.1441640524023215 0 -0.19563802519160789 0.13807458821396759 0 -0.20214902218410111 0.13458958866239301 0 -0.2075478572749084 0.11368283749669961 0 -0.22370276663374011 0.1364982034250237 0 -0.20214902218410111 0.13458958866239301 0 -0.2075478572749084 0.11368283749669961 0 -0.22370276663374011 0.1364982034250237 0 -0.22370276663374011 0.1364982034250237 0 -0.22390747936813421 0.14796544613238069 0 -0.20214902218410111 0.13458958866239301 0 -0.22390747936813421 0.14796544613238069 0 -0.20214902218410111 0.13458958866239301 0 -0.22390747936813421 0.14796544613238069 0 -0.20214902218410111 0.13458958866239301 0 -0.20948943058945241 0.14863997276184041 0 -0.22390747936813421 0.14796544613238069 0 -0.2168312664826515 0.15850745189495519 0 -0.20948943058945241 0.14863997276184041 0 -0.2168312664826515 0.15850745189495519 0 -0.20758447520558959 0.15683863127083711 0 -0.20948943058945241 0.14863997276184041 0 -0.20758447520558959 0.15683863127083711 0 -0.20948943058945241 0.14863997276184041 0 -0.20390252305447459 0.15036513687703029 0 -0.20758447520558959 0.15683863127083711 0 -0.20024290349544879 0.15519061181074151 0 -0.20390252305447459 0.15036513687703029 0 -0.202312374299252 0.1441640524023215 0 -0.20214902218410111 0.13458958866239301 0 -0.20948943058945241 0.14863997276184041 0 -0.202312374299252 0.1441640524023215 0 -0.20948943058945241 0.14863997276184041 0 -0.20390252305447459 0.15036513687703029 0 -0.22764024225575111 0.25709488017932702 0 -0.2151106411052526 0.2372148610219694 0 -0.22764024225575111 0.25709488017932702 0 -0.2283272457552897 0.2411225242229286 0 -0.2468893326351202 0.24329134098969171 0 -0.22764024225575111 0.25709488017932702 0 -0.2283272457552897 0.2411225242229286 0 -0.2151106411052526 0.2372148610219694 0 -0.2283272457552897 0.2411225242229286 0 -0.22236430254422471 0.22707510271615991 0 -0.2151106411052526 0.2372148610219694 0 -0.2283272457552897 0.2411225242229286 0 -0.2468893326351202 0.24329134098969171 0 -0.2329273297721271 0.2301735095518313 0 -0.25250373055295899 0.22903132158689779 0 -0.2468893326351202 0.24329134098969171 0 -0.24260825180894061 0.22311859240920151 0 -0.2468893326351202 0.24329134098969171 0 -0.24260825180894061 0.22311859240920151 0 -0.2329273297721271 0.2301735095518313 0 -0.25326648915379463 0.21765104414027969 0 -0.25250373055295899 0.22903132158689779 0 -0.24260825180894061 0.22311859240920151 0 -0.24260825180894061 0.22311859240920151 0 -0.23239639752576971 0.22100751879425451 0 -0.2329273297721271 0.2301735095518313 0 -0.23239639752576971 0.22100751879425451 0 -0.2329273297721271 0.2301735095518313 0 -0.22236430254422471 0.22707510271615991 0 -0.2283272457552897 0.2411225242229286 0 -0.2329273297721271 0.2301735095518313 0 -0.22236430254422471 0.22707510271615991 0 -0.23239639752576971 0.22100751879425451 0 -0.22236430254422471 0.22707510271615991 0 -0.2228431611521535 0.2155973608413651 0 -0.2228431611521535 0.2155973608413651 0 -0.2385329104852989 0.2118543258787943 0 -0.21819588620811961 0.20042781843582741 0 -0.2385329104852989 0.2118543258787943 0 -0.21819588620811961 0.20042781843582741 0 -0.23239639752576971 0.22100751879425451 0 -0.2228431611521535 0.2155973608413651 0 -0.2385329104852989 0.2118543258787943 0 -0.2385329104852989 0.2118543258787943 0 -0.24039455529309961 0.2058142864805034 0 -0.21819588620811961 0.20042781843582741 0 -0.24260825180894061 0.22311859240920151 0 -0.23239639752576971 0.22100751879425451 0 -0.2385329104852989 0.2118543258787943 0 -0.25326648915379463 0.21765104414027969 0 -0.24039455529309961 0.2058142864805034 0 -0.25326648915379463 0.21765104414027969 0 -0.2385329104852989 0.2118543258787943 0 -0.24039455529309961 0.2058142864805034 0 -0.25326648915379463 0.21765104414027969 0 -0.24260825180894061 0.22311859240920151 0 -0.2385329104852989 0.2118543258787943 0 -0.25264776582176801 0.2054066783297176 0 -0.25326648915379463 0.21765104414027969 0 -0.24039455529309961 0.2058142864805034 0 -0.25846339158769432 0.19477026040294029 0 -0.2425545525554833 0.18325607046718431 0 -0.24512564856919611 0.1966003761625241 0 -0.24039455529309961 0.2058142864805034 0 -0.24512564856919611 0.1966003761625241 0 -0.2315679775879351 0.19375458513227489 0 -0.25264776582176801 0.2054066783297176 0 -0.24039455529309961 0.2058142864805034 0 -0.24512564856919611 0.1966003761625241 0 -0.2425545525554833 0.18325607046718431 0 -0.24512564856919611 0.1966003761625241 0 -0.2315679775879351 0.19375458513227489 0 -0.24039455529309961 0.2058142864805034 0 -0.2315679775879351 0.19375458513227489 0 -0.21819588620811961 0.20042781843582741 0 -0.2235130486054053 0.18492553164669809 0 -0.2315679775879351 0.19375458513227489 0 -0.21819588620811961 0.20042781843582741 0 -0.21819588620811961 0.20042781843582741 0 -0.19785886193094021 0.18900131099286041 0 -0.2235130486054053 0.18492553164669809 0 -0.209750232499154 0.17791844316711489 0 -0.21819588620811961 0.20042781843582741 0 -0.209750232499154 0.17791844316711489 0 -0.21819588620811961 0.20042781843582741 0 -0.19785886193094021 0.18900131099286041 0 -0.21819588620811961 0.20042781843582741 0 -0.20376966825666501 0.2022924765927995 0 -0.19785886193094021 0.18900131099286041 0 -0.19785886193094021 0.18900131099286041 0 -0.19005143880425829 0.1974548227072519 0 -0.17752183765376101 0.1775748035498933 0 -0.20376966825666501 0.2022924765927995 0 -0.19785886193094021 0.18900131099286041 0 -0.19005143880425829 0.1974548227072519 0 -0.19005143880425829 0.1974548227072519 0 -0.187650486280975 0.21451757224245291 0 -0.20258103995475549 0.21733484186461069 0 -0.19005143880425829 0.1974548227072519 0 -0.20258103995475549 0.21733484186461069 0 -0.20376966825666501 0.2022924765927995 0 -0.19005143880425829 0.1974548227072519 0 -0.20258103995475549 0.21733484186461069 0 -0.2228431611521535 0.2155973608413651 0 -0.21819588620811961 0.20042781843582741 0 -0.20258103995475549 0.21733484186461069 0 -0.21819588620811961 0.20042781843582741 0 -0.20376966825666501 0.2022924765927995 0 -0.20258103995475549 0.21733484186461069 0 -0.20258103995475549 0.21733484186461069 0 -0.19839606398960871 0.22991008851962841 0 -0.2151106411052526 0.2372148610219694 0 -0.22236430254422471 0.22707510271615991 0 -0.2228431611521535 0.2155973608413651 0 -0.20258103995475549 0.21733484186461069 0 -0.22236430254422471 0.22707510271615991 0 -0.20258103995475549 0.21733484186461069 0 -0.2151106411052526 0.2372148610219694 0 -0.20258103995475549 0.21733484186461069 0 -0.2151106411052526 0.2372148610219694 0 -0.187650486280975 0.21451757224245291 0 -0.20258103995475549 0.21733484186461069 0 -0.19839606398960871 0.22991008851962841 0 -0.187650486280975 0.21451757224245291 0 -0.19839606398960871 0.22991008851962841 0 -0.18195408303730121 0.23534357450296481 0 -0.18940688912330481 0.25610334311205268 0 -0.2046840695697589 0.2451395929661444 0 -0.18195408303730121 0.23534357450296481 0 -0.2046840695697589 0.2451395929661444 0 -0.18195408303730121 0.23534357450296481 0 -0.19839606398960871 0.22991008851962841 0 -0.2046840695697589 0.2451395929661444 0 -0.18195408303730121 0.23534357450296481 0 -0.21239874098331929 0.25437807278244762 0 -0.2046840695697589 0.2451395929661444 0 -0.2151106411052526 0.2372148610219694 0 -0.19839606398960871 0.22991008851962841 0 -0.2046840695697589 0.2451395929661444 0 -0.2151106411052526 0.2372148610219694 0 -0.22764024225575111 0.25709488017932702 0 -0.21239874098331929 0.25437807278244762 0 -0.2151106411052526 0.2372148610219694 0 -0.16225317791305921 0.25358582624422438 0 -0.18195408303730121 0.23534357450296481 0 -0.155242522585569 0.24016045739440639 0 -0.17508206900779469 0.25918785244088571 0 -0.16225317791305921 0.25358582624422438 0 -0.18195408303730121 0.23534357450296481 0 -0.187650486280975 0.21451757224245291 0 -0.18195408303730121 0.23534357450296481 0 -0.17144823439391829 0.2141895330645725 0 -0.18195408303730121 0.23534357450296481 0 -0.15922409650484359 0.2255475560397853 0 -0.18195408303730121 0.23534357450296481 0 -0.15922409650484359 0.2255475560397853 0 -0.155242522585569 0.24016045739440639 0 -0.18195408303730121 0.23534357450296481 0 -0.15922409650484359 0.2255475560397853 0 -0.17144823439391829 0.2141895330645725 0 -0.15922409650484359 0.2255475560397853 0 -0.15900733689739069 0.21062159977010589 0 -0.17144823439391829 0.2141895330645725 0 -0.15900733689739069 0.21062159977010589 0 -0.1653418357915476 0.2018213455952054 0 -0.15361129879784891 0.20139719057542019 0 -0.17144823439391829 0.2141895330645725 0 -0.17723797391968729 0.20390802022475071 0 -0.1653418357915476 0.2018213455952054 0 -0.15900733689739069 0.21062159977010589 0 -0.17144823439391829 0.2141895330645725 0 -0.1653418357915476 0.2018213455952054 0 -0.187650486280975 0.21451757224245291 0 -0.17144823439391829 0.2141895330645725 0 -0.17723797391968729 0.20390802022475071 0 -0.19005143880425829 0.1974548227072519 0 -0.187650486280975 0.21451757224245291 0 -0.17723797391968729 0.20390802022475071 0 -0.19005143880425829 0.1974548227072519 0 -0.17169787432773731 0.19155682751427069 0 -0.17752183765376101 0.1775748035498933 0 -0.19005143880425829 0.1974548227072519 0 -0.17723797391968729 0.20390802022475071 0 -0.17169787432773731 0.19155682751427069 0 -0.19005143880425829 0.1974548227072519 0 -0.17752183765376101 0.1775748035498933 0 -0.17169787432773731 0.19155682751427069 0 -0.1653418357915476 0.2018213455952054 0 -0.15791164184663151 0.19274793286901881 0 -0.17723797391968729 0.20390802022475071 0 -0.17169787432773731 0.19155682751427069 0 -0.1653418357915476 0.2018213455952054 0 -0.1653418357915476 0.2018213455952054 0 -0.15791164184663151 0.19274793286901881 0 -0.15361129879784891 0.20139719057542019 0 -0.17169787432773731 0.19155682751427069 0 -0.15791164184663151 0.19274793286901881 0 -0.16134243263699979 0.18146195783717889 0 -0.15791164184663151 0.19274793286901881 0 -0.15361129879784891 0.20139719057542019 0 -0.14754997702249989 0.19123102061556399 0 -0.15791164184663151 0.19274793286901881 0 -0.14754997702249989 0.19123102061556399 0 -0.15378055215212841 0.1853342336718547 0 -0.15361129879784891 0.20139719057542019 0 -0.144337775963609 0.20069921068637719 0 -0.14754997702249989 0.19123102061556399 0 -0.14754997702249989 0.19123102061556399 0 -0.13411435042981179 0.19106266128805069 0 -0.1463292802833521 0.18023770330257241 0 -0.144337775963609 0.20069921068637719 0 -0.14754997702249989 0.19123102061556399 0 -0.13411435042981179 0.19106266128805069 0 -0.13411435042981179 0.19106266128805069 0 -0.12967955466007261 0.2074258594294596 0 -0.1235431789710726 0.1969801993001162 0 -0.13411435042981179 0.19106266128805069 0 -0.13770187294137159 0.2043383794177894 0 -0.12967955466007261 0.2074258594294596 0 -0.144337775963609 0.20069921068637719 0 -0.13411435042981179 0.19106266128805069 0 -0.13770187294137159 0.2043383794177894 0 -0.13770187294137159 0.2043383794177894 0 -0.13855706597983281 0.21350408889879899 0 -0.14247480998137141 0.20718589651263181 0 -0.1364941099723872 0.21575153757660309 0 -0.120958802369795 0.22183359367242919 0 -0.11894773722242739 0.20818951851535461 0 -0.12967955466007261 0.2074258594294596 0 -0.1364941099723872 0.21575153757660309 0 -0.11894773722242739 0.20818951851535461 0 -0.13770187294137159 0.2043383794177894 0 -0.12967955466007261 0.2074258594294596 0 -0.13855706597983281 0.21350408889879899 0 -0.1364941099723872 0.21575153757660309 0 -0.11894773722242739 0.20818951851535461 0 -0.12967955466007261 0.2074258594294596 0 -0.1364941099723872 0.21575153757660309 0 -0.13855706597983281 0.21350408889879899 0 -0.1364941099723872 0.21575153757660309 0 -0.13855706597983281 0.21350408889879899 0 -0.15922409650484359 0.2255475560397853 0 -0.1364941099723872 0.21575153757660309 0 -0.13855706597983281 0.21350408889879899 0 -0.15922409650484359 0.2255475560397853 0 -0.13855706597983281 0.21350408889879899 0 -0.14930252504067221 0.21020190704756139 0 -0.13855706597983281 0.21350408889879899 0 -0.14247480998137141 0.20718589651263181 0 -0.14930252504067221 0.21020190704756139 0 -0.144337775963609 0.20069921068637719 0 -0.14247480998137141 0.20718589651263181 0 -0.14930252504067221 0.21020190704756139 0 -0.144337775963609 0.20069921068637719 0 -0.13770187294137159 0.2043383794177894 0 -0.14247480998137141 0.20718589651263181 0 -0.15900733689739069 0.21062159977010589 0 -0.15361129879784891 0.20139719057542019 0 -0.14930252504067221 0.21020190704756139 0 -0.15361129879784891 0.20139719057542019 0 -0.144337775963609 0.20069921068637719 0 -0.14930252504067221 0.21020190704756139 0 -0.15922409650484359 0.2255475560397853 0 -0.15900733689739069 0.21062159977010589 0 -0.14930252504067221 0.21020190704756139 0 -0.15922409650484359 0.2255475560397853 0 -0.13635804662702189 0.23039018670563211 0 -0.14207867318260539 0.23889574066385899 0 -0.15922409650484359 0.2255475560397853 0 -0.1364941099723872 0.21575153757660309 0 -0.13635804662702189 0.23039018670563211 0 -0.15922409650484359 0.2255475560397853 0 -0.1364941099723872 0.21575153757660309 0 -0.1364941099723872 0.21575153757660309 0 -0.13635804662702189 0.23039018670563211 0 -0.11673432752768111 0.2372784614512472 0 -0.1364941099723872 0.21575153757660309 0 -0.11673432752768111 0.2372784614512472 0 -0.13635804662702189 0.23039018670563211 0 -0.12961957513534 0.23973743310435161 0 -0.11673432752768111 0.2372784614512472 0 -0.13635804662702189 0.23039018670563211 0 -0.12961957513534 0.23973743310435161 0 -0.14207867318260539 0.23889574066385899 0 -0.12961957513534 0.23973743310435161 0 -0.13357218109292621 0.2499317644564327 0 -0.1213089330464012 0.24626659804535689 0 -0.12961957513534 0.23973743310435161 0 -0.13357218109292621 0.2499317644564327 0 -0.14207867318260539 0.23889574066385899 0 -0.14746997276257359 0.25293699741112718 0 -0.13357218109292621 0.2499317644564327 0 -0.14207867318260539 0.23889574066385899 0 -0.15922409650484359 0.2255475560397853 0 -0.14207867318260539 0.23889574066385899 0 -0.155242522585569 0.24016045739440639 0 -0.14746997276257359 0.25293699741112718 0 -0.14207867318260539 0.23889574066385899 0 -0.155242522585569 0.24016045739440639 0 -0.16225317791305921 0.25358582624422438 0 -0.14746997276257359 0.25293699741112718 0 -0.155242522585569 0.24016045739440639 0 -0.166988808872575 0.14091924592242799 0 -0.1736883691443292 0.1501381655411517 0 -0.1666646902223726 0.16034837340756511 0 -0.166988808872575 0.14091924592242799 0 -0.1666646902223726 0.16034837340756511 0 -0.15580754279098399 0.143121943265237 0 -0.1666646902223726 0.16034837340756511 0 -0.1549726550285947 0.15674585516748279 0 -0.15580754279098399 0.143121943265237 0 -0.1666646902223726 0.16034837340756511 0 -0.15580754279098399 0.143121943265237 0 -0.1628447509754036 0.1248738178506951 0 -0.166988808872575 0.14091924592242799 0 -0.17824709647023271 0.1379937977022469 0 -0.1628447509754036 0.1248738178506951 0 -0.166988808872575 0.14091924592242799 0 -0.15580754279098399 0.143121943265237 0 -0.18039056500006781 0.12121373119240569 0 -0.1628447509754036 0.1248738178506951 0 -0.17824709647023271 0.1379937977022469 0 -0.19563802519160789 0.13807458821396759 0 -0.17824709647023271 0.1379937977022469 0 -0.18706065072040501 0.14468661846275019 0 -0.18039056500006781 0.12121373119240569 0 -0.19563802519160789 0.13807458821396759 0 -0.17824709647023271 0.1379937977022469 0 -0.17824709647023271 0.1379937977022469 0 -0.18706065072040501 0.14468661846275019 0 -0.1811623126986891 0.14793864394101769 0 -0.166988808872575 0.14091924592242799 0 -0.17824709647023271 0.1379937977022469 0 -0.1736883691443292 0.1501381655411517 0 -0.17824709647023271 0.1379937977022469 0 -0.1811623126986891 0.14793864394101769 0 -0.1736883691443292 0.1501381655411517 0 -0.1811623126986891 0.14793864394101769 0 -0.1736883691443292 0.1501381655411517 0 -0.17666515903818969 0.15970684649729899 0 -0.1811623126986891 0.14793864394101769 0 -0.1852646507768699 0.1545619776798173 0 -0.17666515903818969 0.15970684649729899 0 -0.18706065072040501 0.14468661846275019 0 -0.1811623126986891 0.14793864394101769 0 -0.1852646507768699 0.1545619776798173 0 -0.17752183765376101 0.1775748035498933 0 -0.1666646902223726 0.16034837340756511 0 -0.1927705130470404 0.15866088515044 0 -0.1852646507768699 0.1545619776798173 0 -0.18413510522225521 0.16259499244525211 0 -0.17666515903818969 0.15970684649729899 0 -0.17752183765376101 0.1775748035498933 0 -0.1666646902223726 0.16034837340756511 0 -0.1852646507768699 0.1545619776798173 0 -0.18413510522225521 0.16259499244525211 0 -0.17666515903818969 0.15970684649729899 0 -0.18413510522225521 0.16259499244525211 0 -0.17666515903818969 0.15970684649729899 0 -0.17752183765376101 0.1775748035498933 0 -0.19038698318195549 0.16711234260031069 0 -0.18413510522225521 0.16259499244525211 0 -0.17752183765376101 0.1775748035498933 0 -0.1736883691443292 0.1501381655411517 0 -0.17666515903818969 0.15970684649729899 0 -0.1666646902223726 0.16034837340756511 0 -0.17169787432773731 0.19155682751427069 0 -0.17752183765376101 0.1775748035498933 0 -0.16134243263699979 0.18146195783717889 0 -0.17752183765376101 0.1775748035498933 0 -0.160166055014445 0.16782332876165751 0 -0.17752183765376101 0.1775748035498933 0 -0.16134243263699979 0.18146195783717889 0 -0.160166055014445 0.16782332876165751 0 -0.16134243263699979 0.18146195783717889 0 -0.160166055014445 0.16782332876165751 0 -0.1543363168372556 0.17604552304072019 0 -0.16134243263699979 0.18146195783717889 0 -0.15378055215212841 0.1853342336718547 0 -0.1543363168372556 0.17604552304072019 0 -0.15791164184663151 0.19274793286901881 0 -0.16134243263699979 0.18146195783717889 0 -0.15378055215212841 0.1853342336718547 0 -0.17752183765376101 0.1775748035498933 0 -0.1666646902223726 0.16034837340756511 0 -0.160166055014445 0.16782332876165751 0 -0.1666646902223726 0.16034837340756511 0 -0.160166055014445 0.16782332876165751 0 -0.1549726550285947 0.15674585516748279 0 -0.160166055014445 0.16782332876165751 0 -0.1549726550285947 0.15674585516748279 0 -0.14281027237512919 0.15807185397342149 0 -0.160166055014445 0.16782332876165751 0 -0.14281027237512919 0.15807185397342149 0 -0.160166055014445 0.16782332876165751 0 -0.1483000089644074 0.1706867490983929 0 -0.14281027237512919 0.15807185397342149 0 -0.160166055014445 0.16782332876165751 0 -0.1483000089644074 0.1706867490983929 0 -0.1543363168372556 0.17604552304072019 0 -0.1483000089644074 0.1706867490983929 0 -0.14281027237512919 0.15807185397342149 0 -0.13856119746919621 0.1732320213376258 0 -0.14754997702249989 0.19123102061556399 0 -0.15378055215212841 0.1853342336718547 0 -0.1463292802833521 0.18023770330257241 0 -0.15378055215212841 0.1853342336718547 0 -0.1543363168372556 0.17604552304072019 0 -0.1463292802833521 0.18023770330257241 0 -0.1483000089644074 0.1706867490983929 0 -0.1543363168372556 0.17604552304072019 0 -0.1463292802833521 0.18023770330257241 0 -0.1483000089644074 0.1706867490983929 0 -0.1463292802833521 0.18023770330257241 0 -0.13856119746919621 0.1732320213376258 0 -0.13411435042981179 0.19106266128805069 0 -0.13856119746919621 0.1732320213376258 0 -0.12609153575556739 0.16924223779836581 0 -0.13411435042981179 0.19106266128805069 0 -0.12609153575556739 0.16924223779836581 0 -0.1152399272795421 0.1851742901109647 0 -0.13411435042981179 0.19106266128805069 0 -0.1463292802833521 0.18023770330257241 0 -0.13856119746919621 0.1732320213376258 0 -0.14281027237512919 0.15807185397342149 0 -0.12609153575556739 0.16924223779836581 0 -0.135520965557581 0.14756887546063741 0 -0.12609153575556739 0.16924223779836581 0 -0.135520965557581 0.14756887546063741 0 -0.14281027237512919 0.15807185397342149 0 -0.13856119746919621 0.1732320213376258 0 -0.12609153575556739 0.16924223779836581 0 -0.135520965557581 0.14756887546063741 0 -0.13028426483969929 0.13221647237215789 0 -0.1192914655824909 0.15059360814623801 0 -0.12609153575556739 0.16924223779836581 0 -0.135520965557581 0.14756887546063741 0 -0.1192914655824909 0.15059360814623801 0 -0.1549726550285947 0.15674585516748279 0 -0.14281027237512919 0.15807185397342149 0 -0.14652630769324659 0.14708303210739521 0 -0.14281027237512919 0.15807185397342149 0 -0.135520965557581 0.14756887546063741 0 -0.14652630769324659 0.14708303210739521 0 -0.1549726550285947 0.15674585516748279 0 -0.14652630769324659 0.14708303210739521 0 -0.15580754279098399 0.143121943265237 0 -0.1628447509754036 0.1248738178506951 0 -0.15580754279098399 0.143121943265237 0 -0.14495039535959489 0.12589551312290931 0 -0.135520965557581 0.14756887546063741 0 -0.14652630769324659 0.14708303210739521 0 -0.14495039535959489 0.12589551312290931 0 -0.15580754279098399 0.143121943265237 0 -0.14495039535959489 0.12589551312290931 0 -0.14652630769324659 0.14708303210739521 0 -0.15580754279098399 0.143121943265237 0 -0.14495039535959489 0.12589551312290931 0 -0.135520965557581 0.14756887546063741 0 -0.14495039535959489 0.12589551312290931 0 -0.135520965557581 0.14756887546063741 0 -0.14495039535959489 0.12589551312290931 0 -0.13028426483969929 0.13221647237215789 0 -0.13028426483969929 0.13221647237215789 0 -0.1131006250587715 0.12959615498317961 0 -0.1192914655824909 0.15059360814623801 0 -0.1131006250587715 0.12959615498317961 0 -0.10078539792307099 0.15464240809582361 0 -0.092802426943272898 0.12960292979422991 0 -0.1131006250587715 0.12959615498317961 0 -0.10078539792307099 0.15464240809582361 0 -0.1192914655824909 0.15059360814623801 0 -0.10078539792307099 0.15464240809582361 0 -0.1192914655824909 0.15059360814623801 0 -0.10897534263953949 0.16967833346669081 0 -0.12609153575556739 0.16924223779836581 0 -0.1192914655824909 0.15059360814623801 0 -0.10897534263953949 0.16967833346669081 0 -0.12609153575556739 0.16924223779836581 0 -0.1152399272795421 0.1851742901109647 0 -0.10897534263953949 0.16967833346669081 0 -0.1152399272795421 0.1851742901109647 0 -0.098409264142157865 0.1851788001203086 0 -0.10897534263953949 0.16967833346669081 0 -0.098409264142157865 0.1851788001203086 0 -0.10897534263953949 0.16967833346669081 0 -0.082277471490505807 0.17420718144711089 0 -0.10078539792307099 0.15464240809582361 0 -0.10897534263953949 0.16967833346669081 0 -0.082277471490505807 0.17420718144711089 0 -0.10078539792307099 0.15464240809582361 0 -0.082277471490505807 0.17420718144711089 0 -0.082277471490505807 0.17420718144711089 0 -0.065615427061545384 0.16058384892905991 0 -0.074642854581774637 0.14147916649728479 0 -0.10078539792307099 0.15464240809582361 0 -0.082277471490505807 0.17420718144711089 0 -0.074642854581774637 0.14147916649728479 0 -0.098409264142157865 0.1851788001203086 0 -0.082277471490505807 0.17420718144711089 0 -0.084152214828733252 0.19620669612267311 0 -0.082277471490505807 0.17420718144711089 0 -0.063769545057940663 0.19377195479839809 0 -0.082277471490505807 0.17420718144711089 0 -0.063769545057940663 0.19377195479839809 0 -0.051824687549248197 0.17345858692208871 0 -0.082277471490505807 0.17420718144711089 0 -0.065615427061545384 0.16058384892905991 0 -0.051824687549248197 0.17345858692208871 0 -0.074642854581774637 0.14147916649728479 0 -0.055186524828957063 0.1281687789626855 0 -0.07438317581125764 0.1124407737129243 0 -0.074642854581774637 0.14147916649728479 0 -0.092802426943272898 0.12960292979422991 0 -0.07438317581125764 0.1124407737129243 0 -0.10078539792307099 0.15464240809582361 0 -0.074642854581774637 0.14147916649728479 0 -0.092802426943272898 0.12960292979422991 0 -0.10058650277722481 0.24229521027045481 0 -0.11673432752768111 0.2372784614512472 0 -0.1053270170515283 0.2324499666522013 0 -0.096974545082976191 0.25880538532589209 0 -0.10058650277722481 0.24229521027045481 0 -0.088715331182393942 0.2449718195011524 0 -0.096974545082976191 0.25880538532589209 0 -0.10058650277722481 0.24229521027045481 0 -0.11673432752768111 0.2372784614512472 0 -0.096974545082976191 0.25880538532589209 0 -0.112097455783086 0.24444379951602521 0 -0.11673432752768111 0.2372784614512472 0 -0.096974545082976191 0.25880538532589209 0 -0.11673432752768111 0.2372784614512472 0 -0.10058650277722481 0.24229521027045481 0 -0.091983872440322634 0.23323291704093771 0 -0.088715331182393942 0.2449718195011524 0 -0.10058650277722481 0.24229521027045481 0 -0.1053270170515283 0.2324499666522013 0 -0.091983872440322634 0.23323291704093771 0 -0.11521273165378559 0.25497892835963998 0 -0.112097455783086 0.24444379951602521 0 -0.1213089330464012 0.24626659804535689 0 -0.112097455783086 0.24444379951602521 0 -0.1213089330464012 0.24626659804535689 0 -0.11673432752768111 0.2372784614512472 0 -0.12961957513534 0.23973743310435161 0 -0.1213089330464012 0.24626659804535689 0 -0.11673432752768111 0.2372784614512472 0 -0.11673432752768111 0.2372784614512472 0 -0.111977792011399 0.2261119040305537 0 -0.1053270170515283 0.2324499666522013 0 -0.1364941099723872 0.21575153757660309 0 -0.11673432752768111 0.2372784614512472 0 -0.120958802369795 0.22183359367242919 0 -0.11673432752768111 0.2372784614512472 0 -0.120958802369795 0.22183359367242919 0 -0.111977792011399 0.2261119040305537 0 -0.120958802369795 0.22183359367242919 0 -0.111977792011399 0.2261119040305537 0 -0.11263418842693861 0.21654350143059611 0 -0.111977792011399 0.2261119040305537 0 -0.1027476190553803 0.22153268259517769 0 -0.11263418842693861 0.21654350143059611 0 -0.1027476190553803 0.22153268259517769 0 -0.088008266818085573 0.21525264443096179 0 -0.091983872440322634 0.23323291704093771 0 -0.111977792011399 0.2261119040305537 0 -0.1027476190553803 0.22153268259517769 0 -0.1053270170515283 0.2324499666522013 0 -0.1027476190553803 0.22153268259517769 0 -0.1053270170515283 0.2324499666522013 0 -0.091983872440322634 0.23323291704093771 0 -0.1027476190553803 0.22153268259517769 0 -0.1014013644724687 0.20062749945410349 0 -0.088008266818085573 0.21525264443096179 0 -0.1027476190553803 0.22153268259517769 0 -0.11263418842693861 0.21654350143059611 0 -0.1014013644724687 0.20062749945410349 0 -0.11263418842693861 0.21654350143059611 0 -0.11894773722242739 0.20818951851535461 0 -0.1014013644724687 0.20062749945410349 0 -0.11894773722242739 0.20818951851535461 0 -0.1014013644724687 0.20062749945410349 0 -0.120958802369795 0.22183359367242919 0 -0.11263418842693861 0.21654350143059611 0 -0.11894773722242739 0.20818951851535461 0 -0.12967955466007261 0.2074258594294596 0 -0.11894773722242739 0.20818951851535461 0 -0.1235431789710726 0.1969801993001162 0 -0.11894773722242739 0.20818951851535461 0 -0.1235431789710726 0.1969801993001162 0 -0.1014013644724687 0.20062749945410349 0 -0.13411435042981179 0.19106266128805069 0 -0.1152399272795421 0.1851742901109647 0 -0.1235431789710726 0.1969801993001162 0 -0.1152399272795421 0.1851742901109647 0 -0.1235431789710726 0.1969801993001162 0 -0.1014013644724687 0.20062749945410349 0 -0.1152399272795421 0.1851742901109647 0 -0.098409264142157865 0.1851788001203086 0 -0.1014013644724687 0.20062749945410349 0 -0.098409264142157865 0.1851788001203086 0 -0.1014013644724687 0.20062749945410349 0 -0.084152214828733252 0.19620669612267311 0 -0.084152214828733252 0.19620669612267311 0 -0.063769545057940663 0.19377195479839809 0 -0.072142849724606259 0.2099260872470029 0 -0.082277471490505807 0.17420718144711089 0 -0.084152214828733252 0.19620669612267311 0 -0.063769545057940663 0.19377195479839809 0 -0.072142849724606259 0.2099260872470029 0 -0.088008266818085573 0.21525264443096179 0 -0.068407602306599244 0.22780678473085289 0 -0.084152214828733252 0.19620669612267311 0 -0.072142849724606259 0.2099260872470029 0 -0.088008266818085573 0.21525264443096179 0 -0.1014013644724687 0.20062749945410349 0 -0.084152214828733252 0.19620669612267311 0 -0.088008266818085573 0.21525264443096179 0 -0.091983872440322634 0.23323291704093771 0 -0.068407602306599244 0.22780678473085289 0 -0.080478212985736569 0.23984126859451149 0 -0.088008266818085573 0.21525264443096179 0 -0.091983872440322634 0.23323291704093771 0 -0.068407602306599244 0.22780678473085289 0 -0.073553522625709841 0.25068431627396631 0 -0.068407602306599244 0.22780678473085289 0 -0.080478212985736569 0.23984126859451149 0 -0.073553522625709841 0.25068431627396631 0 -0.068407602306599244 0.22780678473085289 0 -0.050132500168443887 0.2425632472220397 0 -0.073553522625709841 0.25068431627396631 0 -0.080478212985736569 0.23984126859451149 0 -0.088715331182393942 0.2449718195011524 0 -0.091983872440322634 0.23323291704093771 0 -0.080478212985736569 0.23984126859451149 0 -0.088715331182393942 0.2449718195011524 0 -0.050132500168443887 0.2425632472220397 0 -0.026711477711177899 0.23444217817011309 0 -0.029881977245259539 0.25372898958001938 0 -0.050132500168443887 0.2425632472220397 0 -0.026711477711177899 0.23444217817011309 0 -0.050132500168443887 0.2425632472220397 0 -0.042100384295285467 0.22888272761933071 0 -0.026711477711177899 0.23444217817011309 0 -0.073553522625709841 0.25068431627396631 0 -0.050132500168443887 0.2425632472220397 0 -0.068407602306599244 0.22780678473085289 0 -0.050132500168443887 0.2425632472220397 0 -0.042100384295285467 0.22888272761933071 0 -0.068407602306599244 0.22780678473085289 0 -0.042100384295285467 0.22888272761933071 0 -0.045261618625375449 0.21333672814968549 0 -0.045261618625375449 0.21333672814968549 0 -0.02675369219281019 0.23290150150097291 0 -0.045261618625375449 0.21333672814968549 0 -0.02772339752401377 0.22169904798743939 0 -0.02675369219281019 0.23290150150097291 0 -0.042100384295285467 0.22888272761933071 0 -0.045261618625375449 0.21333672814968549 0 -0.02675369219281019 0.23290150150097291 0 -0.042100384295285467 0.22888272761933071 0 -0.02675369219281019 0.23290150150097291 0 -0.026711477711177899 0.23444217817011309 0 -0.045261618625375449 0.21333672814968549 0 -0.025983012380334781 0.2115930184476672 0 -0.02772339752401377 0.22169904798743939 0 -0.045261618625375449 0.21333672814968549 0 -0.029252980350323681 0.1977376245802884 0 -0.025983012380334781 0.2115930184476672 0 -0.063769545057940663 0.19377195479839809 0 -0.045261618625375449 0.21333672814968549 0 -0.063769545057940663 0.19377195479839809 0 -0.072142849724606259 0.2099260872470029 0 -0.045261618625375449 0.21333672814968549 0 -0.072142849724606259 0.2099260872470029 0 -0.068407602306599244 0.22780678473085289 0 -0.045261618625375449 0.21333672814968549 0 -0.063769545057940663 0.19377195479839809 0 -0.045261618625375449 0.21333672814968549 0 -0.041349789320347038 0.18749549167170951 0 -0.029252980350323681 0.1977376245802884 0 -0.041349789320347038 0.18749549167170951 0 -0.02440704960050057 0.1813667693045137 0 -0.045261618625375449 0.21333672814968549 0 -0.029252980350323681 0.1977376245802884 0 -0.041349789320347038 0.18749549167170951 0 -0.029252980350323681 0.1977376245802884 0 -0.01949536222664228 0.1923427933584827 0 -0.02440704960050057 0.1813667693045137 0 -0.029252980350323681 0.1977376245802884 0 -0.019383630886315679 0.20246845033521829 0 -0.01949536222664228 0.1923427933584827 0 -0.019383630886315679 0.20246845033521829 0 -0.01949536222664228 0.1923427933584827 0 -0.011799668219416901 0.19617813045667529 0 -0.01949536222664228 0.1923427933584827 0 -0.011799668219416901 0.19617813045667529 0 -0.0099503170468955675 0.185467411183286 0 -0.0047591026019954026 0.19332022418589959 0 -0.011799668219416901 0.19617813045667529 0 -0.0099503170468955675 0.185467411183286 0 -0.0047591026019954026 0.19332022418589959 0 -0.003081975793268537 0.18782002811878001 0 -0.0099503170468955675 0.185467411183286 0 -0.0047591026019954026 0.19332022418589959 0 -2.3422743153838069e-05 0.1988005567515452 0 0.0015327128313205251 0.1915709431207247 0 -0.0047591026019954026 0.19332022418589959 0 -0.003081975793268537 0.18782002811878001 0 0.0015327128313205251 0.1915709431207247 0 -2.3422743153838069e-05 0.1988005567515452 0 -0.0064134676939889088 0.1997865992100484 0 -0.0042090490499692894 0.20625736901624969 0 -0.0047591026019954026 0.19332022418589959 0 -2.3422743153838069e-05 0.1988005567515452 0 -0.0064134676939889088 0.1997865992100484 0 -0.0047591026019954026 0.19332022418589959 0 -0.0064134676939889088 0.1997865992100484 0 -0.011799668219416901 0.19617813045667529 0 -0.019383630886315679 0.20246845033521829 0 -0.011799668219416901 0.19617813045667529 0 -0.01127609585540912 0.20437671563987239 0 -0.0064134676939889088 0.1997865992100484 0 -0.011799668219416901 0.19617813045667529 0 -0.01127609585540912 0.20437671563987239 0 -0.019383630886315679 0.20246845033521829 0 -0.01127609585540912 0.20437671563987239 0 -0.015975625416527989 0.21106072298800291 0 -0.0098363755348389904 0.2097806401996784 0 -0.01127609585540912 0.20437671563987239 0 -0.015975625416527989 0.21106072298800291 0 -0.0098363755348389904 0.2097806401996784 0 -0.01127609585540912 0.20437671563987239 0 -0.0042090490499692894 0.20625736901624969 0 -0.0042090490499692894 0.20625736901624969 0 0.00083142932333707279 0.21381627434491049 0 0.0029581381265264858 0.20519393183106241 0 -0.0064134676939889088 0.1997865992100484 0 -0.01127609585540912 0.20437671563987239 0 -0.0042090490499692894 0.20625736901624969 0 -0.0098363755348389904 0.2097806401996784 0 -0.0042090490499692894 0.20625736901624969 0 -0.0060196598873338584 0.21321125444391051 0 -2.3422743153838069e-05 0.1988005567515452 0 -0.0042090490499692894 0.20625736901624969 0 0.0029581381265264858 0.20519393183106241 0 -0.0055559642639475869 0.21913689448513271 0 0.0001093474821353509 0.22215689039817851 0 0.00083142932333707279 0.21381627434491049 0 -0.0060196598873338584 0.21321125444391051 0 -0.0055559642639475869 0.21913689448513271 0 0.00083142932333707279 0.21381627434491049 0 -0.0042090490499692894 0.20625736901624969 0 -0.0060196598873338584 0.21321125444391051 0 0.00083142932333707279 0.21381627434491049 0 -0.0060196598873338584 0.21321125444391051 0 -0.01091493828254137 0.21625783395607551 0 -0.0055559642639475869 0.21913689448513271 0 -0.01091493828254137 0.21625783395607551 0 -0.015975625416527989 0.21106072298800291 0 -0.017588491814277241 0.22188462813269769 0 -0.0098363755348389904 0.2097806401996784 0 -0.0060196598873338584 0.21321125444391051 0 -0.01091493828254137 0.21625783395607551 0 -0.0098363755348389904 0.2097806401996784 0 -0.01091493828254137 0.21625783395607551 0 -0.015975625416527989 0.21106072298800291 0 -0.015975625416527989 0.21106072298800291 0 -0.025983012380334781 0.2115930184476672 0 -0.017588491814277241 0.22188462813269769 0 -0.019383630886315679 0.20246845033521829 0 -0.015975625416527989 0.21106072298800291 0 -0.025983012380334781 0.2115930184476672 0 -0.029252980350323681 0.1977376245802884 0 -0.019383630886315679 0.20246845033521829 0 -0.025983012380334781 0.2115930184476672 0 -0.025983012380334781 0.2115930184476672 0 -0.02772339752401377 0.22169904798743939 0 -0.017588491814277241 0.22188462813269769 0 -0.02772339752401377 0.22169904798743939 0 -0.02675369219281019 0.23290150150097291 0 -0.022352419066048221 0.22652947853539249 0 -0.02675369219281019 0.23290150150097291 0 -0.017344094733091689 0.22963273652046001 0 -0.01246950101347712 0.23792538229425519 0 -0.02675369219281019 0.23290150150097291 0 -0.017344094733091689 0.22963273652046001 0 -0.022352419066048221 0.22652947853539249 0 -0.017344094733091689 0.22963273652046001 0 -0.017588491814277241 0.22188462813269769 0 -0.01350500053265637 0.2263729039251991 0 -0.017344094733091689 0.22963273652046001 0 -0.022352419066048221 0.22652947853539249 0 -0.017588491814277241 0.22188462813269769 0 -0.02772339752401377 0.22169904798743939 0 -0.022352419066048221 0.22652947853539249 0 -0.017588491814277241 0.22188462813269769 0 -0.01091493828254137 0.21625783395607551 0 -0.017588491814277241 0.22188462813269769 0 -0.01009356448405245 0.2229710377255022 0 -0.017588491814277241 0.22188462813269769 0 -0.01350500053265637 0.2263729039251991 0 -0.01009356448405245 0.2229710377255022 0 -0.01091493828254137 0.21625783395607551 0 -0.01009356448405245 0.2229710377255022 0 -0.0055559642639475869 0.21913689448513271 0 -0.01009356448405245 0.2229710377255022 0 -0.0055559642639475869 0.21913689448513271 0 -0.0046023563546483629 0.22639127835839259 0 -0.0055559642639475869 0.21913689448513271 0 -0.0046023563546483629 0.22639127835839259 0 0.0001093474821353509 0.22215689039817851 0 -0.0046023563546483629 0.22639127835839259 0 0.0010433620948100131 0.23240638127880581 0 0.0001093474821353509 0.22215689039817851 0 -0.0046023563546483629 0.22639127835839259 0 -0.0089938510992040935 0.23100321332213661 0 0.0010433620948100131 0.23240638127880581 0 -0.017344094733091689 0.22963273652046001 0 -0.0089938510992040935 0.23100321332213661 0 -0.01246950101347712 0.23792538229425519 0 -0.01009356448405245 0.2229710377255022 0 -0.0046023563546483629 0.22639127835839259 0 -0.0089938510992040935 0.23100321332213661 0 -0.017344094733091689 0.22963273652046001 0 -0.01350500053265637 0.2263729039251991 0 -0.0089938510992040935 0.23100321332213661 0 -0.01350500053265637 0.2263729039251991 0 -0.01009356448405245 0.2229710377255022 0 -0.0089938510992040935 0.23100321332213661 0 -0.0089938510992040935 0.23100321332213661 0 -0.001965278602122185 0.24182690426762959 0 0.0010433620948100131 0.23240638127880581 0 -0.0089938510992040935 0.23100321332213661 0 -0.01246950101347712 0.23792538229425519 0 -0.001965278602122185 0.24182690426762959 0 -0.0082457657602449386 0.25246627485226031 0 -0.01246950101347712 0.23792538229425519 0 -0.001965278602122185 0.24182690426762959 0 -0.0082457657602449386 0.25246627485226031 0 -0.02675369219281019 0.23290150150097291 0 -0.01246950101347712 0.23792538229425519 0 -0.029881977245259539 0.25372898958001938 0 -0.0082457657602449386 0.25246627485226031 0 -0.026711477711177899 0.23444217817011309 0 -0.0082457657602449386 0.25246627485226031 0 -0.02675369219281019 0.23290150150097291 0 -0.026711477711177899 0.23444217817011309 0 -0.0082457657602449386 0.25246627485226031 0 -0.02675369219281019 0.23290150150097291 0 -0.046893106203257602 0.1507880314475378 0 -0.033582854738693747 0.16530128627528251 0 -0.03096555907766051 0.14775731769023701 0 -0.035508455794597132 0.13046501110523001 0 -0.046893106203257602 0.1507880314475378 0 -0.03096555907766051 0.14775731769023701 0 -0.035508455794597132 0.13046501110523001 0 -0.046893106203257602 0.1507880314475378 0 -0.035508455794597132 0.13046501110523001 0 -0.055186524828957063 0.1281687789626855 0 -0.046893106203257602 0.1507880314475378 0 -0.035508455794597132 0.13046501110523001 0 -0.055186524828957063 0.1281687789626855 0 -0.04045215309894238 0.1165912735558266 0 -0.074642854581774637 0.14147916649728479 0 -0.055186524828957063 0.1281687789626855 0 -0.046893106203257602 0.1507880314475378 0 -0.065615427061545384 0.16058384892905991 0 -0.074642854581774637 0.14147916649728479 0 -0.046893106203257602 0.1507880314475378 0 -0.065615427061545384 0.16058384892905991 0 -0.046893106203257602 0.1507880314475378 0 -0.051824687549248197 0.17345858692208871 0 -0.063769545057940663 0.19377195479839809 0 -0.051824687549248197 0.17345858692208871 0 -0.041349789320347038 0.18749549167170951 0 -0.041349789320347038 0.18749549167170951 0 -0.033582854738693747 0.16530128627528251 0 -0.02440704960050057 0.1813667693045137 0 -0.051824687549248197 0.17345858692208871 0 -0.041349789320347038 0.18749549167170951 0 -0.033582854738693747 0.16530128627528251 0 -0.046893106203257602 0.1507880314475378 0 -0.051824687549248197 0.17345858692208871 0 -0.033582854738693747 0.16530128627528251 0 -0.033582854738693747 0.16530128627528251 0 -0.022139091883514501 0.16815071126606429 0 -0.02440704960050057 0.1813667693045137 0 -0.033582854738693747 0.16530128627528251 0 -0.022139091883514501 0.16815071126606429 0 -0.016648491277264341 0.15771365056650341 0 -0.033582854738693747 0.16530128627528251 0 -0.016648491277264341 0.15771365056650341 0 -0.03096555907766051 0.14775731769023701 0 -0.022139091883514501 0.16815071126606429 0 -0.02440704960050057 0.1813667693045137 0 -0.01283771780100665 0.17547196173435681 0 -0.01949536222664228 0.1923427933584827 0 -0.02440704960050057 0.1813667693045137 0 -0.0099503170468955675 0.185467411183286 0 -0.02440704960050057 0.1813667693045137 0 -0.0099503170468955675 0.185467411183286 0 -0.01283771780100665 0.17547196173435681 0 -0.0099503170468955675 0.185467411183286 0 -0.01283771780100665 0.17547196173435681 0 -0.00450206117857799 0.17688747855202069 0 -0.01283771780100665 0.17547196173435681 0 -0.00450206117857799 0.17688747855202069 0 -0.0026654791677323511 0.16604552865166611 0 -0.00450206117857799 0.17688747855202069 0 -0.0026654791677323511 0.16604552865166611 0 0.0024081860720475369 0.17557227428335351 0 -0.00450206117857799 0.17688747855202069 0 0.00053502205069707774 0.18188021690744111 0 0.0024081860720475369 0.17557227428335351 0 -0.0099503170468955675 0.185467411183286 0 -0.00450206117857799 0.17688747855202069 0 0.00053502205069707774 0.18188021690744111 0 -0.003081975793268537 0.18782002811878001 0 -0.0099503170468955675 0.185467411183286 0 0.00053502205069707774 0.18188021690744111 0 -0.022139091883514501 0.16815071126606429 0 -0.016648491277264341 0.15771365056650341 0 -0.0026654791677323511 0.16604552865166611 0 -0.022139091883514501 0.16815071126606429 0 -0.01283771780100665 0.17547196173435681 0 -0.0026654791677323511 0.16604552865166611 0 -0.016648491277264341 0.15771365056650341 0 -0.0026654791677323511 0.16604552865166611 0 0.00151890392611572 0.15456094484017679 0 -0.016648491277264341 0.15771365056650341 0 -0.0026654791677323511 0.16604552865166611 0 -0.0082797250895681185 0.13474448294352481 0 0.00151890392611572 0.15456094484017679 0 -0.016648491277264341 0.15771365056650341 0 -0.0082797250895681185 0.13474448294352481 0 0.00151890392611572 0.15456094484017679 0 -0.016648491277264341 0.15771365056650341 0 -0.03096555907766051 0.14775731769023701 0 -0.022194887374489752 0.13451860905663129 0 -0.016648491277264341 0.15771365056650341 0 -0.022194887374489752 0.13451860905663129 0 -0.0082797250895681185 0.13474448294352481 0 -0.035508455794597132 0.13046501110523001 0 -0.03096555907766051 0.14775731769023701 0 -0.022194887374489752 0.13451860905663129 0 -0.035508455794597132 0.13046501110523001 0 -0.022194887374489752 0.13451860905663129 0 -0.02222625157844095 0.1227088344756834 0 -0.022194887374489752 0.13451860905663129 0 -0.012678773622269129 0.1213748672570316 0 -0.02222625157844095 0.1227088344756834 0 -0.022194887374489752 0.13451860905663129 0 -0.0082797250895681185 0.13474448294352481 0 -0.012678773622269129 0.1213748672570316 0 -0.0082797250895681185 0.13474448294352481 0 -0.012678773622269129 0.1213748672570316 0 0.0010393500416724941 0.12595831854165979 0 -0.012678773622269129 0.1213748672570316 0 -0.0069683050282923539 0.11495619240176071 0 0.0010393500416724941 0.12595831854165979 0 -0.0069683050282923539 0.11495619240176071 0 0.00039794405216867472 0.112072386291362 0 0.0010393500416724941 0.12595831854165979 0 -0.012678773622269129 0.1213748672570316 0 -0.012248850971573841 0.1125208075020822 0 -0.01744198128355802 0.11503771634109559 0 -0.012678773622269129 0.1213748672570316 0 -0.012248850971573841 0.1125208075020822 0 -0.0069683050282923539 0.11495619240176071 0 -0.012248850971573841 0.1125208075020822 0 -0.0069683050282923539 0.11495619240176071 0 -0.0083997351711877014 0.10895079227570641 0 -0.0069683050282923539 0.11495619240176071 0 -0.0083997351711877014 0.10895079227570641 0 0.00039794405216867472 0.112072386291362 0 -0.011506603279544361 0.087618711973773578 0 0.0058206420146291954 0.1114089238878985 0 0.00039794405216867472 0.112072386291362 0 -0.015837719346710199 0.095350294128549784 0 -0.011506603279544361 0.087618711973773578 0 0.00039794405216867472 0.112072386291362 0 -0.011506603279544361 0.087618711973773578 0 0.0058206420146291954 0.1114089238878985 0 -0.015837719346710199 0.095350294128549784 0 0.00039794405216867472 0.112072386291362 0 -0.0083997351711877014 0.10895079227570641 0 -0.015837719346710199 0.095350294128549784 0 0.00039794405216867472 0.112072386291362 0 -0.011506603279544361 0.087618711973773578 0 0.0017142141577850001 0.096485027642689541 0 0.0058206420146291954 0.1114089238878985 0 -0.0083997351711877014 0.10895079227570641 0 -0.013221823848225379 0.1065091018144344 0 -0.015837719346710199 0.095350294128549784 0 -0.012248850971573841 0.1125208075020822 0 -0.0083997351711877014 0.10895079227570641 0 -0.013221823848225379 0.1065091018144344 0 -0.012248850971573841 0.1125208075020822 0 -0.013221823848225379 0.1065091018144344 0 -0.017997844109414411 0.1087655018954708 0 -0.017997844109414411 0.1087655018954708 0 -0.015837719346710199 0.095350294128549784 0 -0.024123805385937312 0.11014199076292169 0 -0.013221823848225379 0.1065091018144344 0 -0.017997844109414411 0.1087655018954708 0 -0.015837719346710199 0.095350294128549784 0 -0.024123805385937312 0.11014199076292169 0 -0.032300333499350402 0.090057470672271281 0 -0.015837719346710199 0.095350294128549784 0 -0.024123805385937312 0.11014199076292169 0 -0.032300333499350402 0.090057470672271281 0 -0.015837719346710199 0.095350294128549784 0 -0.024123805385937312 0.11014199076292169 0 -0.035508455794597132 0.13046501110523001 0 -0.024123805385937312 0.11014199076292169 0 -0.023307159817290739 0.1121479686184283 0 -0.035508455794597132 0.13046501110523001 0 -0.02222625157844095 0.1227088344756834 0 -0.023307159817290739 0.1121479686184283 0 -0.035508455794597132 0.13046501110523001 0 -0.024123805385937312 0.11014199076292169 0 -0.024123805385937312 0.11014199076292169 0 -0.023307159817290739 0.1121479686184283 0 -0.012678773622269129 0.1213748672570316 0 -0.02222625157844095 0.1227088344756834 0 -0.01744198128355802 0.11503771634109559 0 -0.02222625157844095 0.1227088344756834 0 -0.01744198128355802 0.11503771634109559 0 -0.023307159817290739 0.1121479686184283 0 -0.012248850971573841 0.1125208075020822 0 -0.017997844109414411 0.1087655018954708 0 -0.01744198128355802 0.11503771634109559 0 -0.017997844109414411 0.1087655018954708 0 -0.024123805385937312 0.11014199076292169 0 -0.023307159817290739 0.1121479686184283 0 -0.017997844109414411 0.1087655018954708 0 -0.01744198128355802 0.11503771634109559 0 -0.023307159817290739 0.1121479686184283 0 -0.0046988296279310846 0.075465987257500103 0 -0.004471055932428975 0.061346262570306953 0 0.0079626054049135586 0.052863747179962457 0 -0.0093767874180366029 0.073051079923104223 0 -0.014915188529848109 0.07157527628023079 0 -0.011506603279544361 0.087618711973773578 0 -0.0096267601800840239 0.066065855624376196 0 -0.01690032334888349 0.065021557104339434 0 -0.015766095144715799 0.059221925757037469 0 -0.0096267601800840239 0.066065855624376196 0 -0.014915188529848109 0.07157527628023079 0 -0.01690032334888349 0.065021557104339434 0 -0.0096267601800840239 0.066065855624376196 0 -0.0093767874180366029 0.073051079923104223 0 -0.014915188529848109 0.07157527628023079 0 -0.0096267601800840239 0.066065855624376196 0 -0.0046988296279310846 0.075465987257500103 0 -0.004471055932428975 0.061346262570306953 0 -0.0046988296279310846 0.075465987257500103 0 -0.0093767874180366029 0.073051079923104223 0 -0.0096267601800840239 0.066065855624376196 0 -0.0046988296279310846 0.075465987257500103 0 -0.0093767874180366029 0.073051079923104223 0 -0.0046988296279310846 0.075465987257500103 0 -0.011506603279544361 0.087618711973773578 0 -0.0046988296279310846 0.075465987257500103 0 -0.0093767874180366029 0.073051079923104223 0 -0.011506603279544361 0.087618711973773578 0 -0.0046988296279310846 0.075465987257500103 0 -0.011506603279544361 0.087618711973773578 0 0.00056903788424511365 0.086682396089073327 0 -0.011506603279544361 0.087618711973773578 0 0.00056903788424511365 0.086682396089073327 0 0.0017142141577850001 0.096485027642689541 0 -0.015837719346710199 0.095350294128549784 0 -0.011506603279544361 0.087618711973773578 0 -0.011506603279544361 0.087618711973773578 0 -0.028157290479737571 0.082661622355085798 0 -0.027165468422692102 0.066119176775560506 0 -0.015837719346710199 0.095350294128549784 0 -0.011506603279544361 0.087618711973773578 0 -0.028157290479737571 0.082661622355085798 0 -0.015837719346710199 0.095350294128549784 0 -0.028157290479737571 0.082661622355085798 0 -0.032300333499350402 0.090057470672271281 0 -0.015837719346710199 0.095350294128549784 0 -0.028157290479737571 0.082661622355085798 0 -0.014915188529848109 0.07157527628023079 0 -0.011506603279544361 0.087618711973773578 0 -0.027165468422692102 0.066119176775560506 0 -0.011506603279544361 0.087618711973773578 0 -0.027165468422692102 0.066119176775560506 0 -0.027165468422692102 0.066119176775560506 0 -0.01690032334888349 0.065021557104339434 0 -0.021155304748881689 0.062203044053262727 0 -0.014915188529848109 0.07157527628023079 0 -0.027165468422692102 0.066119176775560506 0 -0.01690032334888349 0.065021557104339434 0 -0.027165468422692102 0.066119176775560506 0 -0.040476861612764189 0.069972950581621118 0 -0.047888547298180387 0.051767161035057033 0 -0.028157290479737571 0.082661622355085798 0 -0.027165468422692102 0.066119176775560506 0 -0.040476861612764189 0.069972950581621118 0 -0.040476861612764189 0.069972950581621118 0 -0.049934811086014087 0.07186746235717667 0 -0.047859912164240369 0.063897566148078455 0 -0.028157290479737571 0.082661622355085798 0 -0.040476861612764189 0.069972950581621118 0 -0.040476861612764189 0.069972950581621118 0 -0.032300333499350402 0.090057470672271281 0 -0.028157290479737571 0.082661622355085798 0 -0.040476861612764189 0.069972950581621118 0 -0.032300333499350402 0.090057470672271281 0 -0.032300333499350402 0.090057470672271281 0 -0.052294403454901703 0.081174947256086191 0 -0.05578440732887191 0.096170589739797752 0 -0.040476861612764189 0.069972950581621118 0 -0.032300333499350402 0.090057470672271281 0 -0.052294403454901703 0.081174947256086191 0 -0.052294403454901703 0.081174947256086191 0 -0.05578440732887191 0.096170589739797752 0 -0.071620526940906107 0.087533684005701329 0 -0.052294403454901703 0.081174947256086191 0 -0.071620526940906107 0.087533684005701329 0 -0.062515526400001881 0.068377579792855414 0 -0.040476861612764189 0.069972950581621118 0 -0.052294403454901703 0.081174947256086191 0 -0.049934811086014087 0.07186746235717667 0 -0.052294403454901703 0.081174947256086191 0 -0.049934811086014087 0.07186746235717667 0 -0.062515526400001881 0.068377579792855414 0 -0.049934811086014087 0.07186746235717667 0 -0.052204780428632629 0.062945341387988421 0 -0.062515526400001881 0.068377579792855414 0 -0.052204780428632629 0.062945341387988421 0 -0.062515526400001881 0.068377579792855414 0 -0.055379183454653792 0.058514889464143828 0 -0.049934811086014087 0.07186746235717667 0 -0.052204780428632629 0.062945341387988421 0 -0.047859912164240369 0.063897566148078455 0 -0.024123805385937312 0.11014199076292169 0 -0.04045215309894238 0.1165912735558266 0 -0.041170092212669533 0.1046411265361262 0 -0.035508455794597132 0.13046501110523001 0 -0.024123805385937312 0.11014199076292169 0 -0.04045215309894238 0.1165912735558266 0 -0.04045215309894238 0.1165912735558266 0 -0.041170092212669533 0.1046411265361262 0 -0.052159737415513489 0.1112025467171566 0 -0.032300333499350402 0.090057470672271281 0 -0.041170092212669533 0.1046411265361262 0 -0.05578440732887191 0.096170589739797752 0 -0.024123805385937312 0.11014199076292169 0 -0.032300333499350402 0.090057470672271281 0 -0.041170092212669533 0.1046411265361262 0 -0.05578440732887191 0.096170589739797752 0 -0.052159737415513489 0.1112025467171566 0 -0.07438317581125764 0.1124407737129243 0 -0.041170092212669533 0.1046411265361262 0 -0.05578440732887191 0.096170589739797752 0 -0.052159737415513489 0.1112025467171566 0 -0.055186524828957063 0.1281687789626855 0 -0.04045215309894238 0.1165912735558266 0 -0.052159737415513489 0.1112025467171566 0 -0.055186524828957063 0.1281687789626855 0 -0.052159737415513489 0.1112025467171566 0 -0.07438317581125764 0.1124407737129243 0 -0.092802426943272898 0.12960292979422991 0 -0.07438317581125764 0.1124407737129243 0 -0.10110008134148971 0.1098561456819369 0 -0.07438317581125764 0.1124407737129243 0 -0.086834659998143784 0.098004038152668241 0 -0.10110008134148971 0.1098561456819369 0 -0.07438317581125764 0.1124407737129243 0 -0.086834659998143784 0.098004038152668241 0 -0.071620526940906107 0.087533684005701329 0 -0.05578440732887191 0.096170589739797752 0 -0.07438317581125764 0.1124407737129243 0 -0.071620526940906107 0.087533684005701329 0 -0.071620526940906107 0.087533684005701329 0 -0.062515526400001881 0.068377579792855414 0 -0.077633089280774809 0.070659037798975324 0 -0.062515526400001881 0.068377579792855414 0 -0.077633089280774809 0.070659037798975324 0 -0.069862538744371955 0.057777113150521288 0 -0.077633089280774809 0.070659037798975324 0 -0.081860045586377939 0.060182951188062161 0 -0.069862538744371955 0.057777113150521288 0 -0.077633089280774809 0.070659037798975324 0 -0.09054666164713164 0.067286880848174316 0 -0.081860045586377939 0.060182951188062161 0 -0.077633089280774809 0.070659037798975324 0 -0.09054666164713164 0.067286880848174316 0 -0.091096470542610469 0.082323341280698709 0 -0.071620526940906107 0.087533684005701329 0 -0.077633089280774809 0.070659037798975324 0 -0.091096470542610469 0.082323341280698709 0 -0.086834659998143784 0.098004038152668241 0 -0.071620526940906107 0.087533684005701329 0 -0.091096470542610469 0.082323341280698709 0 -0.086834659998143784 0.098004038152668241 0 -0.091096470542610469 0.082323341280698709 0 -0.1074822184466613 0.088136729408796272 0 -0.091096470542610469 0.082323341280698709 0 -0.1074822184466613 0.088136729408796272 0 -0.10104646070399111 0.074349611526457776 0 -0.1074822184466613 0.088136729408796272 0 -0.10104646070399111 0.074349611526457776 0 -0.1134486320906168 0.071653759806922179 0 -0.09054666164713164 0.067286880848174316 0 -0.10104646070399111 0.074349611526457776 0 -0.1026583207929353 0.062347346287697412 0 -0.09054666164713164 0.067286880848174316 0 -0.091096470542610469 0.082323341280698709 0 -0.10104646070399111 0.074349611526457776 0 -0.10104646070399111 0.074349611526457776 0 -0.1134486320906168 0.071653759806922179 0 -0.1026583207929353 0.062347346287697412 0 -0.1134486320906168 0.071653759806922179 0 -0.1169815729820268 0.057446916627697332 0 -0.1026583207929353 0.062347346287697412 0 -0.1134486320906168 0.071653759806922179 0 -0.12498233095038511 0.069533312171706482 0 -0.1248370695698198 0.083226530136874921 0 -0.1134486320906168 0.071653759806922179 0 -0.12498233095038511 0.069533312171706482 0 -0.1169815729820268 0.057446916627697332 0 -0.1074822184466613 0.088136729408796272 0 -0.1134486320906168 0.071653759806922179 0 -0.1248370695698198 0.083226530136874921 0 -0.12991930243541749 0.1020465165188278 0 -0.1074822184466613 0.088136729408796272 0 -0.1248370695698198 0.083226530136874921 0 -0.12991930243541749 0.1020465165188278 0 -0.1074822184466613 0.088136729408796272 0 -0.10110008134148971 0.1098561456819369 0 -0.12991930243541749 0.1020465165188278 0 -0.1131006250587715 0.12959615498317961 0 -0.10110008134148971 0.1098561456819369 0 -0.12991930243541749 0.1020465165188278 0 -0.13028426483969929 0.13221647237215789 0 -0.1131006250587715 0.12959615498317961 0 -0.1131006250587715 0.12959615498317961 0 -0.092802426943272898 0.12960292979422991 0 -0.10110008134148971 0.1098561456819369 0 -0.086834659998143784 0.098004038152668241 0 -0.1074822184466613 0.088136729408796272 0 -0.10110008134148971 0.1098561456819369 0 -0.1061587232064081 0.029080734372794698 0 -0.094449021505079139 0.018227913303066591 0 -0.1094215753963574 0.0115277712725063 0 -0.1061587232064081 0.029080734372794698 0 -0.094924595462104619 0.030399760044886301 0 -0.094449021505079139 0.018227913303066591 0 -0.094449021505079139 0.018227913303066591 0 -0.097507665945787692 0.0040820149966005574 0 -0.1094215753963574 0.0115277712725063 0 -0.097507665945787692 0.0040820149966005574 0 -0.1058521268010089 0.00073384547527136773 0 -0.1094215753963574 0.0115277712725063 0 -0.1152652699767374 -0.0044733142422073097 0 -0.1273771369441013 0.0023450629401116992 0 -0.1094215753963574 0.0115277712725063 0 -0.1152652699767374 -0.0044733142422073097 0 -0.1058521268010089 0.00073384547527136773 0 -0.1094215753963574 0.0115277712725063 0 -0.1273771369441013 0.0023450629401116992 0 -0.12537023626190849 0.01701499410391356 0 -0.1094215753963574 0.0115277712725063 0 -0.12537023626190849 0.01701499410391356 0 -0.1094215753963574 0.0115277712725063 0 -0.1154752524598698 0.02214949429500624 0 -0.12537023626190849 0.01701499410391356 0 -0.1154752524598698 0.02214949429500624 0 -0.120950474974805 0.030974477430810402 0 -0.1061587232064081 0.029080734372794698 0 -0.1094215753963574 0.0115277712725063 0 -0.1154752524598698 0.02214949429500624 0 -0.1061587232064081 0.029080734372794698 0 -0.1154752524598698 0.02214949429500624 0 -0.120950474974805 0.030974477430810402 0 -0.1304591025064194 0.044551821316570157 0 -0.120950474974805 0.030974477430810402 0 -0.112428546201817 0.041955624634692393 0 -0.1061587232064081 0.029080734372794698 0 -0.120950474974805 0.030974477430810402 0 -0.112428546201817 0.041955624634692393 0 -0.1304591025064194 0.044551821316570157 0 -0.112428546201817 0.041955624634692393 0 -0.1169815729820268 0.057446916627697332 0 -0.1311901693420546 0.060374133793646992 0 -0.12498233095038511 0.069533312171706482 0 -0.1169815729820268 0.057446916627697332 0 -0.112428546201817 0.041955624634692393 0 -0.1169815729820268 0.057446916627697332 0 -0.10210071185166431 0.050014029354961582 0 -0.1169815729820268 0.057446916627697332 0 -0.1026583207929353 0.062347346287697412 0 -0.10210071185166431 0.050014029354961582 0 -0.10210071185166431 0.050014029354961582 0 -0.091201579857211959 0.041080799774458047 0 -0.091131717688311603 0.055225201160547438 0 -0.1026583207929353 0.062347346287697412 0 -0.10210071185166431 0.050014029354961582 0 -0.091131717688311603 0.055225201160547438 0 -0.09054666164713164 0.067286880848174316 0 -0.1026583207929353 0.062347346287697412 0 -0.091131717688311603 0.055225201160547438 0 -0.1061587232064081 0.029080734372794698 0 -0.112428546201817 0.041955624634692393 0 -0.1016080011228369 0.039407166226836883 0 -0.112428546201817 0.041955624634692393 0 -0.10210071185166431 0.050014029354961582 0 -0.1016080011228369 0.039407166226836883 0 -0.10210071185166431 0.050014029354961582 0 -0.1016080011228369 0.039407166226836883 0 -0.091201579857211959 0.041080799774458047 0 -0.1061587232064081 0.029080734372794698 0 -0.094924595462104619 0.030399760044886301 0 -0.1016080011228369 0.039407166226836883 0 -0.094924595462104619 0.030399760044886301 0 -0.1016080011228369 0.039407166226836883 0 -0.091201579857211959 0.041080799774458047 0 -0.094924595462104619 0.030399760044886301 0 -0.091201579857211959 0.041080799774458047 0 -0.083613433652756419 0.02825823648094046 0 -0.091201579857211959 0.041080799774458047 0 -0.080163505572120847 0.038728335950810322 0 -0.0801262205712997 0.049966522982092462 0 -0.091201579857211959 0.041080799774458047 0 -0.080163505572120847 0.038728335950810322 0 -0.083613433652756419 0.02825823648094046 0 -0.080163505572120847 0.038728335950810322 0 -0.075199828102842814 0.032505994045140242 0 -0.083613433652756419 0.02825823648094046 0 -0.09054666164713164 0.067286880848174316 0 -0.091131717688311603 0.055225201160547438 0 -0.081860045586377939 0.060182951188062161 0 -0.091201579857211959 0.041080799774458047 0 -0.091131717688311603 0.055225201160547438 0 -0.0801262205712997 0.049966522982092462 0 -0.091131717688311603 0.055225201160547438 0 -0.0801262205712997 0.049966522982092462 0 -0.081860045586377939 0.060182951188062161 0 -0.0801262205712997 0.049966522982092462 0 -0.069862538744371955 0.057777113150521288 0 -0.06901267431079619 0.039797487593251017 0 -0.069862538744371955 0.057777113150521288 0 -0.06901267431079619 0.039797487593251017 0 -0.058907879691800273 0.050969475640674493 0 -0.062515526400001881 0.068377579792855414 0 -0.069862538744371955 0.057777113150521288 0 -0.058907879691800273 0.050969475640674493 0 -0.0801262205712997 0.049966522982092462 0 -0.081860045586377939 0.060182951188062161 0 -0.069862538744371955 0.057777113150521288 0 -0.06901267431079619 0.039797487593251017 0 -0.068009698875697827 0.023239916155559141 0 -0.055300232983598208 0.033561371488493641 0 -0.075199828102842814 0.032505994045140242 0 -0.06901267431079619 0.039797487593251017 0 -0.068009698875697827 0.023239916155559141 0 -0.080163505572120847 0.038728335950810322 0 -0.075199828102842814 0.032505994045140242 0 -0.06901267431079619 0.039797487593251017 0 -0.080163505572120847 0.038728335950810322 0 -0.0801262205712997 0.049966522982092462 0 -0.06901267431079619 0.039797487593251017 0 -0.068009698875697827 0.023239916155559141 0 -0.066123158358303874 0.0069763394170788487 0 -0.055300232983598208 0.033561371488493641 0 -0.068009698875697827 0.023239916155559141 0 -0.083613433652756419 0.02825823648094046 0 -0.080050012301679602 0.015705407900093959 0 -0.068009698875697827 0.023239916155559141 0 -0.080050012301679602 0.015705407900093959 0 -0.07274845615251338 0.0135364418571977 0 -0.075199828102842814 0.032505994045140242 0 -0.068009698875697827 0.023239916155559141 0 -0.083613433652756419 0.02825823648094046 0 -0.094449021505079139 0.018227913303066591 0 -0.083613433652756419 0.02825823648094046 0 -0.080050012301679602 0.015705407900093959 0 -0.094924595462104619 0.030399760044886301 0 -0.094449021505079139 0.018227913303066591 0 -0.083613433652756419 0.02825823648094046 0 -0.089124004628701792 -0.0040277377021705899 0 -0.097507665945787692 0.0040820149966005574 0 -0.086098134196158846 0.0059583430860626887 0 -0.094449021505079139 0.018227913303066591 0 -0.080050012301679602 0.015705407900093959 0 -0.086098134196158846 0.0059583430860626887 0 -0.094449021505079139 0.018227913303066591 0 -0.097507665945787692 0.0040820149966005574 0 -0.086098134196158846 0.0059583430860626887 0 -0.080050012301679602 0.015705407900093959 0 -0.086098134196158846 0.0059583430860626887 0 -0.076810955074372203 0.0082241039560588727 0 -0.079764572027605563 -0.001208843295517239 0 -0.086098134196158846 0.0059583430860626887 0 -0.076810955074372203 0.0082241039560588727 0 -0.079764572027605563 -0.001208843295517239 0 -0.089124004628701792 -0.0040277377021705899 0 -0.086098134196158846 0.0059583430860626887 0 -0.079764572027605563 -0.001208843295517239 0 -0.076810955074372203 0.0082241039560588727 0 -0.066123158358303874 0.0069763394170788487 0 -0.068009698875697827 0.023239916155559141 0 -0.07274845615251338 0.0135364418571977 0 -0.066123158358303874 0.0069763394170788487 0 -0.076810955074372203 0.0082241039560588727 0 -0.07274845615251338 0.0135364418571977 0 -0.066123158358303874 0.0069763394170788487 0 -0.080050012301679602 0.015705407900093959 0 -0.076810955074372203 0.0082241039560588727 0 -0.07274845615251338 0.0135364418571977 0 -0.047617207273071643 -0.0035118018543059538 0 -0.059664616745900671 -0.0040500510012267867 0 -0.050798470683601923 0.01183886002179501 0 -0.059664616745900671 -0.0040500510012267867 0 -0.066123158358303874 0.0069763394170788487 0 -0.050798470683601923 0.01183886002179501 0 -0.059664616745900671 -0.0040500510012267867 0 -0.050798470683601923 0.01183886002179501 0 -0.047617207273071643 -0.0035118018543059538 0 -0.050798470683601923 0.01183886002179501 0 -0.050798470683601923 0.01183886002179501 0 -0.055300232983598208 0.033561371488493641 0 -0.04692109718252771 0.035386244484329407 0 -0.066123158358303874 0.0069763394170788487 0 -0.055300232983598208 0.033561371488493641 0 -0.066123158358303874 0.0069763394170788487 0 -0.050798470683601923 0.01183886002179501 0 -0.055300232983598208 0.033561371488493641 0 -0.050798470683601923 0.01183886002179501 0 -0.055300232983598208 0.033561371488493641 0 -0.050798470683601923 0.01183886002179501 0 -0.034391162446891957 0.018187238464497092 0 -0.037793901381418679 0.035144188298954319 0 -0.034391162446891957 0.018187238464497092 0 -0.037793901381418679 0.035144188298954319 0 -0.022455882408961961 0.026825405924253771 0 -0.050798470683601923 0.01183886002179501 0 -0.037793901381418679 0.035144188298954319 0 -0.050798470683601923 0.01183886002179501 0 -0.04692109718252771 0.035386244484329407 0 -0.037793901381418679 0.035144188298954319 0 -0.050798470683601923 0.01183886002179501 0 -0.034391162446891957 0.018187238464497092 0 -0.03671052455766443 0.0037031618858211421 0 -0.034391162446891957 0.018187238464497092 0 -0.03671052455766443 0.0037031618858211421 0 -0.022890364083827771 0.01081673007749915 0 -0.047617207273071643 -0.0035118018543059538 0 -0.050798470683601923 0.01183886002179501 0 -0.03671052455766443 0.0037031618858211421 0 -0.062515526400001881 0.068377579792855414 0 -0.058907879691800273 0.050969475640674493 0 -0.062515526400001881 0.068377579792855414 0 -0.055379183454653792 0.058514889464143828 0 -0.058907879691800273 0.050969475640674493 0 -0.052204780428632629 0.062945341387988421 0 -0.047859912164240369 0.063897566148078455 0 -0.047888547298180387 0.051767161035057033 0 -0.052204780428632629 0.062945341387988421 0 -0.055379183454653792 0.058514889464143828 0 -0.047888547298180387 0.051767161035057033 0 -0.055379183454653792 0.058514889464143828 0 -0.058907879691800273 0.050969475640674493 0 -0.047888547298180387 0.051767161035057033 0 -0.06901267431079619 0.039797487593251017 0 -0.058907879691800273 0.050969475640674493 0 -0.055300232983598208 0.033561371488493641 0 -0.047888547298180387 0.051767161035057033 0 -0.055300232983598208 0.033561371488493641 0 -0.04692109718252771 0.035386244484329407 0 -0.058907879691800273 0.050969475640674493 0 -0.047888547298180387 0.051767161035057033 0 -0.055300232983598208 0.033561371488493641 0 -0.047888547298180387 0.051767161035057033 0 -0.055300232983598208 0.033561371488493641 0 -0.058907879691800273 0.050969475640674493 0 -0.055300232983598208 0.033561371488493641 0 -0.037793901381418679 0.035144188298954319 0 -0.024789332079235359 0.058449516576113518 0 -0.047888547298180387 0.051767161035057033 0 -0.04692109718252771 0.035386244484329407 0 -0.042824333565839388 0.044619641577347061 0 -0.037793901381418679 0.035144188298954319 0 -0.042824333565839388 0.044619641577347061 0 -0.024789332079235359 0.058449516576113518 0 -0.04692109718252771 0.035386244484329407 0 -0.037793901381418679 0.035144188298954319 0 -0.042824333565839388 0.044619641577347061 0 -0.027165468422692102 0.066119176775560506 0 -0.047888547298180387 0.051767161035057033 0 -0.042824333565839388 0.044619641577347061 0 -0.040476861612764189 0.069972950581621118 0 -0.047859912164240369 0.063897566148078455 0 -0.047888547298180387 0.051767161035057033 0 -0.040476861612764189 0.069972950581621118 0 -0.047888547298180387 0.051767161035057033 0 -0.027165468422692102 0.066119176775560506 0 -0.042824333565839388 0.044619641577347061 0 -0.027165468422692102 0.066119176775560506 0 -0.042824333565839388 0.044619641577347061 0 -0.024789332079235359 0.058449516576113518 0 -0.015766095144715799 0.059221925757037469 0 -0.024789332079235359 0.058449516576113518 0 -0.0190365636870411 0.05257699221554326 0 -0.015766095144715799 0.059221925757037469 0 -0.021155304748881689 0.062203044053262727 0 -0.024789332079235359 0.058449516576113518 0 -0.01690032334888349 0.065021557104339434 0 -0.015766095144715799 0.059221925757037469 0 -0.021155304748881689 0.062203044053262727 0 -0.027165468422692102 0.066119176775560506 0 -0.021155304748881689 0.062203044053262727 0 -0.024789332079235359 0.058449516576113518 0 -0.024789332079235359 0.058449516576113518 0 -0.0190365636870411 0.05257699221554326 0 -0.02501616098884394 0.043295095323351421 0 -0.0190365636870411 0.05257699221554326 0 -0.02501616098884394 0.043295095323351421 0 -0.010574666535369299 0.049341431205670631 0 -0.037793901381418679 0.035144188298954319 0 -0.024789332079235359 0.058449516576113518 0 -0.02501616098884394 0.043295095323351421 0 -0.037793901381418679 0.035144188298954319 0 -0.02501616098884394 0.043295095323351421 0 -0.022455882408961961 0.026825405924253771 0 -0.02501616098884394 0.043295095323351421 0 -0.01174883101074616 0.035626247072063598 0 -0.022455882408961961 0.026825405924253771 0 -0.02501616098884394 0.043295095323351421 0 -0.01174883101074616 0.035626247072063598 0 -0.010574666535369299 0.049341431205670631 0 -0.01174883101074616 0.035626247072063598 0 -0.010574666535369299 0.049341431205670631 0 0.0050554059078342702 0.036817447586302399 0 -0.010574666535369299 0.049341431205670631 0 -0.004471055932428975 0.061346262570306953 0 0.0079626054049135586 0.052863747179962457 0 -0.015766095144715799 0.059221925757037469 0 -0.0190365636870411 0.05257699221554326 0 -0.010574666535369299 0.049341431205670631 0 -0.015766095144715799 0.059221925757037469 0 -0.010574666535369299 0.049341431205670631 0 -0.004471055932428975 0.061346262570306953 0 -0.0096267601800840239 0.066065855624376196 0 -0.015766095144715799 0.059221925757037469 0 -0.004471055932428975 0.061346262570306953 0 -0.025670282478897081 -0.0054027298625421993 0 -0.03671052455766443 0.0037031618858211421 0 -0.022890364083827771 0.01081673007749915 0 -0.025670282478897081 -0.0054027298625421993 0 -0.022890364083827771 0.01081673007749915 0 -0.010105069976996849 0.0023765649732562961 0 -0.022890364083827771 0.01081673007749915 0 -0.022455882408961961 0.026825405924253771 0 -0.0028948745420432241 0.01788293630915707 0 -0.034391162446891957 0.018187238464497092 0 -0.022890364083827771 0.01081673007749915 0 -0.022455882408961961 0.026825405924253771 0 -0.01174883101074616 0.035626247072063598 0 -0.022455882408961961 0.026825405924253771 0 -0.0028948745420432241 0.01788293630915707 0 -0.01174883101074616 0.035626247072063598 0 -0.0028948745420432241 0.01788293630915707 0 0.0050554059078342702 0.036817447586302399 0 -0.022890364083827771 0.01081673007749915 0 -0.0028948745420432241 0.01788293630915707 0 -0.010105069976996849 0.0023765649732562961 0 -0.0028948745420432241 0.01788293630915707 0 -0.010105069976996849 0.0023765649732562961 0 0.0047038114401232534 -0.001040937293712483 0 -0.0028948745420432241 0.01788293630915707 0 0.020415517075116841 0.0076517724901667356 0 0.0047038114401232534 -0.001040937293712483 0 -0.0028948745420432241 0.01788293630915707 0 0.020342672512877309 0.02491627604112644 0 0.020415517075116841 0.0076517724901667356 0 -0.0028948745420432241 0.01788293630915707 0 0.020342672512877309 0.02491627604112644 0 0.0050554059078342702 0.036817447586302399 0 0.020342672512877309 0.02491627604112644 0 0.020415517075116841 0.0076517724901667356 0 0.04034715667016759 0.018897687307637179 0 0.020342672512877309 0.02491627604112644 0 0.02507841675544124 0.048354097280414877 0 0.04034715667016759 0.018897687307637179 0 0.0079626054049135586 0.052863747179962457 0 0.02507841675544124 0.048354097280414877 0 0.010722424996073881 0.068121568230846891 0 -0.010574666535369299 0.049341431205670631 0 0.0079626054049135586 0.052863747179962457 0 0.0050554059078342702 0.036817447586302399 0 0.0079626054049135586 0.052863747179962457 0 0.0050554059078342702 0.036817447586302399 0 0.02507841675544124 0.048354097280414877 0 0.020342672512877309 0.02491627604112644 0 0.0050554059078342702 0.036817447586302399 0 0.02507841675544124 0.048354097280414877 0 0.02507841675544124 0.048354097280414877 0 0.050251726499931808 0.044842678424317363 0 0.039807943620716157 0.068946520475498749 0 0.050251726499931808 0.044842678424317363 0 0.039807943620716157 0.068946520475498749 0 0.02507841675544124 0.048354097280414877 0 0.050251726499931808 0.044842678424317363 0 0.04034715667016759 0.018897687307637179 0 0.050251726499931808 0.044842678424317363 0 0.060695509379147472 0.02073883637313596 0 0.066628286533047365 0.040173783681243101 0 0.050251726499931808 0.044842678424317363 0 0.060695509379147472 0.02073883637313596 0 0.050251726499931808 0.044842678424317363 0 0.066628286533047365 0.040173783681243101 0 0.063756980967503582 0.059761195325569103 0 0.050251726499931808 0.044842678424317363 0 0.063756980967503582 0.059761195325569103 0 0.039807943620716157 0.068946520475498749 0 0.020415517075116841 0.0076517724901667356 0 0.04034715667016759 0.018897687307637179 0 0.039787151186370009 -0.0039594854922263374 0 0.04034715667016759 0.018897687307637179 0 0.053306813386582982 0.0056008818424343951 0 0.039787151186370009 -0.0039594854922263374 0 0.050251726499931808 0.044842678424317363 0 0.04034715667016759 0.018897687307637179 0 0.060695509379147472 0.02073883637313596 0 0.04034715667016759 0.018897687307637179 0 0.060695509379147472 0.02073883637313596 0 0.053306813386582982 0.0056008818424343951 0 0.060695509379147472 0.02073883637313596 0 0.053306813386582982 0.0056008818424343951 0 0.065940651683257009 0.0024831850618150888 0 0.060695509379147472 0.02073883637313596 0 0.065940651683257009 0.0024831850618150888 0 0.07992851590561921 0.0082161523869754144 0 0.065940651683257009 0.0024831850618150888 0 0.07992851590561921 0.0082161523869754144 0 0.074177093133044117 -0.010507922444979889 0 0.07992851590561921 0.0082161523869754144 0 0.1009244284881298 0.0078078577834924806 0 0.09649789417263642 -0.0037639840011086311 0 0.07992851590561921 0.0082161523869754144 0 0.1009244284881298 0.0078078577834924806 0 0.09893654195113713 0.02570505514797651 0 0.07992851590561921 0.0082161523869754144 0 0.08516149451907469 0.032589503251719387 0 0.07992851590561921 0.0082161523869754144 0 0.08516149451907469 0.032589503251719387 0 0.09893654195113713 0.02570505514797651 0 0.060695509379147472 0.02073883637313596 0 0.07992851590561921 0.0082161523869754144 0 0.08516149451907469 0.032589503251719387 0 0.060695509379147472 0.02073883637313596 0 0.066628286533047365 0.040173783681243101 0 0.08516149451907469 0.032589503251719387 0 0.066628286533047365 0.040173783681243101 0 0.076734924211177571 0.049535316522237388 0 0.08516149451907469 0.032589503251719387 0 0.066628286533047365 0.040173783681243101 0 0.063756980967503582 0.059761195325569103 0 0.076734924211177571 0.049535316522237388 0 0.063756980967503582 0.059761195325569103 0 0.076734924211177571 0.049535316522237388 0 0.078896317813284711 0.063130005487330554 0 0.076734924211177571 0.049535316522237388 0 0.090394473132530156 0.056962854116463339 0 0.078896317813284711 0.063130005487330554 0 0.090394473132530156 0.056962854116463339 0 0.08516149451907469 0.032589503251719387 0 0.076734924211177571 0.049535316522237388 0 0.090394473132530156 0.056962854116463339 0 0.08516149451907469 0.032589503251719387 0 0.090394473132530156 0.056962854116463339 0 0.08516149451907469 0.032589503251719387 0 0.096764564946639139 0.043178279343160431 0 0.08516149451907469 0.032589503251719387 0 0.096764564946639139 0.043178279343160431 0 0.09893654195113713 0.02570505514797651 0 0.096764564946639139 0.043178279343160431 0 0.10666951487556919 0.040720151324231749 0 0.09893654195113713 0.02570505514797651 0 0.096764564946639139 0.043178279343160431 0 0.10666951487556919 0.040720151324231749 0 0.10388747543703999 0.053358399551525167 0 0.10666951487556919 0.040720151324231749 0 0.1142736493139349 0.03087626799389703 0 0.09893654195113713 0.02570505514797651 0 0.10388747543703999 0.053358399551525167 0 0.11892469151436 0.060175562481194378 0 0.096340815718618328 0.066677421107029802 0 0.090394473132530156 0.056962854116463339 0 0.10388747543703999 0.053358399551525167 0 0.096340815718618328 0.066677421107029802 0 0.090394473132530156 0.056962854116463339 0 0.096764564946639139 0.043178279343160431 0 0.10388747543703999 0.053358399551525167 0 0.10666951487556919 0.040720151324231749 0 0.10388747543703999 0.053358399551525167 0 0.1137328545953389 0.049471119462924477 0 0.1137328545953389 0.049471119462924477 0 0.11892469151436 0.060175562481194378 0 0.12367169586596689 0.04413069599522032 0 0.10388747543703999 0.053358399551525167 0 0.1137328545953389 0.049471119462924477 0 0.11892469151436 0.060175562481194378 0 0.10666951487556919 0.040720151324231749 0 0.12367169586596689 0.04413069599522032 0 0.1142736493139349 0.03087626799389703 0 0.12367169586596689 0.04413069599522032 0 0.1142736493139349 0.03087626799389703 0 0.13034027439662041 0.028127834929059549 0 0.10666951487556919 0.040720151324231749 0 0.1137328545953389 0.049471119462924477 0 0.12367169586596689 0.04413069599522032 0 0.1142736493139349 0.03087626799389703 0 0.111750219480381 0.015697602572997061 0 0.13034027439662041 0.028127834929059549 0 0.11917198148314 0.002581966002757949 0 0.13034027439662041 0.028127834929059549 0 0.111750219480381 0.015697602572997061 0 0.11917198148314 0.002581966002757949 0 0.13034027439662041 0.028127834929059549 0 0.11917198148314 0.002581966002757949 0 0.1309849453148588 0.01811654968683717 0 0.1228376310831711 -0.00076623140119310329 0 0.11917198148314 0.002581966002757949 0 0.1228376310831711 -0.00076623140119310329 0 0.11917198148314 0.002581966002757949 0 0.1133629416093747 0.002418872237081233 0 0.1105415625726717 -0.0014271332550589229 0 0.11917198148314 0.002581966002757949 0 0.1133629416093747 0.002418872237081233 0 0.11092652002007269 0.0067640166461111727 0 0.1133629416093747 0.002418872237081233 0 0.1078625722471533 0.0022823866337398822 0 0.1105415625726717 -0.0014271332550589229 0 0.1133629416093747 0.002418872237081233 0 0.11092652002007269 0.0067640166461111727 0 0.1078625722471533 0.0022823866337398822 0 0.111750219480381 0.015697602572997061 0 0.11917198148314 0.002581966002757949 0 0.11092652002007269 0.0067640166461111727 0 0.111750219480381 0.015697602572997061 0 0.11092652002007269 0.0067640166461111727 0 0.1009244284881298 0.0078078577834924806 0 0.1078625722471533 0.0022823866337398822 0 0.1009244284881298 0.0078078577834924806 0 0.1039166904039584 -0.0028966343462391718 0 0.11092652002007269 0.0067640166461111727 0 0.1078625722471533 0.0022823866337398822 0 0.1009244284881298 0.0078078577834924806 0 0.1009244284881298 0.0078078577834924806 0 0.1039166904039584 -0.0028966343462391718 0 0.09649789417263642 -0.0037639840011086311 0 0.111750219480381 0.015697602572997061 0 0.1009244284881298 0.0078078577834924806 0 0.09893654195113713 0.02570505514797651 0 0.1142736493139349 0.03087626799389703 0 0.111750219480381 0.015697602572997061 0 0.09893654195113713 0.02570505514797651 0 0.10086043035944101 0.1057095558459509 0 0.088353675930770217 0.1090445403681379 0 0.098136173783193614 0.12855261503670501 0 0.10086043035944101 0.1057095558459509 0 0.11707998843366239 0.12090166170324231 0 0.098136173783193614 0.12855261503670501 0 0.10086043035944101 0.1057095558459509 0 0.11707998843366239 0.12090166170324231 0 0.12018819637303869 0.10164151191590461 0 0.11707998843366239 0.12090166170324231 0 0.12018819637303869 0.10164151191590461 0 0.1368974078767736 0.107501873099266 0 0.10086043035944101 0.1057095558459509 0 0.12018819637303869 0.10164151191590461 0 0.11039993896964689 0.089589601033300492 0 0.12018819637303869 0.10164151191590461 0 0.1225478872688979 0.090713611373926736 0 0.11039993896964689 0.089589601033300492 0 0.1225478872688979 0.090713611373926736 0 0.1210037722340596 0.082520495593825793 0 0.11039993896964689 0.089589601033300492 0 0.1210037722340596 0.082520495593825793 0 0.11039993896964689 0.089589601033300492 0 0.1079674466630436 0.07575227550831827 0 0.1243405792371938 0.066503547411893488 0 0.1152310018430296 0.068591719667449438 0 0.13121537104960351 0.072689189806444385 0 0.1152310018430296 0.068591719667449438 0 0.1079674466630436 0.07575227550831827 0 0.13121537104960351 0.072689189806444385 0 0.11892469151436 0.060175562481194378 0 0.1152310018430296 0.068591719667449438 0 0.096340815718618328 0.066677421107029802 0 0.1210037722340596 0.082520495593825793 0 0.1079674466630436 0.07575227550831827 0 0.13121537104960351 0.072689189806444385 0 0.1079674466630436 0.07575227550831827 0 0.13121537104960351 0.072689189806444385 0 0.11892469151436 0.060175562481194378 0 0.1243405792371938 0.066503547411893488 0 0.1152310018430296 0.068591719667449438 0 0.090394473132530156 0.056962854116463339 0 0.096340815718618328 0.066677421107029802 0 0.095627451745985609 0.081336204981207194 0 0.11892469151436 0.060175562481194378 0 0.096340815718618328 0.066677421107029802 0 0.1152310018430296 0.068591719667449438 0 0.1079674466630436 0.07575227550831827 0 0.096340815718618328 0.066677421107029802 0 0.1079674466630436 0.07575227550831827 0 0.096340815718618328 0.066677421107029802 0 0.095627451745985609 0.081336204981207194 0 0.10086043035944101 0.1057095558459509 0 0.095627451745985609 0.081336204981207194 0 0.10086043035944101 0.1057095558459509 0 0.095627451745985609 0.081336204981207194 0 0.085469831166676849 0.087436677031336632 0 0.10086043035944101 0.1057095558459509 0 0.11039993896964689 0.089589601033300492 0 0.095627451745985609 0.081336204981207194 0 0.11039993896964689 0.089589601033300492 0 0.1079674466630436 0.07575227550831827 0 0.095627451745985609 0.081336204981207194 0 0.095627451745985609 0.081336204981207194 0 0.085469831166676849 0.087436677031336632 0 0.085588317529406169 0.073238424790440806 0 0.085469831166676849 0.087436677031336632 0 0.085588317529406169 0.073238424790440806 0 0.076873554133312927 0.079435143693455501 0 0.085469831166676849 0.087436677031336632 0 0.070098818600398835 0.095008337279511162 0 0.081838863589211913 0.097859807548057495 0 0.085588317529406169 0.073238424790440806 0 0.078896317813284711 0.063130005487330554 0 0.076873554133312927 0.079435143693455501 0 0.090394473132530156 0.056962854116463339 0 0.095627451745985609 0.081336204981207194 0 0.090394473132530156 0.056962854116463339 0 0.095627451745985609 0.081336204981207194 0 0.085588317529406169 0.073238424790440806 0 0.090394473132530156 0.056962854116463339 0 0.085588317529406169 0.073238424790440806 0 0.078896317813284711 0.063130005487330554 0 0.063756980967503582 0.059761195325569103 0 0.076873554133312927 0.079435143693455501 0 0.058428932400687923 0.080576723114904505 0 0.063756980967503582 0.059761195325569103 0 0.078896317813284711 0.063130005487330554 0 0.076873554133312927 0.079435143693455501 0 0.076873554133312927 0.079435143693455501 0 0.070098818600398835 0.095008337279511162 0 0.058428932400687923 0.080576723114904505 0 0.085469831166676849 0.087436677031336632 0 0.076873554133312927 0.079435143693455501 0 0.070098818600398835 0.095008337279511162 0 0.076873554133312927 0.079435143693455501 0 0.070098818600398835 0.095008337279511162 0 0.070098818600398835 0.095008337279511162 0 0.063324083067484813 0.1105815308655668 0 0.056772327777908818 0.093355456469435216 0 0.070098818600398835 0.095008337279511162 0 0.073686861685182473 0.1058294153104071 0 0.063324083067484813 0.1105815308655668 0 0.070098818600398835 0.095008337279511162 0 0.063324083067484813 0.1105815308655668 0 0.070098818600398835 0.095008337279511162 0 0.073686861685182473 0.1058294153104071 0 0.081838863589211913 0.097859807548057495 0 0.10086043035944101 0.1057095558459509 0 0.088353675930770217 0.1090445403681379 0 0.081838863589211913 0.097859807548057495 0 0.10086043035944101 0.1057095558459509 0 0.085469831166676849 0.087436677031336632 0 0.081838863589211913 0.097859807548057495 0 0.073686861685182473 0.1058294153104071 0 0.081838863589211913 0.097859807548057495 0 0.081058066011519173 0.11973636453468819 0 0.081838863589211913 0.097859807548057495 0 0.081058066011519173 0.11973636453468819 0 0.088353675930770217 0.1090445403681379 0 0.081838863589211913 0.097859807548057495 0 0.081058066011519173 0.11973636453468819 0 0.081058066011519173 0.11973636453468819 0 0.098136173783193614 0.12855261503670501 0 0.088353675930770217 0.1090445403681379 0 0.081058066011519173 0.11973636453468819 0 0.098136173783193614 0.12855261503670501 0 0.081058066011519173 0.11973636453468819 0 0.063324083067484813 0.1105815308655668 0 0.068402942841081005 0.12865021266463919 0 0.081058066011519173 0.11973636453468819 0 0.063324083067484813 0.1105815308655668 0 0.073686861685182473 0.1058294153104071 0 0.081058066011519173 0.11973636453468819 0 0.063324083067484813 0.1105815308655668 0 0.063324083067484813 0.1105815308655668 0 0.047212646671147621 0.11637508280246631 0 0.046344121904492837 0.10181594669612309 0 0.063324083067484813 0.1105815308655668 0 0.047212646671147621 0.11637508280246631 0 0.054704645729867107 0.1303951701743557 0 0.063324083067484813 0.1105815308655668 0 0.054704645729867107 0.1303951701743557 0 0.068402942841081005 0.12865021266463919 0 0.063324083067484813 0.1105815308655668 0 0.054704645729867107 0.1303951701743557 0 0.063324083067484813 0.1105815308655668 0 0.046344121904492837 0.10181594669612309 0 0.056772327777908818 0.093355456469435216 0 0.063324083067484813 0.1105815308655668 0 0.046344121904492837 0.10181594669612309 0 0.046344121904492837 0.10181594669612309 0 0.056772327777908818 0.093355456469435216 0 0.045320775007697253 0.087378911453508054 0 0.046344121904492837 0.10181594669612309 0 0.0293641607415005 0.093050362526680058 0 0.027539824430943272 0.097260859315675907 0 0.046344121904492837 0.10181594669612309 0 0.0293641607415005 0.093050362526680058 0 0.046344121904492837 0.10181594669612309 0 0.045320775007697253 0.087378911453508054 0 0.0293641607415005 0.093050362526680058 0 0.046344121904492837 0.10181594669612309 0 0.034802580128522533 0.108370238657299 0 0.027539824430943272 0.097260859315675907 0 0.047212646671147621 0.11637508280246631 0 0.046344121904492837 0.10181594669612309 0 0.034802580128522533 0.108370238657299 0 0.034802580128522533 0.108370238657299 0 0.02295827912300942 0.1143792008990337 0 0.036209801575650402 0.12755429465012871 0 0.047212646671147621 0.11637508280246631 0 0.054704645729867107 0.1303951701743557 0 0.036209801575650402 0.12755429465012871 0 0.047212646671147621 0.11637508280246631 0 0.034802580128522533 0.108370238657299 0 0.036209801575650402 0.12755429465012871 0 0.063756980967503582 0.059761195325569103 0 0.058428932400687923 0.080576723114904505 0 0.039807943620716157 0.068946520475498749 0 0.058428932400687923 0.080576723114904505 0 0.045320775007697253 0.087378911453508054 0 0.039807943620716157 0.068946520475498749 0 0.070098818600398835 0.095008337279511162 0 0.058428932400687923 0.080576723114904505 0 0.056772327777908818 0.093355456469435216 0 0.058428932400687923 0.080576723114904505 0 0.056772327777908818 0.093355456469435216 0 0.045320775007697253 0.087378911453508054 0 0.039807943620716157 0.068946520475498749 0 0.02523443473854358 0.074793540318702806 0 0.0293641607415005 0.093050362526680058 0 0.045320775007697253 0.087378911453508054 0 0.039807943620716157 0.068946520475498749 0 0.0293641607415005 0.093050362526680058 0 0.039807943620716157 0.068946520475498749 0 0.0293641607415005 0.093050362526680058 0 0.02507841675544124 0.048354097280414877 0 0.039807943620716157 0.068946520475498749 0 0.02523443473854358 0.074793540318702806 0 0.02523443473854358 0.074793540318702806 0 0.01233266555678463 0.084258174892090337 0 0.010722424996073881 0.068121568230846891 0 0.02507841675544124 0.048354097280414877 0 0.02523443473854358 0.074793540318702806 0 0.010722424996073881 0.068121568230846891 0 0.0293641607415005 0.093050362526680058 0 0.01233266555678463 0.084258174892090337 0 0.0293641607415005 0.093050362526680058 0 0.01233266555678463 0.084258174892090337 0 0.019584721545335231 0.095933386042030777 0 0.02523443473854358 0.074793540318702806 0 0.0293641607415005 0.093050362526680058 0 0.01233266555678463 0.084258174892090337 0 -0.0046988296279310846 0.075465987257500103 0 0.01233266555678463 0.084258174892090337 0 -0.0046988296279310846 0.075465987257500103 0 0.00056903788424511365 0.086682396089073327 0 0.01233266555678463 0.084258174892090337 0 0.01233266555678463 0.084258174892090337 0 0.019584721545335231 0.095933386042030777 0 0.0096773837387348072 0.094713106344260181 0 0.00056903788424511365 0.086682396089073327 0 0.0096773837387348072 0.094713106344260181 0 0.0017142141577850001 0.096485027642689541 0 0.00056903788424511365 0.086682396089073327 0 0.01233266555678463 0.084258174892090337 0 0.0096773837387348072 0.094713106344260181 0 -0.0046988296279310846 0.075465987257500103 0 0.0079626054049135586 0.052863747179962457 0 -0.0046988296279310846 0.075465987257500103 0 0.01233266555678463 0.084258174892090337 0 0.010722424996073881 0.068121568230846891 0 -0.0046988296279310846 0.075465987257500103 0 0.0079626054049135586 0.052863747179962457 0 0.010722424996073881 0.068121568230846891 0 0.02295827912300942 0.1143792008990337 0 0.016633607451047409 0.12879447845417449 0 0.036209801575650402 0.12755429465012871 0 0.02295827912300942 0.1143792008990337 0 0.02320798257890765 0.1047443639128517 0 0.017264926825327171 0.1093249123190818 0 0.02295827912300942 0.1143792008990337 0 0.017264926825327171 0.1093249123190818 0 0.01360187540002143 0.11722717171449371 0 0.02295827912300942 0.1143792008990337 0 0.01360187540002143 0.11722717171449371 0 0.016633607451047409 0.12879447845417449 0 0.034802580128522533 0.108370238657299 0 0.027539824430943272 0.097260859315675907 0 0.02320798257890765 0.1047443639128517 0 0.034802580128522533 0.108370238657299 0 0.02295827912300942 0.1143792008990337 0 0.02320798257890765 0.1047443639128517 0 0.0293641607415005 0.093050362526680058 0 0.027539824430943272 0.097260859315675907 0 0.019584721545335231 0.095933386042030777 0 0.027539824430943272 0.097260859315675907 0 0.019584721545335231 0.095933386042030777 0 0.02320798257890765 0.1047443639128517 0 0.0293641607415005 0.093050362526680058 0 0.027539824430943272 0.097260859315675907 0 0.019584721545335231 0.095933386042030777 0 0.02320798257890765 0.1047443639128517 0 0.01504081682007688 0.10253598369847031 0 0.02320798257890765 0.1047443639128517 0 0.017264926825327171 0.1093249123190818 0 0.01504081682007688 0.10253598369847031 0 0.0088228464681819972 0.10238366970120689 0 0.01151568020462046 0.1077378413705596 0 0.0058206420146291954 0.1114089238878985 0 0.017264926825327171 0.1093249123190818 0 0.01504081682007688 0.10253598369847031 0 0.01151568020462046 0.1077378413705596 0 0.01504081682007688 0.10253598369847031 0 0.0088228464681819972 0.10238366970120689 0 0.01151568020462046 0.1077378413705596 0 0.019584721545335231 0.095933386042030777 0 0.01504081682007688 0.10253598369847031 0 0.0096773837387348072 0.094713106344260181 0 0.01504081682007688 0.10253598369847031 0 0.0088228464681819972 0.10238366970120689 0 0.0096773837387348072 0.094713106344260181 0 0.0088228464681819972 0.10238366970120689 0 0.0096773837387348072 0.094713106344260181 0 0.0017142141577850001 0.096485027642689541 0 0.0088228464681819972 0.10238366970120689 0 0.0017142141577850001 0.096485027642689541 0 0.0058206420146291954 0.1114089238878985 0 0.0058206420146291954 0.1114089238878985 0 0.00039794405216867472 0.112072386291362 0 0.01360187540002143 0.11722717171449371 0 0.00039794405216867472 0.112072386291362 0 0.016633607451047409 0.12879447845417449 0 0.00039794405216867472 0.112072386291362 0 0.01360187540002143 0.11722717171449371 0 0.016633607451047409 0.12879447845417449 0 0.00039794405216867472 0.112072386291362 0 0.0010393500416724941 0.12595831854165979 0 0.016633607451047409 0.12879447845417449 0 0.01151568020462046 0.1077378413705596 0 0.0058206420146291954 0.1114089238878985 0 0.01360187540002143 0.11722717171449371 0 0.017264926825327171 0.1093249123190818 0 0.01151568020462046 0.1077378413705596 0 0.01360187540002143 0.11722717171449371 0 -0.0082797250895681185 0.13474448294352481 0 0.0010393500416724941 0.12595831854165979 0 0.01291562537333717 0.14373886088149129 0 0.0010393500416724941 0.12595831854165979 0 0.016633607451047409 0.12879447845417449 0 0.01291562537333717 0.14373886088149129 0 0.016633607451047409 0.12879447845417449 0 0.030096440749716711 0.14309687622970299 0 0.036209801575650402 0.12755429465012871 0 0.016633607451047409 0.12879447845417449 0 0.030096440749716711 0.14309687622970299 0 0.01291562537333717 0.14373886088149129 0 0.030096440749716711 0.14309687622970299 0 0.01291562537333717 0.14373886088149129 0 0.026789162612504271 0.15663130254031199 0 0.01291562537333717 0.14373886088149129 0 0.015650655317666261 0.15865613344587939 0 0.026789162612504271 0.15663130254031199 0 0.01291562537333717 0.14373886088149129 0 0.00151890392611572 0.15456094484017679 0 0.015650655317666261 0.15865613344587939 0 -0.0082797250895681185 0.13474448294352481 0 0.01291562537333717 0.14373886088149129 0 0.00151890392611572 0.15456094484017679 0 0.00151890392611572 0.15456094484017679 0 0.01131753294179963 0.17437740673682869 0 0.00151890392611572 0.15456094484017679 0 0.012386788017382491 0.1641388541230504 0 0.01131753294179963 0.17437740673682869 0 -0.0026654791677323511 0.16604552865166611 0 0.00151890392611572 0.15456094484017679 0 0.01131753294179963 0.17437740673682869 0 -0.0026654791677323511 0.16604552865166611 0 0.01131753294179963 0.17437740673682869 0 0.012386788017382491 0.1641388541230504 0 0.01131753294179963 0.17437740673682869 0 0.021060059883948341 0.16896093146931659 0 0.00151890392611572 0.15456094484017679 0 0.012386788017382491 0.1641388541230504 0 0.015650655317666261 0.15865613344587939 0 0.0072367552089822543 0.1840346549744645 0 0.003085550936940849 0.18695469644268639 0 0.007927604969267173 0.18944813828794729 0 0.0072367552089822543 0.1840346549744645 0 0.003085550936940849 0.18695469644268639 0 0.00053502205069707774 0.18188021690744111 0 -0.003081975793268537 0.18782002811878001 0 0.003085550936940849 0.18695469644268639 0 0.00053502205069707774 0.18188021690744111 0 0.0072367552089822543 0.1840346549744645 0 0.00053502205069707774 0.18188021690744111 0 0.0082701590199136289 0.17900500476799119 0 -0.0026654791677323511 0.16604552865166611 0 0.0024081860720475369 0.17557227428335351 0 0.01131753294179963 0.17437740673682869 0 0.0024081860720475369 0.17557227428335351 0 0.01131753294179963 0.17437740673682869 0 0.0082701590199136289 0.17900500476799119 0 0.00053502205069707774 0.18188021690744111 0 0.0024081860720475369 0.17557227428335351 0 0.0082701590199136289 0.17900500476799119 0 0.01131753294179963 0.17437740673682869 0 0.013543000689093809 0.1790660034635034 0 0.021389494149062459 0.18037885708243739 0 0.01131753294179963 0.17437740673682869 0 0.013543000689093809 0.1790660034635034 0 0.01131753294179963 0.17437740673682869 0 0.013543000689093809 0.1790660034635034 0 0.0082701590199136289 0.17900500476799119 0 0.013543000689093809 0.1790660034635034 0 0.0115175493401282 0.18523262863701309 0 0.016985704636488509 0.19275209946522329 0 0.0072367552089822543 0.1840346549744645 0 0.0082701590199136289 0.17900500476799119 0 0.0115175493401282 0.18523262863701309 0 0.013543000689093809 0.1790660034635034 0 0.0082701590199136289 0.17900500476799119 0 0.0115175493401282 0.18523262863701309 0 0.0072367552089822543 0.1840346549744645 0 0.0115175493401282 0.18523262863701309 0 0.007927604969267173 0.18944813828794729 0 0.021389494149062459 0.18037885708243739 0 0.039453436217199322 0.18340126598870379 0 0.013543000689093809 0.1790660034635034 0 0.021389494149062459 0.18037885708243739 0 0.02230428843080948 0.19662630733770359 0 0.013543000689093809 0.1790660034635034 0 0.021389494149062459 0.18037885708243739 0 0.01131753294179963 0.17437740673682869 0 0.021389494149062459 0.18037885708243739 0 0.01131753294179963 0.17437740673682869 0 0.021389494149062459 0.18037885708243739 0 0.021060059883948341 0.16896093146931659 0 0.021389494149062459 0.18037885708243739 0 0.021060059883948341 0.16896093146931659 0 0.034487576316221548 0.17006964541133651 0 0.021389494149062459 0.18037885708243739 0 0.036772518206031037 0.18954494233072339 0 0.012386788017382491 0.1641388541230504 0 0.015650655317666261 0.15865613344587939 0 0.021060059883948341 0.16896093146931659 0 0.015650655317666261 0.15865613344587939 0 0.021060059883948341 0.16896093146931659 0 0.026789162612504271 0.15663130254031199 0 0.021060059883948341 0.16896093146931659 0 0.026789162612504271 0.15663130254031199 0 0.034487576316221548 0.17006964541133651 0 0.026789162612504271 0.15663130254031199 0 0.034487576316221548 0.17006964541133651 0 0.046085208392249437 0.15020880948314461 0 0.034487576316221548 0.17006964541133651 0 0.049790080527993393 0.16878629006039211 0 0.046085208392249437 0.15020880948314461 0 0.021389494149062459 0.18037885708243739 0 0.039453436217199322 0.18340126598870379 0 0.036772518206031037 0.18954494233072339 0 0.021389494149062459 0.18037885708243739 0 0.034487576316221548 0.17006964541133651 0 0.039453436217199322 0.18340126598870379 0 0.034487576316221548 0.17006964541133651 0 0.039453436217199322 0.18340126598870379 0 0.049790080527993393 0.16878629006039211 0 0.039453436217199322 0.18340126598870379 0 0.057517378285335978 0.18642367489497111 0 0.049790080527993393 0.16878629006039211 0 0.057517378285335978 0.18642367489497111 0 0.06670876632053821 0.16536039993208129 0 0.039453436217199322 0.18340126598870379 0 0.057517378285335978 0.18642367489497111 0 0.039453436217199322 0.18340126598870379 0 0.057517378285335978 0.18642367489497111 0 0.046621016020550923 0.1898787739154234 0 0.057517378285335978 0.18642367489497111 0 0.049790080527993393 0.16878629006039211 0 0.06670876632053821 0.16536039993208129 0 0.056759789081437029 0.15816783404816359 0 0.049790080527993393 0.16878629006039211 0 0.06670876632053821 0.16536039993208129 0 0.056759789081437029 0.15816783404816359 0 0.049790080527993393 0.16878629006039211 0 0.046085208392249437 0.15020880948314461 0 0.056759789081437029 0.15816783404816359 0 0.046085208392249437 0.15020880948314461 0 0.06445510108496709 0.14831583671703669 0 0.054704645729867107 0.1303951701743557 0 0.046085208392249437 0.15020880948314461 0 0.06445510108496709 0.14831583671703669 0 0.054704645729867107 0.1303951701743557 0 0.046085208392249437 0.15020880948314461 0 0.054704645729867107 0.1303951701743557 0 0.036209801575650402 0.12755429465012871 0 0.046085208392249437 0.15020880948314461 0 0.030096440749716711 0.14309687622970299 0 0.036209801575650402 0.12755429465012871 0 0.046085208392249437 0.15020880948314461 0 0.030096440749716711 0.14309687622970299 0 0.026789162612504271 0.15663130254031199 0 0.046085208392249437 0.15020880948314461 0 0.02117589590128718 0.2395927914801684 0 0.012156823249103331 0.25259817100369902 0 0.030652172791378579 0.25229956247347313 0 0.02117589590128718 0.2395927914801684 0 0.034188277432347557 0.23988537883147459 0 0.030652172791378579 0.25229956247347313 0 0.02117589590128718 0.2395927914801684 0 0.030323397599499081 0.22959965211839081 0 0.034188277432347557 0.23988537883147459 0 -0.0082457657602449386 0.25246627485226031 0 -0.001965278602122185 0.24182690426762959 0 0.012156823249103331 0.25259817100369902 0 0.02117589590128718 0.2395927914801684 0 0.008579196815527634 0.23953031834541311 0 0.012156823249103331 0.25259817100369902 0 -0.001965278602122185 0.24182690426762959 0 0.008579196815527634 0.23953031834541311 0 0.012156823249103331 0.25259817100369902 0 -0.001965278602122185 0.24182690426762959 0 0.008579196815527634 0.23953031834541311 0 0.0010433620948100131 0.23240638127880581 0 0.02117589590128718 0.2395927914801684 0 0.008579196815527634 0.23953031834541311 0 0.01115565641706814 0.2303537873583584 0 0.008579196815527634 0.23953031834541311 0 0.01115565641706814 0.2303537873583584 0 0.0010433620948100131 0.23240638127880581 0 0.01115565641706814 0.2303537873583584 0 0.0010433620948100131 0.23240638127880581 0 0.0091084557899102862 0.2202403998025296 0 0.0010433620948100131 0.23240638127880581 0 0.0001093474821353509 0.22215689039817851 0 0.0091084557899102862 0.2202403998025296 0 0.01115565641706814 0.2303537873583584 0 0.0091084557899102862 0.2202403998025296 0 0.016496999093422449 0.223541986747673 0 0.0091084557899102862 0.2202403998025296 0 0.016496999093422449 0.223541986747673 0 0.01612020317490017 0.2152275371535412 0 0.016496999093422449 0.223541986747673 0 0.02147394042148347 0.23028557103733549 0 0.024626739663750161 0.22160263838659999 0 0.016496999093422449 0.223541986747673 0 0.024626739663750161 0.22160263838659999 0 0.01612020317490017 0.2152275371535412 0 0.01115565641706814 0.2303537873583584 0 0.016496999093422449 0.223541986747673 0 0.02147394042148347 0.23028557103733549 0 0.02117589590128718 0.2395927914801684 0 0.01115565641706814 0.2303537873583584 0 0.02147394042148347 0.23028557103733549 0 0.02147394042148347 0.23028557103733549 0 0.030323397599499081 0.22959965211839081 0 0.024626739663750161 0.22160263838659999 0 0.02117589590128718 0.2395927914801684 0 0.02147394042148347 0.23028557103733549 0 0.030323397599499081 0.22959965211839081 0 0.024626739663750161 0.22160263838659999 0 0.027508903383077599 0.21474836631904051 0 0.034268755792753257 0.2207932912834846 0 0.030323397599499081 0.22959965211839081 0 0.024626739663750161 0.22160263838659999 0 0.034268755792753257 0.2207932912834846 0 0.027508903383077599 0.21474836631904051 0 0.023943201944243639 0.1999111919537408 0 0.034268755792753257 0.2207932912834846 0 0.023943201944243639 0.1999111919537408 0 0.034268755792753257 0.2207932912834846 0 0.027508903383077599 0.21474836631904051 0 0.023922045305692211 0.20684028787671799 0 0.022699459496289199 0.2141990688659105 0 0.024626739663750161 0.22160263838659999 0 0.027508903383077599 0.21474836631904051 0 0.022699459496289199 0.2141990688659105 0 0.027508903383077599 0.21474836631904051 0 0.023922045305692211 0.20684028787671799 0 0.023943201944243639 0.1999111919537408 0 0.01896544066016782 0.20973745132843891 0 0.01612020317490017 0.2152275371535412 0 0.013247665380499421 0.20734461508933349 0 0.023922045305692211 0.20684028787671799 0 0.01896544066016782 0.20973745132843891 0 0.022699459496289199 0.2141990688659105 0 0.023922045305692211 0.20684028787671799 0 0.021734838082019509 0.20302577286306159 0 0.023943201944243639 0.1999111919537408 0 0.023922045305692211 0.20684028787671799 0 0.018650848458870179 0.20436341187488569 0 0.021734838082019509 0.20302577286306159 0 0.023922045305692211 0.20684028787671799 0 0.018650848458870179 0.20436341187488569 0 0.01896544066016782 0.20973745132843891 0 0.018650848458870179 0.20436341187488569 0 0.01896544066016782 0.20973745132843891 0 0.013247665380499421 0.20734461508933349 0 0.024626739663750161 0.22160263838659999 0 0.022699459496289199 0.2141990688659105 0 0.01612020317490017 0.2152275371535412 0 0.01896544066016782 0.20973745132843891 0 0.022699459496289199 0.2141990688659105 0 0.01612020317490017 0.2152275371535412 0 0.01612020317490017 0.2152275371535412 0 0.0085100262700745465 0.21094865931476009 0 0.013247665380499421 0.20734461508933349 0 0.0091084557899102862 0.2202403998025296 0 0.01612020317490017 0.2152275371535412 0 0.0085100262700745465 0.21094865931476009 0 0.0001093474821353509 0.22215689039817851 0 0.0091084557899102862 0.2202403998025296 0 0.00083142932333707279 0.21381627434491049 0 0.0091084557899102862 0.2202403998025296 0 0.0085100262700745465 0.21094865931476009 0 0.00083142932333707279 0.21381627434491049 0 0.0085100262700745465 0.21094865931476009 0 0.00083142932333707279 0.21381627434491049 0 0.0029581381265264858 0.20519393183106241 0 0.0085100262700745465 0.21094865931476009 0 0.0029581381265264858 0.20519393183106241 0 0.0087942658252738396 0.20386919766718339 0 0.0029581381265264858 0.20519393183106241 0 0.0087942658252738396 0.20386919766718339 0 0.0056326315351633537 0.2004899601979887 0 0.0085100262700745465 0.21094865931476009 0 0.0087942658252738396 0.20386919766718339 0 0.013247665380499421 0.20734461508933349 0 0.0087942658252738396 0.20386919766718339 0 0.013247665380499421 0.20734461508933349 0 0.013927284278231049 0.2027684573698135 0 0.018650848458870179 0.20436341187488569 0 0.013247665380499421 0.20734461508933349 0 0.013927284278231049 0.2027684573698135 0 0.013927284278231049 0.2027684573698135 0 0.010260103200158849 0.1991700010832006 0 0.016231602148303749 0.1987520895161983 0 0.010260103200158849 0.1991700010832006 0 0.01183675088797494 0.19419665586736051 0 0.016231602148303749 0.1987520895161983 0 0.010260103200158849 0.1991700010832006 0 0.0061740732670114221 0.19541611365695169 0 0.01183675088797494 0.19419665586736051 0 0.0087942658252738396 0.20386919766718339 0 0.010260103200158849 0.1991700010832006 0 0.0056326315351633537 0.2004899601979887 0 0.0087942658252738396 0.20386919766718339 0 0.013927284278231049 0.2027684573698135 0 0.010260103200158849 0.1991700010832006 0 0.010260103200158849 0.1991700010832006 0 0.0056326315351633537 0.2004899601979887 0 0.0061740732670114221 0.19541611365695169 0 -2.3422743153838069e-05 0.1988005567515452 0 0.0056326315351633537 0.2004899601979887 0 0.0061740732670114221 0.19541611365695169 0 -2.3422743153838069e-05 0.1988005567515452 0 0.0029581381265264858 0.20519393183106241 0 0.0056326315351633537 0.2004899601979887 0 -0.003081975793268537 0.18782002811878001 0 0.003085550936940849 0.18695469644268639 0 0.0015327128313205251 0.1915709431207247 0 -2.3422743153838069e-05 0.1988005567515452 0 0.0061740732670114221 0.19541611365695169 0 0.0015327128313205251 0.1915709431207247 0 0.0061740732670114221 0.19541611365695169 0 0.0015327128313205251 0.1915709431207247 0 0.007927604969267173 0.18944813828794729 0 0.003085550936940849 0.18695469644268639 0 0.0015327128313205251 0.1915709431207247 0 0.007927604969267173 0.18944813828794729 0 0.007927604969267173 0.18944813828794729 0 0.01183675088797494 0.19419665586736051 0 0.012456110925155389 0.1902446129755902 0 0.0115175493401282 0.18523262863701309 0 0.007927604969267173 0.18944813828794729 0 0.012456110925155389 0.1902446129755902 0 0.0061740732670114221 0.19541611365695169 0 0.007927604969267173 0.18944813828794729 0 0.01183675088797494 0.19419665586736051 0 0.01183675088797494 0.19419665586736051 0 0.012456110925155389 0.1902446129755902 0 0.016985704636488509 0.19275209946522329 0 0.01183675088797494 0.19419665586736051 0 0.016985704636488509 0.19275209946522329 0 0.016231602148303749 0.1987520895161983 0 0.0115175493401282 0.18523262863701309 0 0.012456110925155389 0.1902446129755902 0 0.016985704636488509 0.19275209946522329 0 0.021389494149062459 0.18037885708243739 0 0.02230428843080948 0.19662630733770359 0 0.036772518206031037 0.18954494233072339 0 0.013543000689093809 0.1790660034635034 0 0.02230428843080948 0.19662630733770359 0 0.013543000689093809 0.1790660034635034 0 0.016985704636488509 0.19275209946522329 0 0.02230428843080948 0.19662630733770359 0 0.016985704636488509 0.19275209946522329 0 0.019428477636303031 0.19812266709439569 0 0.016231602148303749 0.1987520895161983 0 0.019428477636303031 0.19812266709439569 0 0.016231602148303749 0.1987520895161983 0 0.020423256619271999 0.20098819974690199 0 0.018650848458870179 0.20436341187488569 0 0.016231602148303749 0.1987520895161983 0 0.020423256619271999 0.20098819974690199 0 0.018650848458870179 0.20436341187488569 0 0.013927284278231049 0.2027684573698135 0 0.016231602148303749 0.1987520895161983 0 0.019428477636303031 0.19812266709439569 0 0.020423256619271999 0.20098819974690199 0 0.023943201944243639 0.1999111919537408 0 0.018650848458870179 0.20436341187488569 0 0.020423256619271999 0.20098819974690199 0 0.021734838082019509 0.20302577286306159 0 0.020423256619271999 0.20098819974690199 0 0.021734838082019509 0.20302577286306159 0 0.023943201944243639 0.1999111919537408 0 0.016985704636488509 0.19275209946522329 0 0.02230428843080948 0.19662630733770359 0 0.023943201944243639 0.1999111919537408 0 0.016985704636488509 0.19275209946522329 0 0.019428477636303031 0.19812266709439569 0 0.023943201944243639 0.1999111919537408 0 0.02230428843080948 0.19662630733770359 0 0.023943201944243639 0.1999111919537408 0 0.02230428843080948 0.19662630733770359 0 0.023943201944243639 0.1999111919537408 0 0.035957366435008513 0.20647473970990701 0 0.02230428843080948 0.19662630733770359 0 0.050897121833006063 0.20159486356051531 0 0.035957366435008513 0.20647473970990701 0 0.02230428843080948 0.19662630733770359 0 0.036772518206031037 0.18954494233072339 0 0.050897121833006063 0.20159486356051531 0 0.02230428843080948 0.19662630733770359 0 0.050897121833006063 0.20159486356051531 0 0.036772518206031037 0.18954494233072339 0 0.050897121833006063 0.20159486356051531 0 0.052155542262999663 0.1987110275790093 0 0.036772518206031037 0.18954494233072339 0 0.052155542262999663 0.1987110275790093 0 0.036772518206031037 0.18954494233072339 0 0.046621016020550923 0.1898787739154234 0 0.052155542262999663 0.1987110275790093 0 0.039453436217199322 0.18340126598870379 0 0.036772518206031037 0.18954494233072339 0 0.046621016020550923 0.1898787739154234 0 0.057517378285335978 0.18642367489497111 0 0.046621016020550923 0.1898787739154234 0 0.052155542262999663 0.1987110275790093 0 0.057517378285335978 0.18642367489497111 0 0.052155542262999663 0.1987110275790093 0 0.057517378285335978 0.18642367489497111 0 0.057090951257530269 0.197109929087698 0 0.052155542262999663 0.1987110275790093 0 0.057517378285335978 0.18642367489497111 0 0.060667890749981898 0.1933513013873914 0 0.057090951257530269 0.197109929087698 0 0.060667890749981898 0.1933513013873914 0 0.057090951257530269 0.197109929087698 0 0.058031923789004708 0.2022125116707813 0 0.060667890749981898 0.1933513013873914 0 0.058031923789004708 0.2022125116707813 0 0.060667890749981898 0.1933513013873914 0 0.058031923789004708 0.2022125116707813 0 0.059673977213942478 0.20319094098477611 0 0.058031923789004708 0.2022125116707813 0 0.059673977213942478 0.20319094098477611 0 0.057090951257530269 0.197109929087698 0 0.058031923789004708 0.2022125116707813 0 0.052155542262999663 0.1987110275790093 0 0.058031923789004708 0.2022125116707813 0 0.052155542262999663 0.1987110275790093 0 0.058031923789004708 0.2022125116707813 0 0.050897121833006063 0.20159486356051531 0 0.052155542262999663 0.1987110275790093 0 0.058031923789004708 0.2022125116707813 0 0.050897121833006063 0.20159486356051531 0 0.050897121833006063 0.20159486356051531 0 0.052155542262999663 0.1987110275790093 0 0.050897121833006063 0.20159486356051531 0 0.042542699632676838 0.22074012119599501 0 0.053005439111290922 0.21910981667301421 0 0.058031923789004708 0.2022125116707813 0 0.050897121833006063 0.20159486356051531 0 0.053005439111290922 0.21910981667301421 0 0.058031923789004708 0.2022125116707813 0 0.053005439111290922 0.21910981667301421 0 0.058031923789004708 0.2022125116707813 0 0.061718375040706958 0.21244198365854619 0 0.053005439111290922 0.21910981667301421 0 0.058031923789004708 0.2022125116707813 0 0.059673977213942478 0.20319094098477611 0 0.061718375040706958 0.21244198365854619 0 0.061718375040706958 0.21244198365854619 0 0.053005439111290922 0.21910981667301421 0 0.062081063031912492 0.22413796841031719 0 0.050897121833006063 0.20159486356051531 0 0.042542699632676838 0.22074012119599501 0 0.023943201944243639 0.1999111919537408 0 0.035957366435008513 0.20647473970990701 0 0.034268755792753257 0.2207932912834846 0 0.050897121833006063 0.20159486356051531 0 0.038363073609551428 0.21412918370060571 0 0.042542699632676838 0.22074012119599501 0 0.050897121833006063 0.20159486356051531 0 0.035957366435008513 0.20647473970990701 0 0.038363073609551428 0.21412918370060571 0 0.038363073609551428 0.21412918370060571 0 0.034268755792753257 0.2207932912834846 0 0.042542699632676838 0.22074012119599501 0 0.035957366435008513 0.20647473970990701 0 0.038363073609551428 0.21412918370060571 0 0.034268755792753257 0.2207932912834846 0 0.042542699632676838 0.22074012119599501 0 0.034188277432347557 0.23988537883147459 0 0.042542699632676838 0.22074012119599501 0 0.04817080422001134 0.23536218897101929 0 0.044937254539659167 0.2379713478153713 0 0.030323397599499081 0.22959965211839081 0 0.042542699632676838 0.22074012119599501 0 0.034188277432347557 0.23988537883147459 0 0.042542699632676838 0.22074012119599501 0 0.044937254539659167 0.2379713478153713 0 0.034188277432347557 0.23988537883147459 0 0.030323397599499081 0.22959965211839081 0 0.034268755792753257 0.2207932912834846 0 0.042542699632676838 0.22074012119599501 0 0.053005439111290922 0.21910981667301421 0 0.04817080422001134 0.23536218897101929 0 0.053005439111290922 0.21910981667301421 0 0.062081063031912492 0.22413796841031719 0 0.04817080422001134 0.23536218897101929 0 0.062081063031912492 0.22413796841031719 0 0.04817080422001134 0.23536218897101929 0 0.059531729096570118 0.24099028160929839 0 0.042542699632676838 0.22074012119599501 0 0.053005439111290922 0.21910981667301421 0 0.04817080422001134 0.23536218897101929 0 0.062081063031912492 0.22413796841031719 0 0.04817080422001134 0.23536218897101929 0 0.04817080422001134 0.23536218897101929 0 0.052294646587479003 0.2493466198794505 0 0.04073495957405681 0.26035892983227987 0 0.04817080422001134 0.23536218897101929 0 0.059531729096570118 0.24099028160929839 0 0.052294646587479003 0.2493466198794505 0 0.059531729096570118 0.24099028160929839 0 0.067445722382230539 0.24771064348785149 0 0.06034442261467237 0.25120339486286308 0 0.059531729096570118 0.24099028160929839 0 0.052294646587479003 0.2493466198794505 0 0.06034442261467237 0.25120339486286308 0 0.04817080422001134 0.23536218897101929 0 0.04073495957405681 0.26035892983227987 0 0.04817080422001134 0.23536218897101929 0 0.044937254539659167 0.2379713478153713 0 0.04073495957405681 0.26035892983227987 0 0.04817080422001134 0.23536218897101929 0 0.044937254539659167 0.2379713478153713 0 0.044937254539659167 0.2379713478153713 0 0.034188277432347557 0.23988537883147459 0 0.030652172791378579 0.25229956247347313 0 0.085975255819246227 0.24304742420893821 0 0.091760355399887042 0.24149966876957779 0 0.085886262968569133 0.25948379364412733 0 0.091760355399887042 0.24149966876957779 0 0.10166443252893551 0.23659000017624271 0 0.085886262968569133 0.25948379364412733 0 0.085975255819246227 0.24304742420893821 0 0.091760355399887042 0.24149966876957779 0 0.090327239942362525 0.2312920649275291 0 0.085975255819246227 0.24304742420893821 0 0.075396639696560977 0.24390878816167419 0 0.077103558767455421 0.230534611802553 0 0.085975255819246227 0.24304742420893821 0 0.077103558767455421 0.230534611802553 0 0.090327239942362525 0.2312920649275291 0 0.085975255819246227 0.24304742420893821 0 0.075396639696560977 0.24390878816167419 0 0.080478695998155714 0.25165019938018113 0 0.075396639696560977 0.24390878816167419 0 0.074707437689247702 0.25389633834412328 0 0.080478695998155714 0.25165019938018113 0 0.075396639696560977 0.24390878816167419 0 0.067445722382230539 0.24771064348785149 0 0.068934414955804643 0.23628801399858909 0 0.075396639696560977 0.24390878816167419 0 0.067445722382230539 0.24771064348785149 0 0.074707437689247702 0.25389633834412328 0 0.059531729096570118 0.24099028160929839 0 0.067445722382230539 0.24771064348785149 0 0.068934414955804643 0.23628801399858909 0 0.075396639696560977 0.24390878816167419 0 0.068934414955804643 0.23628801399858909 0 0.077103558767455421 0.230534611802553 0 0.062081063031912492 0.22413796841031719 0 0.059531729096570118 0.24099028160929839 0 0.068934414955804643 0.23628801399858909 0 0.062081063031912492 0.22413796841031719 0 0.077103558767455421 0.230534611802553 0 0.077696208689423979 0.21392961690810641 0 0.077103558767455421 0.230534611802553 0 0.077696208689423979 0.21392961690810641 0 0.062081063031912492 0.22413796841031719 0 0.068934414955804643 0.23628801399858909 0 0.077103558767455421 0.230534611802553 0 0.077103558767455421 0.230534611802553 0 0.086723057100410644 0.21930832929599969 0 0.077696208689423979 0.21392961690810641 0 0.077103558767455421 0.230534611802553 0 0.090327239942362525 0.2312920649275291 0 0.086723057100410644 0.21930832929599969 0 0.090327239942362525 0.2312920649275291 0 0.086723057100410644 0.21930832929599969 0 0.099258091607832458 0.22228701345730209 0 0.08282365066700062 0.20740072564839451 0 0.1001331263781514 0.21054846617837791 0 0.08282365066700062 0.20740072564839451 0 0.0830920941513177 0.21288940176841251 0 0.1001331263781514 0.21054846617837791 0 0.086723057100410644 0.21930832929599969 0 0.0830920941513177 0.21288940176841251 0 0.1001331263781514 0.21054846617837791 0 0.08282365066700062 0.20740072564839451 0 0.077960793866212394 0.2065164116634538 0 0.08282365066700062 0.20740072564839451 0 0.07778409662064556 0.21146715366449201 0 0.077960793866212394 0.2065164116634538 0 0.08282365066700062 0.20740072564839451 0 0.0830920941513177 0.21288940176841251 0 0.07778409662064556 0.21146715366449201 0 0.08282365066700062 0.20740072564839451 0 0.07778409662064556 0.21146715366449201 0 0.086723057100410644 0.21930832929599969 0 0.077696208689423979 0.21392961690810641 0 0.086723057100410644 0.21930832929599969 0 0.0830920941513177 0.21288940176841251 0 0.077696208689423979 0.21392961690810641 0 0.0830920941513177 0.21288940176841251 0 0.07778409662064556 0.21146715366449201 0 0.077696208689423979 0.21392961690810641 0 0.059673977213942478 0.20319094098477611 0 0.077960793866212394 0.2065164116634538 0 0.062081063031912492 0.22413796841031719 0 0.077696208689423979 0.21392961690810641 0 0.075991321843812007 0.21291374784961289 0 0.059673977213942478 0.20319094098477611 0 0.075991321843812007 0.21291374784961289 0 0.059673977213942478 0.20319094098477611 0 0.061718375040706958 0.21244198365854619 0 0.075991321843812007 0.21291374784961289 0 0.059673977213942478 0.20319094098477611 0 0.075991321843812007 0.21291374784961289 0 0.077960793866212394 0.2065164116634538 0 0.07778409662064556 0.21146715366449201 0 0.077696208689423979 0.21392961690810641 0 0.075991321843812007 0.21291374784961289 0 0.07778409662064556 0.21146715366449201 0 0.077696208689423979 0.21392961690810641 0 0.07778409662064556 0.21146715366449201 0 0.075991321843812007 0.21291374784961289 0 0.077696208689423979 0.21392961690810641 0 0.075991321843812007 0.21291374784961289 0 0.062081063031912492 0.22413796841031719 0 0.075991321843812007 0.21291374784961289 0 0.061718375040706958 0.21244198365854619 0 0.062081063031912492 0.22413796841031719 0 0.075991321843812007 0.21291374784961289 0 0.07778409662064556 0.21146715366449201 0 0.075991321843812007 0.21291374784961289 0 0.077960793866212394 0.2065164116634538 0 0.07778409662064556 0.21146715366449201 0 0.077960793866212394 0.2065164116634538 0 0.060667890749981898 0.1933513013873914 0 0.069391780603767286 0.1985353247034998 0 0.078552310067739675 0.1899431815963343 0 0.059673977213942478 0.20319094098477611 0 0.077960793866212394 0.2065164116634538 0 0.069391780603767286 0.1985353247034998 0 0.057517378285335978 0.18642367489497111 0 0.060667890749981898 0.1933513013873914 0 0.078552310067739675 0.1899431815963343 0 0.077960793866212394 0.2065164116634538 0 0.069391780603767286 0.1985353247034998 0 0.078552310067739675 0.1899431815963343 0 0.057517378285335978 0.18642367489497111 0 0.078552310067739675 0.1899431815963343 0 0.060667890749981898 0.1933513013873914 0 0.059673977213942478 0.20319094098477611 0 0.069391780603767286 0.1985353247034998 0 0.077960793866212394 0.2065164116634538 0 0.078552310067739675 0.1899431815963343 0 0.08282365066700062 0.20740072564839451 0 0.078552310067739675 0.1899431815963343 0 0.1000095862482286 0.19353335379614581 0 0.08282365066700062 0.20740072564839451 0 0.077960793866212394 0.2065164116634538 0 0.078552310067739675 0.1899431815963343 0 0.08282365066700062 0.20740072564839451 0 0.1000095862482286 0.19353335379614581 0 0.078552310067739675 0.1899431815963343 0 0.1000095862482286 0.19353335379614581 0 0.1000095862482286 0.19353335379614581 0 0.1119621855324581 0.18388877331391679 0 0.1119621855324581 0.18388877331391679 0 0.12809949413598259 0.1982332796183166 0 0.12623709760602039 0.18867627876683751 0 0.1000095862482286 0.19353335379614581 0 0.12809949413598259 0.1982332796183166 0 0.1000095862482286 0.19353335379614581 0 0.1174426020893027 0.21369620670835879 0 0.12809949413598259 0.1982332796183166 0 0.1000095862482286 0.19353335379614581 0 0.1119621855324581 0.18388877331391679 0 0.12809949413598259 0.1982332796183166 0 0.1174426020893027 0.21369620670835879 0 0.12809949413598259 0.1982332796183166 0 0.1174426020893027 0.21369620670835879 0 0.13079881134157489 0.21612504290720769 0 0.1174426020893027 0.21369620670835879 0 0.1001331263781514 0.21054846617837791 0 0.1000095862482286 0.19353335379614581 0 0.1174426020893027 0.21369620670835879 0 0.1001331263781514 0.21054846617837791 0 0.08282365066700062 0.20740072564839451 0 0.1000095862482286 0.19353335379614581 0 0.1001331263781514 0.21054846617837791 0 0.1174426020893027 0.21369620670835879 0 0.1001331263781514 0.21054846617837791 0 0.099258091607832458 0.22228701345730209 0 0.086723057100410644 0.21930832929599969 0 0.1001331263781514 0.21054846617837791 0 0.099258091607832458 0.22228701345730209 0 0.1174426020893027 0.21369620670835879 0 0.099258091607832458 0.22228701345730209 0 0.10166443252893551 0.23659000017624271 0 0.090327239942362525 0.2312920649275291 0 0.099258091607832458 0.22228701345730209 0 0.10166443252893551 0.23659000017624271 0 0.11193009187841341 0.23778907333103991 0 0.1233060832280653 0.2372070654073864 0 0.13079881134157489 0.21612504290720769 0 0.1174426020893027 0.21369620670835879 0 0.11193009187841341 0.23778907333103991 0 0.10166443252893551 0.23659000017624271 0 0.1174426020893027 0.21369620670835879 0 0.11193009187841341 0.23778907333103991 0 0.13079881134157489 0.21612504290720769 0 0.11193009187841341 0.23778907333103991 0 0.13079881134157489 0.21612504290720769 0 0.1174426020893027 0.21369620670835879 0 0.10166443252893551 0.23659000017624271 0 0.11193009187841341 0.23778907333103991 0 0.1233060832280653 0.2372070654073864 0 0.1152979079485152 0.2467056018988516 0 0.1233060832280653 0.2372070654073864 0 0.1152979079485152 0.2467056018988516 0 0.1250676346401875 0.24796443701554319 0 0.11193009187841341 0.23778907333103991 0 0.1152979079485152 0.2467056018988516 0 0.10650461767427161 0.25132517155921902 0 0.11193009187841341 0.23778907333103991 0 0.10166443252893551 0.23659000017624271 0 0.093061372415253377 0.25945310375487363 0 0.10166443252893551 0.23659000017624271 0 0.085886262968569133 0.25948379364412733 0 0.11193009187841341 0.23778907333103991 0 0.093061372415253377 0.25945310375487363 0 0.11193009187841341 0.23778907333103991 0 0.093061372415253377 0.25945310375487363 0 0.10650461767427161 0.25132517155921902 0 0.091760355399887042 0.24149966876957779 0 0.090327239942362525 0.2312920649275291 0 0.10166443252893551 0.23659000017624271 0 0.08022281403025916 0.14313863688857029 0 0.093167312330706492 0.16073073013935579 0 0.097579150219516186 0.1459852772673329 0 0.08022281403025916 0.14313863688857029 0 0.079387562048995053 0.16654090924245221 0 0.08022281403025916 0.14313863688857029 0 0.097579150219516186 0.1459852772673329 0 0.098136173783193614 0.12855261503670501 0 0.081058066011519173 0.11973636453468819 0 0.08022281403025916 0.14313863688857029 0 0.081058066011519173 0.11973636453468819 0 0.08022281403025916 0.14313863688857029 0 0.098136173783193614 0.12855261503670501 0 0.054704645729867107 0.1303951701743557 0 0.068402942841081005 0.12865021266463919 0 0.06445510108496709 0.14831583671703669 0 0.081058066011519173 0.11973636453468819 0 0.08022281403025916 0.14313863688857029 0 0.068402942841081005 0.12865021266463919 0 0.08022281403025916 0.14313863688857029 0 0.068402942841081005 0.12865021266463919 0 0.06445510108496709 0.14831583671703669 0 0.08022281403025916 0.14313863688857029 0 0.06445510108496709 0.14831583671703669 0 0.079387562048995053 0.16654090924245221 0 0.06445510108496709 0.14831583671703669 0 0.06670876632053821 0.16536039993208129 0 0.079387562048995053 0.16654090924245221 0 0.056759789081437029 0.15816783404816359 0 0.06445510108496709 0.14831583671703669 0 0.06670876632053821 0.16536039993208129 0 0.06670876632053821 0.16536039993208129 0 0.071220178094475839 0.177519435916074 0 0.079387562048995053 0.16654090924245221 0 0.078552310067739675 0.1899431815963343 0 0.071220178094475839 0.177519435916074 0 0.079387562048995053 0.16654090924245221 0 0.057517378285335978 0.18642367489497111 0 0.078552310067739675 0.1899431815963343 0 0.071220178094475839 0.177519435916074 0 0.057517378285335978 0.18642367489497111 0 0.06670876632053821 0.16536039993208129 0 0.071220178094475839 0.177519435916074 0 0.078552310067739675 0.1899431815963343 0 0.079387562048995053 0.16654090924245221 0 0.078552310067739675 0.1899431815963343 0 0.079387562048995053 0.16654090924245221 0 0.094656188726405799 0.1772984468475671 0 0.078552310067739675 0.1899431815963343 0 0.1000095862482286 0.19353335379614581 0 0.094656188726405799 0.1772984468475671 0 0.079387562048995053 0.16654090924245221 0 0.093167312330706492 0.16073073013935579 0 0.094656188726405799 0.1772984468475671 0 0.08022281403025916 0.14313863688857029 0 0.079387562048995053 0.16654090924245221 0 0.093167312330706492 0.16073073013935579 0 0.093167312330706492 0.16073073013935579 0 0.1051682117550992 0.16863341283049499 0 0.094656188726405799 0.1772984468475671 0 0.093167312330706492 0.16073073013935579 0 0.1051682117550992 0.16863341283049499 0 0.10738037989590581 0.15691718048007991 0 0.1051682117550992 0.16863341283049499 0 0.094656188726405799 0.1772984468475671 0 0.1119621855324581 0.18388877331391679 0 0.1000095862482286 0.19353335379614581 0 0.094656188726405799 0.1772984468475671 0 0.1119621855324581 0.18388877331391679 0 0.1051682117550992 0.16863341283049499 0 0.1119621855324581 0.18388877331391679 0 0.1176573055604207 0.16965843036111 0 0.1119621855324581 0.18388877331391679 0 0.1176573055604207 0.16965843036111 0 0.12502668500631101 0.18003223183350331 0 0.1119621855324581 0.18388877331391679 0 0.12502668500631101 0.18003223183350331 0 0.12623709760602039 0.18867627876683751 0 0.10738037989590581 0.15691718048007991 0 0.1176573055604207 0.16965843036111 0 0.1263510041100718 0.15412713222648239 0 0.1051682117550992 0.16863341283049499 0 0.10738037989590581 0.15691718048007991 0 0.1176573055604207 0.16965843036111 0 0.10738037989590581 0.15691718048007991 0 0.1089890710575158 0.14058722379195329 0 0.1263510041100718 0.15412713222648239 0 0.1089890710575158 0.14058722379195329 0 0.1243116374868449 0.136850619307404 0 0.1263510041100718 0.15412713222648239 0 0.10738037989590581 0.15691718048007991 0 0.097579150219516186 0.1459852772673329 0 0.1089890710575158 0.14058722379195329 0 0.093167312330706492 0.16073073013935579 0 0.10738037989590581 0.15691718048007991 0 0.097579150219516186 0.1459852772673329 0 0.097579150219516186 0.1459852772673329 0 0.1089890710575158 0.14058722379195329 0 0.098136173783193614 0.12855261503670501 0 0.11707998843366239 0.12090166170324231 0 0.1089890710575158 0.14058722379195329 0 0.098136173783193614 0.12855261503670501 0 0.11707998843366239 0.12090166170324231 0 0.1089890710575158 0.14058722379195329 0 0.1243116374868449 0.136850619307404 0 0.11707998843366239 0.12090166170324231 0 0.1243116374868449 0.136850619307404 0 0.14061487869327599 0.12738787364596069 0 0.1243116374868449 0.136850619307404 0 0.14061487869327599 0.12738787364596069 0 0.1450893294801871 0.15084825440961219 0 0.14061487869327599 0.12738787364596069 0 0.1450893294801871 0.15084825440961219 0 0.16208469833826319 0.13464304631642149 0 0.1450893294801871 0.15084825440961219 0 0.16208469833826319 0.13464304631642149 0 0.1243116374868449 0.136850619307404 0 0.1450893294801871 0.15084825440961219 0 0.1263510041100718 0.15412713222648239 0 0.1450893294801871 0.15084825440961219 0 0.1263510041100718 0.15412713222648239 0 0.13434892063135129 0.1709012650253654 0 0.1176573055604207 0.16965843036111 0 0.1263510041100718 0.15412713222648239 0 0.13434892063135129 0.1709012650253654 0 0.1176573055604207 0.16965843036111 0 0.13434892063135129 0.1709012650253654 0 0.12502668500631101 0.18003223183350331 0 0.12502668500631101 0.18003223183350331 0 0.13317066441191511 0.18549658195139779 0 0.12623709760602039 0.18867627876683751 0 0.13434892063135129 0.1709012650253654 0 0.12502668500631101 0.18003223183350331 0 0.13317066441191511 0.18549658195139779 0 0.13434892063135129 0.1709012650253654 0 0.13317066441191511 0.18549658195139779 0 0.14289571148574401 0.18421669799074539 0 0.13434892063135129 0.1709012650253654 0 0.14289571148574401 0.18421669799074539 0 0.15014598838012391 0.16812378435884931 0 0.14289571148574401 0.18421669799074539 0 0.15014598838012391 0.16812378435884931 0 0.16340295837154781 0.17869074671240681 0 0.1450893294801871 0.15084825440961219 0 0.15014598838012391 0.16812378435884931 0 0.17025484901730581 0.156442106610301 0 0.1450893294801871 0.15084825440961219 0 0.13434892063135129 0.1709012650253654 0 0.15014598838012391 0.16812378435884931 0 0.15014598838012391 0.16812378435884931 0 0.17025484901730581 0.156442106610301 0 0.16340295837154781 0.17869074671240681 0 0.17025484901730581 0.156442106610301 0 0.16340295837154781 0.17869074671240681 0 0.18344157371591241 0.18406997535271 0 0.17025484901730581 0.156442106610301 0 0.18344157371591241 0.18406997535271 0 0.1981233639171355 0.16578679509823521 0 0.17025484901730581 0.156442106610301 0 0.1886017155567373 0.14211231666073301 0 0.1981233639171355 0.16578679509823521 0 0.17025484901730581 0.156442106610301 0 0.16208469833826319 0.13464304631642149 0 0.1886017155567373 0.14211231666073301 0 0.1886017155567373 0.14211231666073301 0 0.1790800671963392 0.1184378382232308 0 0.16208469833826319 0.13464304631642149 0 0.1886017155567373 0.14211231666073301 0 0.1790800671963392 0.1184378382232308 0 0.19325819231563421 0.12959887947710741 0 0.1886017155567373 0.14211231666073301 0 0.1790800671963392 0.1184378382232308 0 0.16208469833826319 0.13464304631642149 0 0.1790800671963392 0.1184378382232308 0 0.1450893294801871 0.15084825440961219 0 0.17025484901730581 0.156442106610301 0 0.16208469833826319 0.13464304631642149 0 0.1514273965657848 0.24085309905483679 0 0.13478444466321229 0.23767678351231611 0 0.14386495534927929 0.22895205141331151 0 0.1514273965657848 0.24085309905483679 0 0.13478444466321229 0.23767678351231611 0 0.1384713120865835 0.25773302092121009 0 0.1250676346401875 0.24796443701554319 0 0.13478444466321229 0.23767678351231611 0 0.1384713120865835 0.25773302092121009 0 0.1233060832280653 0.2372070654073864 0 0.1250676346401875 0.24796443701554319 0 0.13478444466321229 0.23767678351231611 0 0.1233060832280653 0.2372070654073864 0 0.13478444466321229 0.23767678351231611 0 0.13079881134157489 0.21612504290720769 0 0.13478444466321229 0.23767678351231611 0 0.14386495534927929 0.22895205141331151 0 0.13079881134157489 0.21612504290720769 0 0.14386495534927929 0.22895205141331151 0 0.13079881134157489 0.21612504290720769 0 0.15844916882654519 0.22115328017888419 0 0.1514273965657848 0.24085309905483679 0 0.14386495534927929 0.22895205141331151 0 0.15844916882654519 0.22115328017888419 0 0.13079881134157489 0.21612504290720769 0 0.15844916882654519 0.22115328017888419 0 0.13079881134157489 0.21612504290720769 0 0.14405659807402271 0.2009031781863346 0 0.15844916882654519 0.22115328017888419 0 0.13079881134157489 0.21612504290720769 0 0.12809949413598259 0.1982332796183166 0 0.14405659807402271 0.2009031781863346 0 0.1174426020893027 0.21369620670835879 0 0.13079881134157489 0.21612504290720769 0 0.12809949413598259 0.1982332796183166 0 0.13079881134157489 0.21612504290720769 0 0.14405659807402271 0.2009031781863346 0 0.12809949413598259 0.1982332796183166 0 0.14405659807402271 0.2009031781863346 0 0.12809949413598259 0.1982332796183166 0 0.1377541084679488 0.19338203871321119 0 0.14405659807402271 0.2009031781863346 0 0.12809949413598259 0.1982332796183166 0 0.13022991801334199 0.19514207920620891 0 0.1377541084679488 0.19338203871321119 0 0.12809949413598259 0.1982332796183166 0 0.13022991801334199 0.19514207920620891 0 0.12809949413598259 0.1982332796183166 0 0.12623709760602039 0.18867627876683751 0 0.13022991801334199 0.19514207920620891 0 0.13317066441191511 0.18549658195139779 0 0.12623709760602039 0.18867627876683751 0 0.13022991801334199 0.19514207920620891 0 0.13317066441191511 0.18549658195139779 0 0.14289571148574401 0.18421669799074539 0 0.1377541084679488 0.19338203871321119 0 0.13317066441191511 0.18549658195139779 0 0.13022991801334199 0.19514207920620891 0 0.1377541084679488 0.19338203871321119 0 0.14289571148574401 0.18421669799074539 0 0.1377541084679488 0.19338203871321119 0 0.14405659807402271 0.2009031781863346 0 0.14405659807402271 0.2009031781863346 0 0.1684266189286579 0.20498070278197239 0 0.14289571148574401 0.18421669799074539 0 0.16340295837154781 0.17869074671240681 0 0.14405659807402271 0.2009031781863346 0 0.16340295837154781 0.17869074671240681 0 0.14405659807402271 0.2009031781863346 0 0.16340295837154781 0.17869074671240681 0 0.18344157371591241 0.18406997535271 0 0.1684266189286579 0.20498070278197239 0 0.16340295837154781 0.17869074671240681 0 0.14405659807402271 0.2009031781863346 0 0.1684266189286579 0.20498070278197239 0 0.18344157371591241 0.18406997535271 0 0.1684266189286579 0.20498070278197239 0 0.19279663978329381 0.20905822737760699 0 0.1684266189286579 0.20498070278197239 0 0.19279663978329381 0.20905822737760699 0 0.17869659642439559 0.21414630976549021 0 0.1684266189286579 0.20498070278197239 0 0.19279663978329381 0.20905822737760699 0 0.17869659642439559 0.21414630976549021 0 0.18609952631151591 0.22618151745055959 0 0.19279663978329381 0.20905822737760699 0 0.14405659807402271 0.2009031781863346 0 0.1684266189286579 0.20498070278197239 0 0.15844916882654519 0.22115328017888419 0 0.17869659642439559 0.21414630976549021 0 0.1684266189286579 0.20498070278197239 0 0.15844916882654519 0.22115328017888419 0 0.1514273965657848 0.24085309905483679 0 0.15844916882654519 0.22115328017888419 0 0.1691493644934341 0.23606856512045299 0 0.15844916882654519 0.22115328017888419 0 0.18609952631151591 0.22618151745055959 0 0.1691493644934341 0.23606856512045299 0 0.17869659642439559 0.21414630976549021 0 0.15844916882654519 0.22115328017888419 0 0.18609952631151591 0.22618151745055959 0 0.15844916882654519 0.22115328017888419 0 0.18609952631151591 0.22618151745055959 0 0.18609952631151591 0.22618151745055959 0 0.1971008006350988 0.24422433182354611 0 0.17660728565697029 0.25284173787090108 0 0.18609952631151591 0.22618151745055959 0 0.1691493644934341 0.23606856512045299 0 0.17660728565697029 0.25284173787090108 0 0.1514273965657848 0.24085309905483679 0 0.17660728565697029 0.25284173787090108 0 0.1514273965657848 0.24085309905483679 0 0.1691493644934341 0.23606856512045299 0 0.17660728565697029 0.25284173787090108 0 0.1971008006350988 0.24422433182354611 0 0.21374988379648621 0.2312097547222359 0 0.2257125065402284 0.25431107802280528 0 0.18609952631151591 0.22618151745055959 0 0.19919001424274069 0.21902366269476331 0 0.2102140220753515 0.22438156273492879 0 0.18609952631151591 0.22618151745055959 0 0.1971008006350988 0.24422433182354611 0 0.21374988379648621 0.2312097547222359 0 0.18609952631151591 0.22618151745055959 0 0.21374988379648621 0.2312097547222359 0 0.18609952631151591 0.22618151745055959 0 0.2102140220753515 0.22438156273492879 0 0.21374988379648621 0.2312097547222359 0 0.19919001424274069 0.21902366269476331 0 0.2102140220753515 0.22438156273492879 0 0.22326984787173351 0.22831062181695069 0 0.19919001424274069 0.21902366269476331 0 0.21716666063792969 0.21313575197324039 0 0.22326984787173351 0.22831062181695069 0 0.19919001424274069 0.21902366269476331 0 0.22326984787173351 0.22831062181695069 0 0.2102140220753515 0.22438156273492879 0 0.21374988379648621 0.2312097547222359 0 0.2102140220753515 0.22438156273492879 0 0.21374988379648621 0.2312097547222359 0 0.22326984787173351 0.22831062181695069 0 0.21716666063792969 0.21313575197324039 0 0.19279663978329381 0.20905822737760699 0 0.20764501227753371 0.18946127353573741 0 0.21716666063792969 0.21313575197324039 0 0.19279663978329381 0.20905822737760699 0 0.19919001424274069 0.21902366269476331 0 0.21716666063792969 0.21313575197324039 0 0.19279663978329381 0.20905822737760699 0 0.18609952631151591 0.22618151745055959 0 0.19919001424274069 0.21902366269476331 0 0.19279663978329381 0.20905822737760699 0 0.18344157371591241 0.18406997535271 0 0.19279663978329381 0.20905822737760699 0 0.20764501227753371 0.18946127353573741 0 0.21716666063792969 0.21313575197324039 0 0.20764501227753371 0.18946127353573741 0 0.21716666063792969 0.21313575197324039 0 0.20764501227753371 0.18946127353573741 0 0.22349524510262589 0.1882929917077163 0 0.21716666063792969 0.21313575197324039 0 0.22349524510262589 0.1882929917077163 0 0.23482300448504159 0.1984970970255906 0 0.22349524510262589 0.1882929917077163 0 0.23482300448504159 0.1984970970255906 0 0.23800281531175979 0.18073324988006281 0 0.23482300448504159 0.1984970970255906 0 0.24828008483854189 0.20295934428596721 0 0.25113643024109478 0.19094495075723769 0 0.23482300448504159 0.1984970970255906 0 0.23800281531175979 0.18073324988006281 0 0.25113643024109478 0.19094495075723769 0 0.23482300448504159 0.1984970970255906 0 0.24828008483854189 0.20295934428596721 0 0.24332195560292991 0.2175119837032847 0 0.21716666063792969 0.21313575197324039 0 0.23482300448504159 0.1984970970255906 0 0.24332195560292991 0.2175119837032847 0 0.21716666063792969 0.21313575197324039 0 0.24332195560292991 0.2175119837032847 0 0.22527908084694109 0.23330634744632109 0 0.22326984787173351 0.22831062181695069 0 0.2459873280094696 0.23707215699401071 0 0.21716666063792969 0.21313575197324039 0 0.24332195560292991 0.2175119837032847 0 0.22326984787173351 0.22831062181695069 0 0.21716666063792969 0.21313575197324039 0 0.22326984787173351 0.22831062181695069 0 0.21374988379648621 0.2312097547222359 0 0.22527908084694109 0.23330634744632109 0 0.22326984787173351 0.22831062181695069 0 0.21374988379648621 0.2312097547222359 0 0.22527908084694109 0.23330634744632109 0 0.22527908084694109 0.23330634744632109 0 0.22326984787173351 0.22831062181695069 0 0.22326984787173351 0.22831062181695069 0 0.2459873280094696 0.23707215699401071 0 0.24332195560292991 0.2175119837032847 0 0.22326984787173351 0.22831062181695069 0 0.2459873280094696 0.23707215699401071 0 0.22527908084694109 0.23330634744632109 0 0.2459873280094696 0.23707215699401071 0 0.22527908084694109 0.23330634744632109 0 0.2459873280094696 0.23707215699401071 0 0.23435940432808119 0.2558835225658645 0 0.22527908084694109 0.23330634744632109 0 0.23435940432808119 0.2558835225658645 0 0.21374988379648621 0.2312097547222359 0 0.2257125065402284 0.25431107802280528 0 0.21374988379648621 0.2312097547222359 0 0.22527908084694109 0.23330634744632109 0 0.2257125065402284 0.25431107802280528 0 0.22527908084694109 0.23330634744632109 0 0.2257125065402284 0.25431107802280528 0 0.23435940432808119 0.2558835225658645 0 0.207677409848747 0.15265436726913009 0 0.20799191400454739 0.1375227668896451 0 0.22134903716669199 0.14708536363501609 0 0.20799191400454739 0.1375227668896451 0 0.22703691245497479 0.13189098412415109 0 0.21251029914637609 0.1192952894197942 0 0.20799191400454739 0.1375227668896451 0 0.19325819231563421 0.12959887947710741 0 0.21251029914637609 0.1192952894197942 0 0.20799191400454739 0.1375227668896451 0 0.19325819231563421 0.12959887947710741 0 0.1886017155567373 0.14211231666073301 0 0.1886017155567373 0.14211231666073301 0 0.1981233639171355 0.16578679509823521 0 0.207677409848747 0.15265436726913009 0 0.20799191400454739 0.1375227668896451 0 0.1886017155567373 0.14211231666073301 0 0.207677409848747 0.15265436726913009 0 0.1886017155567373 0.14211231666073301 0 0.1981233639171355 0.16578679509823521 0 0.20764501227753371 0.18946127353573741 0 0.1981233639171355 0.16578679509823521 0 0.18344157371591241 0.18406997535271 0 0.20764501227753371 0.18946127353573741 0 0.1981233639171355 0.16578679509823521 0 0.20764501227753371 0.18946127353573741 0 0.1981233639171355 0.16578679509823521 0 0.22193333897365611 0.16940236618161161 0 0.20764501227753371 0.18946127353573741 0 0.22349524510262589 0.1882929917077163 0 0.22193333897365611 0.16940236618161161 0 0.207677409848747 0.15265436726913009 0 0.1981233639171355 0.16578679509823521 0 0.22193333897365611 0.16940236618161161 0 0.207677409848747 0.15265436726913009 0 0.22193333897365611 0.16940236618161161 0 0.22134903716669199 0.14708536363501609 0 0.22349524510262589 0.1882929917077163 0 0.22193333897365611 0.16940236618161161 0 0.23800281531175979 0.18073324988006281 0 0.23800281531175979 0.18073324988006281 0 0.24342118736862761 0.16410875332904781 0 0.25421457754785548 0.17528354573505059 0 0.23800281531175979 0.18073324988006281 0 0.25421457754785548 0.17528354573505059 0 0.25113643024109478 0.19094495075723769 0 0.22193333897365611 0.16940236618161161 0 0.23800281531175979 0.18073324988006281 0 0.24342118736862761 0.16410875332904781 0 0.22193333897365611 0.16940236618161161 0 0.24342118736862761 0.16410875332904781 0 0.2381959797174126 0.14809141417820801 0 0.2381959797174126 0.14809141417820801 0 0.2471064899150823 0.133463067737116 0 0.25227113898158787 0.14916335431643429 0 0.24342118736862761 0.16410875332904781 0 0.2381959797174126 0.14809141417820801 0 0.25227113898158787 0.14916335431643429 0 0.2381959797174126 0.14809141417820801 0 0.22134903716669199 0.14708536363501609 0 0.22703691245497479 0.13189098412415109 0 0.22193333897365611 0.16940236618161161 0 0.2381959797174126 0.14809141417820801 0 0.22134903716669199 0.14708536363501609 0 0.20799191400454739 0.1375227668896451 0 0.22134903716669199 0.14708536363501609 0 0.22703691245497479 0.13189098412415109 0 0.22703691245497479 0.13189098412415109 0 0.2471064899150823 0.133463067737116 0 0.2348532799323845 0.1126728752525727 0 0.2381959797174126 0.14809141417820801 0 0.22703691245497479 0.13189098412415109 0 0.2471064899150823 0.133463067737116 0 0.2471064899150823 0.133463067737116 0 0.2496952397761337 0.1160329650041991 0 0.2348532799323845 0.1126728752525727 0 0.2348532799323845 0.1126728752525727 0 0.23238347446995899 0.09878858498409393 0 0.25089272908716931 0.092982859712809007 0 0.2496952397761337 0.1160329650041991 0 0.2348532799323845 0.1126728752525727 0 0.25089272908716931 0.092982859712809007 0 0.23238347446995899 0.09878858498409393 0 0.21965336389696419 0.1029970115124081 0 0.22413452496331809 0.086501593458585962 0 0.2348532799323845 0.1126728752525727 0 0.23238347446995899 0.09878858498409393 0 0.21965336389696419 0.1029970115124081 0 0.2348532799323845 0.1126728752525727 0 0.21965336389696419 0.1029970115124081 0 0.21251029914637609 0.1192952894197942 0 0.22703691245497479 0.13189098412415109 0 0.2348532799323845 0.1126728752525727 0 0.21251029914637609 0.1192952894197942 0 0.21965336389696419 0.1029970115124081 0 0.21251029914637609 0.1192952894197942 0 0.20714728240524249 0.10617251279081751 0 0.21251029914637609 0.1192952894197942 0 0.20714728240524249 0.10617251279081751 0 0.2007454095485067 0.1153730887768626 0 0.21965336389696419 0.1029970115124081 0 0.21155544327336909 0.093494818701204518 0 0.22413452496331809 0.086501593458585962 0 0.21965336389696419 0.1029970115124081 0 0.20714728240524249 0.10617251279081751 0 0.21155544327336909 0.093494818701204518 0 0.20029711589946361 0.098207227624031723 0 0.20055037116402991 0.091606906531847498 0 0.21155544327336909 0.093494818701204518 0 0.20714728240524249 0.10617251279081751 0 0.20029711589946361 0.098207227624031723 0 0.21155544327336909 0.093494818701204518 0 0.19812206266677551 0.107667640710604 0 0.20029711589946361 0.098207227624031723 0 0.1885688884481975 0.1093901779912298 0 0.20714728240524249 0.10617251279081751 0 0.19812206266677551 0.107667640710604 0 0.20029711589946361 0.098207227624031723 0 0.20029711589946361 0.098207227624031723 0 0.1929726046438287 0.094705252597794665 0 0.20055037116402991 0.091606906531847498 0 0.1929726046438287 0.094705252597794665 0 0.1885688884481975 0.1093901779912298 0 0.1832996600419958 0.1003897382564244 0 0.20029711589946361 0.098207227624031723 0 0.1929726046438287 0.094705252597794665 0 0.1885688884481975 0.1093901779912298 0 0.20029711589946361 0.098207227624031723 0 0.1885688884481975 0.1093901779912298 0 0.1929726046438287 0.094705252597794665 0 0.1885688884481975 0.1093901779912298 0 0.19812206266677551 0.107667640710604 0 0.19247123508700151 0.1156451737142033 0 0.1885688884481975 0.1093901779912298 0 0.19247123508700151 0.1156451737142033 0 0.1885688884481975 0.1093901779912298 0 0.1858372065203453 0.1184994265274882 0 0.19325819231563421 0.12959887947710741 0 0.21251029914637609 0.1192952894197942 0 0.2007454095485067 0.1153730887768626 0 0.19325819231563421 0.12959887947710741 0 0.19247123508700151 0.1156451737142033 0 0.1858372065203453 0.1184994265274882 0 0.19325819231563421 0.12959887947710741 0 0.19247123508700151 0.1156451737142033 0 0.2007454095485067 0.1153730887768626 0 0.20714728240524249 0.10617251279081751 0 0.19812206266677551 0.107667640710604 0 0.2007454095485067 0.1153730887768626 0 0.19812206266677551 0.107667640710604 0 0.19247123508700151 0.1156451737142033 0 0.2007454095485067 0.1153730887768626 0 0.20238686903042469 0.063311819413239129 0 0.1973763208394673 0.08002032720436178 0 0.18079222374313991 0.066157073385880324 0 0.20238686903042469 0.063311819413239129 0 0.18079222374313991 0.066157073385880324 0 0.1973763208394673 0.08002032720436178 0 0.17868141559437861 0.075492121278057239 0 0.20238686903042469 0.063311819413239129 0 0.1973763208394673 0.08002032720436178 0 0.1929726046438287 0.094705252597794665 0 0.1973763208394673 0.08002032720436178 0 0.1929726046438287 0.094705252597794665 0 0.1973763208394673 0.08002032720436178 0 0.18493574174144031 0.087819629641268118 0 0.1929726046438287 0.094705252597794665 0 0.20055037116402991 0.091606906531847498 0 0.1973763208394673 0.08002032720436178 0 0.1973763208394673 0.08002032720436178 0 0.22413452496331809 0.086501593458585962 0 0.1973763208394673 0.08002032720436178 0 0.21155544327336909 0.093494818701204518 0 0.22413452496331809 0.086501593458585962 0 0.1973763208394673 0.08002032720436178 0 0.21581045027983861 0.072515516379325212 0 0.22413452496331809 0.086501593458585962 0 0.20055037116402991 0.091606906531847498 0 0.1973763208394673 0.08002032720436178 0 0.21155544327336909 0.093494818701204518 0 0.20238686903042469 0.063311819413239129 0 0.21581045027983861 0.072515516379325212 0 0.22639199231908241 0.060148967164815811 0 0.20238686903042469 0.063311819413239129 0 0.1973763208394673 0.08002032720436178 0 0.21581045027983861 0.072515516379325212 0 0.21581045027983861 0.072515516379325212 0 0.22413452496331809 0.086501593458585962 0 0.23571274181676019 0.070187616308315881 0 0.21581045027983861 0.072515516379325212 0 0.23571274181676019 0.070187616308315881 0 0.22639199231908241 0.060148967164815811 0 0.23571274181676019 0.070187616308315881 0 0.23935269316475091 0.05797056278501677 0 0.22639199231908241 0.060148967164815811 0 0.22413452496331809 0.086501593458585962 0 0.25089272908716931 0.092982859712809007 0 0.22413452496331809 0.086501593458585962 0 0.23571274181676019 0.070187616308315881 0 0.25089272908716931 0.092982859712809007 0 0.23238347446995899 0.09878858498409393 0 0.22413452496331809 0.086501593458585962 0 0.25089272908716931 0.092982859712809007 0 0.23571274181676019 0.070187616308315881 0 0.25089272908716931 0.092982859712809007 0 0.23571274181676019 0.070187616308315881 0 0.25282536794073712 0.073272794188635415 0 0.25089272908716931 0.092982859712809007 0 0.23935269316475091 0.05797056278501677 0 0.25425538404847059 0.057624927133231481 0 0.25282536794073712 0.073272794188635415 0 0.23571274181676019 0.070187616308315881 0 0.23935269316475091 0.05797056278501677 0 0.25282536794073712 0.073272794188635415 0 0.2368345322212535 0.044434942105003657 0 0.25425538404847059 0.057624927133231481 0 0.23935269316475091 0.05797056278501677 0 0.2368345322212535 0.044434942105003657 0 0.25425538404847059 0.057624927133231481 0 0.23935269316475091 0.05797056278501677 0 0.2368345322212535 0.044434942105003657 0 0.23127016951469481 0.052559852354376588 0 0.2368345322212535 0.044434942105003657 0 0.25291178968964928 0.037547667281027097 0 0.25425538404847059 0.057624927133231481 0 0.2368345322212535 0.044434942105003657 0 0.24190969492169709 0.024768393557462999 0 0.25291178968964928 0.037547667281027097 0 0.2368345322212535 0.044434942105003657 0 0.21941368039403211 0.031244957076781411 0 0.2368345322212535 0.044434942105003657 0 0.22121604545690071 0.040326540279582428 0 0.22250146035369231 0.047684937362670127 0 0.2368345322212535 0.044434942105003657 0 0.22121604545690071 0.040326540279582428 0 0.21941368039403211 0.031244957076781411 0 0.2368345322212535 0.044434942105003657 0 0.24190969492169709 0.024768393557462999 0 0.21941368039403211 0.031244957076781411 0 0.22121604545690071 0.040326540279582428 0 0.22250146035369231 0.047684937362670127 0 0.2151241054634794 0.043140718643033253 0 0.22250146035369231 0.047684937362670127 0 0.22639199231908241 0.060148967164815811 0 0.21464985550632831 0.05254647609126252 0 0.23935269316475091 0.05797056278501677 0 0.22639199231908241 0.060148967164815811 0 0.23127016951469481 0.052559852354376588 0 0.2368345322212535 0.044434942105003657 0 0.22250146035369231 0.047684937362670127 0 0.23127016951469481 0.052559852354376588 0 0.22250146035369231 0.047684937362670127 0 0.22639199231908241 0.060148967164815811 0 0.23127016951469481 0.052559852354376588 0 0.23517440673197429 0.0051848507458196356 0 0.24190969492169709 0.024768393557462999 0 0.22860778246280219 0.01441509204728152 0 0.23517440673197429 0.0051848507458196356 0 0.2485551203034157 0.0102848256948572 0 0.24190969492169709 0.024768393557462999 0 0.23517440673197429 0.0051848507458196356 0 0.2429424487767215 0.0026164120279975069 0 0.24005113852307369 -0.0027355710512556022 0 0.23517440673197429 0.0051848507458196356 0 0.2429424487767215 0.0026164120279975069 0 0.2485551203034157 0.0102848256948572 0 0.2429424487767215 0.0026164120279975069 0 0.2485551203034157 0.0102848256948572 0 0.2479891295484222 -0.0022684572774312019 0 0.2237082671027216 0.020648212041472009 0 0.22100796739575951 0.001216664300799794 0 0.21337432104441539 0.026672329963493752 0 0.24190969492169709 0.024768393557462999 0 0.21941368039403211 0.031244957076781411 0 0.24190969492169709 0.024768393557462999 0 0.21941368039403211 0.031244957076781411 0 0.2237082671027216 0.020648212041472009 0 0.24190969492169709 0.024768393557462999 0 0.2237082671027216 0.020648212041472009 0 0.22860778246280219 0.01441509204728152 0 0.21941368039403211 0.031244957076781411 0 0.2237082671027216 0.020648212041472009 0 0.21337432104441539 0.026672329963493752 0 0.2237082671027216 0.020648212041472009 0 0.22860778246280219 0.01441509204728152 0 0.22100796739575951 0.001216664300799794 0 0.23517440673197429 0.0051848507458196356 0 0.22860778246280219 0.01441509204728152 0 0.22100796739575951 0.001216664300799794 0 0.22100796739575951 0.001216664300799794 0 0.21337432104441539 0.026672329963493752 0 0.22100796739575951 0.001216664300799794 0 0.21213365429295861 0.01041237886839381 0 0.21337432104441539 0.026672329963493752 0 0.20938161325362409 0.0025060029461209908 0 0.21213365429295861 0.01041237886839381 0 0.19981118715584381 0.0070254328827108366 0 0.20938161325362409 0.0025060029461209908 0 0.19981118715584381 0.0070254328827108366 0 0.20239897911060981 -0.0049616950454924097 0 0.22100796739575951 0.001216664300799794 0 0.21476518088515931 0.0026345493870347861 0 0.21213365429295861 0.01041237886839381 0 0.20938161325362409 0.0025060029461209908 0 0.21476518088515931 0.0026345493870347861 0 0.21653748859829491 -0.0035968485671754561 0 0.20938161325362409 0.0025060029461209908 0 0.21476518088515931 0.0026345493870347861 0 0.21213365429295861 0.01041237886839381 0 0.22100796739575951 0.001216664300799794 0 0.21476518088515931 0.0026345493870347861 0 0.21653748859829491 -0.0035968485671754561 0 0.21213365429295861 0.01041237886839381 0 0.20775643638324501 0.022418817258943329 0 0.19981118715584381 0.0070254328827108366 0 0.20775643638324501 0.022418817258943329 0 0.19981118715584381 0.0070254328827108366 0 0.21213365429295861 0.01041237886839381 0 0.20775643638324501 0.022418817258943329 0 0.21337432104441539 0.026672329963493752 0 0.20775643638324501 0.022418817258943329 0 0.21337432104441539 0.026672329963493752 0 0.21211661331991941 0.030866365927793071 0 0.21941368039403211 0.031244957076781411 0 0.21337432104441539 0.026672329963493752 0 0.21211661331991941 0.030866365927793071 0 0.21941368039403211 0.031244957076781411 0 0.21337432104441539 0.026672329963493752 0 0.21337432104441539 0.026672329963493752 0 0.21211661331991941 0.030866365927793071 0 0.20775643638324501 0.022418817258943329 0 0.21211661331991941 0.030866365927793071 0 0.2008624239423544 0.027751844864101351 0 0.21211661331991941 0.030866365927793071 0 0.2008624239423544 0.027751844864101351 0 0.21130283169949521 0.033580056331867662 0 0.20775643638324501 0.022418817258943329 0 0.21211661331991941 0.030866365927793071 0 0.20775643638324501 0.022418817258943329 0 0.21337432104441539 0.026672329963493752 0 0.2008624239423544 0.027751844864101351 0 0.1914807756371078 0.039286791852227318 0 0.1874867753674215 0.0231110496262097 0 0.2008624239423544 0.027751844864101351 0 0.19503111124693581 0.017247988187571551 0 0.1874867753674215 0.0231110496262097 0 0.19503111124693581 0.017247988187571551 0 0.18734518720319909 0.015281891910368059 0 0.1874867753674215 0.0231110496262097 0 0.20775643638324501 0.022418817258943329 0 0.2008624239423544 0.027751844864101351 0 0.19503111124693581 0.017247988187571551 0 0.20775643638324501 0.022418817258943329 0 0.19503111124693581 0.017247988187571551 0 0.18660242445042999 0.0064023156866817926 0 0.20775643638324501 0.022418817258943329 0 0.18660242445042999 0.0064023156866817926 0 0.20775643638324501 0.022418817258943329 0 0.1894192936343001 0.0060385698470956234 0 0.19981118715584381 0.0070254328827108366 0 0.20775643638324501 0.022418817258943329 0 0.1894192936343001 0.0060385698470956234 0 0.18660242445042999 0.0064023156866817926 0 0.19503111124693581 0.017247988187571551 0 0.18832376542685261 0.012450231659139751 0 0.18660242445042999 0.0064023156866817926 0 0.19503111124693581 0.017247988187571551 0 0.18832376542685261 0.012450231659139751 0 0.18734518720319909 0.015281891910368059 0 0.1894192936343001 0.0060385698470956234 0 0.19981118715584381 0.0070254328827108366 0 0.1918659379284415 -0.0083679514935210662 0 0.20238686903042469 0.063311819413239129 0 0.22639199231908241 0.060148967164815811 0 0.21464985550632831 0.05254647609126252 0 0.20238686903042469 0.063311819413239129 0 0.22639199231908241 0.060148967164815811 0 0.20238686903042469 0.063311819413239129 0 0.20684485036496281 0.04844593787255428 0 0.21464985550632831 0.05254647609126252 0 0.20238686903042469 0.063311819413239129 0 0.20684485036496281 0.04844593787255428 0 0.20684485036496281 0.04844593787255428 0 0.21464985550632831 0.05254647609126252 0 0.2151241054634794 0.043140718643033253 0 0.22250146035369231 0.047684937362670127 0 0.21464985550632831 0.05254647609126252 0 0.2151241054634794 0.043140718643033253 0 0.20684485036496281 0.04844593787255428 0 0.2151241054634794 0.043140718643033253 0 0.21130283169949521 0.033580056331867662 0 0.20684485036496281 0.04844593787255428 0 0.21130283169949521 0.033580056331867662 0 0.1914807756371078 0.039286791852227318 0 0.2151241054634794 0.043140718643033253 0 0.21130283169949521 0.033580056331867662 0 0.21323078658658201 0.03302500146766809 0 0.22121604545690071 0.040326540279582428 0 0.2151241054634794 0.043140718643033253 0 0.21323078658658201 0.03302500146766809 0 0.22121604545690071 0.040326540279582428 0 0.21941368039403211 0.031244957076781411 0 0.21323078658658201 0.03302500146766809 0 0.21941368039403211 0.031244957076781411 0 0.21211661331991941 0.030866365927793071 0 0.21323078658658201 0.03302500146766809 0 0.21941368039403211 0.031244957076781411 0 0.21323078658658201 0.03302500146766809 0 0.21130283169949521 0.033580056331867662 0 0.21323078658658201 0.03302500146766809 0 0.21211661331991941 0.030866365927793071 0 0.21130283169949521 0.033580056331867662 0 0.21323078658658201 0.03302500146766809 0 0.21211661331991941 0.030866365927793071 0 0.21130283169949521 0.033580056331867662 0 0.21211661331991941 0.030866365927793071 0 0.21323078658658201 0.03302500146766809 0 0.20684485036496281 0.04844593787255428 0 0.21130283169949521 0.033580056331867662 0 0.20684485036496281 0.04844593787255428 0 0.1914807756371078 0.039286791852227318 0 0.1906326876700713 0.052439029979298252 0 0.21130283169949521 0.033580056331867662 0 0.1914807756371078 0.039286791852227318 0 0.2008624239423544 0.027751844864101351 0 0.21130283169949521 0.033580056331867662 0 0.1914807756371078 0.039286791852227318 0 0.20238686903042469 0.063311819413239129 0 0.20684485036496281 0.04844593787255428 0 0.1906326876700713 0.052439029979298252 0 0.20238686903042469 0.063311819413239129 0 0.1906326876700713 0.052439029979298252 0 0.18079222374313991 0.066157073385880324 0 0.1906326876700713 0.052439029979298252 0 0.1716587195747214 0.044993527372590117 0 0.18079222374313991 0.066157073385880324 0 0.1914807756371078 0.039286791852227318 0 0.17895959729017549 0.03270519686463521 0 0.1874867753674215 0.0231110496262097 0 0.1914807756371078 0.039286791852227318 0 0.1906326876700713 0.052439029979298252 0 0.1716587195747214 0.044993527372590117 0 0.1914807756371078 0.039286791852227318 0 0.1716587195747214 0.044993527372590117 0 0.1914807756371078 0.039286791852227318 0 0.17895959729017549 0.03270519686463521 0 0.1716587195747214 0.044993527372590117 0 0.17895959729017549 0.03270519686463521 0 0.1716587195747214 0.044993527372590117 0 0.1692336025848987 0.033942773786365128 0 0.1716587195747214 0.044993527372590117 0 0.1692336025848987 0.033942773786365128 0 0.1566962317421734 0.039838803654011962 0 0.1716587195747214 0.044993527372590117 0 0.1566962317421734 0.039838803654011962 0 0.15183666351233449 0.050700262892952028 0 0.1692336025848987 0.033942773786365128 0 0.1566962317421734 0.039838803654011962 0 0.158601754226253 0.030081739901262169 0 0.1716587195747214 0.044993527372590117 0 0.15183666351233449 0.050700262892952028 0 0.15919757845585511 0.069002327358520896 0 0.1716587195747214 0.044993527372590117 0 0.18079222374313991 0.066157073385880324 0 0.15919757845585511 0.069002327358520896 0 0.1716587195747214 0.044993527372590117 0 0.15183666351233449 0.050700262892952028 0 0.17227434920368959 0.00081991249798677823 0 0.17658810010716819 0.0040568459827444014 0 0.17786282304025339 -0.001583287003114023 0 0.17227434920368959 0.00081991249798677823 0 0.17658810010716819 0.0040568459827444014 0 0.17233771352019589 0.0083561011481188656 0 0.17658810010716819 0.0040568459827444014 0 0.18177514670000741 0.0039010391453388991 0 0.17943453638861959 0.0091511058078182841 0 0.17658810010716819 0.0040568459827444014 0 0.17943453638861959 0.0091511058078182841 0 0.17233771352019589 0.0083561011481188656 0 0.17658810010716819 0.0040568459827444014 0 0.18177514670000741 0.0039010391453388991 0 0.17786282304025339 -0.001583287003114023 0 0.18177514670000741 0.0039010391453388991 0 0.18580903226614379 -0.0011502469314075439 0 0.17786282304025339 -0.001583287003114023 0 0.1894192936343001 0.0060385698470956234 0 0.18660242445042999 0.0064023156866817926 0 0.18580903226614379 -0.0011502469314075439 0 0.18177514670000741 0.0039010391453388991 0 0.18660242445042999 0.0064023156866817926 0 0.18580903226614379 -0.0011502469314075439 0 0.18177514670000741 0.0039010391453388991 0 0.18660242445042999 0.0064023156866817926 0 0.18303211158647559 0.0075807978729441382 0 0.18177514670000741 0.0039010391453388991 0 0.18303211158647559 0.0075807978729441382 0 0.17943453638861959 0.0091511058078182841 0 0.18303211158647559 0.0075807978729441382 0 0.18431633880684531 0.01086873085193758 0 0.17943453638861959 0.0091511058078182841 0 0.18660242445042999 0.0064023156866817926 0 0.18303211158647559 0.0075807978729441382 0 0.18431633880684531 0.01086873085193758 0 0.18832376542685261 0.012450231659139751 0 0.18660242445042999 0.0064023156866817926 0 0.18431633880684531 0.01086873085193758 0 0.18431633880684531 0.01086873085193758 0 0.18734518720319909 0.015281891910368059 0 0.18195036267736389 0.015275800378046231 0 0.18832376542685261 0.012450231659139751 0 0.18431633880684531 0.01086873085193758 0 0.18734518720319909 0.015281891910368059 0 0.18431633880684531 0.01086873085193758 0 0.18195036267736389 0.015275800378046231 0 0.17943453638861959 0.0091511058078182841 0 0.18195036267736389 0.015275800378046231 0 0.1761571917665653 0.013806221612761949 0 0.17943453638861959 0.0091511058078182841 0 0.1761571917665653 0.013806221612761949 0 0.17943453638861959 0.0091511058078182841 0 0.17233771352019589 0.0083561011481188656 0 0.1761571917665653 0.013806221612761949 0 0.17233771352019589 0.0083561011481188656 0 0.1709247624247007 0.01466984692398882 0 0.1761571917665653 0.013806221612761949 0 0.17493811328672779 0.022191841685783802 0 0.1709247624247007 0.01466984692398882 0 0.18195036267736389 0.015275800378046231 0 0.1761571917665653 0.013806221612761949 0 0.17493811328672779 0.022191841685783802 0 0.18734518720319909 0.015281891910368059 0 0.18195036267736389 0.015275800378046231 0 0.1874867753674215 0.0231110496262097 0 0.18195036267736389 0.015275800378046231 0 0.17493811328672779 0.022191841685783802 0 0.1874867753674215 0.0231110496262097 0 0.17895959729017549 0.03270519686463521 0 0.17493811328672779 0.022191841685783802 0 0.1874867753674215 0.0231110496262097 0 0.17895959729017549 0.03270519686463521 0 0.1692336025848987 0.033942773786365128 0 0.17493811328672779 0.022191841685783802 0 0.1692336025848987 0.033942773786365128 0 0.1660519956958274 0.025200646889517071 0 0.158601754226253 0.030081739901262169 0 0.1692336025848987 0.033942773786365128 0 0.17493811328672779 0.022191841685783802 0 0.1660519956958274 0.025200646889517071 0 0.1660519956958274 0.025200646889517071 0 0.158601754226253 0.030081739901262169 0 0.15656323758401319 0.020842958383828041 0 0.15656323758401319 0.020842958383828041 0 0.1655425680131333 0.017645951334422452 0 0.15799820797772829 0.01069464001977203 0 0.1660519956958274 0.025200646889517071 0 0.15656323758401319 0.020842958383828041 0 0.1655425680131333 0.017645951334422452 0 0.17493811328672779 0.022191841685783802 0 0.1660519956958274 0.025200646889517071 0 0.1655425680131333 0.017645951334422452 0 0.17493811328672779 0.022191841685783802 0 0.1655425680131333 0.017645951334422452 0 0.1709247624247007 0.01466984692398882 0 0.17233771352019589 0.0083561011481188656 0 0.1709247624247007 0.01466984692398882 0 0.16528784937855559 0.0099045707114697821 0 0.1655425680131333 0.017645951334422452 0 0.1709247624247007 0.01466984692398882 0 0.16528784937855559 0.0099045707114697821 0 0.1655425680131333 0.017645951334422452 0 0.16528784937855559 0.0099045707114697821 0 0.15799820797772829 0.01069464001977203 0 0.16528784937855559 0.0099045707114697821 0 0.15830422717032419 0.0026668804518291322 0 0.16550177429739321 0.001625335581948511 0 0.16528784937855559 0.0099045707114697821 0 0.15799820797772829 0.01069464001977203 0 0.15830422717032419 0.0026668804518291322 0 0.17233771352019589 0.0083561011481188656 0 0.16528784937855559 0.0099045707114697821 0 0.16550177429739321 0.001625335581948511 0 0.17227434920368959 0.00081991249798677823 0 0.17233771352019589 0.0083561011481188656 0 0.16550177429739321 0.001625335581948511 0 0.14127976741107601 0.00215554095495248 0 0.15230472087545879 0.0045339035350271751 0 0.14873370341600839 0.01190124285016711 0 0.15799820797772829 0.01069464001977203 0 0.15830422717032419 0.0026668804518291322 0 0.15230472087545879 0.0045339035350271751 0 0.14127976741107601 0.00215554095495248 0 0.15230472087545879 0.0045339035350271751 0 0.1552076984021574 -0.0047487866015848753 0 0.15830422717032419 0.0026668804518291322 0 0.15230472087545879 0.0045339035350271751 0 0.1552076984021574 -0.0047487866015848753 0 0.15656323758401319 0.020842958383828041 0 0.15799820797772829 0.01069464001977203 0 0.14873370341600839 0.01190124285016711 0 0.15799820797772829 0.01069464001977203 0 0.15230472087545879 0.0045339035350271751 0 0.14873370341600839 0.01190124285016711 0 0.14873370341600839 0.01190124285016711 0 0.1458857290053831 0.021389540043380069 0 0.13967636330765321 0.013174792475989121 0 0.14127976741107601 0.00215554095495248 0 0.14873370341600839 0.01190124285016711 0 0.13967636330765321 0.013174792475989121 0 0.1458857290053831 0.021389540043380069 0 0.13916191736165201 0.019633136795163032 0 0.13967636330765321 0.013174792475989121 0 0.1458857290053831 0.021389540043380069 0 0.14010063181871271 0.02585166497444577 0 0.13916191736165201 0.019633136795163032 0 0.15656323758401319 0.020842958383828041 0 0.1458857290053831 0.021389540043380069 0 0.15175299049851881 0.02729842449465077 0 0.15656323758401319 0.020842958383828041 0 0.14873370341600839 0.01190124285016711 0 0.1458857290053831 0.021389540043380069 0 0.158601754226253 0.030081739901262169 0 0.15656323758401319 0.020842958383828041 0 0.15175299049851881 0.02729842449465077 0 0.158601754226253 0.030081739901262169 0 0.15175299049851881 0.02729842449465077 0 0.15159127196488009 0.032471007951428398 0 0.15175299049851881 0.02729842449465077 0 0.14523576613563741 0.02976945682372012 0 0.15159127196488009 0.032471007951428398 0 0.1458857290053831 0.021389540043380069 0 0.14523576613563741 0.02976945682372012 0 0.14010063181871271 0.02585166497444577 0 0.14523576613563741 0.02976945682372012 0 0.14010063181871271 0.02585166497444577 0 0.1391322595465444 0.03699933077486834 0 0.1458857290053831 0.021389540043380069 0 0.15175299049851881 0.02729842449465077 0 0.14523576613563741 0.02976945682372012 0 0.1309849453148588 0.01811654968683717 0 0.1391322595465444 0.03699933077486834 0 0.14010063181871271 0.02585166497444577 0 0.1309849453148588 0.01811654968683717 0 0.1391322595465444 0.03699933077486834 0 0.11917198148314 0.002581966002757949 0 0.13034027439662041 0.028127834929059549 0 0.1309849453148588 0.01811654968683717 0 0.13034027439662041 0.028127834929059549 0 0.1309849453148588 0.01811654968683717 0 0.1391322595465444 0.03699933077486834 0 0.1309849453148588 0.01811654968683717 0 0.13916191736165201 0.019633136795163032 0 0.13967636330765321 0.013174792475989121 0 0.14010063181871271 0.02585166497444577 0 0.1309849453148588 0.01811654968683717 0 0.13916191736165201 0.019633136795163032 0 0.14127976741107601 0.00215554095495248 0 0.13362755423293271 0.0080562160832345926 0 0.1228376310831711 -0.00076623140119310329 0 0.1309849453148588 0.01811654968683717 0 0.13362755423293271 0.0080562160832345926 0 0.1228376310831711 -0.00076623140119310329 0 0.1309849453148588 0.01811654968683717 0 0.1228376310831711 -0.00076623140119310329 0 0.1309849453148588 0.01811654968683717 0 0.13362755423293271 0.0080562160832345926 0 0.13967636330765321 0.013174792475989121 0 0.14127976741107601 0.00215554095495248 0 0.13362755423293271 0.0080562160832345926 0 0.13967636330765321 0.013174792475989121 0 0.15183666351233449 0.050700262892952028 0 0.15919757845585511 0.069002327358520896 0 0.15048711395973299 0.060532750562707877 0 0.15183666351233449 0.050700262892952028 0 0.15919757845585511 0.069002327358520896 0 0.14215194880052681 0.055145346777992182 0 0.15048711395973299 0.060532750562707877 0 0.13253998066004699 0.064315925604492674 0 0.1415085673101022 0.053673703855360522 0 0.14215194880052681 0.055145346777992182 0 0.15183666351233449 0.050700262892952028 0 0.1415085673101022 0.053673703855360522 0 0.15183666351233449 0.050700262892952028 0 0.1415085673101022 0.053673703855360522 0 0.15183666351233449 0.050700262892952028 0 0.14453550543306221 0.044729731242042367 0 0.1415085673101022 0.053673703855360522 0 0.14215194880052681 0.055145346777992182 0 0.14215194880052681 0.055145346777992182 0 0.15048711395973299 0.060532750562707877 0 0.15183666351233449 0.050700262892952028 0 0.1415085673101022 0.053673703855360522 0 0.14453550543306221 0.044729731242042367 0 0.1391322595465444 0.03699933077486834 0 0.15183666351233449 0.050700262892952028 0 0.14566961722181801 0.035366614883496988 0 0.1566962317421734 0.039838803654011962 0 0.15183666351233449 0.050700262892952028 0 0.14566961722181801 0.035366614883496988 0 0.1566962317421734 0.039838803654011962 0 0.15159127196488009 0.032471007951428398 0 0.14566961722181801 0.035366614883496988 0 0.1566962317421734 0.039838803654011962 0 0.158601754226253 0.030081739901262169 0 0.15159127196488009 0.032471007951428398 0 0.14566961722181801 0.035366614883496988 0 0.14453550543306221 0.044729731242042367 0 0.1391322595465444 0.03699933077486834 0 0.14523576613563741 0.02976945682372012 0 0.15159127196488009 0.032471007951428398 0 0.14566961722181801 0.035366614883496988 0 0.14523576613563741 0.02976945682372012 0 0.14566961722181801 0.035366614883496988 0 0.1391322595465444 0.03699933077486834 0 0.15183666351233449 0.050700262892952028 0 0.14566961722181801 0.035366614883496988 0 0.14453550543306221 0.044729731242042367 0 0.13034027439662041 0.028127834929059549 0 0.1415085673101022 0.053673703855360522 0 0.13034027439662041 0.028127834929059549 0 0.1415085673101022 0.053673703855360522 0 0.1391322595465444 0.03699933077486834 0 0.12367169586596689 0.04413069599522032 0 0.13034027439662041 0.028127834929059549 0 0.1415085673101022 0.053673703855360522 0 0.11892469151436 0.060175562481194378 0 0.12367169586596689 0.04413069599522032 0 0.1415085673101022 0.053673703855360522 0 0.11892469151436 0.060175562481194378 0 0.1415085673101022 0.053673703855360522 0 0.11892469151436 0.060175562481194378 0 0.1415085673101022 0.053673703855360522 0 0.13253998066004699 0.064315925604492674 0 0.1415085673101022 0.053673703855360522 0 0.14215194880052681 0.055145346777992182 0 0.13253998066004699 0.064315925604492674 0 0.13253998066004699 0.064315925604492674 0 0.13121537104960351 0.072689189806444385 0 0.15446329543616341 0.069626104104570485 0 0.1243405792371938 0.066503547411893488 0 0.13253998066004699 0.064315925604492674 0 0.13121537104960351 0.072689189806444385 0 0.11892469151436 0.060175562481194378 0 0.1243405792371938 0.066503547411893488 0 0.13253998066004699 0.064315925604492674 0 0.13121537104960351 0.072689189806444385 0 0.14336397744542301 0.076431171561807093 0 0.13288821721910599 0.083857800247139097 0 0.15048711395973299 0.060532750562707877 0 0.13253998066004699 0.064315925604492674 0 0.15446329543616341 0.069626104104570485 0 0.13121537104960351 0.072689189806444385 0 0.15446329543616341 0.069626104104570485 0 0.13121537104960351 0.072689189806444385 0 0.14336397744542301 0.076431171561807093 0 0.15446329543616341 0.069626104104570485 0 0.13253998066004699 0.064315925604492674 0 0.15446329543616341 0.069626104104570485 0 0.14336397744542301 0.076431171561807093 0 0.15145508435945571 0.07730097997971673 0 0.15446329543616341 0.069626104104570485 0 0.15145508435945571 0.07730097997971673 0 0.15998651034928929 0.070963915351755544 0 0.15635019231632599 0.084708360937410687 0 0.15145508435945571 0.07730097997971673 0 0.15446329543616341 0.069626104104570485 0 0.15998651034928929 0.070963915351755544 0 0.15048711395973299 0.060532750562707877 0 0.15446329543616341 0.069626104104570485 0 0.15919757845585511 0.069002327358520896 0 0.1449478564828334 0.088262465871273704 0 0.15304430801011831 0.09759233646353245 0 0.15635019231632599 0.084708360937410687 0 0.15145508435945571 0.07730097997971673 0 0.1449478564828334 0.088262465871273704 0 0.15635019231632599 0.084708360937410687 0 0.14336397744542301 0.076431171561807093 0 0.15145508435945571 0.07730097997971673 0 0.1449478564828334 0.088262465871273704 0 0.1449478564828334 0.088262465871273704 0 0.13288821721910599 0.083857800247139097 0 0.1333435253298102 0.095432768439741328 0 0.14336397744542301 0.076431171561807093 0 0.1449478564828334 0.088262465871273704 0 0.13288821721910599 0.083857800247139097 0 0.1225478872688979 0.090713611373926736 0 0.1210037722340596 0.082520495593825793 0 0.13288821721910599 0.083857800247139097 0 0.1210037722340596 0.082520495593825793 0 0.13121537104960351 0.072689189806444385 0 0.13288821721910599 0.083857800247139097 0 0.1225478872688979 0.090713611373926736 0 0.13288821721910599 0.083857800247139097 0 0.1333435253298102 0.095432768439741328 0 0.1449478564828334 0.088262465871273704 0 0.1368974078767736 0.107501873099266 0 0.1333435253298102 0.095432768439741328 0 0.12018819637303869 0.10164151191590461 0 0.1368974078767736 0.107501873099266 0 0.1333435253298102 0.095432768439741328 0 0.12018819637303869 0.10164151191590461 0 0.1225478872688979 0.090713611373926736 0 0.1333435253298102 0.095432768439741328 0 0.11707998843366239 0.12090166170324231 0 0.14061487869327599 0.12738787364596069 0 0.1368974078767736 0.107501873099266 0 0.14061487869327599 0.12738787364596069 0 0.1368974078767736 0.107501873099266 0 0.1574927946018469 0.1127881056222175 0 0.14061487869327599 0.12738787364596069 0 0.16208469833826319 0.13464304631642149 0 0.1574927946018469 0.1127881056222175 0 0.1368974078767736 0.107501873099266 0 0.15304430801011831 0.09759233646353245 0 0.1574927946018469 0.1127881056222175 0 0.1449478564828334 0.088262465871273704 0 0.1368974078767736 0.107501873099266 0 0.15304430801011831 0.09759233646353245 0 0.15304430801011831 0.09759233646353245 0 0.1695332887728116 0.094700876787494351 0 0.1574927946018469 0.1127881056222175 0 0.1695332887728116 0.094700876787494351 0 0.1574927946018469 0.1127881056222175 0 0.1790800671963392 0.1184378382232308 0 0.16208469833826319 0.13464304631642149 0 0.1574927946018469 0.1127881056222175 0 0.1790800671963392 0.1184378382232308 0 0.1885688884481975 0.1093901779912298 0 0.1790800671963392 0.1184378382232308 0 0.1832996600419958 0.1003897382564244 0 0.1885688884481975 0.1093901779912298 0 0.1790800671963392 0.1184378382232308 0 0.1858372065203453 0.1184994265274882 0 0.1885688884481975 0.1093901779912298 0 0.1858372065203453 0.1184994265274882 0 0.1885688884481975 0.1093901779912298 0 0.1790800671963392 0.1184378382232308 0 0.19325819231563421 0.12959887947710741 0 0.1790800671963392 0.1184378382232308 0 0.1858372065203453 0.1184994265274882 0 0.1695332887728116 0.094700876787494351 0 0.1790800671963392 0.1184378382232308 0 0.1695332887728116 0.094700876787494351 0 0.1790800671963392 0.1184378382232308 0 0.1832996600419958 0.1003897382564244 0 0.1695332887728116 0.094700876787494351 0 0.1832996600419958 0.1003897382564244 0 0.18493574174144031 0.087819629641268118 0 0.1929726046438287 0.094705252597794665 0 0.1832996600419958 0.1003897382564244 0 0.18493574174144031 0.087819629641268118 0 0.1973763208394673 0.08002032720436178 0 0.18493574174144031 0.087819629641268118 0 0.17868141559437861 0.075492121278057239 0 0.1695332887728116 0.094700876787494351 0 0.18493574174144031 0.087819629641268118 0 0.17868141559437861 0.075492121278057239 0 0.1973763208394673 0.08002032720436178 0 0.17868141559437861 0.075492121278057239 0 0.18079222374313991 0.066157073385880324 0 0.17868141559437861 0.075492121278057239 0 0.18079222374313991 0.066157073385880324 0 0.15998651034928929 0.070963915351755544 0 0.18079222374313991 0.066157073385880324 0 0.15919757845585511 0.069002327358520896 0 0.18079222374313991 0.066157073385880324 0 0.15919757845585511 0.069002327358520896 0 0.15998651034928929 0.070963915351755544 0 0.17868141559437861 0.075492121278057239 0 0.15998651034928929 0.070963915351755544 0 0.15446329543616341 0.069626104104570485 0 0.15919757845585511 0.069002327358520896 0 0.15998651034928929 0.070963915351755544 0 0.15446329543616341 0.069626104104570485 0 0.15919757845585511 0.069002327358520896 0 0.15446329543616341 0.069626104104570485 0 0.15998651034928929 0.070963915351755544 0 0.15919757845585511 0.069002327358520896 0 0.15998651034928929 0.070963915351755544 0 0.1695332887728116 0.094700876787494351 0 0.17868141559437861 0.075492121278057239 0 0.15998651034928929 0.070963915351755544 0 0.15304430801011831 0.09759233646353245 0 0.1695332887728116 0.094700876787494351 0 0.15635019231632599 0.084708360937410687 0 0.1695332887728116 0.094700876787494351 0 0.15998651034928929 0.070963915351755544 0 0.1695332887728116 0.094700876787494351 0 0.15998651034928929 0.070963915351755544 0 0.15635019231632599 0.084708360937410687 0 0.097740131103692757 0.47211576306312553 0 0.10228396963995549 0.48764264937867408 0 0.092199203719590395 0.48872928857719472 0 0.097740131103692757 0.47211576306312553 0 0.1146358595090817 0.48605788153156299 0 0.097740131103692757 0.47211576306312553 0 0.10228396963995549 0.48764264937867408 0 0.1146358595090817 0.48605788153156299 0 0.1038255785689283 0.5 0 0.10228396963995549 0.48764264937867408 0 0.092199203719590395 0.48872928857719472 0 0.1038255785689283 0.5 0 0.10228396963995549 0.48764264937867408 0 0.1146358595090817 0.48605788153156299 0 0.1146358595090817 0.48605788153156299 0 0.13153158791447089 0.50000000000000033 0 0.1038255785689283 0.5 0 0.1146358595090817 0.48605788153156299 0 0.13153158791447089 0.50000000000000033 0 0.097740131103692757 0.47211576306312553 0 0.1146358595090817 0.48605788153156299 0 0.1160915578241386 0.4641835533930308 0 0.1146358595090817 0.48605788153156299 0 0.1160915578241386 0.4641835533930308 0 0.13792901651589951 0.46760966493884959 0 0.1160915578241386 0.4641835533930308 0 0.1237280261196836 0.44463014715047522 0 0.10202961426548091 0.45002724093957291 0 0.1237280261196836 0.44463014715047522 0 0.1057649319772677 0.43759517983083812 0 0.10202961426548091 0.45002724093957291 0 0.1057649319772677 0.43759517983083812 0 0.10202961426548091 0.45002724093957291 0 0.08764391112498858 0.43163178618934439 0 0.097740131103692757 0.47211576306312553 0 0.1160915578241386 0.4641835533930308 0 0.10202961426548091 0.45002724093957291 0 0.080844402698305312 0.45817364459468618 0 0.076730675362011974 0.47423156549521001 0 0.097740131103692757 0.47211576306312553 0 0.080844402698305312 0.45817364459468618 0 0.097740131103692757 0.47211576306312553 0 0.10202961426548091 0.45002724093957291 0 0.080844402698305312 0.45817364459468618 0 0.097740131103692757 0.47211576306312553 0 0.080844402698305312 0.45817364459468618 0 0.076730675362011974 0.47423156549521001 0 0.080844402698305312 0.45817364459468618 0 0.08764391112498858 0.43163178618934439 0 0.10202961426548091 0.45002724093957291 0 0.080844402698305312 0.45817364459468618 0 0.08764391112498858 0.43163178618934439 0 0.080844402698305312 0.45817364459468618 0 0.07540768018483697 0.44030754071393319 0 0.08764391112498858 0.43163178618934439 0 0.080844402698305312 0.45817364459468618 0 0.07540768018483697 0.44030754071393319 0 0.061556592319121653 0.44225761358074578 0 0.080844402698305312 0.45817364459468618 0 0.061556592319121653 0.44225761358074578 0 0.080844402698305312 0.45817364459468618 0 0.067859653170709522 0.45426422462270638 0 0.061556592319121653 0.44225761358074578 0 0.080844402698305312 0.45817364459468618 0 0.064346854003363874 0.46736183993319841 0 0.076730675362011974 0.47423156549521001 0 0.064346854003363874 0.46736183993319841 0 0.067859653170709522 0.45426422462270638 0 0.056076759981020123 0.44443419347066321 0 0.080844402698305312 0.45817364459468618 0 0.064346854003363874 0.46736183993319841 0 0.067859653170709522 0.45426422462270638 0 0.076730675362011974 0.47423156549521001 0 0.072616948025712127 0.490289486395732 0 0.064346854003363874 0.46736183993319841 0 0.072616948025712127 0.490289486395732 0 0.058055043786226751 0.49051055052906067 0 0.064346854003363874 0.46736183993319841 0 0.072616948025712127 0.490289486395732 0 0.064346854003363874 0.46736183993319841 0 0.076730675362011974 0.47423156549521001 0 0.072616948025712127 0.490289486395732 0 0.076730675362011974 0.47423156549521001 0 0.082075002421626492 0.48449271935339733 0 0.072616948025712127 0.490289486395732 0 0.097740131103692757 0.47211576306312553 0 0.076730675362011974 0.47423156549521001 0 0.082075002421626492 0.48449271935339733 0 0.097740131103692757 0.47211576306312553 0 0.092199203719590395 0.48872928857719472 0 0.082075002421626492 0.48449271935339733 0 0.1038255785689283 0.5 0 0.092199203719590395 0.48872928857719472 0 0.076119569223385697 0.50000000000000089 0 0.092199203719590395 0.48872928857719472 0 0.082075002421626492 0.48449271935339733 0 0.076119569223385697 0.50000000000000089 0 0.072616948025712127 0.490289486395732 0 0.07012930311136284 0.49999999999999661 0 0.076119569223385697 0.50000000000000089 0 0.072616948025712127 0.490289486395732 0 0.07012930311136284 0.49999999999999661 0 0.076119569223385697 0.50000000000000089 0 0.072616948025712127 0.490289486395732 0 0.082075002421626492 0.48449271935339733 0 0.076119569223385697 0.50000000000000089 0 0.072616948025712127 0.490289486395732 0 0.072616948025712127 0.490289486395732 0 0.07012930311136284 0.49999999999999661 0 0.058055043786226751 0.49051055052906067 0 0.058055043786226751 0.49051055052906067 0 0.046280597366186747 0.47957307303049429 0 0.044860440428939378 0.4999999999999995 0 0.07012930311136284 0.49999999999999661 0 0.058055043786226751 0.49051055052906067 0 0.044860440428939378 0.4999999999999995 0 0.064346854003363874 0.46736183993319841 0 0.058055043786226751 0.49051055052906067 0 0.046280597366186747 0.47957307303049429 0 0.046280597366186747 0.47957307303049429 0 0.047700754303434179 0.45914614606098908 0 0.046280597366186747 0.47957307303049429 0 0.029897162037545319 0.4839753813588808 0 0.03521852719449324 0.46736449501777538 0 0.044860440428939378 0.4999999999999995 0 0.01907995414838232 0.5 0 0.029897162037545319 0.4839753813588808 0 0.046280597366186747 0.47957307303049429 0 0.044860440428939378 0.4999999999999995 0 0.046280597366186747 0.47957307303049429 0 0.044860440428939378 0.4999999999999995 0 0.029897162037545319 0.4839753813588808 0 0.01907995414838232 0.5 0 0.029897162037545319 0.4839753813588808 0 0.01223017135109394 0.48399563131022733 0 0.029897162037545319 0.4839753813588808 0 0.02313076419329519 0.4718947066398041 0 0.01223017135109394 0.48399563131022733 0 0.029897162037545319 0.4839753813588808 0 0.02313076419329519 0.4718947066398041 0 0.03521852719449324 0.46736449501777538 0 0.02313076419329519 0.4718947066398041 0 0.01223017135109394 0.48399563131022733 0 0.01319884020628341 0.47022233111689332 0 -0.003880604538310756 0.48346324919380129 0 0.01223017135109394 0.48399563131022733 0 0.0050866533922729329 0.47701524235381432 0 0.01223017135109394 0.48399563131022733 0 0.01319884020628341 0.47022233111689332 0 0.0050866533922729329 0.47701524235381432 0 0.01319884020628341 0.47022233111689332 0 0.0053167838454733218 0.46943384557929257 0 0.0050866533922729329 0.47701524235381432 0 -0.001026908195020756 0.47486914558720472 0 0.0053167838454733218 0.46943384557929257 0 0.0050866533922729329 0.47701524235381432 0 -0.003880604538310756 0.48346324919380129 0 -0.001026908195020756 0.47486914558720472 0 0.0050866533922729329 0.47701524235381432 0 -0.0067005321321746969 0.5 0 0.01907995414838232 0.5 0 0.01223017135109394 0.48399563131022733 0 -0.0067005321321746969 0.5 0 -0.003880604538310756 0.48346324919380129 0 0.01223017135109394 0.48399563131022733 0 0.0094816941431487278 0.45086042579757712 0 0.01399183751309625 0.44462120914047132 0 0.0048617880261327502 0.44584476697033082 0 0.0094816941431487278 0.45086042579757712 0 0.01399183751309625 0.44462120914047132 0 0.016302396861864351 0.45114502888407948 0 0.01049598620797234 0.43767394788706171 0 0.01399183751309625 0.44462120914047132 0 0.0048617880261327502 0.44584476697033082 0 0.01049598620797234 0.43767394788706171 0 0.01399183751309625 0.44462120914047132 0 0.020379531913139331 0.43685778481219928 0 0.01049598620797234 0.43767394788706171 0 0.0048617880261327502 0.44584476697033082 0 0.01049598620797234 0.43767394788706171 0 0.0048617880261327502 0.44584476697033082 0 0.0065189226172944724 0.43188650626448272 0 0.0094816941431487278 0.45086042579757712 0 0.0048617880261327502 0.44584476697033082 0 0.0015605482097463411 0.45063228640423969 0 0.0048617880261327502 0.44584476697033082 0 0.0015605482097463411 0.45063228640423969 0 0.0094816941431487278 0.45086042579757712 0 0.0048617880261327502 0.44584476697033082 0 0.0015605482097463411 0.45063228640423969 0 0.0080738590363113663 0.46132998490476868 0 0.01222090350615627 0.45893997922115709 0 0.0015605482097463411 0.45063228640423969 0 0.01222090350615627 0.45893997922115709 0 -0.0094095992007081283 0.46654139838691122 0 0.0053167838454733218 0.46943384557929257 0 0.0080738590363113663 0.46132998490476868 0 0.0094816941431487278 0.45086042579757712 0 0.0015605482097463411 0.45063228640423969 0 0.01222090350615627 0.45893997922115709 0 -0.0094095992007081283 0.46654139838691122 0 0.0015605482097463411 0.45063228640423969 0 0.0080738590363113663 0.46132998490476868 0 0.0080738590363113663 0.46132998490476868 0 0.01222090350615627 0.45893997922115709 0 0.025557317273330941 0.45611857142262657 0 0.01319884020628341 0.47022233111689332 0 0.0080738590363113663 0.46132998490476868 0 0.025557317273330941 0.45611857142262657 0 0.01319884020628341 0.47022233111689332 0 0.0053167838454733218 0.46943384557929257 0 0.0080738590363113663 0.46132998490476868 0 0.0094816941431487278 0.45086042579757712 0 0.01222090350615627 0.45893997922115709 0 0.016302396861864351 0.45114502888407948 0 0.01222090350615627 0.45893997922115709 0 0.025557317273330941 0.45611857142262657 0 0.016302396861864351 0.45114502888407948 0 0.0080738590363113663 0.46132998490476868 0 0.025557317273330941 0.45611857142262657 0 0.02313076419329519 0.4718947066398041 0 0.01319884020628341 0.47022233111689332 0 0.025557317273330941 0.45611857142262657 0 0.02313076419329519 0.4718947066398041 0 0.025557317273330941 0.45611857142262657 0 0.03521852719449324 0.46736449501777538 0 0.025557317273330941 0.45611857142262657 0 0.029497972404799989 0.4465970104894148 0 0.021231693005787571 0.44530579808828252 0 0.025557317273330941 0.45611857142262657 0 0.016302396861864351 0.45114502888407948 0 0.021231693005787571 0.44530579808828252 0 0.01399183751309625 0.44462120914047132 0 0.016302396861864351 0.45114502888407948 0 0.021231693005787571 0.44530579808828252 0 0.01399183751309625 0.44462120914047132 0 0.021231693005787571 0.44530579808828252 0 0.020379531913139331 0.43685778481219928 0 0.029497972404799989 0.4465970104894148 0 0.021231693005787571 0.44530579808828252 0 0.030311313049230751 0.43763339856834432 0 0.021231693005787571 0.44530579808828252 0 0.030311313049230751 0.43763339856834432 0 0.020379531913139331 0.43685778481219928 0 0.038697605999956301 0.44825738244890739 0 0.047700754303434179 0.45914614606098908 0 0.049120911240681603 0.43871921909148398 0 0.029497972404799989 0.4465970104894148 0 0.038697605999956301 0.44825738244890739 0 0.040333793699140981 0.43958103258297831 0 0.029497972404799989 0.4465970104894148 0 0.030311313049230751 0.43763339856834432 0 0.040333793699140981 0.43958103258297831 0 0.025557317273330941 0.45611857142262657 0 0.029497972404799989 0.4465970104894148 0 0.038697605999956301 0.44825738244890739 0 0.038697605999956301 0.44825738244890739 0 0.040333793699140981 0.43958103258297831 0 0.049120911240681603 0.43871921909148398 0 0.046280597366186747 0.47957307303049429 0 0.03521852719449324 0.46736449501777538 0 0.047700754303434179 0.45914614606098908 0 0.025557317273330941 0.45611857142262657 0 0.038697605999956301 0.44825738244890739 0 0.03521852719449324 0.46736449501777538 0 0.038697605999956301 0.44825738244890739 0 0.03521852719449324 0.46736449501777538 0 0.047700754303434179 0.45914614606098908 0 0.064346854003363874 0.46736183993319841 0 0.056076759981020123 0.44443419347066321 0 0.064346854003363874 0.46736183993319841 0 0.046280597366186747 0.47957307303049429 0 0.047700754303434179 0.45914614606098908 0 0.064346854003363874 0.46736183993319841 0 0.047700754303434179 0.45914614606098908 0 0.056076759981020123 0.44443419347066321 0 0.047700754303434179 0.45914614606098908 0 0.049120911240681603 0.43871921909148398 0 0.056076759981020123 0.44443419347066321 0 0.047700754303434179 0.45914614606098908 0 0.049120911240681603 0.43871921909148398 0 0.067859653170709522 0.45426422462270638 0 0.056076759981020123 0.44443419347066321 0 0.061556592319121653 0.44225761358074578 0 0.056076759981020123 0.44443419347066321 0 0.061556592319121653 0.44225761358074578 0 0.059201111644200437 0.43099696977894508 0 0.056076759981020123 0.44443419347066321 0 0.047806665958676359 0.42150654700812801 0 0.049120911240681603 0.43871921909148398 0 0.056076759981020123 0.44443419347066321 0 0.047806665958676359 0.42150654700812801 0 0.056076759981020123 0.44443419347066321 0 0.059201111644200437 0.43099696977894508 0 0.047806665958676359 0.42150654700812801 0 0.059201111644200437 0.43099696977894508 0 0.058979725365252707 0.4176193763442323 0 0.047806665958676359 0.42150654700812801 0 0.058979725365252707 0.4176193763442323 0 0.039536571936328653 0.39857890054559408 0 0.063240005814886313 0.40658319209587829 0 0.058979725365252707 0.4176193763442323 0 0.047806665958676359 0.42150654700812801 0 0.039536571936328653 0.39857890054559408 0 0.035113551011259521 0.41687403621696922 0 0.02872917033170445 0.40503675834663061 0 0.039536571936328653 0.39857890054559408 0 0.047806665958676359 0.42150654700812801 0 0.039536571936328653 0.39857890054559408 0 0.047806665958676359 0.42150654700812801 0 0.035113551011259521 0.41687403621696922 0 0.039536571936328653 0.39857890054559408 0 0.049120911240681603 0.43871921909148398 0 0.047806665958676359 0.42150654700812801 0 0.039708047704291503 0.4306454839277386 0 0.040333793699140981 0.43958103258297831 0 0.049120911240681603 0.43871921909148398 0 0.039708047704291503 0.4306454839277386 0 0.047806665958676359 0.42150654700812801 0 0.035113551011259521 0.41687403621696922 0 0.039708047704291503 0.4306454839277386 0 0.035113551011259521 0.41687403621696922 0 0.039708047704291503 0.4306454839277386 0 0.028741688689164512 0.42811504149697438 0 0.030311313049230751 0.43763339856834432 0 0.039708047704291503 0.4306454839277386 0 0.028741688689164512 0.42811504149697438 0 0.030311313049230751 0.43763339856834432 0 0.040333793699140981 0.43958103258297831 0 0.039708047704291503 0.4306454839277386 0 0.030311313049230751 0.43763339856834432 0 0.020379531913139331 0.43685778481219928 0 0.028741688689164512 0.42811504149697438 0 0.01049598620797234 0.43767394788706171 0 0.020379531913139331 0.43685778481219928 0 0.01750467301358458 0.42779731369206181 0 0.020379531913139331 0.43685778481219928 0 0.01750467301358458 0.42779731369206181 0 0.028741688689164512 0.42811504149697438 0 0.01750467301358458 0.42779731369206181 0 0.028741688689164512 0.42811504149697438 0 0.02615916144738779 0.41736148597675132 0 0.035113551011259521 0.41687403621696922 0 0.028741688689164512 0.42811504149697438 0 0.02615916144738779 0.41736148597675132 0 0.02615916144738779 0.41736148597675132 0 0.010437450069317761 0.40463061763750507 0 0.02872917033170445 0.40503675834663061 0 0.02615916144738779 0.41736148597675132 0 0.01517065216307991 0.41806138940930709 0 0.010437450069317761 0.40463061763750507 0 0.035113551011259521 0.41687403621696922 0 0.02615916144738779 0.41736148597675132 0 0.02872917033170445 0.40503675834663061 0 0.01750467301358458 0.42779731369206181 0 0.02615916144738779 0.41736148597675132 0 0.01517065216307991 0.41806138940930709 0 -0.003174347114314008 0.41591217031924949 0 0.0065813241220295041 0.42245614033091039 0 0.010437450069317761 0.40463061763750507 0 -0.0064316016559190746 0.3999483233353413 0 -0.003174347114314008 0.41591217031924949 0 0.010437450069317761 0.40463061763750507 0 0.01517065216307991 0.41806138940930709 0 0.0065813241220295041 0.42245614033091039 0 0.010437450069317761 0.40463061763750507 0 -0.003174347114314008 0.41591217031924949 0 0.010437450069317761 0.40463061763750507 0 -0.003174347114314008 0.41591217031924949 0 0.0065813241220295041 0.42245614033091039 0 -0.0026301228576318379 0.42717885202372191 0 -0.003174347114314008 0.41591217031924949 0 0.0065813241220295041 0.42245614033091039 0 -0.0026301228576318379 0.42717885202372191 0 0.0065813241220295041 0.42245614033091039 0 0.0065189226172944724 0.43188650626448272 0 -0.0026301228576318379 0.42717885202372191 0 0.0048617880261327502 0.44584476697033082 0 0.0065189226172944724 0.43188650626448272 0 0.01049598620797234 0.43767394788706171 0 0.01750467301358458 0.42779731369206181 0 0.0065189226172944724 0.43188650626448272 0 0.01750467301358458 0.42779731369206181 0 0.0065813241220295041 0.42245614033091039 0 0.0065189226172944724 0.43188650626448272 0 0.01750467301358458 0.42779731369206181 0 0.01517065216307991 0.41806138940930709 0 0.0065813241220295041 0.42245614033091039 0 -0.0042030409966118051 0.38380869400061962 0 0.01009735409817194 0.38238429504652488 0 0.02404924725294803 0.393349064955759 0 -0.0042030409966118051 0.38380869400061962 0 0.02404924725294803 0.393349064955759 0 0.01009735409817194 0.38238429504652488 0 0.0197357255374827 0.37571737083264412 0 0.011110712074150059 0.37343232972227269 0 -0.001064505034491721 0.37161458349227261 0 0.01009735409817194 0.38238429504652488 0 0.011110712074150059 0.37343232972227269 0 -0.001064505034491721 0.37161458349227261 0 -0.0042030409966118051 0.38380869400061962 0 0.01009735409817194 0.38238429504652488 0 -0.0042030409966118051 0.38380869400061962 0 0.01009735409817194 0.38238429504652488 0 -0.0042030409966118051 0.38380869400061962 0 0.010437450069317761 0.40463061763750507 0 0.02404924725294803 0.393349064955759 0 0.010437450069317761 0.40463061763750507 0 0.02872917033170445 0.40503675834663061 0 0.02404924725294803 0.393349064955759 0 0.010437450069317761 0.40463061763750507 0 0.02404924725294803 0.393349064955759 0 0.02872917033170445 0.40503675834663061 0 0.02404924725294803 0.393349064955759 0 0.039536571936328653 0.39857890054559408 0 0.02404924725294803 0.393349064955759 0 0.034519904376963118 0.38467091111880503 0 0.02404924725294803 0.393349064955759 0 0.0197357255374827 0.37571737083264412 0 0.034519904376963118 0.38467091111880503 0 0.01009735409817194 0.38238429504652488 0 0.02404924725294803 0.393349064955759 0 0.0197357255374827 0.37571737083264412 0 0.034519904376963118 0.38467091111880503 0 0.050307067216076778 0.37158640017128619 0 0.034519904376963118 0.38467091111880503 0 0.039536571936328653 0.39857890054559408 0 0.056773536515482913 0.38908479613358171 0 0.02404924725294803 0.393349064955759 0 0.039536571936328653 0.39857890054559408 0 0.034519904376963118 0.38467091111880503 0 0.039536571936328653 0.39857890054559408 0 0.02404924725294803 0.393349064955759 0 0.034519904376963118 0.38467091111880503 0 0.039536571936328653 0.39857890054559408 0 0.039536571936328653 0.39857890054559408 0 0.063240005814886313 0.40658319209587829 0 0.039536571936328653 0.39857890054559408 0 0.056773536515482913 0.38908479613358171 0 0.063240005814886313 0.40658319209587829 0 0.056773536515482913 0.38908479613358171 0 0.063240005814886313 0.40658319209587829 0 0.056773536515482913 0.38908479613358171 0 0.059721524030669819 0.37431687333309788 0 0.050307067216076778 0.37158640017128619 0 0.056773536515482913 0.38908479613358171 0 0.050307067216076778 0.37158640017128619 0 0.034519904376963118 0.38467091111880503 0 0.056773536515482913 0.38908479613358171 0 0.050307067216076778 0.37158640017128619 0 0.056773536515482913 0.38908479613358171 0 0.069041936002645535 0.37820082441249081 0 0.059721524030669819 0.37431687333309788 0 0.056773536515482913 0.38908479613358171 0 0.069041936002645535 0.37820082441249081 0 0.068225210254675303 0.39186969982647402 0 0.069041936002645535 0.37820082441249081 0 0.078928226936330073 0.3918395352538776 0 0.068225210254675303 0.39186969982647402 0 0.069041936002645535 0.37820082441249081 0 0.087739402474845588 0.37833299208434412 0 0.078928226936330073 0.3918395352538776 0 0.087739402474845588 0.37833299208434412 0 0.078928226936330073 0.3918395352538776 0 0.094443419551670932 0.40508992778400232 0 0.078928226936330073 0.3918395352538776 0 0.080832552055978585 0.40498983155533402 0 0.094443419551670932 0.40508992778400232 0 0.080832552055978585 0.40498983155533402 0 0.073695702888484968 0.40005040040525608 0 0.075088081656536507 0.41058410832735293 0 0.078928226936330073 0.3918395352538776 0 0.080832552055978585 0.40498983155533402 0 0.073695702888484968 0.40005040040525608 0 0.056773536515482913 0.38908479613358171 0 0.068225210254675303 0.39186969982647402 0 0.063240005814886313 0.40658319209587829 0 0.073695702888484968 0.40005040040525608 0 0.063240005814886313 0.40658319209587829 0 0.075088081656536507 0.41058410832735293 0 0.078928226936330073 0.3918395352538776 0 0.073695702888484968 0.40005040040525608 0 0.068225210254675303 0.39186969982647402 0 0.073695702888484968 0.40005040040525608 0 0.068225210254675303 0.39186969982647402 0 0.063240005814886313 0.40658319209587829 0 0.058979725365252707 0.4176193763442323 0 0.063240005814886313 0.40658319209587829 0 0.071585814596931419 0.42916711849095618 0 0.063240005814886313 0.40658319209587829 0 0.075088081656536507 0.41058410832735293 0 0.071585814596931419 0.42916711849095618 0 0.063240005814886313 0.40658319209587829 0 0.071585814596931419 0.42916711849095618 0 0.063240005814886313 0.40658319209587829 0 0.075088081656536507 0.41058410832735293 0 0.075088081656536507 0.41058410832735293 0 0.071585814596931419 0.42916711849095618 0 0.082007329246870417 0.41738518600618091 0 0.061556592319121653 0.44225761358074578 0 0.059201111644200437 0.43099696977894508 0 0.071585814596931419 0.42916711849095618 0 0.07540768018483697 0.44030754071393319 0 0.061556592319121653 0.44225761358074578 0 0.071585814596931419 0.42916711849095618 0 0.059201111644200437 0.43099696977894508 0 0.058979725365252707 0.4176193763442323 0 0.071585814596931419 0.42916711849095618 0 0.07540768018483697 0.44030754071393319 0 0.071585814596931419 0.42916711849095618 0 0.08764391112498858 0.43163178618934439 0 0.071585814596931419 0.42916711849095618 0 0.08764391112498858 0.43163178618934439 0 0.082007329246870417 0.41738518600618091 0 0.08764391112498858 0.43163178618934439 0 0.082007329246870417 0.41738518600618091 0 0.094443419551670932 0.40508992778400232 0 0.08764391112498858 0.43163178618934439 0 0.094443419551670932 0.40508992778400232 0 0.080832552055978585 0.40498983155533402 0 0.075088081656536507 0.41058410832735293 0 0.082007329246870417 0.41738518600618091 0 0.080832552055978585 0.40498983155533402 0 0.082007329246870417 0.41738518600618091 0 0.094443419551670932 0.40508992778400232 0 0.08764391112498858 0.43163178618934439 0 0.1096581763989177 0.42409154504396013 0 0.094443419551670932 0.40508992778400232 0 0.1096581763989177 0.42409154504396013 0 0.11163148259572971 0.40863234267508453 0 0.094443419551670932 0.40508992778400232 0 0.1057649319772677 0.43759517983083812 0 0.08764391112498858 0.43163178618934439 0 0.1096581763989177 0.42409154504396013 0 0.1237280261196836 0.44463014715047522 0 0.1096581763989177 0.42409154504396013 0 0.13502200614688589 0.42010390008240672 0 0.1237280261196836 0.44463014715047522 0 0.1057649319772677 0.43759517983083812 0 0.1096581763989177 0.42409154504396013 0 0.11163148259572971 0.40863234267508453 0 0.1236499924648251 0.3984302041169589 0 0.13502200614688589 0.42010390008240672 0 0.1096581763989177 0.42409154504396013 0 0.11163148259572971 0.40863234267508453 0 0.13502200614688589 0.42010390008240672 0 0.11163148259572971 0.40863234267508453 0 0.1236499924648251 0.3984302041169589 0 0.10863659533572551 0.39290197353284961 0 0.10863659533572551 0.39290197353284961 0 0.114060711710889 0.37342974127053702 0 0.12550685613774351 0.37951055496914998 0 0.1236499924648251 0.3984302041169589 0 0.10863659533572551 0.39290197353284961 0 0.12550685613774351 0.37951055496914998 0 0.1012429279783533 0.37854806937866009 0 0.10863659533572551 0.39290197353284961 0 0.114060711710889 0.37342974127053702 0 0.087739402474845588 0.37833299208434412 0 0.1012429279783533 0.37854806937866009 0 0.094443419551670932 0.40508992778400232 0 0.11163148259572971 0.40863234267508453 0 0.10863659533572551 0.39290197353284961 0 0.094443419551670932 0.40508992778400232 0 0.1012429279783533 0.37854806937866009 0 0.094443419551670932 0.40508992778400232 0 0.1012429279783533 0.37854806937866009 0 0.10863659533572551 0.39290197353284961 0 0.094443419551670932 0.40508992778400232 0 0.10055213054656729 0.36013865237867942 0 0.1100489009895301 0.33374314175173209 0 0.10055213054656729 0.36013865237867942 0 0.1100489009895301 0.33374314175173209 0 0.08625589277749264 0.346999797836966 0 0.1069344999541316 0.36147573913557879 0 0.10055213054656729 0.36013865237867942 0 0.1165634558871128 0.3492406052842485 0 0.10055213054656729 0.36013865237867942 0 0.1165634558871128 0.3492406052842485 0 0.1100489009895301 0.33374314175173209 0 0.087739402474845588 0.37833299208434412 0 0.1012429279783533 0.37854806937866009 0 0.1069344999541316 0.36147573913557879 0 0.1012429279783533 0.37854806937866009 0 0.1069344999541316 0.36147573913557879 0 0.114060711710889 0.37342974127053702 0 0.1069344999541316 0.36147573913557879 0 0.10055213054656729 0.36013865237867942 0 0.081229983254247365 0.36650003300062722 0 0.1069344999541316 0.36147573913557879 0 0.081229983254247365 0.36650003300062722 0 0.114060711710889 0.37342974127053702 0 0.1326390166540157 0.35645144527053041 0 0.12550685613774351 0.37951055496914998 0 0.1069344999541316 0.36147573913557879 0 0.114060711710889 0.37342974127053702 0 0.1326390166540157 0.35645144527053041 0 0.1069344999541316 0.36147573913557879 0 0.1165634558871128 0.3492406052842485 0 0.1326390166540157 0.35645144527053041 0 0.1069344999541316 0.36147573913557879 0 0.1326390166540157 0.35645144527053041 0 0.1165634558871128 0.3492406052842485 0 0.1100489009895301 0.33374314175173209 0 0.13264273129131951 0.33439404788472138 0 0.1100489009895301 0.33374314175173209 0 0.099713977183769634 0.31807175575135088 0 0.11954567143249289 0.30734763112478491 0 0.1100489009895301 0.33374314175173209 0 0.11954567143249289 0.30734763112478491 0 0.13264273129131951 0.33439404788472138 0 0.1100489009895301 0.33374314175173209 0 0.11954567143249289 0.30734763112478491 0 0.1100489009895301 0.33374314175173209 0 0.099713977183769634 0.31807175575135088 0 0.083894735805945045 0.32735700357097808 0 0.1100489009895301 0.33374314175173209 0 0.083894735805945045 0.32735700357097808 0 0.08625589277749264 0.346999797836966 0 0.083894735805945045 0.32735700357097808 0 0.068148884279383815 0.34110740296781622 0 0.08625589277749264 0.346999797836966 0 0.099713977183769634 0.31807175575135088 0 0.083894735805945045 0.32735700357097808 0 0.079241751540062577 0.3091409184095229 0 0.083894735805945045 0.32735700357097808 0 0.067542665246266162 0.32227296773822012 0 0.079241751540062577 0.3091409184095229 0 0.067542665246266162 0.32227296773822012 0 0.068148884279383815 0.34110740296781622 0 0.052098030758102709 0.32848813316288678 0 0.083894735805945045 0.32735700357097808 0 0.067542665246266162 0.32227296773822012 0 0.068148884279383815 0.34110740296781622 0 0.068148884279383815 0.34110740296781622 0 0.072981575438615956 0.35429511825148829 0 0.08625589277749264 0.346999797836966 0 0.068148884279383815 0.34110740296781622 0 0.072981575438615956 0.35429511825148829 0 0.059971533893319953 0.35265308331869138 0 0.072981575438615956 0.35429511825148829 0 0.066555082361941326 0.36578627017444021 0 0.059971533893319953 0.35265308331869138 0 0.10055213054656729 0.36013865237867942 0 0.08625589277749264 0.346999797836966 0 0.081229983254247365 0.36650003300062722 0 0.072981575438615956 0.35429511825148829 0 0.08625589277749264 0.346999797836966 0 0.081229983254247365 0.36650003300062722 0 0.087739402474845588 0.37833299208434412 0 0.1069344999541316 0.36147573913557879 0 0.081229983254247365 0.36650003300062722 0 0.069041936002645535 0.37820082441249081 0 0.087739402474845588 0.37833299208434412 0 0.081229983254247365 0.36650003300062722 0 0.069041936002645535 0.37820082441249081 0 0.081229983254247365 0.36650003300062722 0 0.066555082361941326 0.36578627017444021 0 0.072981575438615956 0.35429511825148829 0 0.081229983254247365 0.36650003300062722 0 0.066555082361941326 0.36578627017444021 0 0.069041936002645535 0.37820082441249081 0 0.066555082361941326 0.36578627017444021 0 0.059721524030669819 0.37431687333309788 0 0.055929998057201551 0.36692607577369102 0 0.050307067216076778 0.37158640017128619 0 0.041108453413194898 0.34669476624024848 0 0.066555082361941326 0.36578627017444021 0 0.059721524030669819 0.37431687333309788 0 0.055929998057201551 0.36692607577369102 0 0.059721524030669819 0.37431687333309788 0 0.055929998057201551 0.36692607577369102 0 0.050307067216076778 0.37158640017128619 0 0.066555082361941326 0.36578627017444021 0 0.055929998057201551 0.36692607577369102 0 0.059971533893319953 0.35265308331869138 0 0.055929998057201551 0.36692607577369102 0 0.050307067216076778 0.37158640017128619 0 0.055929998057201551 0.36692607577369102 0 0.059971533893319953 0.35265308331869138 0 0.041108453413194898 0.34669476624024848 0 0.059971533893319953 0.35265308331869138 0 0.041108453413194898 0.34669476624024848 0 0.053731959496234848 0.34189436452501393 0 0.068148884279383815 0.34110740296781622 0 0.059971533893319953 0.35265308331869138 0 0.053731959496234848 0.34189436452501393 0 0.050307067216076778 0.37158640017128619 0 0.041108453413194898 0.34669476624024848 0 0.036325720293778493 0.35734230210966361 0 0.050307067216076778 0.37158640017128619 0 0.041108453413194898 0.34669476624024848 0 0.041108453413194898 0.34669476624024848 0 0.036325720293778493 0.35734230210966361 0 0.028822601092593811 0.34272768621728472 0 0.034519904376963118 0.38467091111880503 0 0.036565816098641138 0.36791040757449411 0 0.02482466364838485 0.35779225034500489 0 0.034519904376963118 0.38467091111880503 0 0.050307067216076778 0.37158640017128619 0 0.036565816098641138 0.36791040757449411 0 0.050307067216076778 0.37158640017128619 0 0.036325720293778493 0.35734230210966361 0 0.036565816098641138 0.36791040757449411 0 0.036325720293778493 0.35734230210966361 0 0.036565816098641138 0.36791040757449411 0 0.02482466364838485 0.35779225034500489 0 0.034519904376963118 0.38467091111880503 0 0.02482466364838485 0.35779225034500489 0 0.0197357255374827 0.37571737083264412 0 0.034519904376963118 0.38467091111880503 0 0.02482466364838485 0.35779225034500489 0 0.0197357255374827 0.37571737083264412 0 0.015674273695437339 0.36401306951764911 0 0.02482466364838485 0.35779225034500489 0 0.015674273695437339 0.36401306951764911 0 0.02482466364838485 0.35779225034500489 0 0.015768167676543349 0.35713923686247862 0 0.02482466364838485 0.35779225034500489 0 0.01512942291980679 0.33091358957120492 0 0.02482466364838485 0.35779225034500489 0 0.01512942291980679 0.33091358957120492 0 0.028822601092593811 0.34272768621728472 0 0.036325720293778493 0.35734230210966361 0 0.02482466364838485 0.35779225034500489 0 0.028822601092593811 0.34272768621728472 0 0.02482466364838485 0.35779225034500489 0 0.012196298529549159 0.34905700984651278 0 0.01512942291980679 0.33091358957120492 0 0.02482466364838485 0.35779225034500489 0 0.015768167676543349 0.35713923686247862 0 0.012196298529549159 0.34905700984651278 0 0.01037743483280206 0.35769461774074762 0 0.012196298529549159 0.34905700984651278 0 0.0032447233134405931 0.35422125060834359 0 0.015768167676543349 0.35713923686247862 0 0.01037743483280206 0.35769461774074762 0 0.012196298529549159 0.34905700984651278 0 -0.002583240235104544 0.34489224502179239 0 0.012196298529549159 0.34905700984651278 0 0.0065182143906638264 0.33911035096943482 0 -0.002583240235104544 0.34489224502179239 0 0.012196298529549159 0.34905700984651278 0 0.0032447233134405931 0.35422125060834359 0 0.01037743483280206 0.35769461774074762 0 0.0032447233134405931 0.35422125060834359 0 0.0039428335920915006 0.36531030276633031 0 -0.0064988099748367559 0.35299106404641623 0 0.0032447233134405931 0.35422125060834359 0 0.0039428335920915006 0.36531030276633031 0 -0.001064505034491721 0.37161458349227261 0 0.015674273695437339 0.36401306951764911 0 0.0039428335920915006 0.36531030276633031 0 -0.001064505034491721 0.37161458349227261 0 0.015674273695437339 0.36401306951764911 0 0.011110712074150059 0.37343232972227269 0 -0.001064505034491721 0.37161458349227261 0 0.015674273695437339 0.36401306951764911 0 0.0197357255374827 0.37571737083264412 0 0.015674273695437339 0.36401306951764911 0 0.011110712074150059 0.37343232972227269 0 0.015674273695437339 0.36401306951764911 0 0.01037743483280206 0.35769461774074762 0 0.0039428335920915006 0.36531030276633031 0 0.015674273695437339 0.36401306951764911 0 0.015768167676543349 0.35713923686247862 0 0.01037743483280206 0.35769461774074762 0 -0.00058836015198596755 0.32088344941533808 0 0.01512942291980679 0.33091358957120492 0 0.0054341821912287152 0.30403492879740468 0 0.01512942291980679 0.33091358957120492 0 0.0054341821912287152 0.30403492879740468 0 0.01512942291980679 0.33091358957120492 0 0.018796167632194181 0.3134157872639986 0 0.0054341821912287152 0.30403492879740468 0 0.012196298529549159 0.34905700984651278 0 0.01512942291980679 0.33091358957120492 0 0.0065182143906638264 0.33911035096943482 0 -0.0025616559074486049 0.3329031852911295 0 -0.00058836015198596755 0.32088344941533808 0 0.01512942291980679 0.33091358957120492 0 -0.0025616559074486049 0.3329031852911295 0 0.01512942291980679 0.33091358957120492 0 0.0065182143906638264 0.33911035096943482 0 -0.0025616559074486049 0.3329031852911295 0 -0.002583240235104544 0.34489224502179239 0 0.0065182143906638264 0.33911035096943482 0 0.01512942291980679 0.33091358957120492 0 0.028822601092593811 0.34272768621728472 0 0.031909839610312053 0.3218031323092112 0 0.01512942291980679 0.33091358957120492 0 0.018796167632194181 0.3134157872639986 0 0.031909839610312053 0.3218031323092112 0 0.031909839610312053 0.3218031323092112 0 0.052098030758102709 0.32848813316288678 0 0.054329923847836643 0.30527138057989611 0 0.041108453413194898 0.34669476624024848 0 0.031909839610312053 0.3218031323092112 0 0.041108453413194898 0.34669476624024848 0 0.028822601092593811 0.34272768621728472 0 0.031909839610312053 0.3218031323092112 0 0.041108453413194898 0.34669476624024848 0 0.031909839610312053 0.3218031323092112 0 0.052098030758102709 0.32848813316288678 0 0.041108453413194898 0.34669476624024848 0 0.052098030758102709 0.32848813316288678 0 0.053731959496234848 0.34189436452501393 0 0.068148884279383815 0.34110740296781622 0 0.052098030758102709 0.32848813316288678 0 0.053731959496234848 0.34189436452501393 0 0.067542665246266162 0.32227296773822012 0 0.052098030758102709 0.32848813316288678 0 0.054329923847836643 0.30527138057989611 0 0.054329923847836643 0.30527138057989611 0 0.058643640903709077 0.2841886380467647 0 0.070108093408202884 0.28237758711201172 0 0.054329923847836643 0.30527138057989611 0 0.058643640903709077 0.2841886380467647 0 0.046708945964444748 0.28470371633566799 0 0.054329923847836643 0.30527138057989611 0 0.070108093408202884 0.28237758711201172 0 0.033299114928103571 0.2853556706935409 0 0.038381760441483573 0.30030485014671859 0 0.022711225807429191 0.29691149837817382 0 0.054329923847836643 0.30527138057989611 0 0.046708945964444748 0.28470371633566799 0 0.038381760441483573 0.30030485014671859 0 0.046708945964444748 0.28470371633566799 0 0.033299114928103571 0.2853556706935409 0 0.038381760441483573 0.30030485014671859 0 0.031909839610312053 0.3218031323092112 0 0.054329923847836643 0.30527138057989611 0 0.038381760441483573 0.30030485014671859 0 0.031909839610312053 0.3218031323092112 0 0.022711225807429191 0.29691149837817382 0 0.018796167632194181 0.3134157872639986 0 0.031909839610312053 0.3218031323092112 0 0.022711225807429191 0.29691149837817382 0 0.018796167632194181 0.3134157872639986 0 0.022711225807429191 0.29691149837817382 0 0.0054341821912287152 0.30403492879740468 0 0.031909839610312053 0.3218031323092112 0 0.038381760441483573 0.30030485014671859 0 0.022711225807429191 0.29691149837817382 0 0.022711225807429191 0.29691149837817382 0 0.0097135815956244098 0.28932323485025419 0 0.01496997692118909 0.27919024420183391 0 0.033299114928103571 0.2853556706935409 0 0.022711225807429191 0.29691149837817382 0 0.01496997692118909 0.27919024420183391 0 -0.0042610585373493576 0.2771562680236046 0 0.0097135815956244098 0.28932323485025419 0 0.01496997692118909 0.27919024420183391 0 -0.0042610585373493576 0.2771562680236046 0 0.0097135815956244098 0.28932323485025419 0 0.0054341821912287152 0.30403492879740468 0 0.022711225807429191 0.29691149837817382 0 0.0097135815956244098 0.28932323485025419 0 0.0054341821912287152 0.30403492879740468 0 -0.0042610585373493576 0.2771562680236046 0 0.0054341821912287152 0.30403492879740468 0 0.012156823249103331 0.25259817100369902 0 0.0071094060709509964 0.26564087220093879 0 0.023079021189564172 0.26593697868694532 0 -0.0082457657602449386 0.25246627485226031 0 0.012156823249103331 0.25259817100369902 0 0.0071094060709509964 0.26564087220093879 0 0.0071094060709509964 0.26564087220093879 0 0.01496997692118909 0.27919024420183391 0 0.023079021189564172 0.26593697868694532 0 -0.0042610585373493576 0.2771562680236046 0 0.0071094060709509964 0.26564087220093879 0 0.01496997692118909 0.27919024420183391 0 0.033299114928103571 0.2853556706935409 0 0.01496997692118909 0.27919024420183391 0 0.023079021189564172 0.26593697868694532 0 0.012156823249103331 0.25259817100369902 0 0.023079021189564172 0.26593697868694532 0 0.030652172791378579 0.25229956247347313 0 0.023079021189564172 0.26593697868694532 0 0.030652172791378579 0.25229956247347313 0 0.04073495957405681 0.26035892983227987 0 0.044937254539659167 0.2379713478153713 0 0.030652172791378579 0.25229956247347313 0 0.04073495957405681 0.26035892983227987 0 0.033299114928103571 0.2853556706935409 0 0.023079021189564172 0.26593697868694532 0 0.04073495957405681 0.26035892983227987 0 0.033299114928103571 0.2853556706935409 0 0.04073495957405681 0.26035892983227987 0 0.046708945964444748 0.28470371633566799 0 0.033299114928103571 0.2853556706935409 0 0.04073495957405681 0.26035892983227987 0 0.046708945964444748 0.28470371633566799 0 0.04073495957405681 0.26035892983227987 0 0.054656664038459993 0.27221644551962948 0 0.058643640903709077 0.2841886380467647 0 0.046708945964444748 0.28470371633566799 0 0.054656664038459993 0.27221644551962948 0 0.054656664038459993 0.27221644551962948 0 0.05595459183600883 0.25980758553240452 0 0.063151913248908592 0.26702092668087168 0 0.054656664038459993 0.27221644551962948 0 0.063151913248908592 0.26702092668087168 0 0.062868354845155253 0.27542318723842002 0 0.058643640903709077 0.2841886380467647 0 0.054656664038459993 0.27221644551962948 0 0.062868354845155253 0.27542318723842002 0 0.058643640903709077 0.2841886380467647 0 0.062868354845155253 0.27542318723842002 0 0.06481936793225318 0.27971168374165578 0 0.052294646587479003 0.2493466198794505 0 0.04073495957405681 0.26035892983227987 0 0.05595459183600883 0.25980758553240452 0 0.04073495957405681 0.26035892983227987 0 0.054656664038459993 0.27221644551962948 0 0.05595459183600883 0.25980758553240452 0 0.05595459183600883 0.25980758553240452 0 0.066495423171073403 0.25816184380531082 0 0.063151913248908592 0.26702092668087168 0 0.052294646587479003 0.2493466198794505 0 0.05595459183600883 0.25980758553240452 0 0.06034442261467237 0.25120339486286308 0 0.05595459183600883 0.25980758553240452 0 0.06034442261467237 0.25120339486286308 0 0.066495423171073403 0.25816184380531082 0 0.067445722382230539 0.24771064348785149 0 0.066495423171073403 0.25816184380531082 0 0.074707437689247702 0.25389633834412328 0 0.067445722382230539 0.24771064348785149 0 0.06034442261467237 0.25120339486286308 0 0.066495423171073403 0.25816184380531082 0 0.066495423171073403 0.25816184380531082 0 0.070468357435777063 0.2657419037057816 0 0.063151913248908592 0.26702092668087168 0 0.066495423171073403 0.25816184380531082 0 0.074357597956477339 0.26064435546358339 0 0.070468357435777063 0.2657419037057816 0 0.074357597956477339 0.26064435546358339 0 0.075194191089397802 0.26640127341757941 0 0.070468357435777063 0.2657419037057816 0 0.074357597956477339 0.26064435546358339 0 0.080427883817154544 0.25791465254204288 0 0.078852294536213494 0.26175012096666261 0 0.074357597956477339 0.26064435546358339 0 0.078852294536213494 0.26175012096666261 0 0.075194191089397802 0.26640127341757941 0 0.066495423171073403 0.25816184380531082 0 0.074357597956477339 0.26064435546358339 0 0.074707437689247702 0.25389633834412328 0 0.074357597956477339 0.26064435546358339 0 0.074707437689247702 0.25389633834412328 0 0.080427883817154544 0.25791465254204288 0 0.085975255819246227 0.24304742420893821 0 0.080478695998155714 0.25165019938018113 0 0.085886262968569133 0.25948379364412733 0 0.080478695998155714 0.25165019938018113 0 0.080427883817154544 0.25791465254204288 0 0.085886262968569133 0.25948379364412733 0 0.10166443252893551 0.23659000017624271 0 0.085886262968569133 0.25948379364412733 0 0.093061372415253377 0.25945310375487363 0 0.074707437689247702 0.25389633834412328 0 0.080478695998155714 0.25165019938018113 0 0.080427883817154544 0.25791465254204288 0 0.078852294536213494 0.26175012096666261 0 0.085886262968569133 0.25948379364412733 0 0.075194191089397802 0.26640127341757941 0 0.080427883817154544 0.25791465254204288 0 0.078852294536213494 0.26175012096666261 0 0.085886262968569133 0.25948379364412733 0 0.093061372415253377 0.25945310375487363 0 0.088669334409182038 0.27365465257629329 0 0.074192652952093263 0.28111713417870732 0 0.093061372415253377 0.25945310375487363 0 0.074192652952093263 0.28111713417870732 0 0.085886262968569133 0.25948379364412733 0 0.093061372415253377 0.25945310375487363 0 0.074192652952093263 0.28111713417870732 0 0.088669334409182038 0.27365465257629329 0 0.090629520296699906 0.27989165378522829 0 0.096617072050330918 0.27420358010706619 0 0.088669334409182038 0.27365465257629329 0 0.090629520296699906 0.27989165378522829 0 0.083300485689734874 0.28178689503457671 0 0.093061372415253377 0.25945310375487363 0 0.088669334409182038 0.27365465257629329 0 0.097208854645582696 0.26674380090640232 0 0.088669334409182038 0.27365465257629329 0 0.074192652952093263 0.28111713417870732 0 0.083300485689734874 0.28178689503457671 0 0.085886262968569133 0.25948379364412733 0 0.072732619288592745 0.27411268144752271 0 0.070108093408202884 0.28237758711201172 0 0.085886262968569133 0.25948379364412733 0 0.074192652952093263 0.28111713417870732 0 0.070108093408202884 0.28237758711201172 0 0.085886262968569133 0.25948379364412733 0 0.070108093408202884 0.28237758711201172 0 0.085886262968569133 0.25948379364412733 0 0.072732619288592745 0.27411268144752271 0 0.075194191089397802 0.26640127341757941 0 0.072732619288592745 0.27411268144752271 0 0.075194191089397802 0.26640127341757941 0 0.068678803079962825 0.27092621584326698 0 0.075194191089397802 0.26640127341757941 0 0.070468357435777063 0.2657419037057816 0 0.068678803079962825 0.27092621584326698 0 0.068678803079962825 0.27092621584326698 0 0.063151913248908592 0.26702092668087168 0 0.062868354845155253 0.27542318723842002 0 0.070468357435777063 0.2657419037057816 0 0.068678803079962825 0.27092621584326698 0 0.063151913248908592 0.26702092668087168 0 0.072732619288592745 0.27411268144752271 0 0.067657382571945521 0.27685732256942691 0 0.070108093408202884 0.28237758711201172 0 0.067657382571945521 0.27685732256942691 0 0.06481936793225318 0.27971168374165578 0 0.070108093408202884 0.28237758711201172 0 0.072732619288592745 0.27411268144752271 0 0.068678803079962825 0.27092621584326698 0 0.067657382571945521 0.27685732256942691 0 0.067657382571945521 0.27685732256942691 0 0.062868354845155253 0.27542318723842002 0 0.06481936793225318 0.27971168374165578 0 0.068678803079962825 0.27092621584326698 0 0.067657382571945521 0.27685732256942691 0 0.062868354845155253 0.27542318723842002 0 0.058643640903709077 0.2841886380467647 0 0.06481936793225318 0.27971168374165578 0 0.070108093408202884 0.28237758711201172 0 0.054329923847836643 0.30527138057989611 0 0.070108093408202884 0.28237758711201172 0 0.07616196246918229 0.29401120062856562 0 0.070108093408202884 0.28237758711201172 0 0.07616196246918229 0.29401120062856562 0 0.077305327314718786 0.28670206069564769 0 0.074192652952093263 0.28111713417870732 0 0.070108093408202884 0.28237758711201172 0 0.077305327314718786 0.28670206069564769 0 0.054329923847836643 0.30527138057989611 0 0.07616196246918229 0.29401120062856562 0 0.079241751540062577 0.3091409184095229 0 0.067542665246266162 0.32227296773822012 0 0.054329923847836643 0.30527138057989611 0 0.079241751540062577 0.3091409184095229 0 0.07616196246918229 0.29401120062856562 0 0.079241751540062577 0.3091409184095229 0 0.093760017070794913 0.30048783451418309 0 0.099713977183769634 0.31807175575135088 0 0.079241751540062577 0.3091409184095229 0 0.093760017070794913 0.30048783451418309 0 0.07616196246918229 0.29401120062856562 0 0.086675975183887061 0.28808357667035972 0 0.093760017070794913 0.30048783451418309 0 0.074192652952093263 0.28111713417870732 0 0.077305327314718786 0.28670206069564769 0 0.083300485689734874 0.28178689503457671 0 0.077305327314718786 0.28670206069564769 0 0.083300485689734874 0.28178689503457671 0 0.086675975183887061 0.28808357667035972 0 0.07616196246918229 0.29401120062856562 0 0.077305327314718786 0.28670206069564769 0 0.086675975183887061 0.28808357667035972 0 0.090629520296699906 0.27989165378522829 0 0.083300485689734874 0.28178689503457671 0 0.086675975183887061 0.28808357667035972 0 0.090629520296699906 0.27989165378522829 0 0.086675975183887061 0.28808357667035972 0 0.1012207646153751 0.28627192450051492 0 0.086675975183887061 0.28808357667035972 0 0.1012207646153751 0.28627192450051492 0 0.093760017070794913 0.30048783451418309 0 0.099713977183769634 0.31807175575135088 0 0.093760017070794913 0.30048783451418309 0 0.11954567143249289 0.30734763112478491 0 0.1012207646153751 0.28627192450051492 0 0.093760017070794913 0.30048783451418309 0 0.11954567143249289 0.30734763112478491 0 0.11954567143249289 0.30734763112478491 0 0.1141818460752707 0.27714397317686529 0 0.12904244187545569 0.2809521204978378 0 0.1012207646153751 0.28627192450051492 0 0.11954567143249289 0.30734763112478491 0 0.1141818460752707 0.27714397317686529 0 0.11954567143249289 0.30734763112478491 0 0.12904244187545569 0.2809521204978378 0 0.1141818460752707 0.27714397317686529 0 0.11615378911320511 0.26032519799560372 0 0.1048644735931679 0.26655228778042589 0 0.1141818460752707 0.27714397317686529 0 0.11615378911320511 0.26032519799560372 0 0.12904244187545569 0.2809521204978378 0 0.1152979079485152 0.2467056018988516 0 0.1250676346401875 0.24796443701554319 0 0.11615378911320511 0.26032519799560372 0 0.1152979079485152 0.2467056018988516 0 0.11615378911320511 0.26032519799560372 0 0.10650461767427161 0.25132517155921902 0 0.11615378911320511 0.26032519799560372 0 0.1028320207599793 0.25985538031335248 0 0.1048644735931679 0.26655228778042589 0 0.1028320207599793 0.25985538031335248 0 0.097208854645582696 0.26674380090640232 0 0.1048644735931679 0.26655228778042589 0 0.11615378911320511 0.26032519799560372 0 0.1028320207599793 0.25985538031335248 0 0.10650461767427161 0.25132517155921902 0 0.093061372415253377 0.25945310375487363 0 0.1028320207599793 0.25985538031335248 0 0.10650461767427161 0.25132517155921902 0 0.093061372415253377 0.25945310375487363 0 0.1028320207599793 0.25985538031335248 0 0.097208854645582696 0.26674380090640232 0 0.088669334409182038 0.27365465257629329 0 0.097208854645582696 0.26674380090640232 0 0.096617072050330918 0.27420358010706619 0 0.097208854645582696 0.26674380090640232 0 0.096617072050330918 0.27420358010706619 0 0.1048644735931679 0.26655228778042589 0 0.1141818460752707 0.27714397317686529 0 0.096617072050330918 0.27420358010706619 0 0.1048644735931679 0.26655228778042589 0 0.1012207646153751 0.28627192450051492 0 0.1141818460752707 0.27714397317686529 0 0.096617072050330918 0.27420358010706619 0 0.090629520296699906 0.27989165378522829 0 0.1012207646153751 0.28627192450051492 0 0.096617072050330918 0.27420358010706619 0 0.1384713120865835 0.25773302092121009 0 0.12904244187545569 0.2809521204978378 0 0.15915390062653459 0.27760612704708998 0 0.1514273965657848 0.24085309905483679 0 0.1384713120865835 0.25773302092121009 0 0.156278998070083 0.25778272565978 0 0.1384713120865835 0.25773302092121009 0 0.15915390062653459 0.27760612704708998 0 0.156278998070083 0.25778272565978 0 0.1250676346401875 0.24796443701554319 0 0.11615378911320511 0.26032519799560372 0 0.1384713120865835 0.25773302092121009 0 0.11615378911320511 0.26032519799560372 0 0.1384713120865835 0.25773302092121009 0 0.12904244187545569 0.2809521204978378 0 0.11954567143249289 0.30734763112478491 0 0.12904244187545569 0.2809521204978378 0 0.14488164426314301 0.29594920495010729 0 0.11954567143249289 0.30734763112478491 0 0.14488164426314301 0.29594920495010729 0 0.15139514334923471 0.31791608062108467 0 0.14488164426314301 0.29594920495010729 0 0.16637322996135739 0.30016678813796199 0 0.15139514334923471 0.31791608062108467 0 0.12904244187545569 0.2809521204978378 0 0.14488164426314301 0.29594920495010729 0 0.15915390062653459 0.27760612704708998 0 0.14488164426314301 0.29594920495010729 0 0.16637322996135739 0.30016678813796199 0 0.15915390062653459 0.27760612704708998 0 0.16637322996135739 0.30016678813796199 0 0.18265278236186541 0.28020603593405619 0 0.15915390062653459 0.27760612704708998 0 0.16637322996135739 0.30016678813796199 0 0.18588027836364171 0.30417070427619303 0 0.17427563080372541 0.32515257599924119 0 0.16637322996135739 0.30016678813796199 0 0.18588027836364171 0.30417070427619303 0 0.18265278236186541 0.28020603593405619 0 0.18265278236186541 0.28020603593405619 0 0.15915390062653459 0.27760612704708998 0 0.17660728565697029 0.25284173787090108 0 0.18265278236186541 0.28020603593405619 0 0.17660728565697029 0.25284173787090108 0 0.20178717474815569 0.26483037668696541 0 0.1514273965657848 0.24085309905483679 0 0.156278998070083 0.25778272565978 0 0.17660728565697029 0.25284173787090108 0 0.15915390062653459 0.27760612704708998 0 0.156278998070083 0.25778272565978 0 0.17660728565697029 0.25284173787090108 0 0.1971008006350988 0.24422433182354611 0 0.17660728565697029 0.25284173787090108 0 0.20178717474815569 0.26483037668696541 0 0.17660728565697029 0.25284173787090108 0 0.20178717474815569 0.26483037668696541 0 0.18265278236186541 0.28020603593405619 0 0.20178717474815569 0.26483037668696541 0 0.20721699074389299 0.28586320426344869 0 0.20178717474815569 0.26483037668696541 0 0.22696706383934109 0.27681901550302962 0 0.20721699074389299 0.28586320426344869 0 0.20178717474815569 0.26483037668696541 0 0.22696706383934109 0.27681901550302962 0 0.1971008006350988 0.24422433182354611 0 0.20178717474815569 0.26483037668696541 0 0.2257125065402284 0.25431107802280528 0 0.20178717474815569 0.26483037668696541 0 0.2257125065402284 0.25431107802280528 0 0.22696706383934109 0.27681901550302962 0 0.2257125065402284 0.25431107802280528 0 0.23435940432808119 0.2558835225658645 0 0.2376751292839718 0.27741240132337408 0 0.2257125065402284 0.25431107802280528 0 0.22696706383934109 0.27681901550302962 0 0.2376751292839718 0.27741240132337408 0 0.2257125065402284 0.25431107802280528 0 0.2376751292839718 0.27741240132337408 0 0.22696706383934109 0.27681901550302962 0 0.2376751292839718 0.27741240132337408 0 0.2318681827461313 0.28775992326468519 0 0.23435940432808119 0.2558835225658645 0 0.2434397278092077 0.27846069768541332 0 0.2376751292839718 0.27741240132337408 0 0.23435940432808119 0.2558835225658645 0 0.2434397278092077 0.27846069768541332 0 0.23435940432808119 0.2558835225658645 0 0.2434397278092077 0.27846069768541332 0 0.24763005152173001 0.25910176257370959 0 0.2459873280094696 0.23707215699401071 0 0.23435940432808119 0.2558835225658645 0 0.24763005152173001 0.25910176257370959 0 0.24963775202771521 0.30051372462394288 0 0.22557231514573739 0.29747977878921561 0 0.2305146992996441 0.31691702429977642 0 0.2376751292839718 0.27741240132337408 0 0.24963775202771521 0.30051372462394288 0 0.2318681827461313 0.28775992326468519 0 0.2434397278092077 0.27846069768541332 0 0.25252005129033422 0.30103787280496203 0 0.2434397278092077 0.27846069768541332 0 0.2376751292839718 0.27741240132337408 0 0.24963775202771521 0.30051372462394288 0 0.2434397278092077 0.27846069768541332 0 0.24963775202771521 0.30051372462394288 0 0.25252005129033422 0.30103787280496203 0 0.24963775202771521 0.30051372462394288 0 0.2318681827461313 0.28775992326468519 0 0.22557231514573739 0.29747977878921561 0 0.2376751292839718 0.27741240132337408 0 0.24963775202771521 0.30051372462394288 0 0.22696706383934109 0.27681901550302962 0 0.2318681827461313 0.28775992326468519 0 0.22192971392309441 0.28686454206331458 0 0.2318681827461313 0.28775992326468519 0 0.22192971392309441 0.28686454206331458 0 0.22557231514573739 0.29747977878921561 0 0.22557231514573739 0.29747977878921561 0 0.21067009246602381 0.31050760251916348 0 0.2305146992996441 0.31691702429977642 0 0.22557231514573739 0.29747977878921561 0 0.2305146992996441 0.31691702429977642 0 0.22557231514573739 0.29747977878921561 0 0.21067009246602381 0.31050760251916348 0 0.20721699074389299 0.28586320426344869 0 0.22192971392309441 0.28686454206331458 0 0.22557231514573739 0.29747977878921561 0 0.20721699074389299 0.28586320426344869 0 0.22696706383934109 0.27681901550302962 0 0.22192971392309441 0.28686454206331458 0 0.20721699074389299 0.28586320426344869 0 0.18588027836364171 0.30417070427619303 0 0.18265278236186541 0.28020603593405619 0 0.20721699074389299 0.28586320426344869 0 0.18588027836364171 0.30417070427619303 0 0.21067009246602381 0.31050760251916348 0 0.20721699074389299 0.28586320426344869 0 0.18588027836364171 0.30417070427619303 0 0.21067009246602381 0.31050760251916348 0 0.1975742485098208 0.32622361772240582 0 0.1975742485098208 0.32622361772240582 0 0.2097525667536678 0.34137856367538538 0 0.18404805005378369 0.34640285754043382 0 0.1975742485098208 0.32622361772240582 0 0.2097525667536678 0.34137856367538538 0 0.2167937380965417 0.3262762156054137 0 0.21067009246602381 0.31050760251916348 0 0.1975742485098208 0.32622361772240582 0 0.2167937380965417 0.3262762156054137 0 0.21067009246602381 0.31050760251916348 0 0.2167937380965417 0.3262762156054137 0 0.2305146992996441 0.31691702429977642 0 0.2305146992996441 0.31691702429977642 0 0.2354570834535519 0.33635426981033711 0 0.2167937380965417 0.3262762156054137 0 0.2305146992996441 0.31691702429977642 0 0.2354570834535519 0.33635426981033711 0 0.2097525667536678 0.34137856367538538 0 0.2167937380965417 0.3262762156054137 0 0.2354570834535519 0.33635426981033711 0 0.2097525667536678 0.34137856367538538 0 0.2354570834535519 0.33635426981033711 0 0.2097525667536678 0.34137856367538538 0 0.2354570834535519 0.33635426981033711 0 0.22572342153310379 0.35183723080414581 0 0.2354570834535519 0.33635426981033711 0 0.24833100513142109 0.32161764704062729 0 0.26518788721623437 0.33054298393043219 0 0.24963775202771521 0.30051372462394288 0 0.2305146992996441 0.31691702429977642 0 0.24833100513142109 0.32161764704062729 0 0.2305146992996441 0.31691702429977642 0 0.2354570834535519 0.33635426981033711 0 0.24833100513142109 0.32161764704062729 0 0.2354570834535519 0.33635426981033711 0 0.24217950803475169 0.36279199964721098 0 0.25397109136889212 0.34953950795812871 0 0.2354570834535519 0.33635426981033711 0 0.24217950803475169 0.36279199964721098 0 0.22572342153310379 0.35183723080414581 0 0.2354570834535519 0.33635426981033711 0 0.24217950803475169 0.36279199964721098 0 0.24217950803475169 0.36279199964721098 0 0.22572342153310379 0.35183723080414581 0 0.21637712922286109 0.36651385017664678 0 0.24217950803475169 0.36279199964721098 0 0.21637712922286109 0.36651385017664678 0 0.22693728272114971 0.38251641872149622 0 0.2097525667536678 0.34137856367538538 0 0.22572342153310379 0.35183723080414581 0 0.21637712922286109 0.36651385017664678 0 0.2097525667536678 0.34137856367538538 0 0.21637712922286109 0.36651385017664678 0 0.19198276408895759 0.36846918068195189 0 0.2097525667536678 0.34137856367538538 0 0.19198276408895759 0.36846918068195189 0 0.18404805005378369 0.34640285754043382 0 0.2097525667536678 0.34137856367538538 0 0.18404805005378369 0.34640285754043382 0 0.21637712922286109 0.36651385017664678 0 0.19198276408895759 0.36846918068195189 0 0.2008438189570996 0.38963870543367402 0 0.1583435333538997 0.35142715140548209 0 0.18404805005378369 0.34640285754043382 0 0.17157629822801171 0.38002160271682978 0 0.19198276408895759 0.36846918068195189 0 0.18404805005378369 0.34640285754043382 0 0.17157629822801171 0.38002160271682978 0 0.1583435333538997 0.35142715140548209 0 0.14756927440754089 0.37573381366887992 0 0.17157629822801171 0.38002160271682978 0 0.1583435333538997 0.35142715140548209 0 0.18404805005378369 0.34640285754043382 0 0.1583435333538997 0.35142715140548209 0 0.17427563080372541 0.32515257599924119 0 0.15139514334923471 0.31791608062108467 0 0.1975742485098208 0.32622361772240582 0 0.18404805005378369 0.34640285754043382 0 0.17427563080372541 0.32515257599924119 0 0.1583435333538997 0.35142715140548209 0 0.18404805005378369 0.34640285754043382 0 0.17427563080372541 0.32515257599924119 0 0.18588027836364171 0.30417070427619303 0 0.1975742485098208 0.32622361772240582 0 0.17427563080372541 0.32515257599924119 0 0.16637322996135739 0.30016678813796199 0 0.17427563080372541 0.32515257599924119 0 0.15139514334923471 0.31791608062108467 0 0.1583435333538997 0.35142715140548209 0 0.15139514334923471 0.31791608062108467 0 0.13264273129131951 0.33439404788472138 0 0.11954567143249289 0.30734763112478491 0 0.15139514334923471 0.31791608062108467 0 0.13264273129131951 0.33439404788472138 0 0.1165634558871128 0.3492406052842485 0 0.13264273129131951 0.33439404788472138 0 0.1326390166540157 0.35645144527053041 0 0.1326390166540157 0.35645144527053041 0 0.14756927440754089 0.37573381366887992 0 0.12550685613774351 0.37951055496914998 0 0.1583435333538997 0.35142715140548209 0 0.1326390166540157 0.35645144527053041 0 0.14756927440754089 0.37573381366887992 0 0.1583435333538997 0.35142715140548209 0 0.1326390166540157 0.35645144527053041 0 0.1583435333538997 0.35142715140548209 0 0.13264273129131951 0.33439404788472138 0 0.1326390166540157 0.35645144527053041 0 0.1528019220027558 0.40532518960412911 0 0.14756927440754089 0.37573381366887992 0 0.13567422075440499 0.38715007620423969 0 0.14756927440754089 0.37573381366887992 0 0.12550685613774351 0.37951055496914998 0 0.13567422075440499 0.38715007620423969 0 0.1236499924648251 0.3984302041169589 0 0.12550685613774351 0.37951055496914998 0 0.13567422075440499 0.38715007620423969 0 0.1236499924648251 0.3984302041169589 0 0.1528019220027558 0.40532518960412911 0 0.13567422075440499 0.38715007620423969 0 0.1528019220027558 0.40532518960412911 0 0.13502200614688589 0.42010390008240672 0 0.17098438647877001 0.42850314348833868 0 0.13502200614688589 0.42010390008240672 0 0.17098438647877001 0.42850314348833868 0 0.1532788809183856 0.44756588495706878 0 0.1236499924648251 0.3984302041169589 0 0.1528019220027558 0.40532518960412911 0 0.13502200614688589 0.42010390008240672 0 0.1237280261196836 0.44463014715047522 0 0.13502200614688589 0.42010390008240672 0 0.1532788809183856 0.44756588495706878 0 0.1528019220027558 0.40532518960412911 0 0.17098438647877001 0.42850314348833868 0 0.1528019220027558 0.40532518960412911 0 0.17098438647877001 0.42850314348833868 0 0.17902253221663289 0.40492788695933207 0 0.17098438647877001 0.42850314348833868 0 0.19890623541652749 0.42115079355368912 0 0.18916685095478419 0.4516810973725483 0 0.17098438647877001 0.42850314348833868 0 0.17902253221663289 0.40492788695933207 0 0.19890623541652749 0.42115079355368912 0 0.17902253221663289 0.40492788695933207 0 0.17157629822801171 0.38002160271682978 0 0.2008438189570996 0.38963870543367402 0 0.1528019220027558 0.40532518960412911 0 0.17902253221663289 0.40492788695933207 0 0.17157629822801171 0.38002160271682978 0 0.1528019220027558 0.40532518960412911 0 0.14756927440754089 0.37573381366887992 0 0.17157629822801171 0.38002160271682978 0 0.17902253221663289 0.40492788695933207 0 0.2008438189570996 0.38963870543367402 0 0.19890623541652749 0.42115079355368912 0 0.19198276408895759 0.36846918068195189 0 0.17157629822801171 0.38002160271682978 0 0.2008438189570996 0.38963870543367402 0 0.2008438189570996 0.38963870543367402 0 0.22638402477508329 0.40440780886586492 0 0.19890623541652749 0.42115079355368912 0 0.2008438189570996 0.38963870543367402 0 0.22693728272114971 0.38251641872149622 0 0.22638402477508329 0.40440780886586492 0 0.21637712922286109 0.36651385017664678 0 0.2008438189570996 0.38963870543367402 0 0.22693728272114971 0.38251641872149622 0 0.22693728272114971 0.38251641872149622 0 0.22638402477508329 0.40440780886586492 0 0.24890193261595259 0.38922972948408457 0 0.22638402477508329 0.40440780886586492 0 0.24890193261595259 0.38922972948408457 0 0.25562435719715348 0.41566745932095828 0 0.24217950803475169 0.36279199964721098 0 0.24890193261595259 0.38922972948408457 0 0.24217950803475169 0.36279199964721098 0 0.22693728272114971 0.38251641872149622 0 0.24890193261595259 0.38922972948408457 0 0.22638402477508329 0.40440780886586492 0 0.23929670148200641 0.42651558303428039 0 0.25562435719715348 0.41566745932095828 0 0.22638402477508329 0.40440780886586492 0 0.23929670148200641 0.42651558303428039 0 0.21947817947708001 0.42577831055793047 0 0.23929670148200641 0.42651558303428039 0 0.21947817947708001 0.42577831055793047 0 0.23265016418236131 0.44461914726881641 0 0.21947817947708001 0.42577831055793047 0 0.19890623541652749 0.42115079355368912 0 0.21144352365240529 0.44700262568134053 0 0.22638402477508329 0.40440780886586492 0 0.21947817947708001 0.42577831055793047 0 0.19890623541652749 0.42115079355368912 0 0.19890623541652749 0.42115079355368912 0 0.18916685095478419 0.4516810973725483 0 0.21144352365240529 0.44700262568134053 0 0.18916685095478419 0.4516810973725483 0 0.20734931543079829 0.47485905125675792 0 0.18916685095478419 0.4516810973725483 0 0.21144352365240529 0.44700262568134053 0 0.20734931543079829 0.47485905125675792 0 0.21144352365240529 0.44700262568134053 0 0.22111039645288069 0.46392735407830132 0 0.20734931543079829 0.47485905125675792 0 0.21144352365240529 0.44700262568134053 0 0.23265016418236131 0.44461914726881641 0 0.22111039645288069 0.46392735407830132 0 0.21947817947708001 0.42577831055793047 0 0.21144352365240529 0.44700262568134053 0 0.23265016418236131 0.44461914726881641 0 0.23265016418236131 0.44461914726881641 0 0.22111039645288069 0.46392735407830132 0 0.24508980140621781 0.46623513653650361 0 0.22111039645288069 0.46392735407830132 0 0.24508980140621781 0.46623513653650361 0 0.23265016418236131 0.44461914726881641 0 0.24508980140621781 0.46623513653650361 0 0.26234678177835441 0.44210518915783192 0 0.23929670148200641 0.42651558303428039 0 0.23265016418236131 0.44461914726881641 0 0.26234678177835441 0.44210518915783192 0 0.2479606543192433 0.5 0 0.23772208332050199 0.48786840683281429 0 0.2255317799068125 0.49803700514096738 0 0.2479606543192433 0.5 0 0.23772208332050199 0.48786840683281429 0 0.25513941322049821 0.48355515434954122 0 0.24508980140621781 0.46623513653650361 0 0.23688712964706901 0.4763018139788181 0 0.25513941322049821 0.48355515434954122 0 0.23772208332050199 0.48786840683281429 0 0.23688712964706901 0.4763018139788181 0 0.25513941322049821 0.48355515434954122 0 0.22111039645288069 0.46392735407830132 0 0.23688712964706901 0.4763018139788181 0 0.22537395383524639 0.47992301809693011 0 0.22537395383524639 0.47992301809693011 0 0.2255317799068125 0.49803700514096738 0 0.20734931543079829 0.47485905125675792 0 0.23772208332050199 0.48786840683281429 0 0.23688712964706901 0.4763018139788181 0 0.22537395383524639 0.47992301809693011 0 0.22111039645288069 0.46392735407830132 0 0.24508980140621781 0.46623513653650361 0 0.23688712964706901 0.4763018139788181 0 0.23772208332050199 0.48786840683281429 0 0.22537395383524639 0.47992301809693011 0 0.2255317799068125 0.49803700514096738 0 0.2479606543192433 0.5 0 0.21885338771805021 0.5 0 0.2255317799068125 0.49803700514096738 0 0.21885338771805021 0.5 0 0.2255317799068125 0.49803700514096738 0 0.20734931543079829 0.47485905125675792 0 0.21885338771805021 0.5 0 0.20734931543079829 0.47485905125675792 0 0.1897461211168571 0.5 0 0.2255317799068125 0.49803700514096738 0 0.20734931543079829 0.47485905125675792 0 0.22111039645288069 0.46392735407830132 0 0.22537395383524639 0.47992301809693011 0 0.20734931543079829 0.47485905125675792 0 0.18916685095478419 0.4516810973725483 0 0.20734931543079829 0.47485905125675792 0 0.18375498264642379 0.4799820804674747 0 0.20734931543079829 0.47485905125675792 0 0.1897461211168571 0.5 0 0.18375498264642379 0.4799820804674747 0 0.1897461211168571 0.5 0 0.1606388545156639 0.5 0 0.18375498264642379 0.4799820804674747 0 0.1606388545156639 0.5 0 0.16284299929429041 0.47286735670979418 0 0.18375498264642379 0.4799820804674747 0 0.17098438647877001 0.42850314348833868 0 0.18916685095478419 0.4516810973725483 0 0.1532788809183856 0.44756588495706878 0 0.18916685095478419 0.4516810973725483 0 0.16284299929429041 0.47286735670979418 0 0.18375498264642379 0.4799820804674747 0 0.18916685095478419 0.4516810973725483 0 0.16284299929429041 0.47286735670979418 0 0.1532788809183856 0.44756588495706878 0 0.17098438647877001 0.42850314348833868 0 0.18916685095478419 0.4516810973725483 0 0.16284299929429041 0.47286735670979418 0 0.1532788809183856 0.44756588495706878 0 0.13792901651589951 0.46760966493884959 0 0.1160915578241386 0.4641835533930308 0 0.1237280261196836 0.44463014715047522 0 0.13792901651589951 0.46760966493884959 0 0.1237280261196836 0.44463014715047522 0 0.1532788809183856 0.44756588495706878 0 0.13792901651589951 0.46760966493884959 0 0.1146358595090817 0.48605788153156299 0 0.13792901651589951 0.46760966493884959 0 0.14375381424303349 0.48699105670781317 0 0.1146358595090817 0.48605788153156299 0 0.13153158791447089 0.50000000000000033 0 0.14375381424303349 0.48699105670781317 0 0.1606388545156639 0.5 0 0.13153158791447089 0.50000000000000033 0 0.14375381424303349 0.48699105670781317 0 0.1606388545156639 0.5 0 0.16284299929429041 0.47286735670979418 0 0.14375381424303349 0.48699105670781317 0 0.16284299929429041 0.47286735670979418 0 0.13792901651589951 0.46760966493884959 0 0.14375381424303349 0.48699105670781317 0 0.35818797179075601 0.47458138126870081 0 0.34642182508771258 0.48585203466637861 0 0.33573625410597768 0.47071191077640329 0 0.35818797179075601 0.47458138126870081 0 0.34642182508771258 0.48585203466637861 0 0.35839011049240282 0.5 0 0.34642182508771258 0.48585203466637861 0 0.35839011049240282 0.5 0 0.33128271396841408 0.5 0 0.35818797179075601 0.47458138126870081 0 0.35839011049240282 0.5 0 0.37951078222479251 0.47868038482078018 0 0.35839011049240282 0.5 0 0.37951078222479251 0.47868038482078018 0 0.38549750701639152 0.5 0 0.35818797179075601 0.47458138126870081 0 0.37565915938479377 0.45849116020829678 0 0.37951078222479251 0.47868038482078018 0 0.35818797179075601 0.47458138126870081 0 0.35384759317055892 0.4558722467826386 0 0.37565915938479377 0.45849116020829678 0 0.3672128213662551 0.44140310366938379 0 0.35384759317055892 0.4558722467826386 0 0.37565915938479377 0.45849116020829678 0 0.35041805056504127 0.44039830756831011 0 0.35384759317055892 0.4558722467826386 0 0.33587130181052999 0.44964761720473639 0 0.3672128213662551 0.44140310366938379 0 0.35041805056504127 0.44039830756831011 0 0.35384759317055892 0.4558722467826386 0 0.35818797179075601 0.47458138126870081 0 0.35384759317055892 0.4558722467826386 0 0.33573625410597768 0.47071191077640329 0 0.33587130181052999 0.44964761720473639 0 0.32245641590876828 0.45710047073305682 0 0.33573625410597768 0.47071191077640329 0 0.35384759317055892 0.4558722467826386 0 0.33587130181052999 0.44964761720473639 0 0.33573625410597768 0.47071191077640329 0 0.35041805056504127 0.44039830756831011 0 0.33587130181052999 0.44964761720473639 0 0.34011375395909899 0.42827966665244982 0 0.33587130181052999 0.44964761720473639 0 0.32313042491148092 0.43915640659962429 0 0.34011375395909899 0.42827966665244982 0 0.33587130181052999 0.44964761720473639 0 0.32313042491148092 0.43915640659962429 0 0.32245641590876828 0.45710047073305682 0 0.32313042491148092 0.43915640659962429 0 0.32245641590876828 0.45710047073305682 0 0.3069723578181176 0.44921026163567479 0 0.32313042491148092 0.43915640659962429 0 0.3069723578181176 0.44921026163567479 0 0.30967478190587899 0.43248339293908478 0 0.32245641590876828 0.45710047073305682 0 0.31479002533830769 0.47294309924184441 0 0.33573625410597768 0.47071191077640329 0 0.32245641590876828 0.45710047073305682 0 0.31479002533830769 0.47294309924184441 0 0.3069723578181176 0.44921026163567479 0 0.31479002533830769 0.47294309924184441 0 0.33573625410597768 0.47071191077640329 0 0.33128271396841408 0.5 0 0.34642182508771258 0.48585203466637861 0 0.33573625410597768 0.47071191077640329 0 0.33128271396841408 0.5 0 0.31479002533830769 0.47294309924184441 0 0.33128271396841408 0.5 0 0.30417531744442527 0.5 0 0.31479002533830769 0.47294309924184441 0 0.30417531744442527 0.5 0 0.29074220063683293 0.48758109823480927 0 0.31479002533830769 0.47294309924184441 0 0.29192961584893129 0.47074300911827521 0 0.29074220063683293 0.48758109823480927 0 0.31479002533830769 0.47294309924184441 0 0.29192961584893129 0.47074300911827521 0 0.29192961584893129 0.47074300911827521 0 0.29074220063683293 0.48758109823480927 0 0.27306856363999571 0.4842714594973539 0 0.30417531744442527 0.5 0 0.29074220063683293 0.48758109823480927 0 0.27706792092043642 0.500000000000002 0 0.27706792092043642 0.500000000000002 0 0.27306856363999571 0.4842714594973539 0 0.25513941322049821 0.48355515434954122 0 0.29074220063683293 0.48758109823480927 0 0.27706792092043642 0.500000000000002 0 0.27306856363999571 0.4842714594973539 0 0.27706792092043642 0.500000000000002 0 0.27306856363999571 0.4842714594973539 0 0.29192961584893129 0.47074300911827521 0 0.26906920635955489 0.46854291899470579 0 0.27306856363999571 0.4842714594973539 0 0.25513941322049821 0.48355515434954122 0 0.26906920635955489 0.46854291899470579 0 0.29192961584893129 0.47074300911827521 0 0.27306856363999571 0.4842714594973539 0 0.26906920635955489 0.46854291899470579 0 0.27306856363999571 0.4842714594973539 0 0.26906920635955489 0.46854291899470579 0 0.24508980140621781 0.46623513653650361 0 0.25513941322049821 0.48355515434954122 0 0.26906920635955489 0.46854291899470579 0 0.2479606543192433 0.5 0 0.27706792092043642 0.500000000000002 0 0.25513941322049821 0.48355515434954122 0 0.24508980140621781 0.46623513653650361 0 0.26906920635955489 0.46854291899470579 0 0.24508980140621781 0.46623513653650361 0 0.26234678177835441 0.44210518915783192 0 0.26906920635955489 0.46854291899470579 0 0.29192961584893129 0.47074300911827521 0 0.26906920635955489 0.46854291899470579 0 0.2825318911539082 0.44937975844880462 0 0.26234678177835441 0.44210518915783192 0 0.26906920635955489 0.46854291899470579 0 0.26234678177835441 0.44210518915783192 0 0.26906920635955489 0.46854291899470579 0 0.2825318911539082 0.44937975844880462 0 0.26234678177835441 0.44210518915783192 0 0.2825318911539082 0.44937975844880462 0 0.2735489225425754 0.42398780939214897 0 0.2825318911539082 0.44937975844880462 0 0.3069723578181176 0.44921026163567479 0 0.29424437368670248 0.43173942196487358 0 0.29192961584893129 0.47074300911827521 0 0.2825318911539082 0.44937975844880462 0 0.3069723578181176 0.44921026163567479 0 0.31479002533830769 0.47294309924184441 0 0.29192961584893129 0.47074300911827521 0 0.3069723578181176 0.44921026163567479 0 0.3069723578181176 0.44921026163567479 0 0.30967478190587899 0.43248339293908478 0 0.29424437368670248 0.43173942196487358 0 0.30967478190587899 0.43248339293908478 0 0.3045281829251868 0.41996349248923659 0 0.31949857018790712 0.42234738200601463 0 0.30967478190587899 0.43248339293908478 0 0.3045281829251868 0.41996349248923659 0 0.29424437368670248 0.43173942196487358 0 0.31221380766262308 0.41141105291454111 0 0.3045281829251868 0.41996349248923659 0 0.30175255758949709 0.40539483602959481 0 0.31221380766262308 0.41141105291454111 0 0.3045281829251868 0.41996349248923659 0 0.31949857018790712 0.42234738200601463 0 0.3045281829251868 0.41996349248923659 0 0.29116822628179151 0.41527777958226658 0 0.30175255758949709 0.40539483602959481 0 0.29116822628179151 0.41527777958226658 0 0.2735489225425754 0.42398780939214897 0 0.28009549588900451 0.40671294327225221 0 0.29116822628179151 0.41527777958226658 0 0.29046685710439091 0.40365495696152731 0 0.30175255758949709 0.40539483602959481 0 0.29116822628179151 0.41527777958226658 0 0.28009549588900451 0.40671294327225221 0 0.29046685710439091 0.40365495696152731 0 0.29116822628179151 0.41527777958226658 0 0.29424437368670248 0.43173942196487358 0 0.2735489225425754 0.42398780939214897 0 0.3045281829251868 0.41996349248923659 0 0.29116822628179151 0.41527777958226658 0 0.29424437368670248 0.43173942196487358 0 0.2825318911539082 0.44937975844880462 0 0.29424437368670248 0.43173942196487358 0 0.2735489225425754 0.42398780939214897 0 0.2735489225425754 0.42398780939214897 0 0.28009549588900451 0.40671294327225221 0 0.26594594197715632 0.40587542564026857 0 0.2735489225425754 0.42398780939214897 0 0.25562435719715348 0.41566745932095828 0 0.26594594197715632 0.40587542564026857 0 0.26234678177835441 0.44210518915783192 0 0.25562435719715348 0.41566745932095828 0 0.23929670148200641 0.42651558303428039 0 0.26234678177835441 0.44210518915783192 0 0.25562435719715348 0.41566745932095828 0 0.26234678177835441 0.44210518915783192 0 0.2735489225425754 0.42398780939214897 0 0.25562435719715348 0.41566745932095828 0 0.24890193261595259 0.38922972948408457 0 0.27155900164109531 0.39377918673189899 0 0.26817635423288699 0.37969346344739391 0 0.24890193261595259 0.38922972948408457 0 0.26817635423288699 0.37969346344739391 0 0.26082178769032438 0.36496323128775521 0 0.24890193261595259 0.38922972948408457 0 0.25562435719715348 0.41566745932095828 0 0.24890193261595259 0.38922972948408457 0 0.27155900164109531 0.39377918673189899 0 0.26594594197715632 0.40587542564026857 0 0.24890193261595259 0.38922972948408457 0 0.25562435719715348 0.41566745932095828 0 0.26594594197715632 0.40587542564026857 0 0.28009549588900451 0.40671294327225221 0 0.27155900164109531 0.39377918673189899 0 0.26594594197715632 0.40587542564026857 0 0.28009549588900451 0.40671294327225221 0 0.27155900164109531 0.39377918673189899 0 0.2841626669368148 0.39603484022980262 0 0.27155900164109531 0.39377918673189899 0 0.27917556467927279 0.38707504911542251 0 0.2841626669368148 0.39603484022980262 0 0.27917556467927279 0.38707504911542251 0 0.27737653217987568 0.3763299637903077 0 0.28641533258273322 0.38531457319514678 0 0.27155900164109531 0.39377918673189899 0 0.27917556467927279 0.38707504911542251 0 0.26817635423288699 0.37969346344739391 0 0.26817635423288699 0.37969346344739391 0 0.27737653217987568 0.3763299637903077 0 0.26995518240551242 0.36922466410125959 0 0.27917556467927279 0.38707504911542251 0 0.26817635423288699 0.37969346344739391 0 0.27737653217987568 0.3763299637903077 0 0.27917556467927279 0.38707504911542251 0 0.28749669470930389 0.39059918652862902 0 0.28641533258273322 0.38531457319514678 0 0.28749669470930389 0.39059918652862902 0 0.28641533258273322 0.38531457319514678 0 0.29321390271680048 0.38636149671614523 0 0.28641533258273322 0.38531457319514678 0 0.29321390271680048 0.38636149671614523 0 0.29155132770994241 0.38145409056705559 0 0.28749669470930389 0.39059918652862902 0 0.29321390271680048 0.38636149671614523 0 0.2951553388248469 0.39485438569372039 0 0.29321390271680048 0.38636149671614523 0 0.2951553388248469 0.39485438569372039 0 0.30172663999730548 0.38411556817588999 0 0.2951337916801352 0.37545299726164849 0 0.29155132770994241 0.38145409056705559 0 0.29028041611347422 0.37131190521640561 0 0.29650911823343812 0.38027524721939082 0 0.2951337916801352 0.37545299726164849 0 0.29155132770994241 0.38145409056705559 0 0.29321390271680048 0.38636149671614523 0 0.29650911823343812 0.38027524721939082 0 0.29155132770994241 0.38145409056705559 0 0.28009549588900451 0.40671294327225221 0 0.2841626669368148 0.39603484022980262 0 0.29046685710439091 0.40365495696152731 0 0.27917556467927279 0.38707504911542251 0 0.28749669470930389 0.39059918652862902 0 0.2841626669368148 0.39603484022980262 0 0.28749669470930389 0.39059918652862902 0 0.2841626669368148 0.39603484022980262 0 0.2951553388248469 0.39485438569372039 0 0.2841626669368148 0.39603484022980262 0 0.2951553388248469 0.39485438569372039 0 0.29046685710439091 0.40365495696152731 0 0.2951553388248469 0.39485438569372039 0 0.29046685710439091 0.40365495696152731 0 0.30175255758949709 0.40539483602959481 0 0.2951553388248469 0.39485438569372039 0 0.30416997859767031 0.39496190780794832 0 0.30172663999730548 0.38411556817588999 0 0.2951553388248469 0.39485438569372039 0 0.30175255758949709 0.40539483602959481 0 0.30416997859767031 0.39496190780794832 0 0.30416997859767031 0.39496190780794832 0 0.31194754139156228 0.39992908639018659 0 0.31058504665001713 0.38993607806902841 0 0.31221380766262308 0.41141105291454111 0 0.30175255758949709 0.40539483602959481 0 0.31194754139156228 0.39992908639018659 0 0.30175255758949709 0.40539483602959481 0 0.30416997859767031 0.39496190780794832 0 0.31194754139156228 0.39992908639018659 0 0.29650911823343812 0.38027524721939082 0 0.30172663999730548 0.38411556817588999 0 0.30091992906300691 0.3739920833762147 0 0.30172663999730548 0.38411556817588999 0 0.31077839752677883 0.37658419253607489 0 0.30091992906300691 0.3739920833762147 0 0.29650911823343812 0.38027524721939082 0 0.2951337916801352 0.37545299726164849 0 0.30091992906300691 0.3739920833762147 0 0.29321390271680048 0.38636149671614523 0 0.29650911823343812 0.38027524721939082 0 0.30172663999730548 0.38411556817588999 0 0.30416997859767031 0.39496190780794832 0 0.30172663999730548 0.38411556817588999 0 0.31058504665001713 0.38993607806902841 0 0.30172663999730548 0.38411556817588999 0 0.31058504665001713 0.38993607806902841 0 0.31077839752677883 0.37658419253607489 0 0.31077839752677883 0.37658419253607489 0 0.31867525833463911 0.38494833593070971 0 0.32306703930603953 0.37623237809600169 0 0.31058504665001713 0.38993607806902841 0 0.31867525833463911 0.38494833593070971 0 0.31878199461777879 0.39362573130725731 0 0.31058504665001713 0.38993607806902841 0 0.31077839752677883 0.37658419253607489 0 0.31867525833463911 0.38494833593070971 0 0.31867525833463911 0.38494833593070971 0 0.32306703930603953 0.37623237809600169 0 0.32934203852673438 0.38871677178939867 0 0.31867525833463911 0.38494833593070971 0 0.32934203852673438 0.38871677178939867 0 0.31878199461777879 0.39362573130725731 0 0.32306703930603953 0.37623237809600169 0 0.33555471090824662 0.37714848622012531 0 0.32934203852673438 0.38871677178939867 0 0.33555471090824662 0.37714848622012531 0 0.32934203852673438 0.38871677178939867 0 0.34865402358820241 0.38746960960344728 0 0.32934203852673438 0.38871677178939867 0 0.33838050486014071 0.40132571833470809 0 0.34865402358820241 0.38746960960344728 0 0.32934203852673438 0.38871677178939867 0 0.33838050486014071 0.40132571833470809 0 0.32336008818594092 0.40459838435696299 0 0.32934203852673438 0.38871677178939867 0 0.32336008818594092 0.40459838435696299 0 0.31878199461777879 0.39362573130725731 0 0.31194754139156228 0.39992908639018659 0 0.31058504665001713 0.38993607806902841 0 0.31878199461777879 0.39362573130725731 0 0.31221380766262308 0.41141105291454111 0 0.31194754139156228 0.39992908639018659 0 0.32336008818594092 0.40459838435696299 0 0.31194754139156228 0.39992908639018659 0 0.32336008818594092 0.40459838435696299 0 0.31878199461777879 0.39362573130725731 0 0.31221380766262308 0.41141105291454111 0 0.32336008818594092 0.40459838435696299 0 0.31949857018790712 0.42234738200601463 0 0.32336008818594092 0.40459838435696299 0 0.31949857018790712 0.42234738200601463 0 0.33335541567677851 0.41413927737501682 0 0.32313042491148092 0.43915640659962429 0 0.31949857018790712 0.42234738200601463 0 0.34011375395909899 0.42827966665244982 0 0.32313042491148092 0.43915640659962429 0 0.30967478190587899 0.43248339293908478 0 0.31949857018790712 0.42234738200601463 0 0.31949857018790712 0.42234738200601463 0 0.34011375395909899 0.42827966665244982 0 0.33335541567677851 0.41413927737501682 0 0.34011375395909899 0.42827966665244982 0 0.33335541567677851 0.41413927737501682 0 0.35251535500997389 0.4097633894025835 0 0.33838050486014071 0.40132571833470809 0 0.33335541567677851 0.41413927737501682 0 0.35251535500997389 0.4097633894025835 0 0.33838050486014071 0.40132571833470809 0 0.32336008818594092 0.40459838435696299 0 0.33335541567677851 0.41413927737501682 0 0.34011375395909899 0.42827966665244982 0 0.35251535500997389 0.4097633894025835 0 0.3591301267131588 0.42602683944016839 0 0.3672128213662551 0.44140310366938379 0 0.35041805056504127 0.44039830756831011 0 0.3591301267131588 0.42602683944016839 0 0.35041805056504127 0.44039830756831011 0 0.34011375395909899 0.42827966665244982 0 0.3591301267131588 0.42602683944016839 0 0.3672128213662551 0.44140310366938379 0 0.3591301267131588 0.42602683944016839 0 0.37786999239799629 0.42201923841731348 0 0.3591301267131588 0.42602683944016839 0 0.36674031876838431 0.41287021939491358 0 0.37786999239799629 0.42201923841731348 0 0.35251535500997389 0.4097633894025835 0 0.36674031876838431 0.41287021939491358 0 0.36672310374365391 0.3972274770167053 0 0.36674031876838431 0.41287021939491358 0 0.37714557779446961 0.40580011292323048 0 0.37786999239799629 0.42201923841731348 0 0.35251535500997389 0.4097633894025835 0 0.3591301267131588 0.42602683944016839 0 0.36674031876838431 0.41287021939491358 0 0.36674031876838431 0.41287021939491358 0 0.36672310374365391 0.3972274770167053 0 0.37714557779446961 0.40580011292323048 0 0.36672310374365391 0.3972274770167053 0 0.34865402358820241 0.38746960960344728 0 0.36927583114563117 0.37168826674887129 0 0.36672310374365391 0.3972274770167053 0 0.36927583114563117 0.37168826674887129 0 0.38594138320053972 0.39504117240748449 0 0.34865402358820241 0.38746960960344728 0 0.34769055634412588 0.36745966958429022 0 0.36927583114563117 0.37168826674887129 0 0.33555471090824662 0.37714848622012531 0 0.34865402358820241 0.38746960960344728 0 0.34769055634412588 0.36745966958429022 0 0.35251535500997389 0.4097633894025835 0 0.36672310374365391 0.3972274770167053 0 0.34865402358820241 0.38746960960344728 0 0.33838050486014071 0.40132571833470809 0 0.35251535500997389 0.4097633894025835 0 0.34865402358820241 0.38746960960344728 0 0.35261027909072251 0.34833536109025781 0 0.34769055634412588 0.36745966958429022 0 0.33944519881702218 0.35670643516570921 0 0.35261027909072251 0.34833536109025781 0 0.34769055634412588 0.36745966958429022 0 0.36927583114563117 0.37168826674887129 0 0.35261027909072251 0.34833536109025781 0 0.36927583114563117 0.37168826674887129 0 0.35261027909072251 0.34833536109025781 0 0.36927583114563117 0.37168826674887129 0 0.38014707859742553 0.358601566133181 0 0.35261027909072251 0.34833536109025781 0 0.37418757138316661 0.34003979241565702 0 0.38014707859742553 0.358601566133181 0 0.37418757138316661 0.34003979241565702 0 0.36114413796306788 0.32433110896381118 0 0.38634354889032002 0.32367976249598251 0 0.35261027909072251 0.34833536109025781 0 0.37418757138316661 0.34003979241565702 0 0.36114413796306788 0.32433110896381118 0 0.36114413796306788 0.32433110896381118 0 0.38634354889032002 0.32367976249598251 0 0.36114413796306788 0.32433110896381118 0 0.36246687595182442 0.30494518477727961 0 0.38634354889032002 0.32367976249598251 0 0.36114413796306788 0.32433110896381118 0 0.33594472703581602 0.32498245543164278 0 0.36114413796306788 0.32433110896381118 0 0.33594472703581602 0.32498245543164278 0 0.34448717235649018 0.30756264321984922 0 0.35261027909072251 0.34833536109025781 0 0.36114413796306788 0.32433110896381118 0 0.33594472703581602 0.32498245543164278 0 0.35261027909072251 0.34833536109025781 0 0.33594472703581602 0.32498245543164278 0 0.35261027909072251 0.34833536109025781 0 0.33361265820108371 0.33601463685995558 0 0.33594472703581602 0.32498245543164278 0 0.35261027909072251 0.34833536109025781 0 0.33361265820108371 0.33601463685995558 0 0.33117650937159632 0.34590223044488833 0 0.33361265820108371 0.33601463685995558 0 0.33594472703581602 0.32498245543164278 0 0.32592845192929348 0.32524135296818618 0 0.33361265820108371 0.33601463685995558 0 0.32240332357799001 0.33561178436480271 0 0.33117650937159632 0.34590223044488833 0 0.33594472703581602 0.32498245543164278 0 0.32420479997372442 0.30853167071016102 0 0.33594472703581602 0.32498245543164278 0 0.32592845192929348 0.32524135296818618 0 0.32420479997372442 0.30853167071016102 0 0.33594472703581602 0.32498245543164278 0 0.32420479997372442 0.30853167071016102 0 0.34448717235649018 0.30756264321984922 0 0.33594472703581602 0.32498245543164278 0 0.32592845192929348 0.32524135296818618 0 0.32592845192929348 0.32524135296818618 0 0.31778971146991503 0.31788997842391498 0 0.32420479997372442 0.30853167071016102 0 0.32592845192929348 0.32524135296818618 0 0.31591730865868939 0.32743152395768732 0 0.31778971146991503 0.31788997842391498 0 0.31591730865868939 0.32743152395768732 0 0.31778971146991503 0.31788997842391498 0 0.30920411140212778 0.3196886032463338 0 0.32240332357799001 0.33561178436480271 0 0.31863003654071292 0.34601962911411782 0 0.33117650937159632 0.34590223044488833 0 0.33361265820108371 0.33601463685995558 0 0.32592845192929348 0.32524135296818618 0 0.32240332357799001 0.33561178436480271 0 0.32592845192929348 0.32524135296818618 0 0.31591730865868939 0.32743152395768732 0 0.32240332357799001 0.33561178436480271 0 0.31591730865868939 0.32743152395768732 0 0.32240332357799001 0.33561178436480271 0 0.31164832743931292 0.33689503642828789 0 0.32240332357799001 0.33561178436480271 0 0.31863003654071292 0.34601962911411782 0 0.31164832743931292 0.33689503642828789 0 0.31863003654071292 0.34601962911411782 0 0.30992842843050988 0.3457112388019602 0 0.31164832743931292 0.33689503642828789 0 0.31863003654071292 0.34601962911411782 0 0.30992842843050988 0.3457112388019602 0 0.31160887743439081 0.35478490180041172 0 0.32445766980723489 0.35579424438156659 0 0.31686549990355672 0.36548826773678422 0 0.31160887743439081 0.35478490180041172 0 0.31863003654071292 0.34601962911411782 0 0.32445766980723489 0.35579424438156659 0 0.31160887743439081 0.35478490180041172 0 0.31863003654071292 0.34601962911411782 0 0.32445766980723489 0.35579424438156659 0 0.33117650937159632 0.34590223044488833 0 0.35261027909072251 0.34833536109025781 0 0.33117650937159632 0.34590223044488833 0 0.33944519881702218 0.35670643516570921 0 0.32445766980723489 0.35579424438156659 0 0.33117650937159632 0.34590223044488833 0 0.33944519881702218 0.35670643516570921 0 0.33555471090824662 0.37714848622012531 0 0.34769055634412588 0.36745966958429022 0 0.3290198967761308 0.36586400202748842 0 0.34769055634412588 0.36745966958429022 0 0.33944519881702218 0.35670643516570921 0 0.3290198967761308 0.36586400202748842 0 0.32445766980723489 0.35579424438156659 0 0.33944519881702218 0.35670643516570921 0 0.3290198967761308 0.36586400202748842 0 0.32306703930603953 0.37623237809600169 0 0.33555471090824662 0.37714848622012531 0 0.3290198967761308 0.36586400202748842 0 0.32306703930603953 0.37623237809600169 0 0.3290198967761308 0.36586400202748842 0 0.31686549990355672 0.36548826773678422 0 0.32445766980723489 0.35579424438156659 0 0.3290198967761308 0.36586400202748842 0 0.31686549990355672 0.36548826773678422 0 0.31077839752677883 0.37658419253607489 0 0.32306703930603953 0.37623237809600169 0 0.31686549990355672 0.36548826773678422 0 0.31077839752677883 0.37658419253607489 0 0.30653952356419251 0.36486132392814918 0 0.30091992906300691 0.3739920833762147 0 0.31077839752677883 0.37658419253607489 0 0.31686549990355672 0.36548826773678422 0 0.30653952356419251 0.36486132392814918 0 0.31686549990355672 0.36548826773678422 0 0.30653952356419251 0.36486132392814918 0 0.31160887743439081 0.35478490180041172 0 0.30653952356419251 0.36486132392814918 0 0.29956039950038399 0.36055845947794762 0 0.29968882481084308 0.36620473963642819 0 0.30653952356419251 0.36486132392814918 0 0.29956039950038399 0.36055845947794762 0 0.30450437459886343 0.35739179545954242 0 0.29956039950038399 0.36055845947794762 0 0.29968882481084308 0.36620473963642819 0 0.2946843591870788 0.36349444767638139 0 0.29968882481084308 0.36620473963642819 0 0.30091992906300691 0.3739920833762147 0 0.29515321138997108 0.36891281366618561 0 0.30653952356419251 0.36486132392814918 0 0.29968882481084308 0.36620473963642819 0 0.30091992906300691 0.3739920833762147 0 0.2951337916801352 0.37545299726164849 0 0.30091992906300691 0.3739920833762147 0 0.29515321138997108 0.36891281366618561 0 0.30992842843050988 0.3457112388019602 0 0.31160887743439081 0.35478490180041172 0 0.30300584901730271 0.34938636887413438 0 0.30992842843050988 0.3457112388019602 0 0.30300584901730271 0.34938636887413438 0 0.30284961949963451 0.34180688944884569 0 0.31160887743439081 0.35478490180041172 0 0.30450437459886343 0.35739179545954242 0 0.30300584901730271 0.34938636887413438 0 0.30653952356419251 0.36486132392814918 0 0.31160887743439081 0.35478490180041172 0 0.30450437459886343 0.35739179545954242 0 0.30450437459886343 0.35739179545954242 0 0.29772286606791931 0.35422336501427332 0 0.30300584901730271 0.34938636887413438 0 0.29956039950038399 0.36055845947794762 0 0.30450437459886343 0.35739179545954242 0 0.29772286606791931 0.35422336501427332 0 0.29772286606791931 0.35422336501427332 0 0.30300584901730271 0.34938636887413438 0 0.29508057650716829 0.34607515835053693 0 0.30300584901730271 0.34938636887413438 0 0.29508057650716829 0.34607515835053693 0 0.30284961949963451 0.34180688944884569 0 0.29508057650716829 0.34607515835053693 0 0.29128433478161492 0.3514692197730912 0 0.28696318970460172 0.34507386829548542 0 0.29772286606791931 0.35422336501427332 0 0.29508057650716829 0.34607515835053693 0 0.29128433478161492 0.3514692197730912 0 0.29128433478161492 0.3514692197730912 0 0.29260686737414288 0.35803349489433017 0 0.28831593146678952 0.35482697607295582 0 0.29772286606791931 0.35422336501427332 0 0.29128433478161492 0.3514692197730912 0 0.29260686737414288 0.35803349489433017 0 0.29956039950038399 0.36055845947794762 0 0.29772286606791931 0.35422336501427332 0 0.29260686737414288 0.35803349489433017 0 0.29260686737414288 0.35803349489433017 0 0.28714468874269172 0.35854684035017659 0 0.29097547274489571 0.36086700820637557 0 0.29260686737414288 0.35803349489433017 0 0.28714468874269172 0.35854684035017659 0 0.28831593146678952 0.35482697607295582 0 0.28714468874269172 0.35854684035017659 0 0.28946597567566928 0.3633932499046143 0 0.27836960746308909 0.35599853724874359 0 0.28714468874269172 0.35854684035017659 0 0.28392422607346179 0.35383006020545288 0 0.27836960746308909 0.35599853724874359 0 0.28714468874269172 0.35854684035017659 0 0.28392422607346179 0.35383006020545288 0 0.28831593146678952 0.35482697607295582 0 0.28392422607346179 0.35383006020545288 0 0.28273558166129192 0.34922596943765521 0 0.28101653893848899 0.35208327708388421 0 0.28392422607346179 0.35383006020545288 0 0.28831593146678952 0.35482697607295582 0 0.2863539578433606 0.35136140079780598 0 0.29128433478161492 0.3514692197730912 0 0.28831593146678952 0.35482697607295582 0 0.2863539578433606 0.35136140079780598 0 0.29128433478161492 0.3514692197730912 0 0.2863539578433606 0.35136140079780598 0 0.28696318970460172 0.34507386829548542 0 0.2863539578433606 0.35136140079780598 0 0.28273558166129192 0.34922596943765521 0 0.28696318970460172 0.34507386829548542 0 0.28392422607346179 0.35383006020545288 0 0.2863539578433606 0.35136140079780598 0 0.28273558166129192 0.34922596943765521 0 0.28696318970460172 0.34507386829548542 0 0.28013569367420871 0.34584772387197749 0 0.28119375649751349 0.3415044430455576 0 0.28273558166129192 0.34922596943765521 0 0.28696318970460172 0.34507386829548542 0 0.28013569367420871 0.34584772387197749 0 0.29155132770994241 0.38145409056705559 0 0.29028041611347422 0.37131190521640561 0 0.27836960746308909 0.35599853724874359 0 0.28641533258273322 0.38531457319514678 0 0.29155132770994241 0.38145409056705559 0 0.2754302243437341 0.35800137086985789 0 0.29155132770994241 0.38145409056705559 0 0.2754302243437341 0.35800137086985789 0 0.27836960746308909 0.35599853724874359 0 0.29155132770994241 0.38145409056705559 0 0.27836960746308909 0.35599853724874359 0 0.29028041611347422 0.37131190521640561 0 0.29515321138997108 0.36891281366618561 0 0.28946597567566928 0.3633932499046143 0 0.2951337916801352 0.37545299726164849 0 0.29028041611347422 0.37131190521640561 0 0.29515321138997108 0.36891281366618561 0 0.29968882481084308 0.36620473963642819 0 0.29515321138997108 0.36891281366618561 0 0.2946843591870788 0.36349444767638139 0 0.29515321138997108 0.36891281366618561 0 0.2946843591870788 0.36349444767638139 0 0.28946597567566928 0.3633932499046143 0 0.29956039950038399 0.36055845947794762 0 0.29260686737414288 0.35803349489433017 0 0.2946843591870788 0.36349444767638139 0 0.28714468874269172 0.35854684035017659 0 0.29097547274489571 0.36086700820637557 0 0.28946597567566928 0.3633932499046143 0 0.2946843591870788 0.36349444767638139 0 0.29097547274489571 0.36086700820637557 0 0.28946597567566928 0.3633932499046143 0 0.29260686737414288 0.35803349489433017 0 0.2946843591870788 0.36349444767638139 0 0.29097547274489571 0.36086700820637557 0 0.29028041611347422 0.37131190521640561 0 0.28946597567566928 0.3633932499046143 0 0.27836960746308909 0.35599853724874359 0 0.28641533258273322 0.38531457319514678 0 0.2754302243437341 0.35800137086985789 0 0.27737653217987568 0.3763299637903077 0 0.28641533258273322 0.38531457319514678 0 0.2754302243437341 0.35800137086985789 0 0.27737653217987568 0.3763299637903077 0 0.27292546410526491 0.36629585246079138 0 0.2754302243437341 0.35800137086985789 0 0.27737653217987568 0.3763299637903077 0 0.26995518240551242 0.36922466410125959 0 0.27292546410526491 0.36629585246079138 0 0.26817635423288699 0.37969346344739391 0 0.26995518240551242 0.36922466410125959 0 0.26082178769032438 0.36496323128775521 0 0.26995518240551242 0.36922466410125959 0 0.26893991749193752 0.36162741108174062 0 0.26082178769032438 0.36496323128775521 0 0.26893991749193752 0.36162741108174062 0 0.27292546410526491 0.36629585246079138 0 0.2754302243437341 0.35800137086985789 0 0.26995518240551242 0.36922466410125959 0 0.26893991749193752 0.36162741108174062 0 0.27292546410526491 0.36629585246079138 0 0.2754302243437341 0.35800137086985789 0 0.26518788721623437 0.33054298393043219 0 0.2754302243437341 0.35800137086985789 0 0.27836960746308909 0.35599853724874359 0 0.26518788721623437 0.33054298393043219 0 0.2754302243437341 0.35800137086985789 0 0.26469999689944002 0.35285812485780471 0 0.26518788721623437 0.33054298393043219 0 0.27836960746308909 0.35599853724874359 0 0.28101653893848899 0.35208327708388421 0 0.2797945401242129 0.34946851842389731 0 0.28392422607346179 0.35383006020545288 0 0.27836960746308909 0.35599853724874359 0 0.28101653893848899 0.35208327708388421 0 0.27836960746308909 0.35599853724874359 0 0.2797945401242129 0.34946851842389731 0 0.27671527888398562 0.3441870844772259 0 0.28013569367420871 0.34584772387197749 0 0.2797945401242129 0.34946851842389731 0 0.27671527888398562 0.3441870844772259 0 0.28013569367420871 0.34584772387197749 0 0.27671527888398562 0.3441870844772259 0 0.28119375649751349 0.3415044430455576 0 0.28273558166129192 0.34922596943765521 0 0.28013569367420871 0.34584772387197749 0 0.2797945401242129 0.34946851842389731 0 0.28273558166129192 0.34922596943765521 0 0.28101653893848899 0.35208327708388421 0 0.2797945401242129 0.34946851842389731 0 0.26893991749193752 0.36162741108174062 0 0.2754302243437341 0.35800137086985789 0 0.26469999689944002 0.35285812485780471 0 0.26469999689944002 0.35285812485780471 0 0.25397109136889212 0.34953950795812871 0 0.26518788721623437 0.33054298393043219 0 0.26469999689944002 0.35285812485780471 0 0.25397109136889212 0.34953950795812871 0 0.26082178769032438 0.36496323128775521 0 0.24217950803475169 0.36279199964721098 0 0.25397109136889212 0.34953950795812871 0 0.26082178769032438 0.36496323128775521 0 0.24217950803475169 0.36279199964721098 0 0.24890193261595259 0.38922972948408457 0 0.26082178769032438 0.36496323128775521 0 0.26893991749193752 0.36162741108174062 0 0.26469999689944002 0.35285812485780471 0 0.26082178769032438 0.36496323128775521 0 0.26160037477145948 0.32361504792451118 0 0.26961523156275707 0.31863310602586059 0 0.25252005129033422 0.30103787280496203 0 0.24833100513142109 0.32161764704062729 0 0.26160037477145948 0.32361504792451118 0 0.26518788721623437 0.33054298393043219 0 0.24963775202771521 0.30051372462394288 0 0.24833100513142109 0.32161764704062729 0 0.26160037477145948 0.32361504792451118 0 0.26160037477145948 0.32361504792451118 0 0.26518788721623437 0.33054298393043219 0 0.26731122343739822 0.32545953491366858 0 0.26160037477145948 0.32361504792451118 0 0.26518788721623437 0.33054298393043219 0 0.2354570834535519 0.33635426981033711 0 0.26518788721623437 0.33054298393043219 0 0.2354570834535519 0.33635426981033711 0 0.25397109136889212 0.34953950795812871 0 0.26518788721623437 0.33054298393043219 0 0.27836960746308909 0.35599853724874359 0 0.27671527888398562 0.3441870844772259 0 0.26518788721623437 0.33054298393043219 0 0.26518788721623437 0.33054298393043219 0 0.2728414001991406 0.32904700177387047 0 0.26518788721623437 0.33054298393043219 0 0.2728414001991406 0.32904700177387047 0 0.26731122343739822 0.32545953491366858 0 0.27836960746308909 0.35599853724874359 0 0.26518788721623437 0.33054298393043219 0 0.26518788721623437 0.33054298393043219 0 0.2728414001991406 0.32904700177387047 0 0.27786043041236869 0.33471626715991409 0 0.27671527888398562 0.3441870844772259 0 0.26518788721623437 0.33054298393043219 0 0.27786043041236869 0.33471626715991409 0 0.27671527888398562 0.3441870844772259 0 0.28119375649751349 0.3415044430455576 0 0.27786043041236869 0.33471626715991409 0 0.2728414001991406 0.32904700177387047 0 0.27786043041236869 0.33471626715991409 0 0.27936204924768121 0.32498307102898349 0 0.27786043041236869 0.33471626715991409 0 0.27936204924768121 0.32498307102898349 0 0.28525590824973168 0.33019860290154568 0 0.2728414001991406 0.32904700177387047 0 0.27936204924768121 0.32498307102898349 0 0.26961523156275707 0.31863310602586059 0 0.2728414001991406 0.32904700177387047 0 0.26731122343739822 0.32545953491366858 0 0.26961523156275707 0.31863310602586059 0 0.26160037477145948 0.32361504792451118 0 0.26731122343739822 0.32545953491366858 0 0.26961523156275707 0.31863310602586059 0 0.27936204924768121 0.32498307102898349 0 0.26961523156275707 0.31863310602586059 0 0.28133089707177739 0.31565660162935461 0 0.26961523156275707 0.31863310602586059 0 0.28133089707177739 0.31565660162935461 0 0.27162220014601168 0.30819847959926649 0 0.28133089707177739 0.31565660162935461 0 0.28926842799031183 0.32164684668335553 0 0.29289622389348391 0.31173450207074938 0 0.27936204924768121 0.32498307102898349 0 0.28926842799031183 0.32164684668335553 0 0.28525590824973168 0.33019860290154568 0 0.27936204924768121 0.32498307102898349 0 0.28133089707177739 0.31565660162935461 0 0.28926842799031183 0.32164684668335553 0 0.28926842799031183 0.32164684668335553 0 0.29270679870612148 0.33133919612790758 0 0.29864702146159328 0.32643954785611667 0 0.28926842799031183 0.32164684668335553 0 0.28525590824973168 0.33019860290154568 0 0.29270679870612148 0.33133919612790758 0 0.28926842799031183 0.32164684668335553 0 0.30057412006284873 0.3182848580649148 0 0.29864702146159328 0.32643954785611667 0 0.28926842799031183 0.32164684668335553 0 0.30057412006284873 0.3182848580649148 0 0.29289622389348391 0.31173450207074938 0 0.28696318970460172 0.34507386829548542 0 0.28119375649751349 0.3415044430455576 0 0.28563489893157912 0.33697664508827291 0 0.28696318970460172 0.34507386829548542 0 0.28563489893157912 0.33697664508827291 0 0.29440715639490739 0.33866623850310912 0 0.28119375649751349 0.3415044430455576 0 0.27786043041236869 0.33471626715991409 0 0.28563489893157912 0.33697664508827291 0 0.28563489893157912 0.33697664508827291 0 0.28525590824973168 0.33019860290154568 0 0.29270679870612148 0.33133919612790758 0 0.27786043041236869 0.33471626715991409 0 0.28563489893157912 0.33697664508827291 0 0.28525590824973168 0.33019860290154568 0 0.29270679870612148 0.33133919612790758 0 0.29440715639490739 0.33866623850310912 0 0.30302737920860612 0.33410729573504611 0 0.28563489893157912 0.33697664508827291 0 0.29270679870612148 0.33133919612790758 0 0.29440715639490739 0.33866623850310912 0 0.29508057650716829 0.34607515835053693 0 0.28696318970460172 0.34507386829548542 0 0.29440715639490739 0.33866623850310912 0 0.29508057650716829 0.34607515835053693 0 0.29440715639490739 0.33866623850310912 0 0.30284961949963451 0.34180688944884569 0 0.29440715639490739 0.33866623850310912 0 0.30284961949963451 0.34180688944884569 0 0.30302737920860612 0.33410729573504611 0 0.29270679870612148 0.33133919612790758 0 0.30302737920860612 0.33410729573504611 0 0.29864702146159328 0.32643954785611667 0 0.30302737920860612 0.33410729573504611 0 0.29864702146159328 0.32643954785611667 0 0.30648676239126638 0.32698903389663531 0 0.30302737920860612 0.33410729573504611 0 0.31164832743931292 0.33689503642828789 0 0.30648676239126638 0.32698903389663531 0 0.31591730865868939 0.32743152395768732 0 0.31164832743931292 0.33689503642828789 0 0.30648676239126638 0.32698903389663531 0 0.30284961949963451 0.34180688944884569 0 0.30302737920860612 0.33410729573504611 0 0.31164832743931292 0.33689503642828789 0 0.30992842843050988 0.3457112388019602 0 0.30284961949963451 0.34180688944884569 0 0.31164832743931292 0.33689503642828789 0 0.30057412006284873 0.3182848580649148 0 0.3075048900192453 0.30846754722968978 0 0.29289622389348391 0.31173450207074938 0 0.30057412006284873 0.3182848580649148 0 0.29864702146159328 0.32643954785611667 0 0.30648676239126638 0.32698903389663531 0 0.30057412006284873 0.3182848580649148 0 0.30648676239126638 0.32698903389663531 0 0.30920411140212778 0.3196886032463338 0 0.31591730865868939 0.32743152395768732 0 0.30648676239126638 0.32698903389663531 0 0.30920411140212778 0.3196886032463338 0 0.30057412006284873 0.3182848580649148 0 0.30920411140212778 0.3196886032463338 0 0.3075048900192453 0.30846754722968978 0 0.31778971146991503 0.31788997842391498 0 0.30920411140212778 0.3196886032463338 0 0.3075048900192453 0.30846754722968978 0 0.3075048900192453 0.30846754722968978 0 0.29694347339530303 0.29848366127231912 0 0.31246487291163488 0.29208088598867771 0 0.3075048900192453 0.30846754722968978 0 0.29694347339530303 0.29848366127231912 0 0.29289622389348391 0.31173450207074938 0 0.31246487291163488 0.29208088598867771 0 0.29888580149873889 0.28140566667868477 0 0.31966717048778492 0.28020807462702291 0 0.29694347339530303 0.29848366127231912 0 0.31246487291163488 0.29208088598867771 0 0.29888580149873889 0.28140566667868477 0 0.29694347339530303 0.29848366127231912 0 0.29888580149873889 0.28140566667868477 0 0.28532215262680061 0.29218967158653381 0 0.29888580149873889 0.28140566667868477 0 0.28532215262680061 0.29218967158653381 0 0.27597263544757811 0.27926985653850322 0 0.29694347339530303 0.29848366127231912 0 0.29289622389348391 0.31173450207074938 0 0.28421062956037713 0.3046253325656294 0 0.29694347339530303 0.29848366127231912 0 0.28532215262680061 0.29218967158653381 0 0.28421062956037713 0.3046253325656294 0 0.28133089707177739 0.31565660162935461 0 0.29289622389348391 0.31173450207074938 0 0.28421062956037713 0.3046253325656294 0 0.28133089707177739 0.31565660162935461 0 0.28421062956037713 0.3046253325656294 0 0.27162220014601168 0.30819847959926649 0 0.28421062956037713 0.3046253325656294 0 0.27162220014601168 0.30819847959926649 0 0.27073357959762612 0.29469717476731772 0 0.28532215262680061 0.29218967158653381 0 0.28421062956037713 0.3046253325656294 0 0.27073357959762612 0.29469717476731772 0 0.27073357959762612 0.29469717476731772 0 0.25964825064670849 0.2811944406245902 0 0.27597263544757811 0.27926985653850322 0 0.28532215262680061 0.29218967158653381 0 0.27073357959762612 0.29469717476731772 0 0.27597263544757811 0.27926985653850322 0 0.2434397278092077 0.27846069768541332 0 0.25252005129033422 0.30103787280496203 0 0.25964825064670849 0.2811944406245902 0 0.27073357959762612 0.29469717476731772 0 0.25252005129033422 0.30103787280496203 0 0.25964825064670849 0.2811944406245902 0 0.24963775202771521 0.30051372462394288 0 0.26160037477145948 0.32361504792451118 0 0.26160037477145948 0.32361504792451118 0 0.25252005129033422 0.30103787280496203 0 0.24963775202771521 0.30051372462394288 0 0.26160037477145948 0.32361504792451118 0 0.25252005129033422 0.30103787280496203 0 0.27162220014601168 0.30819847959926649 0 0.27073357959762612 0.29469717476731772 0 0.25252005129033422 0.30103787280496203 0 0.26961523156275707 0.31863310602586059 0 0.27162220014601168 0.30819847959926649 0 0.25252005129033422 0.30103787280496203 0 0.26005695654466249 0.26476207857526007 0 0.25877170878786238 0.25302463852503437 0 0.26784118605052742 0.25766384122118591 0 0.26005695654466249 0.26476207857526007 0 0.26877199542094288 0.271185286046489 0 0.26784118605052742 0.25766384122118591 0 0.24763005152173001 0.25910176257370959 0 0.26005695654466249 0.26476207857526007 0 0.25877170878786238 0.25302463852503437 0 0.26005695654466249 0.26476207857526007 0 0.25964825064670849 0.2811944406245902 0 0.26877199542094288 0.271185286046489 0 0.2434397278092077 0.27846069768541332 0 0.26005695654466249 0.26476207857526007 0 0.25964825064670849 0.2811944406245902 0 0.2434397278092077 0.27846069768541332 0 0.24763005152173001 0.25910176257370959 0 0.26005695654466249 0.26476207857526007 0 0.25964825064670849 0.2811944406245902 0 0.26877199542094288 0.271185286046489 0 0.27597263544757811 0.27926985653850322 0 0.26877199542094288 0.271185286046489 0 0.27597263544757811 0.27926985653850322 0 0.27647749418933931 0.26389562134405542 0 0.27597263544757811 0.27926985653850322 0 0.27647749418933931 0.26389562134405542 0 0.28921799240021828 0.26815650339571012 0 0.27647749418933931 0.26389562134405542 0 0.27542464597538868 0.25681776053554017 0 0.28272693040926428 0.25881526167589219 0 0.27647749418933931 0.26389562134405542 0 0.26784118605052742 0.25766384122118591 0 0.27542464597538868 0.25681776053554017 0 0.26877199542094288 0.271185286046489 0 0.27647749418933931 0.26389562134405542 0 0.26784118605052742 0.25766384122118591 0 0.26784118605052742 0.25766384122118591 0 0.27542464597538868 0.25681776053554017 0 0.27283394916361492 0.24742619336605559 0 0.25877170878786238 0.25302463852503437 0 0.26784118605052742 0.25766384122118591 0 0.27283394916361492 0.24742619336605559 0 0.27542464597538868 0.25681776053554017 0 0.28272693040926428 0.25881526167589219 0 0.27283394916361492 0.24742619336605559 0 0.28272693040926428 0.25881526167589219 0 0.29968057031776052 0.25778022973809978 0 0.27283394916361492 0.24742619336605559 0 0.28272693040926428 0.25881526167589219 0 0.28921799240021828 0.26815650339571012 0 0.29968057031776052 0.25778022973809978 0 0.29968057031776052 0.25778022973809978 0 0.27283394916361492 0.24742619336605559 0 0.29968057031776052 0.25778022973809978 0 0.27283394916361492 0.24742619336605559 0 0.3016365876598241 0.24719201463661561 0 0.27647749418933931 0.26389562134405542 0 0.28272693040926428 0.25881526167589219 0 0.28921799240021828 0.26815650339571012 0 0.28921799240021828 0.26815650339571012 0 0.29917140266547992 0.2696271248040239 0 0.29968057031776052 0.25778022973809978 0 0.29888580149873889 0.28140566667868477 0 0.27597263544757811 0.27926985653850322 0 0.28921799240021828 0.26815650339571012 0 0.29888580149873889 0.28140566667868477 0 0.28921799240021828 0.26815650339571012 0 0.29917140266547992 0.2696271248040239 0 0.30890124644520212 0.27116609940360098 0 0.29968057031776052 0.25778022973809978 0 0.32652719147190618 0.26813426611014402 0 0.29888580149873889 0.28140566667868477 0 0.30890124644520212 0.27116609940360098 0 0.31966717048778492 0.28020807462702291 0 0.29888580149873889 0.28140566667868477 0 0.29917140266547992 0.2696271248040239 0 0.30890124644520212 0.27116609940360098 0 0.29917140266547992 0.2696271248040239 0 0.30890124644520212 0.27116609940360098 0 0.29968057031776052 0.25778022973809978 0 0.29968057031776052 0.25778022973809978 0 0.31432639173362298 0.2563396134856944 0 0.3016365876598241 0.24719201463661561 0 0.29968057031776052 0.25778022973809978 0 0.32652719147190618 0.26813426611014402 0 0.29968057031776052 0.25778022973809978 0 0.31432639173362298 0.2563396134856944 0 0.32652719147190618 0.26813426611014402 0 0.31432639173362298 0.2563396134856944 0 0.32946121748500129 0.25225194345791829 0 0.3016365876598241 0.24719201463661561 0 0.31432639173362298 0.2563396134856944 0 0.32946121748500129 0.25225194345791829 0 0.32652719147190618 0.26813426611014402 0 0.32946121748500129 0.25225194345791829 0 0.35728584731017871 0.25731187227922109 0 0.32946121748500129 0.25225194345791829 0 0.33854302537622011 0.27351786473126699 0 0.35728584731017871 0.25731187227922109 0 0.32946121748500129 0.25225194345791829 0 0.33854302537622011 0.27351786473126699 0 0.32652719147190618 0.26813426611014402 0 0.33854302537622011 0.27351786473126699 0 0.32652719147190618 0.26813426611014402 0 0.31966717048778492 0.28020807462702291 0 0.30890124644520212 0.27116609940360098 0 0.32652719147190618 0.26813426611014402 0 0.31966717048778492 0.28020807462702291 0 0.31246487291163488 0.29208088598867771 0 0.31966717048778492 0.28020807462702291 0 0.33172871425663403 0.29269405324557379 0 0.31778971146991503 0.31788997842391498 0 0.3075048900192453 0.30846754722968978 0 0.32420479997372442 0.30853167071016102 0 0.31246487291163488 0.29208088598867771 0 0.32420479997372442 0.30853167071016102 0 0.31246487291163488 0.29208088598867771 0 0.32420479997372442 0.30853167071016102 0 0.33172871425663403 0.29269405324557379 0 0.3075048900192453 0.30846754722968978 0 0.31246487291163488 0.29208088598867771 0 0.32420479997372442 0.30853167071016102 0 0.32420479997372442 0.30853167071016102 0 0.33172871425663403 0.29269405324557379 0 0.34448717235649018 0.30756264321984922 0 0.33854302537622011 0.27351786473126699 0 0.31966717048778492 0.28020807462702291 0 0.33172871425663403 0.29269405324557379 0 0.33172871425663403 0.29269405324557379 0 0.3503635169770366 0.28966006865463678 0 0.34448717235649018 0.30756264321984922 0 0.33854302537622011 0.27351786473126699 0 0.33172871425663403 0.29269405324557379 0 0.3503635169770366 0.28966006865463678 0 0.3503635169770366 0.28966006865463678 0 0.34448717235649018 0.30756264321984922 0 0.36246687595182442 0.30494518477727961 0 0.36114413796306788 0.32433110896381118 0 0.34448717235649018 0.30756264321984922 0 0.36246687595182442 0.30494518477727961 0 0.36246687595182442 0.30494518477727961 0 0.37008896088821891 0.27907488192658342 0 0.38127772340545701 0.29855436992749679 0 0.3503635169770366 0.28966006865463678 0 0.36246687595182442 0.30494518477727961 0 0.37008896088821891 0.27907488192658342 0 0.37008896088821891 0.27907488192658342 0 0.35728584731017871 0.25731187227922109 0 0.35441181453934328 0.27463334472066592 0 0.37008896088821891 0.27907488192658342 0 0.35728584731017871 0.25731187227922109 0 0.38511047713535562 0.2623718011005241 0 0.35728584731017871 0.25731187227922109 0 0.38511047713535562 0.2623718011005241 0 0.37293454716760283 0.2396311516560117 0 0.35728584731017871 0.25731187227922109 0 0.38511047713535562 0.2623718011005241 0 0.33854302537622011 0.27351786473126699 0 0.3503635169770366 0.28966006865463678 0 0.35441181453934328 0.27463334472066592 0 0.33854302537622011 0.27351786473126699 0 0.35728584731017871 0.25731187227922109 0 0.35441181453934328 0.27463334472066592 0 0.3503635169770366 0.28966006865463678 0 0.37008896088821891 0.27907488192658342 0 0.35441181453934328 0.27463334472066592 0 0.4059739891301799 0.26616584566893298 0 0.38511047713535562 0.2623718011005241 0 0.39575362435311728 0.2822497143692822 0 0.4059739891301799 0.26616584566893298 0 0.39575362435311728 0.2822497143692822 0 0.41466985898722469 0.28617745239982811 0 0.4059739891301799 0.26616584566893298 0 0.38511047713535562 0.2623718011005241 0 0.39933451681408499 0.24222051247515669 0 0.4059739891301799 0.26616584566893298 0 0.38511047713535562 0.2623718011005241 0 0.38511047713535562 0.2623718011005241 0 0.37293454716760283 0.2396311516560117 0 0.37008896088821891 0.27907488192658342 0 0.38511047713535562 0.2623718011005241 0 0.39575362435311728 0.2822497143692822 0 0.38511047713535562 0.2623718011005241 0 0.39575362435311728 0.2822497143692822 0 0.37008896088821891 0.27907488192658342 0 0.38127772340545701 0.29855436992749679 0 0.39575362435311728 0.2822497143692822 0 0.38127772340545701 0.29855436992749679 0 0.39341545683502421 0.31015448597301559 0 0.38634354889032002 0.32367976249598251 0 0.38127772340545701 0.29855436992749679 0 0.38634354889032002 0.32367976249598251 0 0.36246687595182442 0.30494518477727961 0 0.38127772340545701 0.29855436992749679 0 0.38634354889032002 0.32367976249598251 0 0.38127772340545701 0.29855436992749679 0 0.39341545683502421 0.31015448597301559 0 0.40639677157087911 0.30212762763804019 0 0.39341545683502421 0.31015448597301559 0 0.40639677157087911 0.30212762763804019 0 0.4081981699382346 0.3139513768470385 0 0.39575362435311728 0.2822497143692822 0 0.40639677157087911 0.30212762763804019 0 0.38127772340545701 0.29855436992749679 0 0.39575362435311728 0.2822497143692822 0 0.40639677157087911 0.30212762763804019 0 0.39575362435311728 0.2822497143692822 0 0.41466985898722469 0.28617745239982811 0 0.40639677157087911 0.30212762763804019 0 0.41466985898722469 0.28617745239982811 0 0.40639677157087911 0.30212762763804019 0 0.42063747895650733 0.30228076741981708 0 0.40639677157087911 0.30212762763804019 0 0.417039918788641 0.32200554090679828 0 0.40639677157087911 0.30212762763804019 0 0.42063747895650733 0.30228076741981708 0 0.41590325438833858 0.31571238371771643 0 0.42063747895650733 0.30228076741981708 0 0.43554340190627211 0.31006971119553528 0 0.43241978878766019 0.29428086906555412 0 0.42063747895650733 0.30228076741981708 0 0.43554340190627211 0.31006971119553528 0 0.41590325438833858 0.31571238371771643 0 0.43241978878766019 0.29428086906555412 0 0.42683750112500368 0.26995989023734401 0 0.43795337608323548 0.28151673092589807 0 0.41466985898722469 0.28617745239982811 0 0.43241978878766019 0.29428086906555412 0 0.42683750112500368 0.26995989023734401 0 0.43241978878766019 0.29428086906555412 0 0.42683750112500368 0.26995989023734401 0 0.41466985898722469 0.28617745239982811 0 0.42063747895650733 0.30228076741981708 0 0.43241978878766019 0.29428086906555412 0 0.4059739891301799 0.26616584566893298 0 0.42683750112500368 0.26995989023734401 0 0.4059739891301799 0.26616584566893298 0 0.41466985898722469 0.28617745239982811 0 0.42683750112500368 0.26995989023734401 0 0.4059739891301799 0.26616584566893298 0 0.42683750112500368 0.26995989023734401 0 0.42092918023873821 0.24421844589255121 0 0.4059739891301799 0.26616584566893298 0 0.39933451681408499 0.24222051247515669 0 0.42092918023873821 0.24421844589255121 0 0.42683750112500368 0.26995989023734401 0 0.44089414042045799 0.25771217685885472 0 0.42092918023873821 0.24421844589255121 0 0.42683750112500368 0.26995989023734401 0 0.42092918023873821 0.24421844589255121 0 0.44089414042045799 0.25771217685885472 0 0.45301423403414209 0.26007999789895508 0 0.4569230610569987 0.24819013429900669 0 0.44089414042045799 0.25771217685885472 0 0.45301423403414209 0.26007999789895508 0 0.44973892600361531 0.27412453072026172 0 0.42683750112500368 0.26995989023734401 0 0.44089414042045799 0.25771217685885472 0 0.44973892600361531 0.27412453072026172 0 0.42683750112500368 0.26995989023734401 0 0.44973892600361531 0.27412453072026172 0 0.43795337608323548 0.28151673092589807 0 0.42683750112500368 0.26995989023734401 0 0.44973892600361531 0.27412453072026172 0 0.44973892600361531 0.27412453072026172 0 0.46478170596961249 0.26323965275109401 0 0.47264035088222628 0.27828917120318131 0 0.44973892600361531 0.27412453072026172 0 0.47264035088222628 0.27828917120318131 0 0.44973892600361531 0.27412453072026172 0 0.47264035088222628 0.27828917120318131 0 0.46226850420995219 0.28814127863090738 0 0.45301423403414209 0.26007999789895508 0 0.44973892600361531 0.27412453072026172 0 0.46478170596961249 0.26323965275109401 0 0.46478170596961249 0.26323965275109401 0 0.47264035088222628 0.27828917120318131 0 0.46478170596961249 0.26323965275109401 0 0.4569230610569987 0.24819013429900669 0 0.45301423403414209 0.26007999789895508 0 0.46478170596961249 0.26323965275109401 0 0.4569230610569987 0.24819013429900669 0 0.46478170596961249 0.26323965275109401 0 0.46750550623703407 0.25349570762290419 0 0.47341939214644252 0.26170481890296848 0 0.46478170596961249 0.26323965275109401 0 0.46750550623703407 0.25349570762290419 0 0.4569230610569987 0.24819013429900669 0 0.47341939214644252 0.26170481890296848 0 0.48489893488970792 0.25686202981026901 0 0.47278153852907701 0.24486280325581439 0 0.46750550623703407 0.25349570762290419 0 0.47341939214644252 0.26170481890296848 0 0.47278153852907701 0.24486280325581439 0 0.47341939214644252 0.26170481890296848 0 0.47278153852907701 0.24486280325581439 0 0.47341939214644252 0.26170481890296848 0 0.48000757765913032 0.26759533659828072 0 0.48489893488970792 0.25686202981026901 0 0.47341939214644252 0.26170481890296848 0 0.47405724576380859 0.27854683455012252 0 0.48000757765913032 0.26759533659828072 0 0.47341939214644252 0.26170481890296848 0 0.47264035088222628 0.27828917120318131 0 0.47405724576380859 0.27854683455012252 0 0.46478170596961249 0.26323965275109401 0 0.47341939214644252 0.26170481890296848 0 0.47264035088222628 0.27828917120318131 0 0.47405724576380859 0.27854683455012252 0 0.47415752390174082 0.28119459874267072 0 0.50000000000001354 0.28326454295050368 0 0.47341939214644252 0.26170481890296848 0 0.47405724576380859 0.27854683455012252 0 0.47264035088222628 0.27828917120318131 0 0.47405724576380859 0.27854683455012252 0 0.47405724576380859 0.27854683455012252 0 0.47415752390174082 0.28119459874267072 0 0.47264035088222628 0.27828917120318131 0 0.47405724576380859 0.27854683455012252 0 0.47415752390174082 0.28119459874267072 0 0.47264035088222628 0.27828917120318131 0 0.47415752390174082 0.28119459874267072 0 0.47405724576380859 0.27854683455012252 0 0.48000757765913032 0.26759533659828072 0 0.48909471086131839 0.26954423778064313 0 0.47405724576380859 0.27854683455012252 0 0.50000000000001354 0.28326454295050368 0 0.47405724576380859 0.27854683455012252 0 0.48909471086131839 0.26954423778064313 0 0.50000000000001354 0.28326454295050368 0 0.48909471086131839 0.26954423778064313 0 0.5 0.25553121794514477 0 0.50000000000001354 0.28326454295050368 0 0.5 0.25553121794514477 0 0.48489893488970792 0.25686202981026901 0 0.48903365503734891 0.24299047468837701 0 0.48909471086131839 0.26954423778064313 0 0.5 0.25553121794514477 0 0.48489893488970792 0.25686202981026901 0 0.48000757765913032 0.26759533659828072 0 0.48909471086131839 0.26954423778064313 0 0.48489893488970792 0.25686202981026901 0 0.48223131843763373 0.29665613456690521 0 0.49274985611107969 0.31679941989990179 0 0.48223131843763373 0.29665613456690521 0 0.49274985611107969 0.31679941989990179 0 0.48532411314893581 0.31403081790115361 0 0.49298554246438231 0.30475618362627349 0 0.48223131843763373 0.29665613456690521 0 0.49274985611107969 0.31679941989990179 0 0.49298554246438231 0.30475618362627349 0 0.4969609953088156 0.2924242547978898 0 0.5 0.31314492524039728 0 0.49298554246438231 0.30475618362627349 0 0.4969609953088156 0.2924242547978898 0 0.48223131843763373 0.29665613456690521 0 0.49298554246438231 0.30475618362627349 0 0.49274985611107969 0.31679941989990179 0 0.5 0.31314492524039728 0 0.4969609953088156 0.2924242547978898 0 0.50000000000001354 0.28326454295050368 0 0.5 0.31314492524039728 0 0.47415752390174082 0.28119459874267072 0 0.4969609953088156 0.2924242547978898 0 0.50000000000001354 0.28326454295050368 0 0.47415752390174082 0.28119459874267072 0 0.4969609953088156 0.2924242547978898 0 0.48223131843763373 0.29665613456690521 0 0.4969609953088156 0.2924242547978898 0 0.48223131843763373 0.29665613456690521 0 0.47415752390174082 0.28119459874267072 0 0.47482369694213911 0.29878436615117387 0 0.47415752390174082 0.28119459874267072 0 0.47482369694213911 0.29878436615117387 0 0.46226850420995219 0.28814127863090738 0 0.47415752390174082 0.28119459874267072 0 0.48223131843763373 0.29665613456690521 0 0.47482369694213911 0.29878436615117387 0 0.47415752390174082 0.28119459874267072 0 0.48223131843763373 0.29665613456690521 0 0.47264035088222628 0.27828917120318131 0 0.47415752390174082 0.28119459874267072 0 0.46226850420995219 0.28814127863090738 0 0.48223131843763373 0.29665613456690521 0 0.48022688714188239 0.30485617861310249 0 0.48532411314893581 0.31403081790115361 0 0.47482369694213911 0.29878436615117387 0 0.4785284200388214 0.30995339583317788 0 0.47567910166728178 0.32137064515506791 0 0.47482369694213911 0.29878436615117387 0 0.46683928615616721 0.31034493157342358 0 0.47567910166728178 0.32137064515506791 0 0.47482369694213911 0.29878436615117387 0 0.47567910166728178 0.32137064515506791 0 0.47482369694213911 0.29878436615117387 0 0.48022688714188239 0.30485617861310249 0 0.4785284200388214 0.30995339583317788 0 0.48223131843763373 0.29665613456690521 0 0.47482369694213911 0.29878436615117387 0 0.48022688714188239 0.30485617861310249 0 0.48223131843763373 0.29665613456690521 0 0.47482369694213911 0.29878436615117387 0 0.48022688714188239 0.30485617861310249 0 0.4785284200388214 0.30995339583317788 0 0.48532411314893581 0.31403081790115361 0 0.47482369694213911 0.29878436615117387 0 0.46683928615616721 0.31034493157342358 0 0.45518354942420552 0.3044270386733543 0 0.47482369694213911 0.29878436615117387 0 0.45518354942420552 0.3044270386733543 0 0.46683928615616721 0.31034493157342358 0 0.45518354942420552 0.3044270386733543 0 0.46090063033065398 0.31457074158430443 0 0.47482369694213911 0.29878436615117387 0 0.45518354942420552 0.3044270386733543 0 0.46226850420995219 0.28814127863090738 0 0.45518354942420552 0.3044270386733543 0 0.46226850420995219 0.28814127863090738 0 0.44650245416143669 0.29205179777212908 0 0.44973892600361531 0.27412453072026172 0 0.46226850420995219 0.28814127863090738 0 0.44650245416143669 0.29205179777212908 0 0.44973892600361531 0.27412453072026172 0 0.44650245416143669 0.29205179777212908 0 0.43795337608323548 0.28151673092589807 0 0.43241978878766019 0.29428086906555412 0 0.44650245416143669 0.29205179777212908 0 0.43795337608323548 0.28151673092589807 0 0.43554340190627211 0.31006971119553528 0 0.45518354942420552 0.3044270386733543 0 0.44650245416143669 0.29205179777212908 0 0.43554340190627211 0.31006971119553528 0 0.43241978878766019 0.29428086906555412 0 0.44650245416143669 0.29205179777212908 0 0.43554340190627211 0.31006971119553528 0 0.45518354942420552 0.3044270386733543 0 0.44590058407496119 0.32214035093537202 0 0.43554340190627211 0.31006971119553528 0 0.45518354942420552 0.3044270386733543 0 0.44438162939182968 0.33527616080122319 0 0.43941431748234389 0.34697694962204328 0 0.43138153093963261 0.33684778794266318 0 0.44438162939182968 0.33527616080122319 0 0.43138153093963261 0.33684778794266318 0 0.43736796180383269 0.33070162376080392 0 0.44590058407496119 0.32214035093537202 0 0.44438162939182968 0.33527616080122319 0 0.43736796180383269 0.33070162376080392 0 0.44590058407496119 0.32214035093537202 0 0.44438162939182968 0.33527616080122319 0 0.45938090137280319 0.33331169935871768 0 0.44438162939182968 0.33527616080122319 0 0.45466128638888681 0.34537342559846479 0 0.43941431748234389 0.34697694962204328 0 0.44438162939182968 0.33527616080122319 0 0.45938090137280319 0.33331169935871768 0 0.45466128638888681 0.34537342559846479 0 0.45938090137280319 0.33331169935871768 0 0.47648750655815691 0.34271593104932652 0 0.45466128638888681 0.34537342559846479 0 0.45518354942420552 0.3044270386733543 0 0.44590058407496119 0.32214035093537202 0 0.46090063033065398 0.31457074158430443 0 0.44590058407496119 0.32214035093537202 0 0.47567910166728178 0.32137064515506791 0 0.44590058407496119 0.32214035093537202 0 0.45938090137280319 0.33331169935871768 0 0.47567910166728178 0.32137064515506791 0 0.44590058407496119 0.32214035093537202 0 0.46090063033065398 0.31457074158430443 0 0.47567910166728178 0.32137064515506791 0 0.46683928615616721 0.31034493157342358 0 0.46090063033065398 0.31457074158430443 0 0.47567910166728178 0.32137064515506791 0 0.4785284200388214 0.30995339583317788 0 0.48037384835626529 0.31664076505113292 0 0.47567910166728178 0.32137064515506791 0 0.48037384835626529 0.31664076505113292 0 0.48196375857002199 0.32120820131513239 0 0.47567910166728178 0.32137064515506791 0 0.48037384835626529 0.31664076505113292 0 0.48196375857002199 0.32120820131513239 0 0.48532411314893581 0.31403081790115361 0 0.4785284200388214 0.30995339583317788 0 0.48037384835626529 0.31664076505113292 0 0.48532411314893581 0.31403081790115361 0 0.48196375857002199 0.32120820131513239 0 0.48271443300740718 0.32966898805558448 0 0.48700966075600671 0.32276244140519528 0 0.48196375857002199 0.32120820131513239 0 0.47567910166728178 0.32137064515506791 0 0.48271443300740718 0.32966898805558448 0 0.48196375857002199 0.32120820131513239 0 0.47567910166728178 0.32137064515506791 0 0.47567910166728178 0.32137064515506791 0 0.47648750655815691 0.34271593104932652 0 0.47567910166728178 0.32137064515506791 0 0.47648750655815691 0.34271593104932652 0 0.48271443300740718 0.32966898805558448 0 0.45938090137280319 0.33331169935871768 0 0.47567910166728178 0.32137064515506791 0 0.47648750655815691 0.34271593104932652 0 0.47648750655815691 0.34271593104932652 0 0.48271443300740718 0.32966898805558448 0 0.49227852706914571 0.3310448133387906 0 0.47648750655815691 0.34271593104932652 0 0.5 0.34302530753029081 0 0.49227852706914571 0.3310448133387906 0 0.5 0.34302530753029081 0 0.49227852706914571 0.3310448133387906 0 0.5 0.31314492524039728 0 0.49227852706914571 0.3310448133387906 0 0.49274985611107969 0.31679941989990179 0 0.5 0.31314492524039728 0 0.48196375857002199 0.32120820131513239 0 0.48532411314893581 0.31403081790115361 0 0.48700966075600671 0.32276244140519528 0 0.49274985611107969 0.31679941989990179 0 0.48532411314893581 0.31403081790115361 0 0.48700966075600671 0.32276244140519528 0 0.48271443300740718 0.32966898805558448 0 0.49227852706914571 0.3310448133387906 0 0.48700966075600671 0.32276244140519528 0 0.49227852706914571 0.3310448133387906 0 0.49274985611107969 0.31679941989990179 0 0.48700966075600671 0.32276244140519528 0 0.5 0.37290568982018429 0 0.48906820236105919 0.3579654986752378 0 0.48477613844387402 0.38021688004838439 0 0.47648750655815691 0.34271593104932652 0 0.5 0.34302530753029081 0 0.48906820236105919 0.3579654986752378 0 0.5 0.34302530753029081 0 0.5 0.37290568982018429 0 0.48906820236105919 0.3579654986752378 0 0.47648750655815691 0.34271593104932652 0 0.4736556537454587 0.3678330253399309 0 0.4628011452372443 0.35721885356897543 0 0.47648750655815691 0.34271593104932652 0 0.48906820236105919 0.3579654986752378 0 0.4736556537454587 0.3678330253399309 0 0.48906820236105919 0.3579654986752378 0 0.4736556537454587 0.3678330253399309 0 0.48477613844387402 0.38021688004838439 0 0.4736556537454587 0.3678330253399309 0 0.45151374504626951 0.36758660991241321 0 0.46980882541715813 0.38208294099771128 0 0.4736556537454587 0.3678330253399309 0 0.4628011452372443 0.35721885356897543 0 0.45151374504626951 0.36758660991241321 0 0.47648750655815691 0.34271593104932652 0 0.4628011452372443 0.35721885356897543 0 0.45466128638888681 0.34537342559846479 0 0.4628011452372443 0.35721885356897543 0 0.45466128638888681 0.34537342559846479 0 0.45151374504626951 0.36758660991241321 0 0.43941431748234389 0.34697694962204328 0 0.45151374504626951 0.36758660991241321 0 0.43248649325656402 0.35912170041613489 0 0.45466128638888681 0.34537342559846479 0 0.43941431748234389 0.34697694962204328 0 0.45151374504626951 0.36758660991241321 0 0.45151374504626951 0.36758660991241321 0 0.4343808670510142 0.37207818795490849 0 0.43248649325656402 0.35912170041613489 0 0.4343808670510142 0.37207818795490849 0 0.41565945607251759 0.36236511110304392 0 0.42235721568131929 0.38220686924127689 0 0.4343808670510142 0.37207818795490849 0 0.41565945607251759 0.36236511110304392 0 0.43248649325656402 0.35912170041613489 0 0.41565945607251759 0.36236511110304392 0 0.40683499004542412 0.37566900985645529 0 0.42235721568131929 0.38220686924127689 0 0.41565945607251759 0.36236511110304392 0 0.42423344021441339 0.3469403641650044 0 0.40881868850316022 0.34319093436892228 0 0.41565945607251759 0.36236511110304392 0 0.40881868850316022 0.34319093436892228 0 0.40255325820206211 0.35440744329028528 0 0.41565945607251759 0.36236511110304392 0 0.42423344021441339 0.3469403641650044 0 0.43248649325656402 0.35912170041613489 0 0.43941431748234389 0.34697694962204328 0 0.42423344021441339 0.3469403641650044 0 0.43248649325656402 0.35912170041613489 0 0.43941431748234389 0.34697694962204328 0 0.42423344021441339 0.3469403641650044 0 0.43138153093963261 0.33684778794266318 0 0.43138153093963261 0.33684778794266318 0 0.43736796180383269 0.33070162376080392 0 0.42780810280890752 0.32854219536395729 0 0.43138153093963261 0.33684778794266318 0 0.42780810280890752 0.32854219536395729 0 0.41974391964010321 0.33544292333485398 0 0.42780810280890752 0.32854219536395729 0 0.41816216709540432 0.32913892271221878 0 0.41974391964010321 0.33544292333485398 0 0.42423344021441339 0.3469403641650044 0 0.43138153093963261 0.33684778794266318 0 0.41974391964010321 0.33544292333485398 0 0.44590058407496119 0.32214035093537202 0 0.417039918788641 0.32200554090679828 0 0.43554340190627211 0.31006971119553528 0 0.42610184512817068 0.31856760869421968 0 0.41590325438833858 0.31571238371771643 0 0.44590058407496119 0.32214035093537202 0 0.42610184512817068 0.31856760869421968 0 0.417039918788641 0.32200554090679828 0 0.44590058407496119 0.32214035093537202 0 0.42780810280890752 0.32854219536395729 0 0.417039918788641 0.32200554090679828 0 0.44590058407496119 0.32214035093537202 0 0.43736796180383269 0.33070162376080392 0 0.42780810280890752 0.32854219536395729 0 0.43554340190627211 0.31006971119553528 0 0.41590325438833858 0.31571238371771643 0 0.43554340190627211 0.31006971119553528 0 0.44590058407496119 0.32214035093537202 0 0.42610184512817068 0.31856760869421968 0 0.40639677157087911 0.30212762763804019 0 0.417039918788641 0.32200554090679828 0 0.4081981699382346 0.3139513768470385 0 0.40639677157087911 0.30212762763804019 0 0.41590325438833858 0.31571238371771643 0 0.417039918788641 0.32200554090679828 0 0.42610184512817068 0.31856760869421968 0 0.41590325438833858 0.31571238371771643 0 0.417039918788641 0.32200554090679828 0 0.417039918788641 0.32200554090679828 0 0.41816216709540432 0.32913892271221878 0 0.41176425843116088 0.33156610519561941 0 0.42780810280890752 0.32854219536395729 0 0.417039918788641 0.32200554090679828 0 0.41816216709540432 0.32913892271221878 0 0.42423344021441339 0.3469403641650044 0 0.41974391964010321 0.33544292333485398 0 0.40881868850316022 0.34319093436892228 0 0.41816216709540432 0.32913892271221878 0 0.41974391964010321 0.33544292333485398 0 0.41176425843116088 0.33156610519561941 0 0.417039918788641 0.32200554090679828 0 0.41176425843116088 0.33156610519561941 0 0.40171431040203109 0.33103781916521291 0 0.41176425843116088 0.33156610519561941 0 0.40881868850316022 0.34319093436892228 0 0.40171431040203109 0.33103781916521291 0 0.41974391964010321 0.33544292333485398 0 0.41176425843116088 0.33156610519561941 0 0.40881868850316022 0.34319093436892228 0 0.40171431040203109 0.33103781916521291 0 0.38634354889032002 0.32367976249598251 0 0.39069281237429682 0.34525116339505252 0 0.40881868850316022 0.34319093436892228 0 0.40171431040203109 0.33103781916521291 0 0.39069281237429682 0.34525116339505252 0 0.417039918788641 0.32200554090679828 0 0.40171431040203109 0.33103781916521291 0 0.38634354889032002 0.32367976249598251 0 0.417039918788641 0.32200554090679828 0 0.4081981699382346 0.3139513768470385 0 0.38634354889032002 0.32367976249598251 0 0.39341545683502421 0.31015448597301559 0 0.4081981699382346 0.3139513768470385 0 0.38634354889032002 0.32367976249598251 0 0.417039918788641 0.32200554090679828 0 0.38634354889032002 0.32367976249598251 0 0.38634354889032002 0.32367976249598251 0 0.39069281237429682 0.34525116339505252 0 0.37418757138316661 0.34003979241565702 0 0.38634354889032002 0.32367976249598251 0 0.39069281237429682 0.34525116339505252 0 0.37418757138316661 0.34003979241565702 0 0.38014707859742553 0.358601566133181 0 0.39069281237429682 0.34525116339505252 0 0.38014707859742553 0.358601566133181 0 0.39504207585827378 0.36682256429412252 0 0.39069281237429682 0.34525116339505252 0 0.36927583114563117 0.37168826674887129 0 0.38014707859742553 0.358601566133181 0 0.3861818138235471 0.37714139125663793 0 0.38014707859742553 0.358601566133181 0 0.39504207585827378 0.36682256429412252 0 0.3861818138235471 0.37714139125663793 0 0.41565945607251759 0.36236511110304392 0 0.39504207585827378 0.36682256429412252 0 0.40683499004542412 0.37566900985645529 0 0.41565945607251759 0.36236511110304392 0 0.39504207585827378 0.36682256429412252 0 0.40255325820206211 0.35440744329028528 0 0.39504207585827378 0.36682256429412252 0 0.40255325820206211 0.35440744329028528 0 0.39069281237429682 0.34525116339505252 0 0.40881868850316022 0.34319093436892228 0 0.40255325820206211 0.35440744329028528 0 0.39069281237429682 0.34525116339505252 0 0.39504207585827378 0.36682256429412252 0 0.39069281237429682 0.34525116339505252 0 0.3993913393422508 0.38839396519319253 0 0.39020643165102042 0.40750290438779102 0 0.40342788129008578 0.41136751416027151 0 0.3993913393422508 0.38839396519319253 0 0.40342788129008578 0.41136751416027151 0 0.41247484703898341 0.39668929567888889 0 0.3993913393422508 0.38839396519319253 0 0.38594138320053972 0.39504117240748449 0 0.39020643165102042 0.40750290438779102 0 0.39504207585827378 0.36682256429412252 0 0.3993913393422508 0.38839396519319253 0 0.40683499004542412 0.37566900985645529 0 0.39504207585827378 0.36682256429412252 0 0.3993913393422508 0.38839396519319253 0 0.39504207585827378 0.36682256429412252 0 0.3993913393422508 0.38839396519319253 0 0.3861818138235471 0.37714139125663793 0 0.3993913393422508 0.38839396519319253 0 0.41247484703898341 0.39668929567888889 0 0.40683499004542412 0.37566900985645529 0 0.36927583114563117 0.37168826674887129 0 0.38594138320053972 0.39504117240748449 0 0.3993913393422508 0.38839396519319253 0 0.3861818138235471 0.37714139125663793 0 0.38594138320053972 0.39504117240748449 0 0.36927583114563117 0.37168826674887129 0 0.3861818138235471 0.37714139125663793 0 0.38594138320053972 0.39504117240748449 0 0.36672310374365391 0.3972274770167053 0 0.38594138320053972 0.39504117240748449 0 0.37714557779446961 0.40580011292323048 0 0.38594138320053972 0.39504117240748449 0 0.37714557779446961 0.40580011292323048 0 0.39020643165102042 0.40750290438779102 0 0.37714557779446961 0.40580011292323048 0 0.39020643165102042 0.40750290438779102 0 0.37786999239799629 0.42201923841731348 0 0.39020643165102042 0.40750290438779102 0 0.37786999239799629 0.42201923841731348 0 0.39620875860206523 0.42610388639599522 0 0.3672128213662551 0.44140310366938379 0 0.37786999239799629 0.42201923841731348 0 0.38861509636247821 0.44175005125570632 0 0.37786999239799629 0.42201923841731348 0 0.39620875860206523 0.42610388639599522 0 0.38861509636247821 0.44175005125570632 0 0.39620875860206523 0.42610388639599522 0 0.40342788129008578 0.41136751416027151 0 0.4165515890159211 0.43106581875832262 0 0.39020643165102042 0.40750290438779102 0 0.39620875860206523 0.42610388639599522 0 0.40342788129008578 0.41136751416027151 0 0.40342788129008578 0.41136751416027151 0 0.4194649070479346 0.41075775866906961 0 0.4165515890159211 0.43106581875832262 0 0.40342788129008578 0.41136751416027151 0 0.4194649070479346 0.41075775866906961 0 0.41247484703898341 0.39668929567888889 0 0.39620875860206523 0.42610388639599522 0 0.4165515890159211 0.43106581875832262 0 0.40679533173472487 0.44514780784289609 0 0.4165515890159211 0.43106581875832262 0 0.44107028692003247 0.43153611533185032 0 0.4165515890159211 0.43106581875832262 0 0.43527838440837918 0.41507327228856877 0 0.44107028692003247 0.43153611533185032 0 0.4194649070479346 0.41075775866906961 0 0.4165515890159211 0.43106581875832262 0 0.43527838440837918 0.41507327228856877 0 0.4194649070479346 0.41075775866906961 0 0.43527838440837918 0.41507327228856877 0 0.42844040697821201 0.39890611008127758 0 0.43527838440837918 0.41507327228856877 0 0.42844040697821201 0.39890611008127758 0 0.44356544647064411 0.40084295107477419 0 0.42844040697821201 0.39890611008127758 0 0.43978627658039499 0.38550810048347522 0 0.44356544647064411 0.40084295107477419 0 0.4194649070479346 0.41075775866906961 0 0.42844040697821201 0.39890611008127758 0 0.41247484703898341 0.39668929567888889 0 0.42844040697821201 0.39890611008127758 0 0.41247484703898341 0.39668929567888889 0 0.42235721568131929 0.38220686924127689 0 0.41247484703898341 0.39668929567888889 0 0.40683499004542412 0.37566900985645529 0 0.42235721568131929 0.38220686924127689 0 0.4343808670510142 0.37207818795490849 0 0.42235721568131929 0.38220686924127689 0 0.43978627658039499 0.38550810048347522 0 0.42844040697821201 0.39890611008127758 0 0.42235721568131929 0.38220686924127689 0 0.43978627658039499 0.38550810048347522 0 0.45151374504626951 0.36758660991241321 0 0.4343808670510142 0.37207818795490849 0 0.43978627658039499 0.38550810048347522 0 0.45151374504626951 0.36758660991241321 0 0.43978627658039499 0.38550810048347522 0 0.45722528454721961 0.3906654768237981 0 0.43978627658039499 0.38550810048347522 0 0.44356544647064411 0.40084295107477419 0 0.45722528454721961 0.3906654768237981 0 0.44356544647064411 0.40084295107477419 0 0.45722528454721961 0.3906654768237981 0 0.45594545333092312 0.41337501331873322 0 0.45722528454721961 0.3906654768237981 0 0.47568108772685191 0.39367102650606373 0 0.46881626912638691 0.40427363304328218 0 0.45722528454721961 0.3906654768237981 0 0.46881626912638691 0.40427363304328218 0 0.45594545333092312 0.41337501331873322 0 0.45151374504626951 0.36758660991241321 0 0.45722528454721961 0.3906654768237981 0 0.46980882541715813 0.38208294099771128 0 0.45722528454721961 0.3906654768237981 0 0.46980882541715813 0.38208294099771128 0 0.47568108772685191 0.39367102650606373 0 0.4736556537454587 0.3678330253399309 0 0.46980882541715813 0.38208294099771128 0 0.48477613844387402 0.38021688004838439 0 0.47568108772685191 0.39367102650606373 0 0.48702766555901961 0.39491075051184021 0 0.48477613844387402 0.38021688004838439 0 0.46980882541715813 0.38208294099771128 0 0.47568108772685191 0.39367102650606373 0 0.48477613844387402 0.38021688004838439 0 0.47568108772685191 0.39367102650606373 0 0.46881626912638691 0.40427363304328218 0 0.48151606592710777 0.40452093291302588 0 0.47568108772685191 0.39367102650606373 0 0.48151606592710777 0.40452093291302588 0 0.48702766555901961 0.39491075051184021 0 0.48702766555901961 0.39491075051184021 0 0.49874079622209128 0.38660437256818281 0 0.49442423947517328 0.40954054052354433 0 0.5 0.40278607211007789 0 0.49874079622209128 0.38660437256818281 0 0.49442423947517328 0.40954054052354433 0 0.49874079622209128 0.38660437256818281 0 0.49442423947517328 0.40954054052354433 0 0.48151606592710777 0.40452093291302588 0 0.48702766555901961 0.39491075051184021 0 0.49442423947517328 0.40954054052354433 0 0.5 0.37290568982018429 0 0.5 0.40278607211007789 0 0.49874079622209128 0.38660437256818281 0 0.5 0.37290568982018429 0 0.49874079622209128 0.38660437256818281 0 0.48477613844387402 0.38021688004838439 0 0.48702766555901961 0.39491075051184021 0 0.49874079622209128 0.38660437256818281 0 0.48477613844387402 0.38021688004838439 0 0.49010768272825528 0.43247670847890568 0 0.49999999999999839 0.43266645439997159 0 0.49442423947517328 0.40954054052354433 0 0.49010768272825528 0.43247670847890568 0 0.49999999999999839 0.43266645439997159 0 0.5 0.40278607211007789 0 0.49999999999999839 0.43266645439997159 0 0.49442423947517328 0.40954054052354433 0 0.49010768272825528 0.43247670847890568 0 0.49442423947517328 0.40954054052354433 0 0.47768739680387268 0.41777805257305989 0 0.48151606592710777 0.40452093291302588 0 0.49442423947517328 0.40954054052354433 0 0.47768739680387268 0.41777805257305989 0 0.49010768272825528 0.43247670847890568 0 0.49442423947517328 0.40954054052354433 0 0.46881626912638691 0.40427363304328218 0 0.48151606592710777 0.40452093291302588 0 0.47768739680387268 0.41777805257305989 0 0.49010768272825528 0.43247670847890568 0 0.47768739680387268 0.41777805257305989 0 0.4655889848241439 0.43200641190537797 0 0.49010768272825528 0.43247670847890568 0 0.4655889848241439 0.43200641190537797 0 0.47536631759922843 0.44556886167195853 0 0.49010768272825528 0.43247670847890568 0 0.4655889848241439 0.43200641190537797 0 0.4655889848241439 0.43200641190537797 0 0.44107028692003247 0.43153611533185032 0 0.4655889848241439 0.43200641190537797 0 0.45594545333092312 0.41337501331873322 0 0.44107028692003247 0.43153611533185032 0 0.4655889848241439 0.43200641190537797 0 0.44107028692003247 0.43153611533185032 0 0.4606865760628292 0.44801704672434101 0 0.47768739680387268 0.41777805257305989 0 0.4655889848241439 0.43200641190537797 0 0.45594545333092312 0.41337501331873322 0 0.46881626912638691 0.40427363304328218 0 0.47768739680387268 0.41777805257305989 0 0.45594545333092312 0.41337501331873322 0 0.43527838440837918 0.41507327228856877 0 0.45594545333092312 0.41337501331873322 0 0.44107028692003247 0.43153611533185032 0 0.43527838440837918 0.41507327228856877 0 0.44356544647064411 0.40084295107477419 0 0.45594545333092312 0.41337501331873322 0 0.49999999999999839 0.43266645439997159 0 0.48505572566105232 0.45932045051458531 0 0.5 0.5 0 0.44107028692003247 0.43153611533185032 0 0.44376664188615123 0.45979150936037488 0 0.4606865760628292 0.44801704672434101 0 0.44376664188615123 0.45979150936037488 0 0.46112241578244989 0.46478661640483648 0 0.45121200239437631 0.4807671998253365 0 0.44376664188615123 0.45979150936037488 0 0.46112241578244989 0.46478661640483648 0 0.4606865760628292 0.44801704672434101 0 0.46112241578244989 0.46478661640483648 0 0.4606865760628292 0.44801704672434101 0 0.47539261871986088 0.45602369073658289 0 0.4655889848241439 0.43200641190537797 0 0.4606865760628292 0.44801704672434101 0 0.47536631759922843 0.44556886167195853 0 0.49010768272825528 0.43247670847890568 0 0.47536631759922843 0.44556886167195853 0 0.48505572566105232 0.45932045051458531 0 0.4606865760628292 0.44801704672434101 0 0.47536631759922843 0.44556886167195853 0 0.47539261871986088 0.45602369073658289 0 0.47539261871986088 0.45602369073658289 0 0.47110615765410929 0.47801184536829172 0 0.47539261871986088 0.45602369073658289 0 0.48505572566105232 0.45932045051458531 0 0.47110615765410929 0.47801184536829172 0 0.46112241578244989 0.46478661640483648 0 0.47539261871986088 0.45602369073658289 0 0.47110615765410929 0.47801184536829172 0 0.47536631759922843 0.44556886167195853 0 0.47539261871986088 0.45602369073658289 0 0.48505572566105232 0.45932045051458531 0 0.49010768272825528 0.43247670847890568 0 0.48505572566105232 0.45932045051458531 0 0.49010768272825528 0.43247670847890568 0 0.49999999999999839 0.43266645439997159 0 0.48505572566105232 0.45932045051458531 0 0.48505572566105232 0.45932045051458531 0 0.5 0.5 0 0.48000376859384941 0.48616419255026477 0 0.5 0.5 0 0.48000376859384941 0.48616419255026477 0 0.46681969658835759 0.50000000000000044 0 0.48505572566105232 0.45932045051458531 0 0.47110615765410929 0.47801184536829172 0 0.48000376859384941 0.48616419255026477 0 0.48505572566105232 0.45932045051458531 0 0.48000376859384941 0.48616419255026477 0 0.47110615765410929 0.47801184536829172 0 0.46681969658835759 0.50000000000000044 0 0.47110615765410929 0.47801184536829172 0 0.48000376859384941 0.48616419255026477 0 0.46681969658835759 0.50000000000000044 0 0.47110615765410929 0.47801184536829172 0 0.46681969658835759 0.50000000000000044 0 0.45121200239437631 0.4807671998253365 0 0.46112241578244989 0.46478661640483648 0 0.47110615765410929 0.47801184536829172 0 0.45121200239437631 0.4807671998253365 0 0.44376664188615123 0.45979150936037488 0 0.45121200239437631 0.4807671998253365 0 0.42408561830569141 0.47732830779616442 0 0.46681969658835759 0.50000000000000044 0 0.45121200239437631 0.4807671998253365 0 0.43971230006436901 0.5 0 0.45121200239437631 0.4807671998253365 0 0.43971230006436901 0.5 0 0.42408561830569141 0.47732830779616442 0 0.43971230006436901 0.5 0 0.41260490354038032 0.5 0 0.42408561830569141 0.47732830779616442 0 0.41260490354038032 0.5 0 0.42408561830569141 0.47732830779616442 0 0.40044085355502113 0.48368683573266119 0 0.42408561830569141 0.47732830779616442 0 0.40050545668784993 0.46242548604636152 0 0.40044085355502113 0.48368683573266119 0 0.44376664188615123 0.45979150936037488 0 0.42408561830569141 0.47732830779616442 0 0.42267709028742451 0.45339185591380432 0 0.44107028692003247 0.43153611533185032 0 0.44376664188615123 0.45979150936037488 0 0.42267709028742451 0.45339185591380432 0 0.4165515890159211 0.43106581875832262 0 0.44107028692003247 0.43153611533185032 0 0.42267709028742451 0.45339185591380432 0 0.4165515890159211 0.43106581875832262 0 0.42267709028742451 0.45339185591380432 0 0.40679533173472487 0.44514780784289609 0 0.42408561830569141 0.47732830779616442 0 0.42267709028742451 0.45339185591380432 0 0.40050545668784993 0.46242548604636152 0 0.42267709028742451 0.45339185591380432 0 0.40679533173472487 0.44514780784289609 0 0.40050545668784993 0.46242548604636152 0 0.40679533173472487 0.44514780784289609 0 0.40050545668784993 0.46242548604636152 0 0.38861509636247821 0.44175005125570632 0 0.39620875860206523 0.42610388639599522 0 0.40679533173472487 0.44514780784289609 0 0.38861509636247821 0.44175005125570632 0 0.3672128213662551 0.44140310366938379 0 0.38861509636247821 0.44175005125570632 0 0.37565915938479377 0.45849116020829678 0 0.40050545668784993 0.46242548604636152 0 0.37565915938479377 0.45849116020829678 0 0.37951078222479251 0.47868038482078018 0 0.40050545668784993 0.46242548604636152 0 0.38861509636247821 0.44175005125570632 0 0.37565915938479377 0.45849116020829678 0 0.37951078222479251 0.47868038482078018 0 0.38549750701639152 0.5 0 0.40044085355502113 0.48368683573266119 0 0.41260490354038032 0.5 0 0.38549750701639152 0.5 0 0.40044085355502113 0.48368683573266119 0 0.40050545668784993 0.46242548604636152 0 0.37951078222479251 0.47868038482078018 0 0.40044085355502113 0.48368683573266119 0 0.3285700774521132 0.069227507684709172 0 0.34376262838779448 0.090160381808613591 0 0.3285700774521132 0.069227507684709172 0 0.34376262838779448 0.090160381808613591 0 0.3570119940846016 0.07655140493877155 0 0.3285700774521132 0.069227507684709172 0 0.31851483003181857 0.089032350953859848 0 0.34376262838779448 0.090160381808613591 0 0.3285700774521132 0.069227507684709172 0 0.31851483003181857 0.089032350953859848 0 0.30262144479489489 0.063472250579192202 0 0.31851483003181857 0.089032350953859848 0 0.32257158209111758 0.11034462767622299 0 0.33741607394213652 0.1036774965936159 0 0.31851483003181857 0.089032350953859848 0 0.32257158209111758 0.11034462767622299 0 0.29867863108980142 0.1045573716884185 0 0.32257158209111758 0.11034462767622299 0 0.32933038512457441 0.1245201253257071 0 0.3207185438207466 0.1263919595033525 0 0.32257158209111758 0.11034462767622299 0 0.31156748461804079 0.12537242366950921 0 0.3207185438207466 0.1263919595033525 0 0.32933038512457441 0.1245201253257071 0 0.34646453309243358 0.11613188366402739 0 0.34441400131097022 0.1288917011053414 0 0.32257158209111758 0.11034462767622299 0 0.33741607394213652 0.1036774965936159 0 0.34646453309243358 0.11613188366402739 0 0.32257158209111758 0.11034462767622299 0 0.34646453309243358 0.11613188366402739 0 0.32257158209111758 0.11034462767622299 0 0.32933038512457441 0.1245201253257071 0 0.34646453309243358 0.11613188366402739 0 0.31851483003181857 0.089032350953859848 0 0.33741607394213652 0.1036774965936159 0 0.34376262838779448 0.090160381808613591 0 0.35895517932347593 0.111093255932518 0 0.36286728541875429 0.096218484345557367 0 0.34376262838779448 0.090160381808613591 0 0.33741607394213652 0.1036774965936159 0 0.35895517932347593 0.111093255932518 0 0.34376262838779448 0.090160381808613591 0 0.35895517932347593 0.111093255932518 0 0.34376262838779448 0.090160381808613591 0 0.34646453309243358 0.11613188366402739 0 0.35895517932347593 0.111093255932518 0 0.37035748409374952 0.12191913965183331 0 0.34646453309243358 0.11613188366402739 0 0.37035748409374952 0.12191913965183331 0 0.33741607394213652 0.1036774965936159 0 0.34646453309243358 0.11613188366402739 0 0.35895517932347593 0.111093255932518 0 0.34646453309243358 0.11613188366402739 0 0.37035748409374952 0.12191913965183331 0 0.34441400131097022 0.1288917011053414 0 0.35895517932347593 0.111093255932518 0 0.36901916600157941 0.1100142775002767 0 0.37035748409374952 0.12191913965183331 0 0.36901916600157941 0.1100142775002767 0 0.37035748409374952 0.12191913965183331 0 0.37815432920295677 0.1109533992790251 0 0.37035748409374952 0.12191913965183331 0 0.37511757494472903 0.123072110010257 0 0.37035748409374952 0.12191913965183331 0 0.37169283910029199 0.12815165521797289 0 0.37511757494472903 0.123072110010257 0 0.36286728541875429 0.096218484345557367 0 0.37455144446510141 0.10193275935197101 0 0.37400882161871279 0.083619613235024759 0 0.35895517932347593 0.111093255932518 0 0.36901916600157941 0.1100142775002767 0 0.36286728541875429 0.096218484345557367 0 0.36901916600157941 0.1100142775002767 0 0.36286728541875429 0.096218484345557367 0 0.37455144446510141 0.10193275935197101 0 0.36901916600157941 0.1100142775002767 0 0.37455144446510141 0.10193275935197101 0 0.37815432920295677 0.1109533992790251 0 0.36286728541875429 0.096218484345557367 0 0.37400882161871279 0.083619613235024759 0 0.3570119940846016 0.07655140493877155 0 0.36286728541875429 0.096218484345557367 0 0.34376262838779448 0.090160381808613591 0 0.3570119940846016 0.07655140493877155 0 0.3285700774521132 0.069227507684709172 0 0.3570119940846016 0.07655140493877155 0 0.3540274811898364 0.057481719132925622 0 0.37400882161871279 0.083619613235024759 0 0.3570119940846016 0.07655140493877155 0 0.37883567044039879 0.062600723425798879 0 0.3570119940846016 0.07655140493877155 0 0.3540274811898364 0.057481719132925622 0 0.37883567044039879 0.062600723425798879 0 0.36884998715724038 0.048654936693666287 0 0.3540274811898364 0.057481719132925622 0 0.37883567044039879 0.062600723425798879 0 0.36884998715724038 0.048654936693666287 0 0.36096242836060388 0.032492650360987897 0 0.3540274811898364 0.057481719132925622 0 0.36884998715724038 0.048654936693666287 0 0.36096242836060388 0.032492650360987897 0 0.38366251926208489 0.041581833616573027 0 0.36096242836060388 0.032492650360987897 0 0.3540274811898364 0.057481719132925622 0 0.33343548863743699 0.044422356914628619 0 0.36096242836060388 0.032492650360987897 0 0.34150772405548108 0.025325389551572871 0 0.33343548863743699 0.044422356914628619 0 0.36096242836060388 0.032492650360987897 0 0.33343548863743699 0.044422356914628619 0 0.36934971840039982 0.01412264887454192 0 0.38120377069012762 0.010554394007073271 0 0.36845156083710567 -0.0060515153414843056 0 0.36934971840039982 0.01412264887454192 0 0.35188933009005469 0.012921367503740049 0 0.36845156083710567 -0.0060515153414843056 0 0.36096242836060388 0.032492650360987897 0 0.38848936808377088 0.020562943807347231 0 0.36096242836060388 0.032492650360987897 0 0.36934971840039982 0.01412264887454192 0 0.35188933009005469 0.012921367503740049 0 0.36096242836060388 0.032492650360987897 0 0.36934971840039982 0.01412264887454192 0 0.38848936808377088 0.020562943807347231 0 0.36096242836060388 0.032492650360987897 0 0.35188933009005469 0.012921367503740049 0 0.34150772405548108 0.025325389551572871 0 0.35188933009005469 0.012921367503740049 0 0.36845156083710567 -0.0060515153414843056 0 0.34114057903213352 -0.00099436838624600288 0 0.32992396985460443 0.01263339996306794 0 0.31382959722716158 0.0040627785689932028 0 0.34114057903213352 -0.00099436838624600288 0 0.35188933009005469 0.012921367503740049 0 0.32992396985460443 0.01263339996306794 0 0.34114057903213352 -0.00099436838624600288 0 0.32992396985460443 0.01263339996306794 0 0.34150772405548108 0.025325389551572871 0 0.32077834005703848 0.02927741351548363 0 0.35188933009005469 0.012921367503740049 0 0.32992396985460443 0.01263339996306794 0 0.34150772405548108 0.025325389551572871 0 0.32992396985460443 0.01263339996306794 0 0.32077834005703848 0.02927741351548363 0 0.31391214704691389 0.015516024244919061 0 0.32992396985460443 0.01263339996306794 0 0.31391214704691389 0.015516024244919061 0 0.31382959722716158 0.0040627785689932028 0 0.31382959722716158 0.0040627785689932028 0 0.34183048761771712 -0.0039986291523161147 0 0.31382959722716158 0.0040627785689932028 0 0.34114057903213352 -0.00099436838624600288 0 0.31382959722716158 0.0040627785689932028 0 0.30752965714041391 0.0058765203804442539 0 0.32194573769061952 -0.0077676308935595512 0 0.3285700774521132 0.069227507684709172 0 0.3540274811898364 0.057481719132925622 0 0.33343548863743699 0.044422356914628619 0 0.34150772405548108 0.025325389551572871 0 0.32077834005703848 0.02927741351548363 0 0.33343548863743699 0.044422356914628619 0 0.32077834005703848 0.02927741351548363 0 0.33343548863743699 0.044422356914628619 0 0.31337752651643169 0.04829463356080467 0 0.3285700774521132 0.069227507684709172 0 0.31337752651643169 0.04829463356080467 0 0.3285700774521132 0.069227507684709172 0 0.33343548863743699 0.044422356914628619 0 0.31337752651643169 0.04829463356080467 0 0.3285700774521132 0.069227507684709172 0 0.31337752651643169 0.04829463356080467 0 0.30262144479489489 0.063472250579192202 0 0.31337752651643169 0.04829463356080467 0 0.29190445549758398 0.041801895735158197 0 0.30262144479489489 0.063472250579192202 0 0.31337752651643169 0.04829463356080467 0 0.29818497558074802 0.027361759436901809 0 0.31337752651643169 0.04829463356080467 0 0.29190445549758398 0.041801895735158197 0 0.29818497558074802 0.027361759436901809 0 0.32077834005703848 0.02927741351548363 0 0.31337752651643169 0.04829463356080467 0 0.29818497558074802 0.027361759436901809 0 0.29190445549758398 0.041801895735158197 0 0.29818497558074802 0.027361759436901809 0 0.28149235485467722 0.028426230672526639 0 0.29190445549758398 0.041801895735158197 0 0.28562393541442521 0.056242032033416753 0 0.26921605588191849 0.040519794607793452 0 0.29190445549758398 0.041801895735158197 0 0.29818497558074802 0.027361759436901809 0 0.29190445549758398 0.041801895735158197 0 0.28562393541442521 0.056242032033416753 0 0.29190445549758398 0.041801895735158197 0 0.28562393541442521 0.056242032033416753 0 0.30262144479489489 0.063472250579192202 0 0.2978295874258669 0.0070254842464454832 0 0.30752965714041391 0.0058765203804442539 0 0.2978295874258669 0.0070254842464454832 0 0.30752965714041391 0.0058765203804442539 0 0.29396858594285019 -0.001032612778502764 0 0.31382959722716158 0.0040627785689932028 0 0.30752965714041391 0.0058765203804442539 0 0.31391214704691389 0.015516024244919061 0 0.30752965714041391 0.0058765203804442539 0 0.30398999522707459 0.014014891057021139 0 0.30752965714041391 0.0058765203804442539 0 0.30398999522707459 0.014014891057021139 0 0.31391214704691389 0.015516024244919061 0 0.31382959722716158 0.0040627785689932028 0 0.30752965714041391 0.0058765203804442539 0 0.2978295874258669 0.0070254842464454832 0 0.30752965714041391 0.0058765203804442539 0 0.30398999522707459 0.014014891057021139 0 0.2978295874258669 0.0070254842464454832 0 0.30398999522707459 0.014014891057021139 0 0.31391214704691389 0.015516024244919061 0 0.30398999522707459 0.014014891057021139 0 0.29818497558074802 0.027361759436901809 0 0.32077834005703848 0.02927741351548363 0 0.31391214704691389 0.015516024244919061 0 0.29818497558074802 0.027361759436901809 0 0.30398999522707459 0.014014891057021139 0 0.29818497558074802 0.027361759436901809 0 0.30398999522707459 0.014014891057021139 0 0.29818497558074802 0.027361759436901809 0 0.28690172397702512 0.011815266518820099 0 0.29818497558074802 0.027361759436901809 0 0.28149235485467722 0.028426230672526639 0 0.28690172397702512 0.011815266518820099 0 0.29818497558074802 0.027361759436901809 0 0.28690172397702512 0.011815266518820099 0 0.28690172397702512 0.011815266518820099 0 0.28687677889875068 0.001725005618485562 0 0.27267603034966698 -0.0077854348569651906 0 0.2978295874258669 0.0070254842464454832 0 0.30398999522707459 0.014014891057021139 0 0.28690172397702512 0.011815266518820099 0 0.2978295874258669 0.0070254842464454832 0 0.28690172397702512 0.011815266518820099 0 0.29376575238797509 0.0077779804816672602 0 0.2978295874258669 0.0070254842464454832 0 0.28690172397702512 0.011815266518820099 0 0.2978295874258669 0.0070254842464454832 0 0.28687677889875068 0.001725005618485562 0 0.29376575238797509 0.0077779804816672602 0 0.28690172397702512 0.011815266518820099 0 0.28687677889875068 0.001725005618485562 0 0.29376575238797509 0.0077779804816672602 0 0.2978295874258669 0.0070254842464454832 0 0.29376575238797509 0.0077779804816672602 0 0.28690172397702512 0.011815266518820099 0 0.26939274767164711 0.0040745279013861191 0 0.27267603034966698 -0.0077854348569651906 0 0.28690172397702512 0.011815266518820099 0 0.26440570944936082 0.018291830038140541 0 0.28690172397702512 0.011815266518820099 0 0.26939274767164711 0.0040745279013861191 0 0.26440570944936082 0.018291830038140541 0 0.28690172397702512 0.011815266518820099 0 0.27267603034966698 -0.0077854348569651906 0 0.28149235485467722 0.028426230672526639 0 0.26440570944936082 0.018291830038140541 0 0.26921605588191849 0.040519794607793452 0 0.28149235485467722 0.028426230672526639 0 0.28690172397702512 0.011815266518820099 0 0.26440570944936082 0.018291830038140541 0 0.24190969492169709 0.024768393557462999 0 0.26440570944936082 0.018291830038140541 0 0.2485551203034157 0.0102848256948572 0 0.24190969492169709 0.024768393557462999 0 0.26440570944936082 0.018291830038140541 0 0.24190969492169709 0.024768393557462999 0 0.26440570944936082 0.018291830038140541 0 0.25291178968964928 0.037547667281027097 0 0.2485551203034157 0.0102848256948572 0 0.26440570944936082 0.018291830038140541 0 0.25894279220913391 0.003459445712386486 0 0.26939274767164711 0.0040745279013861191 0 0.26440570944936082 0.018291830038140541 0 0.25894279220913391 0.003459445712386486 0 0.2485551203034157 0.0102848256948572 0 0.25894279220913391 0.003459445712386486 0 0.2479891295484222 -0.0022684572774312019 0 0.26939274767164711 0.0040745279013861191 0 0.25894279220913391 0.003459445712386486 0 0.26317147738524183 -0.0038637327990410169 0 0.28562393541442521 0.056242032033416753 0 0.27026274557325353 0.056119745337220257 0 0.26921605588191849 0.040519794607793452 0 0.28562393541442521 0.056242032033416753 0 0.27026274557325353 0.056119745337220257 0 0.27167623587568768 0.070814912161459326 0 0.29190445549758398 0.041801895735158197 0 0.28149235485467722 0.028426230672526639 0 0.26921605588191849 0.040519794607793452 0 0.26921605588191849 0.040519794607793452 0 0.25291178968964928 0.037547667281027097 0 0.25425538404847059 0.057624927133231481 0 0.26440570944936082 0.018291830038140541 0 0.26921605588191849 0.040519794607793452 0 0.25291178968964928 0.037547667281027097 0 0.27026274557325353 0.056119745337220257 0 0.26921605588191849 0.040519794607793452 0 0.25425538404847059 0.057624927133231481 0 0.27026274557325353 0.056119745337220257 0 0.25425538404847059 0.057624927133231481 0 0.27167623587568768 0.070814912161459326 0 0.25425538404847059 0.057624927133231481 0 0.27167623587568768 0.070814912161459326 0 0.25282536794073712 0.073272794188635415 0 0.26618138576237349 0.084067315497028519 0 0.27167623587568768 0.070814912161459326 0 0.25425538404847059 0.057624927133231481 0 0.25282536794073712 0.073272794188635415 0 0.27167623587568768 0.070814912161459326 0 0.25089272908716931 0.092982859712809007 0 0.26618138576237349 0.084067315497028519 0 0.27478568008848531 0.098770115700614086 0 0.25282536794073712 0.073272794188635415 0 0.25089272908716931 0.092982859712809007 0 0.26618138576237349 0.084067315497028519 0 0.26618138576237349 0.084067315497028519 0 0.28181267844286689 0.084890460016538952 0 0.27478568008848531 0.098770115700614086 0 0.26618138576237349 0.084067315497028519 0 0.27167623587568768 0.070814912161459326 0 0.28181267844286689 0.084890460016538952 0 0.27167623587568768 0.070814912161459326 0 0.2870451550563029 0.071072764848292863 0 0.28181267844286689 0.084890460016538952 0 0.2870451550563029 0.071072764848292863 0 0.29673814540623761 0.08207029957157172 0 0.30262144479489489 0.063472250579192202 0 0.28562393541442521 0.056242032033416753 0 0.2870451550563029 0.071072764848292863 0 0.30262144479489489 0.063472250579192202 0 0.28562393541442521 0.056242032033416753 0 0.27167623587568768 0.070814912161459326 0 0.2870451550563029 0.071072764848292863 0 0.2870451550563029 0.071072764848292863 0 0.28181267844286689 0.084890460016538952 0 0.29673814540623761 0.08207029957157172 0 0.28181267844286689 0.084890460016538952 0 0.29673814540623761 0.08207029957157172 0 0.29867863108980142 0.1045573716884185 0 0.31851483003181857 0.089032350953859848 0 0.29673814540623761 0.08207029957157172 0 0.30262144479489489 0.063472250579192202 0 0.31851483003181857 0.089032350953859848 0 0.29673814540623761 0.08207029957157172 0 0.29867863108980142 0.1045573716884185 0 0.2991284260398443 0.1226428311133997 0 0.29867863108980142 0.1045573716884185 0 0.31156748461804079 0.12537242366950921 0 0.32257158209111758 0.11034462767622299 0 0.29867863108980142 0.1045573716884185 0 0.31156748461804079 0.12537242366950921 0 0.32257158209111758 0.11034462767622299 0 0.29867863108980142 0.1045573716884185 0 0.29867863108980142 0.1045573716884185 0 0.27478568008848531 0.098770115700614086 0 0.29867863108980142 0.1045573716884185 0 0.27783009132198788 0.1122622341296569 0 0.27478568008848531 0.098770115700614086 0 0.28181267844286689 0.084890460016538952 0 0.29867863108980142 0.1045573716884185 0 0.27478568008848531 0.098770115700614086 0 0.2991284260398443 0.1226428311133997 0 0.29867863108980142 0.1045573716884185 0 0.28707615928971691 0.1208096883177448 0 0.29867863108980142 0.1045573716884185 0 0.28707615928971691 0.1208096883177448 0 0.27783009132198788 0.1122622341296569 0 0.2991284260398443 0.1226428311133997 0 0.28707615928971691 0.1208096883177448 0 0.29671346303214241 0.12961196471325551 0 0.26302281242735981 0.111198171579071 0 0.27515289576754948 0.1294134834453334 0 0.28707615928971691 0.1208096883177448 0 0.27783009132198788 0.1122622341296569 0 0.27515289576754948 0.1294134834453334 0 0.27783009132198788 0.1122622341296569 0 0.26302281242735981 0.111198171579071 0 0.27515289576754948 0.1294134834453334 0 0.26302281242735981 0.111198171579071 0 0.26007351669183237 0.1253037732749688 0 0.27515289576754948 0.1294134834453334 0 0.27783009132198788 0.1122622341296569 0 0.27478568008848531 0.098770115700614086 0 0.26302281242735981 0.111198171579071 0 0.25089272908716931 0.092982859712809007 0 0.26302281242735981 0.111198171579071 0 0.2496952397761337 0.1160329650041991 0 0.25089272908716931 0.092982859712809007 0 0.26302281242735981 0.111198171579071 0 0.25089272908716931 0.092982859712809007 0 0.27478568008848531 0.098770115700614086 0 0.26302281242735981 0.111198171579071 0 0.25089272908716931 0.092982859712809007 0 0.27478568008848531 0.098770115700614086 0 0.2471064899150823 0.133463067737116 0 0.2496952397761337 0.1160329650041991 0 0.26007351669183237 0.1253037732749688 0 0.2496952397761337 0.1160329650041991 0 0.26302281242735981 0.111198171579071 0 0.26007351669183237 0.1253037732749688 0 0.2471064899150823 0.133463067737116 0 0.26212056590251792 0.13860634342131159 0 0.25227113898158787 0.14916335431643429 0 0.2471064899150823 0.133463067737116 0 0.26212056590251792 0.13860634342131159 0 0.26007351669183237 0.1253037732749688 0 0.27515289576754948 0.1294134834453334 0 0.28728297910773942 0.14762879531159581 0 0.27515289576754948 0.1294134834453334 0 0.27408945104382287 0.14431330872834849 0 0.28728297910773942 0.14762879531159581 0 0.26212056590251792 0.13860634342131159 0 0.26007351669183237 0.1253037732749688 0 0.27515289576754948 0.1294134834453334 0 0.26212056590251792 0.13860634342131159 0 0.27515289576754948 0.1294134834453334 0 0.27408945104382287 0.14431330872834849 0 0.27408945104382287 0.14431330872834849 0 0.27716137478162928 0.15889869399298601 0 0.28728297910773942 0.14762879531159581 0 0.26212056590251792 0.13860634342131159 0 0.27408945104382287 0.14431330872834849 0 0.26493391480523859 0.14953421755469451 0 0.27408945104382287 0.14431330872834849 0 0.26493391480523859 0.14953421755469451 0 0.27716137478162928 0.15889869399298601 0 0.26493391480523859 0.14953421755469451 0 0.25227113898158787 0.14916335431643429 0 0.25784869618064837 0.16117632967822779 0 0.26212056590251792 0.13860634342131159 0 0.26493391480523859 0.14953421755469451 0 0.25227113898158787 0.14916335431643429 0 0.24342118736862761 0.16410875332904781 0 0.25227113898158787 0.14916335431643429 0 0.25784869618064837 0.16117632967822779 0 0.24342118736862761 0.16410875332904781 0 0.25784869618064837 0.16117632967822779 0 0.25421457754785548 0.17528354573505059 0 0.25784869618064837 0.16117632967822779 0 0.25421457754785548 0.17528354573505059 0 0.26798999978846311 0.16999528723303189 0 0.25421457754785548 0.17528354573505059 0 0.26688833639653942 0.18474270353269559 0 0.25113643024109478 0.19094495075723769 0 0.25421457754785548 0.17528354573505059 0 0.26688833639653942 0.18474270353269559 0 0.26798999978846311 0.16999528723303189 0 0.26688833639653942 0.18474270353269559 0 0.27899922157627788 0.1740987885831469 0 0.26798999978846311 0.16999528723303189 0 0.26688833639653942 0.18474270353269559 0 0.27899922157627788 0.1740987885831469 0 0.28165513110548479 0.1855437801635878 0 0.25784869618064837 0.16117632967822779 0 0.26798999978846311 0.16999528723303189 0 0.27716137478162928 0.15889869399298601 0 0.26493391480523859 0.14953421755469451 0 0.25784869618064837 0.16117632967822779 0 0.27716137478162928 0.15889869399298601 0 0.27899922157627788 0.1740987885831469 0 0.26798999978846311 0.16999528723303189 0 0.27716137478162928 0.15889869399298601 0 0.27716137478162928 0.15889869399298601 0 0.28838527260411961 0.16768800255462621 0 0.29642958482603432 0.1586868689393966 0 0.27899922157627788 0.1740987885831469 0 0.27716137478162928 0.15889869399298601 0 0.28838527260411961 0.16768800255462621 0 0.28838527260411961 0.16768800255462621 0 0.29642958482603432 0.1586868689393966 0 0.2990812202460017 0.16972771789266669 0 0.28165513110548479 0.1855437801635878 0 0.29057456817046978 0.17841330338653549 0 0.29442149412013968 0.19018242885082931 0 0.27899922157627788 0.1740987885831469 0 0.28165513110548479 0.1855437801635878 0 0.29057456817046978 0.17841330338653549 0 0.27899922157627788 0.1740987885831469 0 0.28838527260411961 0.16768800255462621 0 0.29057456817046978 0.17841330338653549 0 0.28838527260411961 0.16768800255462621 0 0.29057456817046978 0.17841330338653549 0 0.2990812202460017 0.16972771789266669 0 0.29057456817046978 0.17841330338653549 0 0.30085032626191438 0.18018504882584371 0 0.2990812202460017 0.16972771789266669 0 0.29057456817046978 0.17841330338653549 0 0.30085032626191438 0.18018504882584371 0 0.29442149412013968 0.19018242885082931 0 0.30085032626191438 0.18018504882584371 0 0.29442149412013968 0.19018242885082931 0 0.3080553032197017 0.1887293017033026 0 0.30085032626191438 0.18018504882584371 0 0.31056514142368619 0.1744383831500049 0 0.2990812202460017 0.16972771789266669 0 0.30085032626191438 0.18018504882584371 0 0.31056514142368619 0.1744383831500049 0 0.3080553032197017 0.1887293017033026 0 0.29642958482603432 0.1586868689393966 0 0.30747502192119819 0.16230778928688711 0 0.30151933753066762 0.14970454816787401 0 0.29642958482603432 0.1586868689393966 0 0.2990812202460017 0.16972771789266669 0 0.30747502192119819 0.16230778928688711 0 0.31056514142368619 0.1744383831500049 0 0.2990812202460017 0.16972771789266669 0 0.30747502192119819 0.16230778928688711 0 0.30747502192119819 0.16230778928688711 0 0.30151933753066762 0.14970454816787401 0 0.3129765302581462 0.1494710021231663 0 0.30151933753066762 0.14970454816787401 0 0.29882590938581222 0.14264553562683399 0 0.30718649112507979 0.14443915855455869 0 0.30151933753066762 0.14970454816787401 0 0.30718649112507979 0.14443915855455869 0 0.3129765302581462 0.1494710021231663 0 0.29882590938581222 0.14264553562683399 0 0.30718649112507979 0.14443915855455869 0 0.31229822968882548 0.13781435906697939 0 0.30718649112507979 0.14443915855455869 0 0.31229822968882548 0.13781435906697939 0 0.3129765302581462 0.1494710021231663 0 0.31229822968882548 0.13781435906697939 0 0.28502845800881449 0.13413009067030229 0 0.31229822968882548 0.13781435906697939 0 0.29671346303214241 0.12961196471325551 0 0.28502845800881449 0.13413009067030229 0 0.29882590938581222 0.14264553562683399 0 0.31229822968882548 0.13781435906697939 0 0.28502845800881449 0.13413009067030229 0 0.2991284260398443 0.1226428311133997 0 0.31156748461804079 0.12537242366950921 0 0.30438347209902411 0.12928289016934871 0 0.31229822968882548 0.13781435906697939 0 0.31156748461804079 0.12537242366950921 0 0.30438347209902411 0.12928289016934871 0 0.31229822968882548 0.13781435906697939 0 0.30438347209902411 0.12928289016934871 0 0.29671346303214241 0.12961196471325551 0 0.2991284260398443 0.1226428311133997 0 0.30438347209902411 0.12928289016934871 0 0.29671346303214241 0.12961196471325551 0 0.27515289576754948 0.1294134834453334 0 0.28502845800881449 0.13413009067030229 0 0.28728297910773942 0.14762879531159581 0 0.28707615928971691 0.1208096883177448 0 0.29671346303214241 0.12961196471325551 0 0.28502845800881449 0.13413009067030229 0 0.28707615928971691 0.1208096883177448 0 0.27515289576754948 0.1294134834453334 0 0.28502845800881449 0.13413009067030229 0 0.27716137478162928 0.15889869399298601 0 0.29642958482603432 0.1586868689393966 0 0.28728297910773942 0.14762879531159581 0 0.29642958482603432 0.1586868689393966 0 0.30151933753066762 0.14970454816787401 0 0.28728297910773942 0.14762879531159581 0 0.30151933753066762 0.14970454816787401 0 0.29882590938581222 0.14264553562683399 0 0.28728297910773942 0.14762879531159581 0 0.29882590938581222 0.14264553562683399 0 0.28502845800881449 0.13413009067030229 0 0.28728297910773942 0.14762879531159581 0 0.2459873280094696 0.23707215699401071 0 0.27381195783464701 0.24213208581531279 0 0.2459873280094696 0.23707215699401071 0 0.27381195783464701 0.24213208581531279 0 0.27283394916361492 0.24742619336605559 0 0.2459873280094696 0.23707215699401071 0 0.27283394916361492 0.24742619336605559 0 0.2459873280094696 0.23707215699401071 0 0.25877170878786238 0.25302463852503437 0 0.27283394916361492 0.24742619336605559 0 0.2459873280094696 0.23707215699401071 0 0.24763005152173001 0.25910176257370959 0 0.25877170878786238 0.25302463852503437 0 0.24332195560292991 0.2175119837032847 0 0.2459873280094696 0.23707215699401071 0 0.26947725056793032 0.22188821543332771 0 0.2459873280094696 0.23707215699401071 0 0.27381195783464701 0.24213208581531279 0 0.26947725056793032 0.22188821543332771 0 0.24332195560292991 0.2175119837032847 0 0.26947725056793032 0.22188821543332771 0 0.27381195783464701 0.24213208581531279 0 0.26947725056793032 0.22188821543332771 0 0.29563254553293061 0.22626444716337071 0 0.26947725056793032 0.22188821543332771 0 0.26383894902510108 0.20488334565775601 0 0.28252807440433819 0.20448568929014271 0 0.24828008483854189 0.20295934428596721 0 0.24332195560292991 0.2175119837032847 0 0.26383894902510108 0.20488334565775601 0 0.24332195560292991 0.2175119837032847 0 0.26947725056793032 0.22188821543332771 0 0.26383894902510108 0.20488334565775601 0 0.26688833639653942 0.18474270353269559 0 0.26383894902510108 0.20488334565775601 0 0.25113643024109478 0.19094495075723769 0 0.24828008483854189 0.20295934428596721 0 0.26383894902510108 0.20488334565775601 0 0.25113643024109478 0.19094495075723769 0 0.26688833639653942 0.18474270353269559 0 0.26383894902510108 0.20488334565775601 0 0.27369942293731819 0.19569303942008121 0 0.26383894902510108 0.20488334565775601 0 0.27369942293731819 0.19569303942008121 0 0.28252807440433819 0.20448568929014271 0 0.28165513110548479 0.1855437801635878 0 0.27369942293731819 0.19569303942008121 0 0.28252807440433819 0.20448568929014271 0 0.26688833639653942 0.18474270353269559 0 0.28165513110548479 0.1855437801635878 0 0.27369942293731819 0.19569303942008121 0 0.28165513110548479 0.1855437801635878 0 0.29442149412013968 0.19018242885082931 0 0.28252807440433819 0.20448568929014271 0 0.29442149412013968 0.19018242885082931 0 0.30168066081365352 0.2029210297493958 0 0.28252807440433819 0.20448568929014271 0 0.29442149412013968 0.19018242885082931 0 0.3080553032197017 0.1887293017033026 0 0.30168066081365352 0.2029210297493958 0 0.3080553032197017 0.1887293017033026 0 0.30168066081365352 0.2029210297493958 0 0.31674655555173881 0.19902842766084339 0 0.30168066081365352 0.2029210297493958 0 0.29563254553293061 0.22626444716337071 0 0.31377845179643721 0.21458276756770189 0 0.30168066081365352 0.2029210297493958 0 0.31377845179643721 0.21458276756770189 0 0.31674655555173881 0.19902842766084339 0 0.30168066081365352 0.2029210297493958 0 0.28252807440433819 0.20448568929014271 0 0.29563254553293061 0.22626444716337071 0 0.26947725056793032 0.22188821543332771 0 0.28252807440433819 0.20448568929014271 0 0.29563254553293061 0.22626444716337071 0 0.26947725056793032 0.22188821543332771 0 0.29563254553293061 0.22626444716337071 0 0.29563254553293061 0.22626444716337071 0 0.3217878404979308 0.23064067889341369 0 0.31377845179643721 0.21458276756770189 0 0.29563254553293061 0.22626444716337071 0 0.3217878404979308 0.23064067889341369 0 0.29563254553293061 0.22626444716337071 0 0.3016365876598241 0.24719201463661561 0 0.3217878404979308 0.23064067889341369 0 0.27381195783464701 0.24213208581531279 0 0.29563254553293061 0.22626444716337071 0 0.3016365876598241 0.24719201463661561 0 0.27381195783464701 0.24213208581531279 0 0.3016365876598241 0.24719201463661561 0 0.27381195783464701 0.24213208581531279 0 0.27283394916361492 0.24742619336605559 0 0.3016365876598241 0.24719201463661561 0 0.32946121748500129 0.25225194345791829 0 0.3217878404979308 0.23064067889341369 0 0.34556910970536658 0.23921390462248199 0 0.32946121748500129 0.25225194345791829 0 0.3016365876598241 0.24719201463661561 0 0.3217878404979308 0.23064067889341369 0 0.32946121748500129 0.25225194345791829 0 0.3016365876598241 0.24719201463661561 0 0.3217878404979308 0.23064067889341369 0 0.33460182177363001 0.21999966289075409 0 0.31377845179643721 0.21458276756770189 0 0.3217878404979308 0.23064067889341369 0 0.33460182177363001 0.21999966289075409 0 0.34556910970536658 0.23921390462248199 0 0.33460182177363001 0.21999966289075409 0 0.3278776259658665 0.2076214509036243 0 0.34419695055865512 0.20542025302645439 0 0.33460182177363001 0.21999966289075409 0 0.31377845179643721 0.21458276756770189 0 0.3278776259658665 0.2076214509036243 0 0.31377845179643721 0.21458276756770189 0 0.3278776259658665 0.2076214509036243 0 0.31674655555173881 0.19902842766084339 0 0.3278776259658665 0.2076214509036243 0 0.31674655555173881 0.19902842766084339 0 0.32893527636844411 0.194937601908272 0 0.3080553032197017 0.1887293017033026 0 0.31674655555173881 0.19902842766084339 0 0.32122387935841612 0.1836610840160959 0 0.31674655555173881 0.19902842766084339 0 0.32893527636844411 0.194937601908272 0 0.32122387935841612 0.1836610840160959 0 0.32893527636844411 0.194937601908272 0 0.34419695055865512 0.20542025302645439 0 0.33967484433078321 0.18584068278097349 0 0.32893527636844411 0.194937601908272 0 0.32122387935841612 0.1836610840160959 0 0.33967484433078321 0.18584068278097349 0 0.3278776259658665 0.2076214509036243 0 0.32893527636844411 0.194937601908272 0 0.34419695055865512 0.20542025302645439 0 0.35368837148756882 0.19334260062126429 0 0.34419695055865512 0.20542025302645439 0 0.33967484433078321 0.18584068278097349 0 0.35368837148756882 0.19334260062126429 0 0.36735815001373812 0.20351917688449569 0 0.34419695055865512 0.20542025302645439 0 0.36735815001373812 0.20351917688449569 0 0.36699199379966768 0.18628457072029089 0 0.38367398474104891 0.18179268717308689 0 0.35368837148756882 0.19334260062126429 0 0.36735815001373812 0.20351917688449569 0 0.36699199379966768 0.18628457072029089 0 0.36735815001373812 0.20351917688449569 0 0.35440095211752448 0.2225189223308488 0 0.37280151553833601 0.22024831863616021 0 0.36735815001373812 0.20351917688449569 0 0.37280151553833601 0.22024831863616021 0 0.38406378734192298 0.20777210545990279 0 0.36735815001373812 0.20351917688449569 0 0.34419695055865512 0.20542025302645439 0 0.35440095211752448 0.2225189223308488 0 0.33460182177363001 0.21999966289075409 0 0.34419695055865512 0.20542025302645439 0 0.35440095211752448 0.2225189223308488 0 0.35440095211752448 0.2225189223308488 0 0.37293454716760283 0.2396311516560117 0 0.34556910970536658 0.23921390462248199 0 0.33460182177363001 0.21999966289075409 0 0.35440095211752448 0.2225189223308488 0 0.34556910970536658 0.23921390462248199 0 0.35440095211752448 0.2225189223308488 0 0.37280151553833601 0.22024831863616021 0 0.37293454716760283 0.2396311516560117 0 0.32946121748500129 0.25225194345791829 0 0.35728584731017871 0.25731187227922109 0 0.34556910970536658 0.23921390462248199 0 0.35728584731017871 0.25731187227922109 0 0.37293454716760283 0.2396311516560117 0 0.34556910970536658 0.23921390462248199 0 0.33789665254535572 0.15537308983460499 0 0.33956800136883641 0.14149862746365649 0 0.32484504322689201 0.150618498474763 0 0.33789665254535572 0.15537308983460499 0 0.32484504322689201 0.150618498474763 0 0.32925575641373173 0.1625602653078303 0 0.33789665254535572 0.15537308983460499 0 0.33956800136883641 0.14149862746365649 0 0.35085012880757988 0.15547460686614431 0 0.31847051852819058 0.13586426255884801 0 0.34441400131097022 0.1288917011053414 0 0.32933038512457441 0.1245201253257071 0 0.31847051852819058 0.13586426255884801 0 0.34441400131097022 0.1288917011053414 0 0.33956800136883641 0.14149862746365649 0 0.31847051852819058 0.13586426255884801 0 0.34441400131097022 0.1288917011053414 0 0.31229822968882548 0.13781435906697939 0 0.33956800136883641 0.14149862746365649 0 0.31229822968882548 0.13781435906697939 0 0.33956800136883641 0.14149862746365649 0 0.31847051852819058 0.13586426255884801 0 0.32933038512457441 0.1245201253257071 0 0.3207185438207466 0.1263919595033525 0 0.31847051852819058 0.13586426255884801 0 0.31156748461804079 0.12537242366950921 0 0.3207185438207466 0.1263919595033525 0 0.31847051852819058 0.13586426255884801 0 0.31229822968882548 0.13781435906697939 0 0.31156748461804079 0.12537242366950921 0 0.31847051852819058 0.13586426255884801 0 0.31229822968882548 0.13781435906697939 0 0.33956800136883641 0.14149862746365649 0 0.32484504322689201 0.150618498474763 0 0.31229822968882548 0.13781435906697939 0 0.32484504322689201 0.150618498474763 0 0.3129765302581462 0.1494710021231663 0 0.32484504322689201 0.150618498474763 0 0.3129765302581462 0.1494710021231663 0 0.31772009751989111 0.15842714336302041 0 0.30747502192119819 0.16230778928688711 0 0.3129765302581462 0.1494710021231663 0 0.31772009751989111 0.15842714336302041 0 0.30747502192119819 0.16230778928688711 0 0.31772009751989111 0.15842714336302041 0 0.32080742045079952 0.16866520015094741 0 0.31056514142368619 0.1744383831500049 0 0.30747502192119819 0.16230778928688711 0 0.32080742045079952 0.16866520015094741 0 0.32080742045079952 0.16866520015094741 0 0.33131907253280629 0.1738795647946571 0 0.32925575641373173 0.1625602653078303 0 0.32484504322689201 0.150618498474763 0 0.31772009751989111 0.15842714336302041 0 0.32925575641373173 0.1625602653078303 0 0.31772009751989111 0.15842714336302041 0 0.32080742045079952 0.16866520015094741 0 0.32925575641373173 0.1625602653078303 0 0.31056514142368619 0.1744383831500049 0 0.3080553032197017 0.1887293017033026 0 0.32122387935841612 0.1836610840160959 0 0.31056514142368619 0.1744383831500049 0 0.32080742045079952 0.16866520015094741 0 0.32122387935841612 0.1836610840160959 0 0.32080742045079952 0.16866520015094741 0 0.32122387935841612 0.1836610840160959 0 0.33131907253280629 0.1738795647946571 0 0.33131907253280629 0.1738795647946571 0 0.33967484433078321 0.18584068278097349 0 0.34294625220664587 0.1683980952289891 0 0.32122387935841612 0.1836610840160959 0 0.33131907253280629 0.1738795647946571 0 0.33967484433078321 0.18584068278097349 0 0.33131907253280629 0.1738795647946571 0 0.32925575641373173 0.1625602653078303 0 0.34294625220664587 0.1683980952289891 0 0.33789665254535572 0.15537308983460499 0 0.32925575641373173 0.1625602653078303 0 0.34294625220664587 0.1683980952289891 0 0.34294625220664587 0.1683980952289891 0 0.35531914635495271 0.16562513299740311 0 0.35085012880757988 0.15547460686614431 0 0.33789665254535572 0.15537308983460499 0 0.34294625220664587 0.1683980952289891 0 0.35085012880757988 0.15547460686614431 0 0.34294625220664587 0.1683980952289891 0 0.35531914635495271 0.16562513299740311 0 0.35387202203434698 0.17803066266241011 0 0.35531914635495271 0.16562513299740311 0 0.35387202203434698 0.17803066266241011 0 0.36550295271590683 0.1690726970215666 0 0.35531914635495271 0.16562513299740311 0 0.36342437601028388 0.15714960320790561 0 0.35085012880757988 0.15547460686614431 0 0.33967484433078321 0.18584068278097349 0 0.34294625220664587 0.1683980952289891 0 0.35387202203434698 0.17803066266241011 0 0.35368837148756882 0.19334260062126429 0 0.33967484433078321 0.18584068278097349 0 0.35387202203434698 0.17803066266241011 0 0.35368837148756882 0.19334260062126429 0 0.35387202203434698 0.17803066266241011 0 0.36699199379966768 0.18628457072029089 0 0.37486327834919952 0.17324080595030389 0 0.36699199379966768 0.18628457072029089 0 0.36550295271590683 0.1690726970215666 0 0.35387202203434698 0.17803066266241011 0 0.36699199379966768 0.18628457072029089 0 0.36550295271590683 0.1690726970215666 0 0.36342437601028388 0.15714960320790561 0 0.36550295271590683 0.1690726970215666 0 0.38328418214017468 0.15581326888627101 0 0.37486327834919952 0.17324080595030389 0 0.36550295271590683 0.1690726970215666 0 0.38328418214017468 0.15581326888627101 0 0.35531914635495271 0.16562513299740311 0 0.36342437601028388 0.15714960320790561 0 0.36550295271590683 0.1690726970215666 0 0.36342437601028388 0.15714960320790561 0 0.36683777304884752 0.14518289586033359 0 0.38328418214017468 0.15581326888627101 0 0.36342437601028388 0.15714960320790561 0 0.36683777304884752 0.14518289586033359 0 0.35085012880757988 0.15547460686614431 0 0.33956800136883641 0.14149862746365649 0 0.36683777304884752 0.14518289586033359 0 0.33956800136883641 0.14149862746365649 0 0.36683777304884752 0.14518289586033359 0 0.35085012880757988 0.15547460686614431 0 0.37035748409374952 0.12191913965183331 0 0.34441400131097022 0.1288917011053414 0 0.33956800136883641 0.14149862746365649 0 0.34441400131097022 0.1288917011053414 0 0.35985245571789548 0.13256521397634091 0 0.37035748409374952 0.12191913965183331 0 0.34441400131097022 0.1288917011053414 0 0.35985245571789548 0.13256521397634091 0 0.33956800136883641 0.14149862746365649 0 0.36683777304884752 0.14518289586033359 0 0.35985245571789548 0.13256521397634091 0 0.36683777304884752 0.14518289586033359 0 0.37024230120578611 0.13336796185197819 0 0.3828943795393005 0.1298338505994551 0 0.36683777304884752 0.14518289586033359 0 0.35985245571789548 0.13256521397634091 0 0.37024230120578611 0.13336796185197819 0 0.35985245571789548 0.13256521397634091 0 0.37024230120578611 0.13336796185197819 0 0.37169283910029199 0.12815165521797289 0 0.37024230120578611 0.13336796185197819 0 0.37169283910029199 0.12815165521797289 0 0.3828943795393005 0.1298338505994551 0 0.37035748409374952 0.12191913965183331 0 0.35985245571789548 0.13256521397634091 0 0.37169283910029199 0.12815165521797289 0 0.37169283910029199 0.12815165521797289 0 0.3828943795393005 0.1298338505994551 0 0.37511757494472903 0.123072110010257 0 0.3828943795393005 0.1298338505994551 0 0.39816792615439378 0.12760480203569169 0 0.39443703245191569 0.14316330482662179 0 0.39816792615439378 0.12760480203569169 0 0.39443703245191569 0.14316330482662179 0 0.40813897635800228 0.13879757292358971 0 0.40355831469332321 0.14905262061052801 0 0.39443703245191569 0.14316330482662179 0 0.39831584160420508 0.1589856433255693 0 0.39443703245191569 0.14316330482662179 0 0.38328418214017468 0.15581326888627101 0 0.39831584160420508 0.1589856433255693 0 0.40355831469332321 0.14905262061052801 0 0.39831584160420508 0.1589856433255693 0 0.41313230378900101 0.1549252007201132 0 0.40355831469332321 0.14905262061052801 0 0.39443703245191569 0.14316330482662179 0 0.40813897635800228 0.13879757292358971 0 0.3828943795393005 0.1298338505994551 0 0.39443703245191569 0.14316330482662179 0 0.38328418214017468 0.15581326888627101 0 0.36683777304884752 0.14518289586033359 0 0.3828943795393005 0.1298338505994551 0 0.38328418214017468 0.15581326888627101 0 0.3828943795393005 0.1298338505994551 0 0.38328418214017468 0.15581326888627101 0 0.38328418214017468 0.15581326888627101 0 0.38367398474104891 0.18179268717308689 0 0.37486327834919952 0.17324080595030389 0 0.38328418214017468 0.15581326888627101 0 0.38367398474104891 0.18179268717308689 0 0.38328418214017468 0.15581326888627101 0 0.38367398474104891 0.18179268717308689 0 0.39626047774709761 0.17356948839180519 0 0.37486327834919952 0.17324080595030389 0 0.36699199379966768 0.18628457072029089 0 0.38367398474104891 0.18179268717308689 0 0.38367398474104891 0.18179268717308689 0 0.39626047774709761 0.17356948839180519 0 0.39402839101454218 0.18926537882500041 0 0.41201559310989622 0.1717711692121752 0 0.39402839101454218 0.18926537882500041 0 0.40911253846621609 0.1927355572029634 0 0.41201559310989622 0.1717711692121752 0 0.39402839101454218 0.18926537882500041 0 0.39626047774709761 0.17356948839180519 0 0.41201559310989622 0.1717711692121752 0 0.39402839101454218 0.18926537882500041 0 0.38328418214017468 0.15581326888627101 0 0.39626047774709761 0.17356948839180519 0 0.39831584160420508 0.1589856433255693 0 0.39626047774709761 0.17356948839180519 0 0.39831584160420508 0.1589856433255693 0 0.41201559310989622 0.1717711692121752 0 0.39831584160420508 0.1589856433255693 0 0.41201559310989622 0.1717711692121752 0 0.41313230378900101 0.1549252007201132 0 0.41201559310989622 0.1717711692121752 0 0.43000279520525009 0.1542769595993502 0 0.41201559310989622 0.1717711692121752 0 0.43000279520525009 0.1542769595993502 0 0.41313230378900101 0.1549252007201132 0 0.41201559310989622 0.1717711692121752 0 0.42496471626184562 0.18478050847474101 0 0.40911253846621609 0.1927355572029634 0 0.42496471626184562 0.18478050847474101 0 0.42886790669691233 0.1683305758749721 0 0.44390934378202151 0.1869955505783234 0 0.41201559310989622 0.1717711692121752 0 0.42496471626184562 0.18478050847474101 0 0.42886790669691233 0.1683305758749721 0 0.42886790669691233 0.1683305758749721 0 0.44390934378202151 0.1869955505783234 0 0.41201559310989622 0.1717711692121752 0 0.42886790669691233 0.1683305758749721 0 0.43000279520525009 0.1542769595993502 0 0.42886790669691233 0.1683305758749721 0 0.43000279520525009 0.1542769595993502 0 0.44221599041969212 0.16183818438693329 0 0.43000279520525009 0.1542769595993502 0 0.42332430940078591 0.1392784445062823 0 0.4479899973006039 0.1367827499865252 0 0.43000279520525009 0.1542769595993502 0 0.42332430940078591 0.1392784445062823 0 0.41313230378900101 0.1549252007201132 0 0.429848517254516 0.1255917524949702 0 0.42332430940078591 0.1392784445062823 0 0.41384889774502859 0.12525543762671809 0 0.429848517254516 0.1255917524949702 0 0.42332430940078591 0.1392784445062823 0 0.4479899973006039 0.1367827499865252 0 0.39816792615439378 0.12760480203569169 0 0.41384889774502859 0.12525543762671809 0 0.40813897635800228 0.13879757292358971 0 0.42332430940078591 0.1392784445062823 0 0.41384889774502859 0.12525543762671809 0 0.40813897635800228 0.13879757292358971 0 0.40355831469332321 0.14905262061052801 0 0.40813897635800228 0.13879757292358971 0 0.41313230378900101 0.1549252007201132 0 0.42332430940078591 0.1392784445062823 0 0.40813897635800228 0.13879757292358971 0 0.41313230378900101 0.1549252007201132 0 0.38511047713535562 0.2623718011005241 0 0.37293454716760283 0.2396311516560117 0 0.39933451681408499 0.24222051247515669 0 0.37293454716760283 0.2396311516560117 0 0.39933451681408499 0.24222051247515669 0 0.39045396999845727 0.2225958518425987 0 0.37280151553833601 0.22024831863616021 0 0.37293454716760283 0.2396311516560117 0 0.39045396999845727 0.2225958518425987 0 0.39933451681408499 0.24222051247515669 0 0.39045396999845727 0.2225958518425987 0 0.41502085935247712 0.2184770015477572 0 0.39045396999845727 0.2225958518425987 0 0.39965272480706299 0.2061417744041574 0 0.38406378734192298 0.20777210545990279 0 0.39045396999845727 0.2225958518425987 0 0.39965272480706299 0.2061417744041574 0 0.41502085935247712 0.2184770015477572 0 0.37280151553833601 0.22024831863616021 0 0.39045396999845727 0.2225958518425987 0 0.38406378734192298 0.20777210545990279 0 0.36735815001373812 0.20351917688449569 0 0.38367398474104891 0.18179268717308689 0 0.38406378734192298 0.20777210545990279 0 0.38367398474104891 0.18179268717308689 0 0.38406378734192298 0.20777210545990279 0 0.38367398474104891 0.18179268717308689 0 0.38406378734192298 0.20777210545990279 0 0.39402839101454218 0.18926537882500041 0 0.39965272480706299 0.2061417744041574 0 0.38406378734192298 0.20777210545990279 0 0.39402839101454218 0.18926537882500041 0 0.39965272480706299 0.2061417744041574 0 0.39402839101454218 0.18926537882500041 0 0.40911253846621609 0.1927355572029634 0 0.42496471626184562 0.18478050847474101 0 0.40911253846621609 0.1927355572029634 0 0.43133039545531981 0.20312972213906441 0 0.42496471626184562 0.18478050847474101 0 0.43133039545531981 0.20312972213906441 0 0.44390934378202151 0.1869955505783234 0 0.43133039545531981 0.20312972213906441 0 0.41502085935247712 0.2184770015477572 0 0.43839838412078092 0.2247149777195776 0 0.40911253846621609 0.1927355572029634 0 0.41502085935247712 0.2184770015477572 0 0.40911253846621609 0.1927355572029634 0 0.43133039545531981 0.20312972213906441 0 0.41502085935247712 0.2184770015477572 0 0.39965272480706299 0.2061417744041574 0 0.40911253846621609 0.1927355572029634 0 0.41502085935247712 0.2184770015477572 0 0.41502085935247712 0.2184770015477572 0 0.42092918023873821 0.24421844589255121 0 0.41502085935247712 0.2184770015477572 0 0.42092918023873821 0.24421844589255121 0 0.43839838412078092 0.2247149777195776 0 0.42092918023873821 0.24421844589255121 0 0.44272868649399699 0.2414724783298311 0 0.43839838412078092 0.2247149777195776 0 0.44089414042045799 0.25771217685885472 0 0.42092918023873821 0.24421844589255121 0 0.44272868649399699 0.2414724783298311 0 0.39933451681408499 0.24222051247515669 0 0.41502085935247712 0.2184770015477572 0 0.42092918023873821 0.24421844589255121 0 0.46750550623703407 0.25349570762290419 0 0.4569230610569987 0.24819013429900669 0 0.47278153852907701 0.24486280325581439 0 0.4569230610569987 0.24819013429900669 0 0.45723446189795819 0.23161380727854039 0 0.47278153852907701 0.24486280325581439 0 0.4569230610569987 0.24819013429900669 0 0.44272868649399699 0.2414724783298311 0 0.45723446189795819 0.23161380727854039 0 0.44089414042045799 0.25771217685885472 0 0.4569230610569987 0.24819013429900669 0 0.44272868649399699 0.2414724783298311 0 0.43839838412078092 0.2247149777195776 0 0.45723446189795819 0.23161380727854039 0 0.45895078086713059 0.20566052528167461 0 0.44272868649399699 0.2414724783298311 0 0.43839838412078092 0.2247149777195776 0 0.45723446189795819 0.23161380727854039 0 0.45723446189795819 0.23161380727854039 0 0.47399221795223978 0.22432549998502579 0 0.47278153852907701 0.24486280325581439 0 0.45723446189795819 0.23161380727854039 0 0.45895078086713059 0.20566052528167461 0 0.47399221795223978 0.22432549998502579 0 0.45895078086713059 0.20566052528167461 0 0.47399221795223978 0.22432549998502579 0 0.43133039545531981 0.20312972213906441 0 0.43839838412078092 0.2247149777195776 0 0.45895078086713059 0.20566052528167461 0 0.43133039545531981 0.20312972213906441 0 0.45895078086713059 0.20566052528167461 0 0.44390934378202151 0.1869955505783234 0 0.45895078086713059 0.20566052528167461 0 0.44390934378202151 0.1869955505783234 0 0.45895078086713059 0.20566052528167461 0 0.44390934378202151 0.1869955505783234 0 0.47471792995388828 0.18435875067661631 0 0.45895078086713059 0.20566052528167461 0 0.47967819324703809 0.2043502093285503 0 0.47471792995388828 0.18435875067661631 0 0.5 0.20006456793442701 0 0.47967819324703809 0.2043502093285503 0 0.47471792995388828 0.18435875067661631 0 0.5 0.20006456793442701 0 0.48813206750880261 0.21755351138133391 0 0.47967819324703809 0.2043502093285503 0 0.5 0.20006456793442701 0 0.48813206750880261 0.21755351138133391 0 0.5 0.22779789293978581 0 0.45895078086713059 0.20566052528167461 0 0.47967819324703809 0.2043502093285503 0 0.47399221795223978 0.22432549998502579 0 0.48813206750880261 0.21755351138133391 0 0.47967819324703809 0.2043502093285503 0 0.47399221795223978 0.22432549998502579 0 0.48813206750880261 0.21755351138133391 0 0.47399221795223978 0.22432549998502579 0 0.48903365503734891 0.24299047468837701 0 0.47399221795223978 0.22432549998502579 0 0.48903365503734891 0.24299047468837701 0 0.48813206750880261 0.21755351138133391 0 0.5 0.22779789293978581 0 0.48903365503734891 0.24299047468837701 0 0.5 0.25553121794514477 0 0.5 0.22779789293978581 0 0.48903365503734891 0.24299047468837701 0 0.48489893488970792 0.25686202981026901 0 0.48903365503734891 0.24299047468837701 0 0.47278153852907701 0.24486280325581439 0 0.47399221795223978 0.22432549998502579 0 0.48903365503734891 0.24299047468837701 0 0.47278153852907701 0.24486280325581439 0 0.4479899973006039 0.1367827499865252 0 0.46030990911367259 0.16280508589549539 0 0.47332178232586258 0.14483424446409521 0 0.4479899973006039 0.1367827499865252 0 0.47332178232586258 0.14483424446409521 0 0.46597719939595772 0.11928854037370019 0 0.4479899973006039 0.1367827499865252 0 0.46597719939595772 0.11928854037370019 0 0.429848517254516 0.1255917524949702 0 0.4479899973006039 0.1367827499865252 0 0.44441253831551758 0.1138689947079024 0 0.43000279520525009 0.1542769595993502 0 0.4479899973006039 0.1367827499865252 0 0.44221599041969212 0.16183818438693329 0 0.43000279520525009 0.1542769595993502 0 0.4479899973006039 0.1367827499865252 0 0.4479899973006039 0.1367827499865252 0 0.44221599041969212 0.16183818438693329 0 0.46030990911367259 0.16280508589549539 0 0.44221599041969212 0.16183818438693329 0 0.44390934378202151 0.1869955505783234 0 0.46030990911367259 0.16280508589549539 0 0.42886790669691233 0.1683305758749721 0 0.44221599041969212 0.16183818438693329 0 0.44390934378202151 0.1869955505783234 0 0.44390934378202151 0.1869955505783234 0 0.46030990911367259 0.16280508589549539 0 0.47471792995388828 0.18435875067661631 0 0.46030990911367259 0.16280508589549539 0 0.48162298028441808 0.16304382698580119 0 0.47332178232586258 0.14483424446409521 0 0.46030990911367259 0.16280508589549539 0 0.48162298028441808 0.16304382698580119 0 0.47471792995388828 0.18435875067661631 0 0.5 0.20006456793442701 0 0.47471792995388828 0.18435875067661631 0 0.5 0.17233124292906801 0 0.48162298028441808 0.16304382698580119 0 0.47471792995388828 0.18435875067661631 0 0.5 0.17233124292906801 0 0.48162298028441808 0.16304382698580119 0 0.5 0.17233124292906801 0 0.5 0.14459791792370899 0 0.48162298028441808 0.16304382698580119 0 0.5 0.14459791792370899 0 0.47332178232586258 0.14483424446409521 0 0.47332178232586258 0.14483424446409521 0 0.48369720064842647 0.1280225697211729 0 0.46597719939595772 0.11928854037370019 0 0.5 0.14459791792370899 0 0.48369720064842647 0.1280225697211729 0 0.5 0.1168645929183502 0 0.5 0.14459791792370899 0 0.47332178232586258 0.14483424446409521 0 0.48369720064842647 0.1280225697211729 0 0.48369720064842647 0.1280225697211729 0 0.5 0.1168645929183502 0 0.47911227232856668 0.09907818001940101 0 0.5 0.1168645929183502 0 0.47911227232856668 0.09907818001940101 0 0.5 0.089131267912991197 0 0.48369720064842647 0.1280225697211729 0 0.47911227232856668 0.09907818001940101 0 0.46597719939595772 0.11928854037370019 0 0.48592231416185638 0.0752646054103117 0 0.5 0.089131267912991197 0 0.5 0.06139794290763223 0 0.47911227232856668 0.09907818001940101 0 0.48592231416185638 0.0752646054103117 0 0.5 0.089131267912991197 0 0.47911227232856668 0.09907818001940101 0 0.48592231416185638 0.0752646054103117 0 0.46599422920766509 0.071585542922595516 0 0.48592231416185638 0.0752646054103117 0 0.46599422920766509 0.071585542922595516 0 0.47969083044660421 0.050503904472553283 0 0.47911227232856668 0.09907818001940101 0 0.46599422920766509 0.071585542922595516 0 0.45660210543223351 0.096238293732025512 0 0.46599422920766509 0.071585542922595516 0 0.44319262383460789 0.070531660330671375 0 0.45660210543223351 0.096238293732025512 0 0.44319262383460789 0.070531660330671375 0 0.45660210543223351 0.096238293732025512 0 0.43559540491542181 0.095634413362833848 0 0.46597719939595772 0.11928854037370019 0 0.45660210543223351 0.096238293732025512 0 0.44441253831551758 0.1138689947079024 0 0.47911227232856668 0.09907818001940101 0 0.46597719939595772 0.11928854037370019 0 0.45660210543223351 0.096238293732025512 0 0.45660210543223351 0.096238293732025512 0 0.44441253831551758 0.1138689947079024 0 0.43559540491542181 0.095634413362833848 0 0.4479899973006039 0.1367827499865252 0 0.46597719939595772 0.11928854037370019 0 0.44441253831551758 0.1138689947079024 0 0.429848517254516 0.1255917524949702 0 0.44441253831551758 0.1138689947079024 0 0.42416274095453271 0.1101558860989641 0 0.429848517254516 0.1255917524949702 0 0.41384889774502859 0.12525543762671809 0 0.42416274095453271 0.1101558860989641 0 0.41384889774502859 0.12525543762671809 0 0.42416274095453271 0.1101558860989641 0 0.40716605829359193 0.1120264799895512 0 0.39816792615439378 0.12760480203569169 0 0.41384889774502859 0.12525543762671809 0 0.40716605829359193 0.1120264799895512 0 0.40716605829359193 0.1120264799895512 0 0.41525133388600899 0.093407911538609431 0 0.39656535672550852 0.092974877928873267 0 0.42416274095453271 0.1101558860989641 0 0.40716605829359193 0.1120264799895512 0 0.41525133388600899 0.093407911538609431 0 0.42416274095453271 0.1101558860989641 0 0.43559540491542181 0.095634413362833848 0 0.41525133388600899 0.093407911538609431 0 0.44441253831551758 0.1138689947079024 0 0.42416274095453271 0.1101558860989641 0 0.43559540491542181 0.095634413362833848 0 0.43559540491542181 0.095634413362833848 0 0.4195547633014628 0.073570994746074828 0 0.41525133388600899 0.093407911538609431 0 0.43559540491542181 0.095634413362833848 0 0.4195547633014628 0.073570994746074828 0 0.44319262383460789 0.070531660330671375 0 0.43559540491542181 0.095634413362833848 0 0.4195547633014628 0.073570994746074828 0 0.44319262383460789 0.070531660330671375 0 0.4195547633014628 0.073570994746074828 0 0.42728191937221521 0.050914286525162993 0 0.4195547633014628 0.073570994746074828 0 0.39780951386322527 0.071813900777571313 0 0.40351412168750378 0.051507576129315842 0 0.4195547633014628 0.073570994746074828 0 0.40351412168750378 0.051507576129315842 0 0.4195547633014628 0.073570994746074828 0 0.41525133388600899 0.093407911538609431 0 0.39780951386322527 0.071813900777571313 0 0.41525133388600899 0.093407911538609431 0 0.39656535672550852 0.092974877928873267 0 0.39780951386322527 0.071813900777571313 0 0.37400882161871279 0.083619613235024759 0 0.37883567044039879 0.062600723425798879 0 0.39780951386322527 0.071813900777571313 0 0.37883567044039879 0.062600723425798879 0 0.3909554563133032 0.056876008487314757 0 0.37400882161871279 0.083619613235024759 0 0.39780951386322527 0.071813900777571313 0 0.37883567044039879 0.062600723425798879 0 0.37400882161871279 0.083619613235024759 0 0.39656535672550852 0.092974877928873267 0 0.38808178026068268 0.10392801007035141 0 0.37400882161871279 0.083619613235024759 0 0.39656535672550852 0.092974877928873267 0 0.39780951386322527 0.071813900777571313 0 0.37455144446510141 0.10193275935197101 0 0.37400882161871279 0.083619613235024759 0 0.38808178026068268 0.10392801007035141 0 0.37455144446510141 0.10193275935197101 0 0.38808178026068268 0.10392801007035141 0 0.37815432920295677 0.1109533992790251 0 0.37035748409374952 0.12191913965183331 0 0.38876177119367089 0.116972809820693 0 0.37035748409374952 0.12191913965183331 0 0.37511757494472903 0.123072110010257 0 0.38876177119367089 0.116972809820693 0 0.37035748409374952 0.12191913965183331 0 0.37815432920295677 0.1109533992790251 0 0.38876177119367089 0.116972809820693 0 0.3828943795393005 0.1298338505994551 0 0.37511757494472903 0.123072110010257 0 0.38876177119367089 0.116972809820693 0 0.3828943795393005 0.1298338505994551 0 0.39816792615439378 0.12760480203569169 0 0.38876177119367089 0.116972809820693 0 0.38808178026068268 0.10392801007035141 0 0.37815432920295677 0.1109533992790251 0 0.38876177119367089 0.116972809820693 0 0.40716605829359193 0.1120264799895512 0 0.38876177119367089 0.116972809820693 0 0.39816792615439378 0.12760480203569169 0 0.40716605829359193 0.1120264799895512 0 0.38876177119367089 0.116972809820693 0 0.40716605829359193 0.1120264799895512 0 0.38808178026068268 0.10392801007035141 0 0.38876177119367089 0.116972809820693 0 0.40716605829359193 0.1120264799895512 0 0.39656535672550852 0.092974877928873267 0 0.38808178026068268 0.10392801007035141 0 0.39895333728429933 0.027539300906755181 0 0.38848936808377088 0.020562943807347231 0 0.4122691541308795 0.010257189796790951 0 0.39895333728429933 0.027539300906755181 0 0.38848936808377088 0.020562943807347231 0 0.38747348007354487 0.029444157512556919 0 0.39212595536292472 0.0047271407553128551 0 0.4122691541308795 0.010257189796790951 0 0.40542454288086849 -0.004070234290400764 0 0.38848936808377088 0.020562943807347231 0 0.4122691541308795 0.010257189796790951 0 0.39212595536292472 0.0047271407553128551 0 0.38848936808377088 0.020562943807347231 0 0.4122691541308795 0.010257189796790951 0 0.39212595536292472 0.0047271407553128551 0 0.38120377069012762 0.010554394007073271 0 0.36845156083710567 -0.0060515153414843056 0 0.36934971840039982 0.01412264887454192 0 0.38120377069012762 0.010554394007073271 0 0.38848936808377088 0.020562943807347231 0 0.39212595536292472 0.0047271407553128551 0 0.38120377069012762 0.010554394007073271 0 0.38848936808377088 0.020562943807347231 0 0.39212595536292472 0.0047271407553128551 0 0.38848936808377088 0.020562943807347231 0 0.38848936808377088 0.020562943807347231 0 0.38747348007354487 0.029444157512556919 0 0.38366251926208489 0.041581833616573027 0 0.38848936808377088 0.020562943807347231 0 0.38366251926208489 0.041581833616573027 0 0.36096242836060388 0.032492650360987897 0 0.38848936808377088 0.020562943807347231 0 0.38366251926208489 0.041581833616573027 0 0.37883567044039879 0.062600723425798879 0 0.38366251926208489 0.041581833616573027 0 0.3909554563133032 0.056876008487314757 0 0.37883567044039879 0.062600723425798879 0 0.38366251926208489 0.041581833616573027 0 0.36884998715724038 0.048654936693666287 0 0.37883567044039879 0.062600723425798879 0 0.38366251926208489 0.041581833616573027 0 0.38366251926208489 0.041581833616573027 0 0.40351412168750378 0.051507576129315842 0 0.3909554563133032 0.056876008487314757 0 0.39780951386322527 0.071813900777571313 0 0.40351412168750378 0.051507576129315842 0 0.3909554563133032 0.056876008487314757 0 0.38747348007354487 0.029444157512556919 0 0.40351412168750378 0.051507576129315842 0 0.39895333728429933 0.027539300906755181 0 0.40351412168750378 0.051507576129315842 0 0.40867742594100492 0.02913313449165824 0 0.39895333728429933 0.027539300906755181 0 0.38747348007354487 0.029444157512556919 0 0.40351412168750378 0.051507576129315842 0 0.38747348007354487 0.029444157512556919 0 0.38366251926208489 0.041581833616573027 0 0.40351412168750378 0.051507576129315842 0 0.40351412168750378 0.051507576129315842 0 0.41712069737947322 0.039684074088297272 0 0.40867742594100492 0.02913313449165824 0 0.41712069737947322 0.039684074088297272 0 0.42900932251716922 0.027181299207052031 0 0.40867742594100492 0.02913313449165824 0 0.40351412168750378 0.051507576129315842 0 0.41712069737947322 0.039684074088297272 0 0.42728191937221521 0.050914286525162993 0 0.4195547633014628 0.073570994746074828 0 0.40351412168750378 0.051507576129315842 0 0.42728191937221521 0.050914286525162993 0 0.41712069737947322 0.039684074088297272 0 0.42728191937221521 0.050914286525162993 0 0.42900932251716922 0.027181299207052031 0 0.42728191937221521 0.050914286525162993 0 0.42900932251716922 0.027181299207052031 0 0.45357816737839107 0.043281393992262968 0 0.42900932251716922 0.027181299207052031 0 0.40867742594100492 0.02913313449165824 0 0.4122691541308795 0.010257189796790951 0 0.39895333728429933 0.027539300906755181 0 0.40867742594100492 0.02913313449165824 0 0.4122691541308795 0.010257189796790951 0 0.4122691541308795 0.010257189796790951 0 0.42733427856619571 -0.0085863840744332814 0 0.43604894017798812 -4.8564213765240817e-05 0 0.42900932251716922 0.027181299207052031 0 0.4122691541308795 0.010257189796790951 0 0.43604894017798812 -4.8564213765240817e-05 0 0.4122691541308795 0.010257189796790951 0 0.43604894017798812 -4.8564213765240817e-05 0 0.45021491583924189 0.016350560368503721 0 0.45982872622509668 -0.01035431822432146 0 0.43604894017798812 -4.8564213765240817e-05 0 0.42900932251716922 0.027181299207052031 0 0.45021491583924189 0.016350560368503721 0 0.43604894017798812 -4.8564213765240817e-05 0 0.42900932251716922 0.027181299207052031 0 0.45021491583924189 0.016350560368503721 0 0.45357816737839107 0.043281393992262968 0 0.45021491583924189 0.016350560368503721 0 0.45357816737839107 0.043281393992262968 0 0.47265027193171238 0.017829323700243871 0 0.45021491583924189 0.016350560368503721 0 0.47265027193171238 0.017829323700243871 0 0.45982872622509668 -0.01035431822432146 0 0.45357816737839107 0.043281393992262968 0 0.47969083044660421 0.050503904472553283 0 0.47265027193171238 0.017829323700243871 0 0.44319262383460789 0.070531660330671375 0 0.42728191937221521 0.050914286525162993 0 0.45357816737839107 0.043281393992262968 0 0.46599422920766509 0.071585542922595516 0 0.44319262383460789 0.070531660330671375 0 0.45357816737839107 0.043281393992262968 0 0.46599422920766509 0.071585542922595516 0 0.45357816737839107 0.043281393992262968 0 0.47969083044660421 0.050503904472553283 0 0.47969083044660421 0.050503904472553283 0 0.5 0.033664617902273368 0 0.47265027193171238 0.017829323700243871 0 0.48592231416185638 0.0752646054103117 0 0.47969083044660421 0.050503904472553283 0 0.5 0.06139794290763223 0 0.47969083044660421 0.050503904472553283 0 0.5 0.033664617902273368 0 0.5 0.06139794290763223 0 0.5 0.033664617902273368 0 0.47265027193171238 0.017829323700243871 0 0.5 0.0059312928969145204 0 0.47265027193171238 0.017829323700243871 0 0.5 0.0059312928969145204 0 0.48261795830076532 -0.0084137270416950408 0 0.5 0.0059312928969145204 0 0.48261795830076532 -0.0084137270416950408 0 0.5 -0.021802032108444391 0 0.47265027193171238 0.017829323700243871 0 0.48261795830076532 -0.0084137270416950408 0 0.45982872622509668 -0.01035431822432146 0 0.48261795830076532 -0.0084137270416950408 0 0.48385521188952352 -0.03103713942335571 0 0.45982872622509668 -0.01035431822432146 0 0.48385521188952352 -0.03103713942335571 0 0.46768790053651399 -0.040232759786602873 0 0.45982872622509668 -0.01035431822432146 0 0.48261795830076532 -0.0084137270416950408 0 0.48385521188952352 -0.03103713942335571 0 0.5 -0.021802032108444391 0 0.48385521188952352 -0.03103713942335571 0 0.49518245524492172 -0.045789595090724652 0 0.49482530481253351 -0.04804557135493729 0 0.5 -0.021802032108444391 0 0.49518245524492172 -0.045789595090724652 0 0.49999999999998263 -0.049535357113803247 0 0.48385521188952352 -0.03103713942335571 0 0.5 -0.021802032108444391 0 0.49518245524492172 -0.045789595090724652 0 0.49482530481253351 -0.04804557135493729 0 0.47636674367150789 -0.060588545727567042 0 0.49016972248203172 -0.07745302065780417 0 0.49999999999998263 -0.049535357113803247 0 0.49482530481253351 -0.04804557135493729 0 0.49016972248203172 -0.07745302065780417 0 0.49999999999998263 -0.049535357113803247 0 0.49482530481253351 -0.04804557135493729 0 0.49518245524492172 -0.045789595090724652 0 0.49999999999998263 -0.049535357113803247 0 0.49482530481253351 -0.04804557135493729 0 0.49518245524492172 -0.045789595090724652 0 0.49482530481253351 -0.04804557135493729 0 0.49482530481253351 -0.04804557135493729 0 0.47636674367150789 -0.060588545727567042 0 0.46768790053651399 -0.040232759786602873 0 0.49482530481253351 -0.04804557135493729 0 0.46768790053651399 -0.040232759786602873 0 0.48385521188952352 -0.03103713942335571 0 0.49482530481253351 -0.04804557135493729 0 0.46768790053651399 -0.040232759786602873 0 0.46768790053651399 -0.040232759786602873 0 0.44055049626049481 -0.03241994821826754 0 0.47636674367150789 -0.060588545727567042 0 0.46768790053651399 -0.040232759786602873 0 0.44971823816913109 -0.058611894661768998 0 0.46768790053651399 -0.040232759786602873 0 0.44971823816913109 -0.058611894661768998 0 0.44055049626049481 -0.03241994821826754 0 0.44971823816913109 -0.058611894661768998 0 0.44055049626049481 -0.03241994821826754 0 0.42776585910878662 -0.047462582859365887 0 0.44055049626049481 -0.03241994821826754 0 0.43862233638968018 -0.01433991032473066 0 0.45982872622509668 -0.01035431822432146 0 0.45982872622509668 -0.01035431822432146 0 0.43604894017798812 -4.8564213765240817e-05 0 0.43862233638968018 -0.01433991032473066 0 0.45982872622509668 -0.01035431822432146 0 0.43604894017798812 -4.8564213765240817e-05 0 0.46768790053651399 -0.040232759786602873 0 0.44055049626049481 -0.03241994821826754 0 0.45982872622509668 -0.01035431822432146 0 0.47499259514944292 -0.1202547269832886 0 0.48551414015152222 -0.10686046996066979 0 0.48085855782101261 -0.13626791926353529 0 0.47418157221881441 -0.11112465676427991 0 0.47528951870947961 -0.09927779745641295 0 0.46093003486481321 -0.11810563265674839 0 0.48551414015152222 -0.10686046996066979 0 0.48085855782101261 -0.13626791926353529 0 0.47499259514944292 -0.1202547269832886 0 0.46093003486481321 -0.11810563265674839 0 0.47239045088042492 -0.13005034139104371 0 0.47499259514944292 -0.1202547269832886 0 0.47418157221881441 -0.11112465676427991 0 0.46093003486481321 -0.11810563265674839 0 0.47499259514944292 -0.1202547269832886 0 0.47418157221881441 -0.11112465676427991 0 0.48551414015152222 -0.10686046996066979 0 0.48986304781109291 -0.1242692167884092 0 0.49384429699065369 -0.1173080088948287 0 0.48551414015152222 -0.10686046996066979 0 0.48986304781109291 -0.1242692167884092 0 0.48551414015152222 -0.10686046996066979 0 0.48085855782101261 -0.13626791926353529 0 0.49384429699065369 -0.1173080088948287 0 0.5 -0.1051480109548549 0 0.5 -0.13295433787538069 0 0.48986304781109291 -0.1242692167884092 0 0.49384429699065369 -0.1173080088948287 0 0.5 -0.13295433787538069 0 0.49384429699065369 -0.1173080088948287 0 0.48551414015152222 -0.10686046996066979 0 0.5 -0.1051480109548549 0 0.48551414015152222 -0.10686046996066979 0 0.5 -0.1051480109548549 0 0.49016972248203172 -0.07745302065780417 0 0.48551414015152222 -0.10686046996066979 0 0.47528951870947961 -0.09927779745641295 0 0.4786949329242487 -0.090297096352784045 0 0.47418157221881441 -0.11112465676427991 0 0.48551414015152222 -0.10686046996066979 0 0.47528951870947961 -0.09927779745641295 0 0.47494193394216588 -0.078729965701305249 0 0.4786949329242487 -0.090297096352784045 0 0.46755934933604398 -0.089164227987728051 0 0.47528951870947961 -0.09927779745641295 0 0.4786949329242487 -0.090297096352784045 0 0.46755934933604398 -0.089164227987728051 0 0.47494193394216588 -0.078729965701305249 0 0.4786949329242487 -0.090297096352784045 0 0.49016972248203172 -0.07745302065780417 0 0.48551414015152222 -0.10686046996066979 0 0.49016972248203172 -0.07745302065780417 0 0.5 -0.1051480109548549 0 0.49016972248203172 -0.07745302065780417 0 0.5 -0.077341684034329061 0 0.48551414015152222 -0.10686046996066979 0 0.4786949329242487 -0.090297096352784045 0 0.49016972248203172 -0.07745302065780417 0 0.49999999999998263 -0.049535357113803247 0 0.49016972248203172 -0.07745302065780417 0 0.5 -0.077341684034329061 0 0.49482530481253351 -0.04804557135493729 0 0.49016972248203172 -0.07745302065780417 0 0.47636674367150789 -0.060588545727567042 0 0.47494193394216588 -0.078729965701305249 0 0.49016972248203172 -0.07745302065780417 0 0.47636674367150789 -0.060588545727567042 0 0.47494193394216588 -0.078729965701305249 0 0.4592808493329405 -0.078369632624057675 0 0.47636674367150789 -0.060588545727567042 0 0.44971823816913109 -0.058611894661768998 0 0.4592808493329405 -0.078369632624057675 0 0.47636674367150789 -0.060588545727567042 0 0.4592808493329405 -0.078369632624057675 0 0.44971823816913109 -0.058611894661768998 0 0.44126951216661869 -0.079236189142810429 0 0.42731029070553322 -0.068277018127587574 0 0.44971823816913109 -0.058611894661768998 0 0.44126951216661869 -0.079236189142810429 0 0.4592808493329405 -0.078369632624057675 0 0.4592808493329405 -0.078369632624057675 0 0.44219495499437311 -0.096150719520548239 0 0.44126951216661869 -0.079236189142810429 0 0.4592808493329405 -0.078369632624057675 0 0.44219495499437311 -0.096150719520548239 0 0.47494193394216588 -0.078729965701305249 0 0.4592808493329405 -0.078369632624057675 0 0.46755934933604398 -0.089164227987728051 0 0.4592808493329405 -0.078369632624057675 0 0.46755934933604398 -0.089164227987728051 0 0.44219495499437311 -0.096150719520548239 0 0.46755934933604398 -0.089164227987728051 0 0.46093003486481321 -0.11810563265674839 0 0.46755934933604398 -0.089164227987728051 0 0.44219495499437311 -0.096150719520548239 0 0.46093003486481321 -0.11810563265674839 0 0.47528951870947961 -0.09927779745641295 0 0.46755934933604398 -0.089164227987728051 0 0.46093003486481321 -0.11810563265674839 0 0.441730170532879 -0.1159420230490274 0 0.46093003486481321 -0.11810563265674839 0 0.44582693855797939 -0.1311402400572215 0 0.44219495499437311 -0.096150719520548239 0 0.441730170532879 -0.1159420230490274 0 0.46093003486481321 -0.11810563265674839 0 0.42510906065580589 -0.11393180641703871 0 0.40802316631723889 -0.13171289331352951 0 0.40725115801851319 -0.1169919833964142 0 0.42510906065580589 -0.11393180641703871 0 0.40802316631723889 -0.13171289331352951 0 0.40725115801851319 -0.1169919833964142 0 0.42510906065580589 -0.11393180641703871 0 0.4147200547274239 -0.1079547067436207 0 0.40725115801851319 -0.1169919833964142 0 0.4147200547274239 -0.1079547067436207 0 0.40692444267373179 -0.1088204768843429 0 0.441730170532879 -0.1159420230490274 0 0.42510906065580589 -0.11393180641703871 0 0.43087782981676859 -0.131879285754128 0 0.44219495499437311 -0.096150719520548239 0 0.42510906065580589 -0.11393180641703871 0 0.44219495499437311 -0.096150719520548239 0 0.441730170532879 -0.1159420230490274 0 0.42510906065580589 -0.11393180641703871 0 0.44219495499437311 -0.096150719520548239 0 0.42510906065580589 -0.11393180641703871 0 0.4234909377050316 -0.092737982748798881 0 0.42510906065580589 -0.11393180641703871 0 0.4147200547274239 -0.1079547067436207 0 0.4234909377050316 -0.092737982748798881 0 0.4147200547274239 -0.1079547067436207 0 0.40904120664506322 -0.09935874077938342 0 0.4234909377050316 -0.092737982748798881 0 0.4147200547274239 -0.1079547067436207 0 0.40692444267373179 -0.1088204768843429 0 0.40904120664506322 -0.09935874077938342 0 0.40904120664506322 -0.09935874077938342 0 0.4234909377050316 -0.092737982748798881 0 0.40226126486411301 -0.082186696628613137 0 0.4234909377050316 -0.092737982748798881 0 0.42731029070553322 -0.068277018127587574 0 0.40226126486411301 -0.082186696628613137 0 0.44126951216661869 -0.079236189142810429 0 0.4234909377050316 -0.092737982748798881 0 0.42731029070553322 -0.068277018127587574 0 0.44126951216661869 -0.079236189142810429 0 0.44219495499437311 -0.096150719520548239 0 0.4234909377050316 -0.092737982748798881 0 0.42731029070553322 -0.068277018127587574 0 0.40226126486411301 -0.082186696628613137 0 0.40783717842429862 -0.053396916639273179 0 0.40226126486411301 -0.082186696628613137 0 0.40783717842429862 -0.053396916639273179 0 0.38429333219820472 -0.067131704106828338 0 0.40226126486411301 -0.082186696628613137 0 0.40783717842429862 -0.053396916639273179 0 0.38429333219820472 -0.067131704106828338 0 0.38199460798391838 -0.085246791459625215 0 0.40226126486411301 -0.082186696628613137 0 0.38199460798391838 -0.085246791459625215 0 0.40226126486411301 -0.082186696628613137 0 0.39106825526090561 -0.1007030293946076 0 0.40226126486411301 -0.082186696628613137 0 0.39106825526090561 -0.1007030293946076 0 0.39668535130392929 -0.1109764766179535 0 0.40904120664506322 -0.09935874077938342 0 0.40226126486411301 -0.082186696628613137 0 0.39668535130392929 -0.1109764766179535 0 0.40226126486411301 -0.082186696628613137 0 0.39668535130392929 -0.1109764766179535 0 0.40692444267373179 -0.1088204768843429 0 0.40904120664506322 -0.09935874077938342 0 0.39668535130392929 -0.1109764766179535 0 0.39106825526090561 -0.1007030293946076 0 0.39668535130392929 -0.1109764766179535 0 0.39106825526090561 -0.1007030293946076 0 0.3799934613124491 -0.1141351934829782 0 0.39668535130392929 -0.1109764766179535 0 0.38199460798391838 -0.085246791459625215 0 0.39106825526090561 -0.1007030293946076 0 0.37706007999693841 -0.1011775095245466 0 0.39106825526090561 -0.1007030293946076 0 0.37706007999693841 -0.1011775095245466 0 0.3799934613124491 -0.1141351934829782 0 0.3799934613124491 -0.1141351934829782 0 0.39668535130392929 -0.1109764766179535 0 0.3932705088567644 -0.1286081277708763 0 0.3799934613124491 -0.1141351934829782 0 0.37104303648388809 -0.1272612894930944 0 0.3932705088567644 -0.1286081277708763 0 0.40224748518751269 -0.1211494002184121 0 0.3932705088567644 -0.1286081277708763 0 0.39668535130392929 -0.1109764766179535 0 0.3932705088567644 -0.1286081277708763 0 0.39668535130392929 -0.1109764766179535 0 0.40224748518751269 -0.1211494002184121 0 0.3932705088567644 -0.1286081277708763 0 0.40725115801851319 -0.1169919833964142 0 0.39668535130392929 -0.1109764766179535 0 0.40224748518751269 -0.1211494002184121 0 0.39668535130392929 -0.1109764766179535 0 0.40224748518751269 -0.1211494002184121 0 0.40725115801851319 -0.1169919833964142 0 0.40692444267373179 -0.1088204768843429 0 0.39668535130392929 -0.1109764766179535 0 0.40725115801851319 -0.1169919833964142 0 0.40224748518751269 -0.1211494002184121 0 0.40725115801851319 -0.1169919833964142 0 0.40224748518751269 -0.1211494002184121 0 0.40802316631723889 -0.13171289331352951 0 0.42156842614681772 -0.015954947998216139 0 0.41341309198447568 -0.024607136649931451 0 0.42934924071862562 -0.02029033689286578 0 0.41341309198447568 -0.024607136649931451 0 0.41617709331797431 -0.010335934375633319 0 0.42156842614681772 -0.015954947998216139 0 0.41341309198447568 -0.024607136649931451 0 0.41617709331797431 -0.010335934375633319 0 0.41341309198447568 -0.024607136649931451 0 0.40231254689356027 -0.037392070823486202 0 0.40309603266908228 -0.02802239201193971 0 0.41341309198447568 -0.024607136649931451 0 0.41078796895048542 -0.01389090533175278 0 0.39783226839882679 -0.020121444594939791 0 0.41341309198447568 -0.024607136649931451 0 0.41078796895048542 -0.01389090533175278 0 0.41617709331797431 -0.010335934375633319 0 0.41078796895048542 -0.01389090533175278 0 0.41617709331797431 -0.010335934375633319 0 0.40542454288086849 -0.004070234290400764 0 0.4122691541308795 0.010257189796790951 0 0.41617709331797431 -0.010335934375633319 0 0.40542454288086849 -0.004070234290400764 0 0.4122691541308795 0.010257189796790951 0 0.41617709331797431 -0.010335934375633319 0 0.42733427856619571 -0.0085863840744332814 0 0.42156842614681772 -0.015954947998216139 0 0.41617709331797431 -0.010335934375633319 0 0.42733427856619571 -0.0085863840744332814 0 0.42156842614681772 -0.015954947998216139 0 0.42733427856619571 -0.0085863840744332814 0 0.42934924071862562 -0.02029033689286578 0 0.43862233638968018 -0.01433991032473066 0 0.42733427856619571 -0.0085863840744332814 0 0.43604894017798812 -4.8564213765240817e-05 0 0.43862233638968018 -0.01433991032473066 0 0.42733427856619571 -0.0085863840744332814 0 0.42934924071862562 -0.02029033689286578 0 0.44055049626049481 -0.03241994821826754 0 0.43862233638968018 -0.01433991032473066 0 0.42934924071862562 -0.02029033689286578 0 0.44055049626049481 -0.03241994821826754 0 0.41341309198447568 -0.024607136649931451 0 0.42934924071862562 -0.02029033689286578 0 0.44055049626049481 -0.03241994821826754 0 0.41341309198447568 -0.024607136649931451 0 0.44055049626049481 -0.03241994821826754 0 0.41341309198447568 -0.024607136649931451 0 0.42776585910878662 -0.047462582859365887 0 0.44971823816913109 -0.058611894661768998 0 0.42731029070553322 -0.068277018127587574 0 0.42776585910878662 -0.047462582859365887 0 0.42731029070553322 -0.068277018127587574 0 0.42776585910878662 -0.047462582859365887 0 0.40783717842429862 -0.053396916639273179 0 0.41341309198447568 -0.024607136649931451 0 0.42776585910878662 -0.047462582859365887 0 0.40783717842429862 -0.053396916639273179 0 0.41341309198447568 -0.024607136649931451 0 0.40783717842429862 -0.053396916639273179 0 0.40231254689356027 -0.037392070823486202 0 0.41341309198447568 -0.024607136649931451 0 0.40783717842429862 -0.053396916639273179 0 0.40231254689356027 -0.037392070823486202 0 0.3981973431289102 -0.028872790202489229 0 0.40309603266908228 -0.02802239201193971 0 0.40231254689356027 -0.037392070823486202 0 0.38732801778773829 -0.04651698367670077 0 0.38934459454031273 -0.029067224222560958 0 0.40783717842429862 -0.053396916639273179 0 0.40231254689356027 -0.037392070823486202 0 0.38732801778773829 -0.04651698367670077 0 0.40231254689356027 -0.037392070823486202 0 0.38934459454031273 -0.029067224222560958 0 0.3981973431289102 -0.028872790202489229 0 0.38429333219820472 -0.067131704106828338 0 0.40783717842429862 -0.053396916639273179 0 0.38732801778773829 -0.04651698367670077 0 0.38429333219820472 -0.067131704106828338 0 0.38732801778773829 -0.04651698367670077 0 0.37042415964797237 -0.053058901563766692 0 0.38732801778773829 -0.04651698367670077 0 0.37068698927403948 -0.035605583580554698 0 0.37042415964797237 -0.053058901563766692 0 0.38732801778773829 -0.04651698367670077 0 0.38934459454031273 -0.029067224222560958 0 0.37068698927403948 -0.035605583580554698 0 0.38934459454031273 -0.029067224222560958 0 0.36983137800827248 -0.01206003687362641 0 0.37068698927403948 -0.035605583580554698 0 0.38934459454031273 -0.029067224222560958 0 0.39783226839882679 -0.020121444594939791 0 0.36983137800827248 -0.01206003687362641 0 0.39783226839882679 -0.020121444594939791 0 0.36983137800827248 -0.01206003687362641 0 0.38934459454031273 -0.029067224222560958 0 0.3981973431289102 -0.028872790202489229 0 0.39783226839882679 -0.020121444594939791 0 0.41341309198447568 -0.024607136649931451 0 0.39783226839882679 -0.020121444594939791 0 0.41341309198447568 -0.024607136649931451 0 0.39783226839882679 -0.020121444594939791 0 0.40309603266908228 -0.02802239201193971 0 0.3981973431289102 -0.028872790202489229 0 0.39783226839882679 -0.020121444594939791 0 0.40309603266908228 -0.02802239201193971 0 0.39212595536292472 0.0047271407553128551 0 0.39576254264207811 -0.011108662296721609 0 0.39212595536292472 0.0047271407553128551 0 0.40542454288086849 -0.004070234290400764 0 0.39576254264207811 -0.011108662296721609 0 0.41078796895048542 -0.01389090533175278 0 0.39783226839882679 -0.020121444594939791 0 0.39576254264207811 -0.011108662296721609 0 0.41078796895048542 -0.01389090533175278 0 0.39576254264207811 -0.011108662296721609 0 0.41078796895048542 -0.01389090533175278 0 0.40542454288086849 -0.004070234290400764 0 0.39576254264207811 -0.011108662296721609 0 0.39783226839882679 -0.020121444594939791 0 0.39576254264207811 -0.011108662296721609 0 0.39576254264207811 -0.011108662296721609 0 0.36983137800827248 -0.01206003687362641 0 0.36845156083710567 -0.0060515153414843056 0 0.39576254264207811 -0.011108662296721609 0 0.36845156083710567 -0.0060515153414843056 0 0.39212595536292472 0.0047271407553128551 0 0.39576254264207811 -0.011108662296721609 0 0.36845156083710567 -0.0060515153414843056 0 0.39783226839882679 -0.020121444594939791 0 0.39576254264207811 -0.011108662296721609 0 0.36983137800827248 -0.01206003687362641 0 0.36983137800827248 -0.01206003687362641 0 0.36845156083710567 -0.0060515153414843056 0 0.34183048761771712 -0.0039986291523161147 0 0.36983137800827248 -0.01206003687362641 0 0.35223914962217417 -0.02278106829858554 0 0.37068698927403948 -0.035605583580554698 0 0.36983137800827248 -0.01206003687362641 0 0.35223914962217417 -0.02278106829858554 0 0.34183048761771712 -0.0039986291523161147 0 0.36983137800827248 -0.01206003687362641 0 0.34183048761771712 -0.0039986291523161147 0 0.36845156083710567 -0.0060515153414843056 0 0.34114057903213352 -0.00099436838624600288 0 0.36845156083710567 -0.0060515153414843056 0 0.34183048761771712 -0.0039986291523161147 0 0.34114057903213352 -0.00099436838624600288 0 0.35223914962217417 -0.02278106829858554 0 0.34183048761771712 -0.0039986291523161147 0 0.33977780877024261 -0.017668132193127541 0 0.31382959722716158 0.0040627785689932028 0 0.34183048761771712 -0.0039986291523161147 0 0.34114057903213352 -0.00099436838624600288 0 0.34183048761771712 -0.0039986291523161147 0 0.33574973546384762 -0.01167659105592548 0 0.32194573769061952 -0.0077676308935595512 0 0.34183048761771712 -0.0039986291523161147 0 0.33574973546384762 -0.01167659105592548 0 0.33977780877024261 -0.017668132193127541 0 0.35223914962217417 -0.02278106829858554 0 0.33977780877024261 -0.017668132193127541 0 0.33879793226643329 -0.029417681387060649 0 0.33574973546384762 -0.01167659105592548 0 0.3302717388810405 -0.020466691071749941 0 0.3196214637881436 -0.021924893160697439 0 0.33977780877024261 -0.017668132193127541 0 0.33879793226643329 -0.029417681387060649 0 0.3302717388810405 -0.020466691071749941 0 0.33879793226643329 -0.029417681387060649 0 0.32862271298124018 -0.028919582591936679 0 0.3302717388810405 -0.020466691071749941 0 0.33574973546384762 -0.01167659105592548 0 0.33977780877024261 -0.017668132193127541 0 0.3302717388810405 -0.020466691071749941 0 0.3302717388810405 -0.020466691071749941 0 0.32526768976560849 -0.02407540610795475 0 0.3196214637881436 -0.021924893160697439 0 0.33574973546384762 -0.01167659105592548 0 0.3196214637881436 -0.021924893160697439 0 0.32862271298124018 -0.028919582591936679 0 0.3302717388810405 -0.020466691071749941 0 0.32526768976560849 -0.02407540610795475 0 0.32862271298124018 -0.028919582591936679 0 0.32095671603858011 -0.024994897592425049 0 0.3231679364015333 -0.033306441836977792 0 0.32862271298124018 -0.028919582591936679 0 0.32526768976560849 -0.02407540610795475 0 0.32095671603858011 -0.024994897592425049 0 0.32526768976560849 -0.02407540610795475 0 0.32095671603858011 -0.024994897592425049 0 0.3196214637881436 -0.021924893160697439 0 0.32095671603858011 -0.024994897592425049 0 0.3196214637881436 -0.021924893160697439 0 0.31660160940309118 -0.035871797032442469 0 0.32095671603858011 -0.024994897592425049 0 0.3196214637881436 -0.021924893160697439 0 0.33574973546384762 -0.01167659105592548 0 0.3196214637881436 -0.021924893160697439 0 0.32194573769061952 -0.0077676308935595512 0 0.30752965714041391 0.0058765203804442539 0 0.3196214637881436 -0.021924893160697439 0 0.32194573769061952 -0.0077676308935595512 0 0.31382959722716158 0.0040627785689932028 0 0.34183048761771712 -0.0039986291523161147 0 0.32194573769061952 -0.0077676308935595512 0 0.30752965714041391 0.0058765203804442539 0 0.3196214637881436 -0.021924893160697439 0 0.31292981148517318 -0.054457989835630861 0 0.33951515654934239 -0.057829064589421393 0 0.331762206516936 -0.074199649102278678 0 0.31292981148517318 -0.054457989835630861 0 0.32943454752299528 -0.042779626289088678 0 0.31292981148517318 -0.054457989835630861 0 0.32943454752299528 -0.042779626289088678 0 0.33951515654934239 -0.057829064589421393 0 0.31292981148517318 -0.054457989835630861 0 0.31660160940309118 -0.035871797032442469 0 0.32943454752299528 -0.042779626289088678 0 0.32095671603858011 -0.024994897592425049 0 0.31660160940309118 -0.035871797032442469 0 0.3231679364015333 -0.033306441836977792 0 0.32862271298124018 -0.028919582591936679 0 0.3231679364015333 -0.033306441836977792 0 0.32943454752299528 -0.042779626289088678 0 0.31660160940309118 -0.035871797032442469 0 0.3231679364015333 -0.033306441836977792 0 0.32943454752299528 -0.042779626289088678 0 0.33879793226643329 -0.029417681387060649 0 0.32943454752299528 -0.042779626289088678 0 0.35178468962230941 -0.045374559850196158 0 0.33879793226643329 -0.029417681387060649 0 0.32862271298124018 -0.028919582591936679 0 0.32943454752299528 -0.042779626289088678 0 0.32943454752299528 -0.042779626289088678 0 0.33951515654934239 -0.057829064589421393 0 0.35178468962230941 -0.045374559850196158 0 0.33951515654934239 -0.057829064589421393 0 0.35178468962230941 -0.045374559850196158 0 0.35802776935757019 -0.070665676604553529 0 0.35223914962217417 -0.02278106829858554 0 0.35178468962230941 -0.045374559850196158 0 0.37068698927403948 -0.035605583580554698 0 0.35223914962217417 -0.02278106829858554 0 0.33879793226643329 -0.029417681387060649 0 0.35178468962230941 -0.045374559850196158 0 0.35178468962230941 -0.045374559850196158 0 0.37068698927403948 -0.035605583580554698 0 0.37042415964797237 -0.053058901563766692 0 0.35178468962230941 -0.045374559850196158 0 0.37042415964797237 -0.053058901563766692 0 0.35802776935757019 -0.070665676604553529 0 0.38429333219820472 -0.067131704106828338 0 0.38199460798391838 -0.085246791459625215 0 0.35802776935757019 -0.070665676604553529 0 0.38429333219820472 -0.067131704106828338 0 0.37042415964797237 -0.053058901563766692 0 0.35802776935757019 -0.070665676604553529 0 0.38429333219820472 -0.067131704106828338 0 0.35802776935757019 -0.070665676604553529 0 0.38199460798391838 -0.085246791459625215 0 0.36577500316168848 -0.093055365242956031 0 0.35802776935757019 -0.070665676604553529 0 0.38199460798391838 -0.085246791459625215 0 0.37706007999693841 -0.1011775095245466 0 0.36577500316168848 -0.093055365242956031 0 0.35802776935757019 -0.070665676604553529 0 0.34487393367809682 -0.095216741312257352 0 0.331762206516936 -0.074199649102278678 0 0.36577500316168848 -0.093055365242956031 0 0.35802776935757019 -0.070665676604553529 0 0.34487393367809682 -0.095216741312257352 0 0.35802776935757019 -0.070665676604553529 0 0.331762206516936 -0.074199649102278678 0 0.3799934613124491 -0.1141351934829782 0 0.36192545204167298 -0.11208328153174781 0 0.37104303648388809 -0.1272612894930944 0 0.36192545204167298 -0.11208328153174781 0 0.35551888896884759 -0.1297027680154724 0 0.37104303648388809 -0.1272612894930944 0 0.37706007999693841 -0.1011775095245466 0 0.3799934613124491 -0.1141351934829782 0 0.36192545204167298 -0.11208328153174781 0 0.37706007999693841 -0.1011775095245466 0 0.36577500316168848 -0.093055365242956031 0 0.36192545204167298 -0.11208328153174781 0 0.36192545204167298 -0.11208328153174781 0 0.34487393367809682 -0.095216741312257352 0 0.34014121552940491 -0.1203166258242544 0 0.36577500316168848 -0.093055365242956031 0 0.36192545204167298 -0.11208328153174781 0 0.34487393367809682 -0.095216741312257352 0 0.36192545204167298 -0.11208328153174781 0 0.34014121552940491 -0.1203166258242544 0 0.35551888896884759 -0.1297027680154724 0 0.34014121552940491 -0.1203166258242544 0 0.32517348349888747 -0.118580130041643 0 0.32373683991627678 -0.1342707635111336 0 0.34014121552940491 -0.1203166258242544 0 0.32895182275083351 -0.1060869523066566 0 0.32517348349888747 -0.118580130041643 0 0.34487393367809682 -0.095216741312257352 0 0.34014121552940491 -0.1203166258242544 0 0.32895182275083351 -0.1060869523066566 0 0.34487393367809682 -0.095216741312257352 0 0.32895182275083351 -0.1060869523066566 0 0.32681031061177879 -0.089772122834636051 0 0.32895182275083351 -0.1060869523066566 0 0.31743464692623941 -0.099981704590172707 0 0.32681031061177879 -0.089772122834636051 0 0.31743464692623941 -0.099981704590172707 0 0.31638799147784608 -0.1118713826410174 0 0.30885616350321549 -0.1072846913931271 0 0.32895182275083351 -0.1060869523066566 0 0.31743464692623941 -0.099981704590172707 0 0.31638799147784608 -0.1118713826410174 0 0.32895182275083351 -0.1060869523066566 0 0.31638799147784608 -0.1118713826410174 0 0.32517348349888747 -0.118580130041643 0 0.31638799147784608 -0.1118713826410174 0 0.31399575267335023 -0.12250180558336519 0 0.30853123694459123 -0.1170064061326217 0 0.31638799147784608 -0.1118713826410174 0 0.31399575267335023 -0.12250180558336519 0 0.32517348349888747 -0.118580130041643 0 0.33951515654934239 -0.057829064589421393 0 0.35802776935757019 -0.070665676604553529 0 0.331762206516936 -0.074199649102278678 0 0.34487393367809682 -0.095216741312257352 0 0.331762206516936 -0.074199649102278678 0 0.32681031061177879 -0.089772122834636051 0 0.32681031061177879 -0.089772122834636051 0 0.30549664367630158 -0.077733621600003855 0 0.31220284993755582 -0.090742102146006851 0 0.331762206516936 -0.074199649102278678 0 0.32681031061177879 -0.089772122834636051 0 0.30549664367630158 -0.077733621600003855 0 0.31743464692623941 -0.099981704590172707 0 0.32681031061177879 -0.089772122834636051 0 0.31220284993755582 -0.090742102146006851 0 0.31292981148517318 -0.054457989835630861 0 0.331762206516936 -0.074199649102278678 0 0.30549664367630158 -0.077733621600003855 0 0.331762206516936 -0.074199649102278678 0 0.30549664367630158 -0.077733621600003855 0 0.31292981148517318 -0.054457989835630861 0 0.30549664367630158 -0.077733621600003855 0 0.29642507544735103 -0.06613635338217283 0 0.30549664367630158 -0.077733621600003855 0 0.29743178973804058 -0.092817056036521225 0 0.29642507544735103 -0.06613635338217283 0 0.29743178973804058 -0.092817056036521225 0 0.29642507544735103 -0.06613635338217283 0 0.31220284993755582 -0.090742102146006851 0 0.30524841693787119 -0.089877123387424693 0 0.30586238439958702 -0.098215713767166868 0 0.30549664367630158 -0.077733621600003855 0 0.31220284993755582 -0.090742102146006851 0 0.30524841693787119 -0.089877123387424693 0 0.30524841693787119 -0.089877123387424693 0 0.29743178973804058 -0.092817056036521225 0 0.30586238439958702 -0.098215713767166868 0 0.30549664367630158 -0.077733621600003855 0 0.30524841693787119 -0.089877123387424693 0 0.29743178973804058 -0.092817056036521225 0 0.29430385704143641 -0.093334685648855456 0 0.28333646668855839 -0.1038254721913715 0 0.27844545300264117 -0.078858311907156253 0 0.29743178973804058 -0.092817056036521225 0 0.29430385704143641 -0.093334685648855456 0 0.29347904805936648 -0.068220893163732282 0 0.29430385704143641 -0.093334685648855456 0 0.29347904805936648 -0.068220893163732282 0 0.27844545300264117 -0.078858311907156253 0 0.29430385704143641 -0.093334685648855456 0 0.29347904805936648 -0.068220893163732282 0 0.29743178973804058 -0.092817056036521225 0 0.29642507544735103 -0.06613635338217283 0 0.29347904805936648 -0.068220893163732282 0 0.28521560802072671 -0.062721316040594208 0 0.29347904805936648 -0.068220893163732282 0 0.27844545300264117 -0.078858311907156253 0 0.29347904805936648 -0.068220893163732282 0 0.27844545300264117 -0.078858311907156253 0 0.29642507544735103 -0.06613635338217283 0 0.29347904805936648 -0.068220893163732282 0 0.29301224914481439 -0.054007794946804598 0 0.29642507544735103 -0.06613635338217283 0 0.29347904805936648 -0.068220893163732282 0 0.29743178973804058 -0.092817056036521225 0 0.29843850402873079 -0.11949775869086959 0 0.29512866602350563 -0.1184484781339787 0 0.29843850402873079 -0.11949775869086959 0 0.29512866602350563 -0.1184484781339787 0 0.30010147488007238 -0.1276093355582181 0 0.29843850402873079 -0.11949775869086959 0 0.30554459793957989 -0.1238630007756472 0 0.30853123694459123 -0.1170064061326217 0 0.29843850402873079 -0.11949775869086959 0 0.30554459793957989 -0.1238630007756472 0 0.30010147488007238 -0.1276093355582181 0 0.31399575267335023 -0.12250180558336519 0 0.30554459793957989 -0.1238630007756472 0 0.30853123694459123 -0.1170064061326217 0 0.29843850402873079 -0.11949775869086959 0 0.30853123694459123 -0.1170064061326217 0 0.30885616350321549 -0.1072846913931271 0 0.31638799147784608 -0.1118713826410174 0 0.30853123694459123 -0.1170064061326217 0 0.30885616350321549 -0.1072846913931271 0 0.29843850402873079 -0.11949775869086959 0 0.30885616350321549 -0.1072846913931271 0 0.30586238439958702 -0.098215713767166868 0 0.29743178973804058 -0.092817056036521225 0 0.29843850402873079 -0.11949775869086959 0 0.30586238439958702 -0.098215713767166868 0 0.29743178973804058 -0.092817056036521225 0 0.29843850402873079 -0.11949775869086959 0 0.31743464692623941 -0.099981704590172707 0 0.30885616350321549 -0.1072846913931271 0 0.30586238439958702 -0.098215713767166868 0 0.31743464692623941 -0.099981704590172707 0 0.31220284993755582 -0.090742102146006851 0 0.30586238439958702 -0.098215713767166868 0 0.29430385704143641 -0.093334685648855456 0 0.29512866602350563 -0.1184484781339787 0 0.29430385704143641 -0.093334685648855456 0 0.28333646668855839 -0.1038254721913715 0 0.29512866602350563 -0.1184484781339787 0 0.29743178973804058 -0.092817056036521225 0 0.29430385704143641 -0.093334685648855456 0 0.29512866602350563 -0.1184484781339787 0 0.28333646668855839 -0.1038254721913715 0 0.29512866602350563 -0.1184484781339787 0 0.28822748037447399 -0.12879263247558709 0 0.28333646668855839 -0.1038254721913715 0 0.28822748037447399 -0.12879263247558709 0 0.26621118532108262 -0.1119181791838486 0 0.25741251913389712 -0.1305951081492244 0 0.28822748037447399 -0.12879263247558709 0 0.28333646668855839 -0.1038254721913715 0 0.26621118532108262 -0.1119181791838486 0 0.28822748037447399 -0.12879263247558709 0 0.28333646668855839 -0.1038254721913715 0 0.26621118532108262 -0.1119181791838486 0 0.26565518081306061 -0.08790840808238623 0 0.26621118532108262 -0.1119181791838486 0 0.25154255280112903 -0.1006059983499779 0 0.24954668948061209 -0.11284283178631641 0 0.26621118532108262 -0.1119181791838486 0 0.25154255280112903 -0.1006059983499779 0 0.26565518081306061 -0.08790840808238623 0 0.26621118532108262 -0.1119181791838486 0 0.25741251913389712 -0.1305951081492244 0 0.24954668948061209 -0.11284283178631641 0 0.27844545300264117 -0.078858311907156253 0 0.2741393958395883 -0.056877179510702792 0 0.28007443442101287 -0.061799103716356343 0 0.27844545300264117 -0.078858311907156253 0 0.2741393958395883 -0.056877179510702792 0 0.26628957168076178 -0.070692469674316694 0 0.27844545300264117 -0.078858311907156253 0 0.2741393958395883 -0.056877179510702792 0 0.28521560802072671 -0.062721316040594208 0 0.27844545300264117 -0.078858311907156253 0 0.28007443442101287 -0.061799103716356343 0 0.26628957168076178 -0.070692469674316694 0 0.27844545300264117 -0.078858311907156253 0 0.26565518081306061 -0.08790840808238623 0 0.28333646668855839 -0.1038254721913715 0 0.27844545300264117 -0.078858311907156253 0 0.26565518081306061 -0.08790840808238623 0 0.28333646668855839 -0.1038254721913715 0 0.27844545300264117 -0.078858311907156253 0 0.27844545300264117 -0.078858311907156253 0 0.26565518081306061 -0.08790840808238623 0 0.25154255280112903 -0.1006059983499779 0 0.25664035233608162 -0.078361863555500011 0 0.24390890644978661 -0.075150332687283522 0 0.25154255280112903 -0.1006059983499779 0 0.26565518081306061 -0.08790840808238623 0 0.25664035233608162 -0.078361863555500011 0 0.26628957168076178 -0.070692469674316694 0 0.26565518081306061 -0.08790840808238623 0 0.25664035233608162 -0.078361863555500011 0 0.25664035233608162 -0.078361863555500011 0 0.25256726729664603 -0.064532785491330763 0 0.24390890644978661 -0.075150332687283522 0 0.26628957168076178 -0.070692469674316694 0 0.25256726729664603 -0.064532785491330763 0 0.2741393958395883 -0.056877179510702792 0 0.26628957168076178 -0.070692469674316694 0 0.25664035233608162 -0.078361863555500011 0 0.25256726729664603 -0.064532785491330763 0 0.25256726729664603 -0.064532785491330763 0 0.25164978009717781 -0.053061021673298493 0 0.24617004458672351 -0.058202332164817121 0 0.25256726729664603 -0.064532785491330763 0 0.26131371929964131 -0.050907379716302707 0 0.27395317434556299 -0.0509436520349522 0 0.25256726729664603 -0.064532785491330763 0 0.25164978009717781 -0.053061021673298493 0 0.26131371929964131 -0.050907379716302707 0 0.25256726729664603 -0.064532785491330763 0 0.27395317434556299 -0.0509436520349522 0 0.25164978009717781 -0.053061021673298493 0 0.26131371929964131 -0.050907379716302707 0 0.2539732262079259 -0.044675773385505282 0 0.26131371929964131 -0.050907379716302707 0 0.26227784506780882 -0.045421506107560787 0 0.2539732262079259 -0.044675773385505282 0 0.26131371929964131 -0.050907379716302707 0 0.26742863268251632 -0.045985676557136583 0 0.26227784506780882 -0.045421506107560787 0 0.25256726729664603 -0.064532785491330763 0 0.27395317434556299 -0.0509436520349522 0 0.2741393958395883 -0.056877179510702792 0 0.26131371929964131 -0.050907379716302707 0 0.27395317434556299 -0.0509436520349522 0 0.26742863268251632 -0.045985676557136583 0 0.27395317434556299 -0.0509436520349522 0 0.2741393958395883 -0.056877179510702792 0 0.28351618772518777 -0.053458991616202503 0 0.2741393958395883 -0.056877179510702792 0 0.28007443442101287 -0.061799103716356343 0 0.28351618772518777 -0.053458991616202503 0 0.2807394014679111 -0.038000872253349499 0 0.27361436003936901 -0.034999677146069851 0 0.27240238673917438 -0.042113497984529957 0 0.2807394014679111 -0.038000872253349499 0 0.27361436003936901 -0.034999677146069851 0 0.28248009054126683 -0.027824818882371601 0 0.27395317434556299 -0.0509436520349522 0 0.2807394014679111 -0.038000872253349499 0 0.27240238673917438 -0.042113497984529957 0 0.27395317434556299 -0.0509436520349522 0 0.27240238673917438 -0.042113497984529957 0 0.26742863268251632 -0.045985676557136583 0 0.27361436003936901 -0.034999677146069851 0 0.27240238673917438 -0.042113497984529957 0 0.26639580208115188 -0.040117194771298603 0 0.27240238673917438 -0.042113497984529957 0 0.26742863268251632 -0.045985676557136583 0 0.26639580208115188 -0.040117194771298603 0 0.27361436003936901 -0.034999677146069851 0 0.26639580208115188 -0.040117194771298603 0 0.26859201328057281 -0.027442020841521631 0 0.2539732262079259 -0.044675773385505282 0 0.25845033672230949 -0.02738613623275089 0 0.26859201328057281 -0.027442020841521631 0 0.2539732262079259 -0.044675773385505282 0 0.25845033672230949 -0.02738613623275089 0 0.24422464309495209 -0.046986837608536558 0 0.25845033672230949 -0.02738613623275089 0 0.24422464309495209 -0.046986837608536558 0 0.26639580208115188 -0.040117194771298603 0 0.2539732262079259 -0.044675773385505282 0 0.26859201328057281 -0.027442020841521631 0 0.2539732262079259 -0.044675773385505282 0 0.26859201328057281 -0.027442020841521631 0 0.26639580208115188 -0.040117194771298603 0 0.26227784506780882 -0.045421506107560787 0 0.2539732262079259 -0.044675773385505282 0 0.26742863268251632 -0.045985676557136583 0 0.26639580208115188 -0.040117194771298603 0 0.26227784506780882 -0.045421506107560787 0 0.25013504981522988 -0.025019616072594848 0 0.25845033672230949 -0.02738613623275089 0 0.24524507923365879 -0.0330622213940093 0 0.25845033672230949 -0.02738613623275089 0 0.27267603034966698 -0.0077854348569651906 0 0.25845033672230949 -0.02738613623275089 0 0.25886508985187012 -0.013172853544477199 0 0.27267603034966698 -0.0077854348569651906 0 0.25013504981522988 -0.025019616072594848 0 0.25247407830029878 -0.019873092178793648 0 0.25845033672230949 -0.02738613623275089 0 0.25247407830029878 -0.019873092178793648 0 0.25845033672230949 -0.02738613623275089 0 0.25886508985187012 -0.013172853544477199 0 0.25598072684389089 -0.0058943492075353007 0 0.25006914023697918 -0.01208141302270524 0 0.2479891295484222 -0.0022684572774312019 0 0.25894279220913391 0.003459445712386486 0 0.25598072684389089 -0.0058943492075353007 0 0.2479891295484222 -0.0022684572774312019 0 0.25598072684389089 -0.0058943492075353007 0 0.25006914023697918 -0.01208141302270524 0 0.25886508985187012 -0.013172853544477199 0 0.25247407830029878 -0.019873092178793648 0 0.25006914023697918 -0.01208141302270524 0 0.25886508985187012 -0.013172853544477199 0 0.25886508985187012 -0.013172853544477199 0 0.26317147738524183 -0.0038637327990410169 0 0.27267603034966698 -0.0077854348569651906 0 0.25598072684389089 -0.0058943492075353007 0 0.25886508985187012 -0.013172853544477199 0 0.26317147738524183 -0.0038637327990410169 0 0.25894279220913391 0.003459445712386486 0 0.25598072684389089 -0.0058943492075353007 0 0.26317147738524183 -0.0038637327990410169 0 0.27267603034966698 -0.0077854348569651906 0 0.26859201328057281 -0.027442020841521631 0 0.28321080035321983 -0.010208268297538009 0 0.26939274767164711 0.0040745279013861191 0 0.26317147738524183 -0.0038637327990410169 0 0.27267603034966698 -0.0077854348569651906 0 0.28687677889875068 0.001725005618485562 0 0.27267603034966698 -0.0077854348569651906 0 0.28321080035321983 -0.010208268297538009 0 0.26859201328057281 -0.027442020841521631 0 0.28321080035321983 -0.010208268297538009 0 0.25845033672230949 -0.02738613623275089 0 0.27267603034966698 -0.0077854348569651906 0 0.26859201328057281 -0.027442020841521631 0 0.26859201328057281 -0.027442020841521631 0 0.28248009054126683 -0.027824818882371601 0 0.28321080035321983 -0.010208268297538009 0 0.27361436003936901 -0.034999677146069851 0 0.26859201328057281 -0.027442020841521631 0 0.28248009054126683 -0.027824818882371601 0 0.29465383366866438 -0.01919356567853802 0 0.28248009054126683 -0.027824818882371601 0 0.29533908139447967 -0.037354518578573179 0 0.29465383366866438 -0.01919356567853802 0 0.28248009054126683 -0.027824818882371601 0 0.28321080035321983 -0.010208268297538009 0 0.29465383366866438 -0.01919356567853802 0 0.29533908139447967 -0.037354518578573179 0 0.2978295874258669 0.0070254842464454832 0 0.28321080035321983 -0.010208268297538009 0 0.29396858594285019 -0.001032612778502764 0 0.2978295874258669 0.0070254842464454832 0 0.28687677889875068 0.001725005618485562 0 0.28321080035321983 -0.010208268297538009 0 0.29465383366866438 -0.01919356567853802 0 0.28321080035321983 -0.010208268297538009 0 0.29396858594285019 -0.001032612778502764 0 0.2978295874258669 0.0070254842464454832 0 0.28321080035321983 -0.010208268297538009 0 0.29465383366866438 -0.01919356567853802 0 0.29396858594285019 -0.001032612778502764 0 0.30752965714041391 0.0058765203804442539 0 0.29465383366866438 -0.01919356567853802 0 0.29396858594285019 -0.001032612778502764 0 0.30752965714041391 0.0058765203804442539 0 0.3196214637881436 -0.021924893160697439 0 0.29465383366866438 -0.01919356567853802 0 0.3196214637881436 -0.021924893160697439 0 0.29465383366866438 -0.01919356567853802 0 0.29533908139447967 -0.037354518578573179 0 0.3196214637881436 -0.021924893160697439 0 0.29533908139447967 -0.037354518578573179 0 0.3196214637881436 -0.021924893160697439 0 0.31660160940309118 -0.035871797032442469 0 0.29533908139447967 -0.037354518578573179 0 0.31292981148517318 -0.054457989835630861 0 0.31660160940309118 -0.035871797032442469 0 0.29533908139447967 -0.037354518578573179 0 0.31292981148517318 -0.054457989835630861 0 0.29642507544735103 -0.06613635338217283 0 0.31292981148517318 -0.054457989835630861 0 0.29642507544735103 -0.06613635338217283 0 0.29533908139447967 -0.037354518578573179 0 0.29642507544735103 -0.06613635338217283 0 0.29301224914481439 -0.054007794946804598 0 0.29533908139447967 -0.037354518578573179 0 0.27395317434556299 -0.0509436520349522 0 0.28351618772518777 -0.053458991616202503 0 0.29533908139447967 -0.037354518578573179 0 0.29301224914481439 -0.054007794946804598 0 0.28351618772518777 -0.053458991616202503 0 0.29533908139447967 -0.037354518578573179 0 0.29642507544735103 -0.06613635338217283 0 0.29533908139447967 -0.037354518578573179 0 0.29347904805936648 -0.068220893163732282 0 0.29301224914481439 -0.054007794946804598 0 0.28521560802072671 -0.062721316040594208 0 0.29347904805936648 -0.068220893163732282 0 0.29301224914481439 -0.054007794946804598 0 0.28521560802072671 -0.062721316040594208 0 0.29301224914481439 -0.054007794946804598 0 0.28351618772518777 -0.053458991616202503 0 0.28521560802072671 -0.062721316040594208 0 0.28007443442101287 -0.061799103716356343 0 0.28351618772518777 -0.053458991616202503 0 0.27395317434556299 -0.0509436520349522 0 0.29533908139447967 -0.037354518578573179 0 0.27395317434556299 -0.0509436520349522 0 0.2807394014679111 -0.038000872253349499 0 0.29533908139447967 -0.037354518578573179 0 0.2807394014679111 -0.038000872253349499 0 0.28248009054126683 -0.027824818882371601 0 0.29533908139447967 -0.037354518578573179 0 0.30290052143222262 -0.20369411332823331 0 0.28158405213751547 -0.22140539282722879 0 0.30290052143222262 -0.20369411332823331 0 0.28158405213751547 -0.22140539282722879 0 0.27747759048209231 -0.20168759245952969 0 0.28632476970011178 -0.18938030831719929 0 0.30290052143222262 -0.20369411332823331 0 0.2980095077463053 -0.17872695304401809 0 0.28632476970011178 -0.18938030831719929 0 0.30290052143222262 -0.20369411332823331 0 0.27747759048209231 -0.20168759245952969 0 0.30290052143222262 -0.20369411332823331 0 0.2980095077463053 -0.17872695304401809 0 0.32549301828835953 -0.18492261693889581 0 0.30290052143222262 -0.20369411332823331 0 0.2980095077463053 -0.17872695304401809 0 0.30290052143222262 -0.20369411332823331 0 0.30715254712033069 -0.22539943122446929 0 0.28158405213751547 -0.22140539282722879 0 0.30290052143222262 -0.20369411332823331 0 0.30715254712033069 -0.22539943122446929 0 0.30290052143222262 -0.20369411332823331 0 0.30715254712033069 -0.22539943122446929 0 0.32148368101975677 -0.2112815477794289 0 0.31140457280844042 -0.24710474912070499 0 0.29234931722919649 -0.23956849287787771 0 0.29718577407036301 -0.25519814195989071 0 0.30715254712033069 -0.22539943122446929 0 0.31140457280844042 -0.24710474912070499 0 0.29234931722919649 -0.23956849287787771 0 0.30715254712033069 -0.22539943122446929 0 0.31140457280844042 -0.24710474912070499 0 0.29234931722919649 -0.23956849287787771 0 0.27362138757170362 -0.2426007269765893 0 0.28009493911397709 -0.25531812806766069 0 0.29234931722919649 -0.23956849287787771 0 0.28158405213751547 -0.22140539282722879 0 0.27362138757170362 -0.2426007269765893 0 0.30715254712033069 -0.22539943122446929 0 0.29234931722919649 -0.23956849287787771 0 0.28158405213751547 -0.22140539282722879 0 0.28158405213751547 -0.22140539282722879 0 0.26621460642996558 -0.23052855599088379 0 0.27362138757170362 -0.2426007269765893 0 0.28158405213751547 -0.22140539282722879 0 0.26621460642996558 -0.23052855599088379 0 0.26307381511529532 -0.2143756044194241 0 0.26621460642996558 -0.23052855599088379 0 0.27362138757170362 -0.2426007269765893 0 0.26034160768121078 -0.2422716922893062 0 0.27362138757170362 -0.2426007269765893 0 0.26034160768121078 -0.2422716922893062 0 0.26515279713901752 -0.25474276698909742 0 0.26034160768121078 -0.2422716922893062 0 0.26515279713901752 -0.25474276698909742 0 0.25575058308532189 -0.25269357128633052 0 0.26034160768121078 -0.2422716922893062 0 0.25134951441318748 -0.22920843539767929 0 0.2499607574480687 -0.24385609709525671 0 0.25575058308532189 -0.25269357128633052 0 0.2462907050713771 -0.25204034373521428 0 0.2499607574480687 -0.24385609709525671 0 0.26034160768121078 -0.2422716922893062 0 0.25575058308532189 -0.25269357128633052 0 0.2499607574480687 -0.24385609709525671 0 0.26621460642996558 -0.23052855599088379 0 0.25134951441318748 -0.22920843539767929 0 0.26307381511529532 -0.2143756044194241 0 0.26621460642996558 -0.23052855599088379 0 0.26034160768121078 -0.2422716922893062 0 0.25134951441318748 -0.22920843539767929 0 0.25134951441318748 -0.22920843539767929 0 0.26307381511529532 -0.2143756044194241 0 0.24314545538918961 -0.20571013864437751 0 0.26307381511529532 -0.2143756044194241 0 0.2593871514889205 -0.19799184377322379 0 0.24314545538918961 -0.20571013864437751 0 0.26307381511529532 -0.2143756044194241 0 0.27747759048209231 -0.20168759245952969 0 0.2593871514889205 -0.19799184377322379 0 0.28158405213751547 -0.22140539282722879 0 0.26307381511529532 -0.2143756044194241 0 0.27747759048209231 -0.20168759245952969 0 0.27747759048209231 -0.20168759245952969 0 0.2593871514889205 -0.19799184377322379 0 0.269221803856454 -0.185599514949991 0 0.28632476970011178 -0.18938030831719929 0 0.27747759048209231 -0.20168759245952969 0 0.269221803856454 -0.185599514949991 0 0.2593871514889205 -0.19799184377322379 0 0.269221803856454 -0.185599514949991 0 0.2437278363918948 -0.18195096812212239 0 0.260919387449559 -0.16579352929295721 0 0.269221803856454 -0.185599514949991 0 0.2437278363918948 -0.18195096812212239 0 0.260919387449559 -0.16579352929295721 0 0.28401442498348639 -0.17719336780422379 0 0.260919387449559 -0.16579352929295721 0 0.27757308642867828 -0.16101723958663619 0 0.28401442498348639 -0.17719336780422379 0 0.260919387449559 -0.16579352929295721 0 0.27757308642867828 -0.16101723958663619 0 0.27224003922127837 -0.1473222684895614 0 0.260919387449559 -0.16579352929295721 0 0.269221803856454 -0.185599514949991 0 0.28401442498348639 -0.17719336780422379 0 0.28632476970011178 -0.18938030831719929 0 0.269221803856454 -0.185599514949991 0 0.28401442498348639 -0.17719336780422379 0 0.260919387449559 -0.16579352929295721 0 0.25452239946831973 -0.14829655140993131 0 0.27224003922127837 -0.1473222684895614 0 0.260919387449559 -0.16579352929295721 0 0.25452239946831973 -0.14829655140993131 0 0.23782434991563151 -0.15439369078169049 0 0.25741251913389712 -0.1305951081492244 0 0.25452239946831973 -0.14829655140993131 0 0.27224003922127837 -0.1473222684895614 0 0.27757308642867828 -0.16101723958663619 0 0.27224003922127837 -0.1473222684895614 0 0.2931184940603897 -0.15375979275980259 0 0.25741251913389712 -0.1305951081492244 0 0.27224003922127837 -0.1473222684895614 0 0.28822748037447399 -0.12879263247558709 0 0.29512866602350563 -0.1184484781339787 0 0.2959534750055749 -0.1435622706191019 0 0.29512866602350563 -0.1184484781339787 0 0.28822748037447399 -0.12879263247558709 0 0.2959534750055749 -0.1435622706191019 0 0.2959534750055749 -0.1435622706191019 0 0.2931184940603897 -0.15375979275980259 0 0.29606782433269818 -0.16881524064208181 0 0.28822748037447399 -0.12879263247558709 0 0.2959534750055749 -0.1435622706191019 0 0.2931184940603897 -0.15375979275980259 0 0.28822748037447399 -0.12879263247558709 0 0.2931184940603897 -0.15375979275980259 0 0.27224003922127837 -0.1473222684895614 0 0.28822748037447399 -0.12879263247558709 0 0.2931184940603897 -0.15375979275980259 0 0.2959534750055749 -0.1435622706191019 0 0.29606782433269818 -0.16881524064208181 0 0.2959534750055749 -0.1435622706191019 0 0.30786991093933941 -0.1327242262548293 0 0.31334084787329858 -0.14560100496875439 0 0.2959534750055749 -0.1435622706191019 0 0.30589655906226038 -0.156608858018214 0 0.31334084787329858 -0.14560100496875439 0 0.30589655906226038 -0.156608858018214 0 0.31666093946419188 -0.15748088094218049 0 0.31334084787329858 -0.14560100496875439 0 0.29512866602350563 -0.1184484781339787 0 0.2959534750055749 -0.1435622706191019 0 0.30010147488007238 -0.1276093355582181 0 0.2959534750055749 -0.1435622706191019 0 0.30786991093933941 -0.1327242262548293 0 0.30010147488007238 -0.1276093355582181 0 0.31399575267335023 -0.12250180558336519 0 0.30554459793957989 -0.1238630007756472 0 0.30786991093933941 -0.1327242262548293 0 0.30554459793957989 -0.1238630007756472 0 0.30786991093933941 -0.1327242262548293 0 0.30010147488007238 -0.1276093355582181 0 0.28401442498348639 -0.17719336780422379 0 0.29606782433269818 -0.16881524064208181 0 0.2980095077463053 -0.17872695304401809 0 0.28632476970011178 -0.18938030831719929 0 0.28401442498348639 -0.17719336780422379 0 0.2980095077463053 -0.17872695304401809 0 0.27757308642867828 -0.16101723958663619 0 0.2931184940603897 -0.15375979275980259 0 0.28401442498348639 -0.17719336780422379 0 0.2931184940603897 -0.15375979275980259 0 0.28401442498348639 -0.17719336780422379 0 0.29606782433269818 -0.16881524064208181 0 0.2931184940603897 -0.15375979275980259 0 0.29606782433269818 -0.16881524064208181 0 0.29606782433269818 -0.16881524064208181 0 0.30589655906226038 -0.156608858018214 0 0.31145366373618227 -0.1686264437044486 0 0.2959534750055749 -0.1435622706191019 0 0.29606782433269818 -0.16881524064208181 0 0.30589655906226038 -0.156608858018214 0 0.30589655906226038 -0.156608858018214 0 0.31145366373618227 -0.1686264437044486 0 0.31666093946419188 -0.15748088094218049 0 0.31145366373618227 -0.1686264437044486 0 0.2980095077463053 -0.17872695304401809 0 0.32549301828835953 -0.18492261693889581 0 0.29606782433269818 -0.16881524064208181 0 0.31145366373618227 -0.1686264437044486 0 0.2980095077463053 -0.17872695304401809 0 0.29606782433269818 -0.16881524064208181 0 0.2980095077463053 -0.17872695304401809 0 0.31145366373618227 -0.1686264437044486 0 0.32549301828835953 -0.18492261693889581 0 0.32738776678709508 -0.16545123116759969 0 0.31145366373618227 -0.1686264437044486 0 0.32738776678709508 -0.16545123116759969 0 0.31666093946419188 -0.15748088094218049 0 0.32738776678709508 -0.16545123116759969 0 0.31666093946419188 -0.15748088094218049 0 0.32968898845727718 -0.1497650634196834 0 0.32738776678709508 -0.16545123116759969 0 0.32968898845727718 -0.1497650634196834 0 0.34808551514449421 -0.1661511205495555 0 0.32549301828835953 -0.18492261693889581 0 0.32738776678709508 -0.16545123116759969 0 0.34808551514449421 -0.1661511205495555 0 0.32549301828835953 -0.18492261693889581 0 0.34808551514449421 -0.1661511205495555 0 0.32549301828835953 -0.18492261693889581 0 0.34808551514449421 -0.1661511205495555 0 0.34521429895780248 -0.1968392362703156 0 0.30786991093933941 -0.1327242262548293 0 0.32373683991627678 -0.1342707635111336 0 0.31334084787329858 -0.14560100496875439 0 0.31399575267335023 -0.12250180558336519 0 0.32517348349888747 -0.118580130041643 0 0.32373683991627678 -0.1342707635111336 0 0.31399575267335023 -0.12250180558336519 0 0.30786991093933941 -0.1327242262548293 0 0.32373683991627678 -0.1342707635111336 0 0.32373683991627678 -0.1342707635111336 0 0.31334084787329858 -0.14560100496875439 0 0.32968898845727718 -0.1497650634196834 0 0.31666093946419188 -0.15748088094218049 0 0.31334084787329858 -0.14560100496875439 0 0.32968898845727718 -0.1497650634196834 0 0.32373683991627678 -0.1342707635111336 0 0.32968898845727718 -0.1497650634196834 0 0.34485783347551252 -0.1433779188078016 0 0.32968898845727718 -0.1497650634196834 0 0.34485783347551252 -0.1433779188078016 0 0.34808551514449421 -0.1661511205495555 0 0.34014121552940491 -0.1203166258242544 0 0.32373683991627678 -0.1342707635111336 0 0.34485783347551252 -0.1433779188078016 0 0.34014121552940491 -0.1203166258242544 0 0.35551888896884759 -0.1297027680154724 0 0.34485783347551252 -0.1433779188078016 0 0.35551888896884759 -0.1297027680154724 0 0.34485783347551252 -0.1433779188078016 0 0.37067801200062889 -0.1473796241602153 0 0.34485783347551252 -0.1433779188078016 0 0.37067801200062889 -0.1473796241602153 0 0.34808551514449421 -0.1661511205495555 0 0.35551888896884759 -0.1297027680154724 0 0.37067801200062889 -0.1473796241602153 0 0.37104303648388809 -0.1272612894930944 0 0.34808551514449421 -0.1661511205495555 0 0.36752808638216261 -0.17990459429682831 0 0.34521429895780248 -0.1968392362703156 0 0.34808551514449421 -0.1661511205495555 0 0.37072349948513561 -0.1630779710757761 0 0.36752808638216261 -0.17990459429682831 0 0.37067801200062889 -0.1473796241602153 0 0.34808551514449421 -0.1661511205495555 0 0.37072349948513561 -0.1630779710757761 0 0.37067801200062889 -0.1473796241602153 0 0.34808551514449421 -0.1661511205495555 0 0.37072349948513561 -0.1630779710757761 0 0.36752808638216261 -0.17990459429682831 0 0.38565700028273392 -0.16791849986101029 0 0.36752808638216261 -0.17990459429682831 0 0.36890805570422369 -0.19954003101511669 0 0.34521429895780248 -0.1968392362703156 0 0.36752808638216261 -0.17990459429682831 0 0.36890805570422369 -0.19954003101511669 0 0.38551481473406651 -0.18910273675150999 0 0.36890805570422369 -0.19954003101511669 0 0.35851964138810982 -0.2171827375251118 0 0.37645297458065691 -0.21353851220024839 0 0.35851964138810982 -0.2171827375251118 0 0.34521429895780248 -0.1968392362703156 0 0.33865146772119931 -0.2184974665014994 0 0.36890805570422369 -0.19954003101511669 0 0.35851964138810982 -0.2171827375251118 0 0.34521429895780248 -0.1968392362703156 0 0.32549301828835953 -0.18492261693889581 0 0.34521429895780248 -0.1968392362703156 0 0.32148368101975677 -0.2112815477794289 0 0.34521429895780248 -0.1968392362703156 0 0.33865146772119931 -0.2184974665014994 0 0.32148368101975677 -0.2112815477794289 0 0.30290052143222262 -0.20369411332823331 0 0.32549301828835953 -0.18492261693889581 0 0.32148368101975677 -0.2112815477794289 0 0.30290052143222262 -0.20369411332823331 0 0.32549301828835953 -0.18492261693889581 0 0.31140457280844042 -0.24710474912070499 0 0.32841487832378857 -0.23419691532036521 0 0.32909477526671738 -0.25319804842994992 0 0.30715254712033069 -0.22539943122446929 0 0.31140457280844042 -0.24710474912070499 0 0.32841487832378857 -0.23419691532036521 0 0.30715254712033069 -0.22539943122446929 0 0.32148368101975677 -0.2112815477794289 0 0.32841487832378857 -0.23419691532036521 0 0.33865146772119931 -0.2184974665014994 0 0.32841487832378857 -0.23419691532036521 0 0.34678876975393269 -0.23153157971564481 0 0.33865146772119931 -0.2184974665014994 0 0.32148368101975677 -0.2112815477794289 0 0.32841487832378857 -0.23419691532036521 0 0.32841487832378857 -0.23419691532036521 0 0.34542116247921317 -0.24786541093840589 0 0.32909477526671738 -0.25319804842994992 0 0.32841487832378857 -0.23419691532036521 0 0.34542116247921317 -0.24786541093840589 0 0.34678876975393269 -0.23153157971564481 0 0.34542116247921317 -0.24786541093840589 0 0.36282952759798831 -0.23490181410806829 0 0.36211004630048071 -0.25874315800932568 0 0.34542116247921317 -0.24786541093840589 0 0.34678876975393269 -0.23153157971564481 0 0.36282952759798831 -0.23490181410806829 0 0.35851964138810982 -0.2171827375251118 0 0.33865146772119931 -0.2184974665014994 0 0.34678876975393269 -0.23153157971564481 0 0.35851964138810982 -0.2171827375251118 0 0.34678876975393269 -0.23153157971564481 0 0.36282952759798831 -0.23490181410806829 0 0.35851964138810982 -0.2171827375251118 0 0.37179579398026102 -0.22561915142401329 0 0.36282952759798831 -0.23490181410806829 0 0.35851964138810982 -0.2171827375251118 0 0.37179579398026102 -0.22561915142401329 0 0.37645297458065691 -0.21353851220024839 0 0.37179579398026102 -0.22561915142401329 0 0.36282952759798831 -0.23490181410806829 0 0.37754581309809132 -0.23651361028518689 0 0.36282952759798831 -0.23490181410806829 0 0.36876625398544938 -0.24898888889403961 0 0.36211004630048071 -0.25874315800932568 0 0.36282952759798831 -0.23490181410806829 0 0.36211004630048071 -0.25874315800932568 0 0.36282952759798831 -0.23490181410806829 0 0.36876625398544938 -0.24898888889403961 0 0.37754581309809132 -0.23651361028518689 0 0.37754581309809132 -0.23651361028518689 0 0.39300219267510322 -0.23842714914515989 0 0.3871149211879113 -0.25548270742864421 0 0.39300219267510322 -0.23842714914515989 0 0.3871149211879113 -0.25548270742864421 0 0.40207495352916539 -0.25113417058953519 0 0.39300219267510322 -0.23842714914515989 0 0.40723458142941671 -0.23497076085713389 0 0.40207495352916539 -0.25113417058953519 0 0.39851670543712209 -0.2244771902628257 0 0.41039622944065363 -0.2185270516157129 0 0.40723458142941671 -0.23497076085713389 0 0.39300219267510322 -0.23842714914515989 0 0.39851670543712209 -0.2244771902628257 0 0.40723458142941671 -0.23497076085713389 0 0.39300219267510322 -0.23842714914515989 0 0.39851670543712209 -0.2244771902628257 0 0.38505811203634721 -0.22522643630241351 0 0.39851670543712209 -0.2244771902628257 0 0.38505811203634721 -0.22522643630241351 0 0.39303519244684892 -0.21278300449704671 0 0.37754581309809132 -0.23651361028518689 0 0.39300219267510322 -0.23842714914515989 0 0.38505811203634721 -0.22522643630241351 0 0.37179579398026102 -0.22561915142401329 0 0.37754581309809132 -0.23651361028518689 0 0.38505811203634721 -0.22522643630241351 0 0.37179579398026102 -0.22561915142401329 0 0.38505811203634721 -0.22522643630241351 0 0.37645297458065691 -0.21353851220024839 0 0.38505811203634721 -0.22522643630241351 0 0.37645297458065691 -0.21353851220024839 0 0.39303519244684892 -0.21278300449704671 0 0.36890805570422369 -0.19954003101511669 0 0.37645297458065691 -0.21353851220024839 0 0.38544293285627962 -0.20314808770867229 0 0.37645297458065691 -0.21353851220024839 0 0.38544293285627962 -0.20314808770867229 0 0.39303519244684892 -0.21278300449704671 0 0.36890805570422369 -0.19954003101511669 0 0.38544293285627962 -0.20314808770867229 0 0.38551481473406651 -0.18910273675150999 0 0.38544293285627962 -0.20314808770867229 0 0.38551481473406651 -0.18910273675150999 0 0.40330362681560211 -0.20077615407943949 0 0.38551481473406651 -0.18910273675150999 0 0.40330362681560211 -0.20077615407943949 0 0.39995041381356911 -0.1868338584648204 0 0.40330362681560211 -0.20077615407943949 0 0.4125958117473455 -0.19170302267586259 0 0.39995041381356911 -0.1868338584648204 0 0.40330362681560211 -0.20077615407943949 0 0.39303519244684892 -0.21278300449704671 0 0.41039622944065363 -0.2185270516157129 0 0.38544293285627962 -0.20314808770867229 0 0.40330362681560211 -0.20077615407943949 0 0.39303519244684892 -0.21278300449704671 0 0.39851670543712209 -0.2244771902628257 0 0.39303519244684892 -0.21278300449704671 0 0.41039622944065363 -0.2185270516157129 0 0.40330362681560211 -0.20077615407943949 0 0.41039622944065363 -0.2185270516157129 0 0.42189732607146729 -0.20211324892629831 0 0.41039622944065363 -0.2185270516157129 0 0.42189732607146729 -0.20211324892629831 0 0.42790605200351661 -0.22140108800821251 0 0.40330362681560211 -0.20077615407943949 0 0.4125958117473455 -0.19170302267586259 0 0.42189732607146729 -0.20211324892629831 0 0.4125958117473455 -0.19170302267586259 0 0.42189732607146729 -0.20211324892629831 0 0.42233780496578233 -0.18319904235883591 0 0.42189732607146729 -0.20211324892629831 0 0.43389642119060762 -0.191962199940241 0 0.42233780496578233 -0.18319904235883591 0 0.42189732607146729 -0.20211324892629831 0 0.43389642119060762 -0.191962199940241 0 0.43723926749718739 -0.20471492206911249 0 0.43723926749718739 -0.20471492206911249 0 0.42790605200351661 -0.22140108800821251 0 0.44233814121790038 -0.22173902575952509 0 0.42189732607146729 -0.20211324892629831 0 0.43723926749718739 -0.20471492206911249 0 0.42790605200351661 -0.22140108800821251 0 0.43048550082884018 -0.24614270293406881 0 0.44233814121790038 -0.22173902575952509 0 0.42790605200351661 -0.22140108800821251 0 0.43048550082884018 -0.24614270293406881 0 0.44233814121790038 -0.22173902575952509 0 0.42790605200351661 -0.22140108800821251 0 0.43048550082884018 -0.24614270293406881 0 0.42088007225406548 -0.23367140350055049 0 0.43048550082884018 -0.24614270293406881 0 0.44582088554477811 -0.24525862245079941 0 0.43357426810421817 -0.25015303326672972 0 0.43048550082884018 -0.24614270293406881 0 0.42846035594967069 -0.25031232086228522 0 0.43357426810421817 -0.25015303326672972 0 0.43048550082884018 -0.24614270293406881 0 0.43357426810421817 -0.25015303326672972 0 0.43048550082884018 -0.24614270293406881 0 0.418537335240391 -0.2435876000290193 0 0.42846035594967069 -0.25031232086228522 0 0.43048550082884018 -0.24614270293406881 0 0.42846035594967069 -0.25031232086228522 0 0.43048550082884018 -0.24614270293406881 0 0.42088007225406548 -0.23367140350055049 0 0.43048550082884018 -0.24614270293406881 0 0.418537335240391 -0.2435876000290193 0 0.42088007225406548 -0.23367140350055049 0 0.418537335240391 -0.2435876000290193 0 0.40723458142941671 -0.23497076085713389 0 0.42088007225406548 -0.23367140350055049 0 0.418537335240391 -0.2435876000290193 0 0.40723458142941671 -0.23497076085713389 0 0.40207495352916539 -0.25113417058953519 0 0.418537335240391 -0.2435876000290193 0 0.40207495352916539 -0.25113417058953519 0 0.42846035594967069 -0.25031232086228522 0 0.41039622944065363 -0.2185270516157129 0 0.40723458142941671 -0.23497076085713389 0 0.42088007225406548 -0.23367140350055049 0 0.41039622944065363 -0.2185270516157129 0 0.42790605200351661 -0.22140108800821251 0 0.42088007225406548 -0.23367140350055049 0 0.3932705088567644 -0.1286081277708763 0 0.38946375456974969 -0.1482633138159434 0 0.40032650034539519 -0.13972272199131119 0 0.3932705088567644 -0.1286081277708763 0 0.38946375456974969 -0.1482633138159434 0 0.40224748518751269 -0.1211494002184121 0 0.40802316631723889 -0.13171289331352951 0 0.40224748518751269 -0.1211494002184121 0 0.40096691517672778 -0.13029828582353201 0 0.3932705088567644 -0.1286081277708763 0 0.40224748518751269 -0.1211494002184121 0 0.40096691517672778 -0.13029828582353201 0 0.40802316631723889 -0.13171289331352951 0 0.40096691517672778 -0.13029828582353201 0 0.40032650034539519 -0.13972272199131119 0 0.40802316631723889 -0.13171289331352951 0 0.40032650034539519 -0.13972272199131119 0 0.40802316631723889 -0.13171289331352951 0 0.40096691517672778 -0.13029828582353201 0 0.40032650034539519 -0.13972272199131119 0 0.3932705088567644 -0.1286081277708763 0 0.37067801200062889 -0.1473796241602153 0 0.37104303648388809 -0.1272612894930944 0 0.3932705088567644 -0.1286081277708763 0 0.37067801200062889 -0.1473796241602153 0 0.3932705088567644 -0.1286081277708763 0 0.37067801200062889 -0.1473796241602153 0 0.37072349948513561 -0.1630779710757761 0 0.38946375456974969 -0.1482633138159434 0 0.37067801200062889 -0.1473796241602153 0 0.3932705088567644 -0.1286081277708763 0 0.38946375456974969 -0.1482633138159434 0 0.40032650034539519 -0.13972272199131119 0 0.38946375456974969 -0.1482633138159434 0 0.40103769468862932 -0.15735650722112959 0 0.38946375456974969 -0.1482633138159434 0 0.40103769468862932 -0.15735650722112959 0 0.38565700028273392 -0.16791849986101029 0 0.40103769468862932 -0.15735650722112959 0 0.38565700028273392 -0.16791849986101029 0 0.40804365254297231 -0.17415516972609171 0 0.37072349948513561 -0.1630779710757761 0 0.38946375456974969 -0.1482633138159434 0 0.38565700028273392 -0.16791849986101029 0 0.38946375456974969 -0.1482633138159434 0 0.38565700028273392 -0.16791849986101029 0 0.38551481473406651 -0.18910273675150999 0 0.38565700028273392 -0.16791849986101029 0 0.39995041381356911 -0.1868338584648204 0 0.36752808638216261 -0.17990459429682831 0 0.38551481473406651 -0.18910273675150999 0 0.38565700028273392 -0.16791849986101029 0 0.38565700028273392 -0.16791849986101029 0 0.39995041381356911 -0.1868338584648204 0 0.40804365254297231 -0.17415516972609171 0 0.4125958117473455 -0.19170302267586259 0 0.40804365254297231 -0.17415516972609171 0 0.42233780496578233 -0.18319904235883591 0 0.4125958117473455 -0.19170302267586259 0 0.39995041381356911 -0.1868338584648204 0 0.40804365254297231 -0.17415516972609171 0 0.42233780496578233 -0.18319904235883591 0 0.43537196508735049 -0.18173276810905351 0 0.42169756570229522 -0.15672283071129131 0 0.43389642119060762 -0.191962199940241 0 0.42233780496578233 -0.18319904235883591 0 0.43537196508735049 -0.18173276810905351 0 0.43537196508735049 -0.18173276810905351 0 0.42169756570229522 -0.15672283071129131 0 0.43537196508735049 -0.18173276810905351 0 0.42169756570229522 -0.15672283071129131 0 0.44011919579772352 -0.15902857640534751 0 0.40804365254297231 -0.17415516972609171 0 0.42233780496578233 -0.18319904235883591 0 0.42169756570229522 -0.15672283071129131 0 0.40103769468862932 -0.15735650722112959 0 0.40804365254297231 -0.17415516972609171 0 0.42169756570229522 -0.15672283071129131 0 0.40032650034539519 -0.13972272199131119 0 0.40103769468862932 -0.15735650722112959 0 0.42169756570229522 -0.15672283071129131 0 0.42169756570229522 -0.15672283071129131 0 0.40802316631723889 -0.13171289331352951 0 0.40032650034539519 -0.13972272199131119 0 0.42169756570229522 -0.15672283071129131 0 0.40802316631723889 -0.13171289331352951 0 0.42169756570229522 -0.15672283071129131 0 0.43087782981676859 -0.131879285754128 0 0.44052259681213413 -0.14512254840888281 0 0.42169756570229522 -0.15672283071129131 0 0.44052259681213413 -0.14512254840888281 0 0.44011919579772352 -0.15902857640534751 0 0.42510906065580589 -0.11393180641703871 0 0.43087782981676859 -0.131879285754128 0 0.40802316631723889 -0.13171289331352951 0 0.42169756570229522 -0.15672283071129131 0 0.43087782981676859 -0.131879285754128 0 0.40802316631723889 -0.13171289331352951 0 0.46093003486481321 -0.11810563265674839 0 0.46623847963083442 -0.1374076686568538 0 0.47239045088042492 -0.13005034139104371 0 0.46093003486481321 -0.11810563265674839 0 0.45430072039358249 -0.1470470373257684 0 0.46093003486481321 -0.11810563265674839 0 0.46623847963083442 -0.1374076686568538 0 0.45430072039358249 -0.1470470373257684 0 0.46093003486481321 -0.11810563265674839 0 0.44582693855797939 -0.1311402400572215 0 0.45430072039358249 -0.1470470373257684 0 0.441730170532879 -0.1159420230490274 0 0.43087782981676859 -0.131879285754128 0 0.44582693855797939 -0.1311402400572215 0 0.43087782981676859 -0.131879285754128 0 0.44582693855797939 -0.1311402400572215 0 0.44052259681213413 -0.14512254840888281 0 0.44582693855797939 -0.1311402400572215 0 0.44052259681213413 -0.14512254840888281 0 0.45430072039358249 -0.1470470373257684 0 0.44052259681213413 -0.14512254840888281 0 0.45430072039358249 -0.1470470373257684 0 0.44011919579772352 -0.15902857640534751 0 0.46623847963083442 -0.1374076686568538 0 0.45430072039358249 -0.1470470373257684 0 0.46795215833203208 -0.14958538313512479 0 0.45430072039358249 -0.1470470373257684 0 0.46795215833203208 -0.14958538313512479 0 0.46249654728105127 -0.15875526896169859 0 0.46249654728105127 -0.15875526896169859 0 0.44767140592235177 -0.17598844199478861 0 0.4590637049386419 -0.17656280063954849 0 0.46795215833203208 -0.14958538313512479 0 0.46765797362325351 -0.16960743348544691 0 0.46249654728105127 -0.15875526896169859 0 0.46765797362325351 -0.16960743348544691 0 0.46249654728105127 -0.15875526896169859 0 0.4590637049386419 -0.17656280063954849 0 0.45430072039358249 -0.1470470373257684 0 0.46249654728105127 -0.15875526896169859 0 0.44767140592235177 -0.17598844199478861 0 0.46249654728105127 -0.15875526896169859 0 0.4590637049386419 -0.17656280063954849 0 0.45430072039358249 -0.1470470373257684 0 0.44011919579772352 -0.15902857640534751 0 0.44767140592235177 -0.17598844199478861 0 0.45430072039358249 -0.1470470373257684 0 0.44767140592235177 -0.17598844199478861 0 0.44767140592235177 -0.17598844199478861 0 0.45131049953134228 -0.18433764364674099 0 0.4590637049386419 -0.17656280063954849 0 0.43537196508735049 -0.18173276810905351 0 0.44011919579772352 -0.15902857640534751 0 0.44767140592235177 -0.17598844199478861 0 0.43389642119060762 -0.191962199940241 0 0.43537196508735049 -0.18173276810905351 0 0.44405046135624082 -0.18412940313962539 0 0.43537196508735049 -0.18173276810905351 0 0.44767140592235177 -0.17598844199478861 0 0.44405046135624082 -0.18412940313962539 0 0.44405046135624082 -0.18412940313962539 0 0.45131049953134228 -0.18433764364674099 0 0.4501360628432447 -0.19063724014234421 0 0.44767140592235177 -0.17598844199478861 0 0.44405046135624082 -0.18412940313962539 0 0.45131049953134228 -0.18433764364674099 0 0.46765797362325351 -0.16960743348544691 0 0.4590637049386419 -0.17656280063954849 0 0.45563086259623248 -0.19437033231739831 0 0.4590637049386419 -0.17656280063954849 0 0.45563086259623248 -0.19437033231739831 0 0.46765797362325351 -0.16960743348544691 0 0.45563086259623248 -0.19437033231739831 0 0.46765797362325351 -0.16960743348544691 0 0.46817453342310178 -0.17984984725849121 0 0.45563086259623248 -0.19437033231739831 0 0.45131049953134228 -0.18433764364674099 0 0.4590637049386419 -0.17656280063954849 0 0.45563086259623248 -0.19437033231739831 0 0.46817453342310178 -0.17984984725849121 0 0.47868008644015098 -0.18364062408913809 0 0.4864423059537345 -0.17561039486471769 0 0.46817453342310178 -0.17984984725849121 0 0.47868008644015098 -0.18364062408913809 0 0.47427671796452459 -0.19390449174425081 0 0.4864423059537345 -0.17561039486471769 0 0.5 -0.16076066479590659 0 0.5 -0.1885669917164324 0 0.47868008644015098 -0.18364062408913809 0 0.4864423059537345 -0.17561039486471769 0 0.5 -0.1885669917164324 0 0.4864423059537345 -0.17561039486471769 0 0.5 -0.16076066479590659 0 0.4874204893839118 -0.1629257968797283 0 0.5 -0.16076066479590659 0 0.4874204893839118 -0.1629257968797283 0 0.48836632050416018 -0.15319142364385391 0 0.46765797362325351 -0.16960743348544691 0 0.47968508465027437 -0.14484453465349531 0 0.46817453342310178 -0.17984984725849121 0 0.4864423059537345 -0.17561039486471769 0 0.47621222687475862 -0.15989320835224299 0 0.46765797362325351 -0.16960743348544691 0 0.46817453342310178 -0.17984984725849121 0 0.47621222687475862 -0.15989320835224299 0 0.4864423059537345 -0.17561039486471769 0 0.4874204893839118 -0.1629257968797283 0 0.47621222687475862 -0.15989320835224299 0 0.46817453342310178 -0.17984984725849121 0 0.47621222687475862 -0.15989320835224299 0 0.4874204893839118 -0.1629257968797283 0 0.47621222687475862 -0.15989320835224299 0 0.48836632050416018 -0.15319142364385391 0 0.46765797362325351 -0.16960743348544691 0 0.47621222687475862 -0.15989320835224299 0 0.47968508465027437 -0.14484453465349531 0 0.47621222687475862 -0.15989320835224299 0 0.48424992032641551 -0.13993656944599481 0 0.47621222687475862 -0.15989320835224299 0 0.48836632050416018 -0.15319142364385391 0 0.48424992032641551 -0.13993656944599481 0 0.46795215833203208 -0.14958538313512479 0 0.46765797362325351 -0.16960743348544691 0 0.47968508465027437 -0.14484453465349531 0 0.47621222687475862 -0.15989320835224299 0 0.47968508465027437 -0.14484453465349531 0 0.48424992032641551 -0.13993656944599481 0 0.46623847963083442 -0.1374076686568538 0 0.46795215833203208 -0.14958538313512479 0 0.47424994269801352 -0.1397372940967013 0 0.46795215833203208 -0.14958538313512479 0 0.47968508465027437 -0.14484453465349531 0 0.47424994269801352 -0.1397372940967013 0 0.47968508465027437 -0.14484453465349531 0 0.47994759956173211 -0.14051186616834291 0 0.47424994269801352 -0.1397372940967013 0 0.47968508465027437 -0.14484453465349531 0 0.48424992032641551 -0.13993656944599481 0 0.47994759956173211 -0.14051186616834291 0 0.5 -0.16076066479590659 0 0.48836632050416018 -0.15319142364385391 0 0.5 -0.13295433787538069 0 0.48836632050416018 -0.15319142364385391 0 0.5 -0.13295433787538069 0 0.48424992032641551 -0.13993656944599481 0 0.48916266477234061 -0.13224727383335569 0 0.48085855782101261 -0.13626791926353529 0 0.48424992032641551 -0.13993656944599481 0 0.5 -0.13295433787538069 0 0.48916266477234061 -0.13224727383335569 0 0.48424992032641551 -0.13993656944599481 0 0.48986304781109291 -0.1242692167884092 0 0.5 -0.13295433787538069 0 0.48916266477234061 -0.13224727383335569 0 0.48986304781109291 -0.1242692167884092 0 0.48916266477234061 -0.13224727383335569 0 0.48085855782101261 -0.13626791926353529 0 0.47499259514944292 -0.1202547269832886 0 0.48085855782101261 -0.13626791926353529 0 0.47239045088042492 -0.13005034139104371 0 0.48085855782101261 -0.13626791926353529 0 0.48424992032641551 -0.13993656944599481 0 0.47994759956173211 -0.14051186616834291 0 0.48085855782101261 -0.13626791926353529 0 0.47994759956173211 -0.14051186616834291 0 0.47424994269801352 -0.1397372940967013 0 0.48085855782101261 -0.13626791926353529 0 0.47424994269801352 -0.1397372940967013 0 0.47239045088042492 -0.13005034139104371 0 0.46623847963083442 -0.1374076686568538 0 0.47424994269801352 -0.1397372940967013 0 0.47239045088042492 -0.13005034139104371 0 0.45735248248792831 -0.2263504469462593 0 0.45606595353113982 -0.2348942090935259 0 0.45040787416373163 -0.22146407059246401 0 0.4593659812364308 -0.22004368230368379 0 0.45735248248792831 -0.2263504469462593 0 0.45040787416373163 -0.22146407059246401 0 0.4593659812364308 -0.22004368230368379 0 0.45735248248792831 -0.2263504469462593 0 0.47005683011064803 -0.22590290220369119 0 0.4593659812364308 -0.22004368230368379 0 0.46586242272604061 -0.21273545752659301 0 0.47005683011064803 -0.22590290220369119 0 0.45735248248792831 -0.2263504469462593 0 0.45606595353113982 -0.2348942090935259 0 0.47005683011064803 -0.22590290220369119 0 0.46661169077989217 -0.2415165845456661 0 0.45606595353113982 -0.2348942090935259 0 0.47005683011064803 -0.22590290220369119 0 0.46661169077989217 -0.2415165845456661 0 0.45571617873614662 -0.24946335937342859 0 0.47785808936807489 -0.24877368548012899 0 0.45571617873614662 -0.24946335937342859 0 0.47785808936807489 -0.24877368548012899 0 0.46661169077989217 -0.2415165845456661 0 0.45518121600666411 -0.24259067484840299 0 0.45571617873614662 -0.24946335937342859 0 0.46661169077989217 -0.2415165845456661 0 0.45518121600666411 -0.24259067484840299 0 0.45606595353113982 -0.2348942090935259 0 0.45571617873614662 -0.24946335937342859 0 0.43357426810421817 -0.25015303326672972 0 0.43048550082884018 -0.24614270293406881 0 0.44582088554477811 -0.24525862245079941 0 0.44233814121790038 -0.22173902575952509 0 0.45571617873614662 -0.24946335937342859 0 0.44582088554477811 -0.24525862245079941 0 0.43357426810421817 -0.25015303326672972 0 0.45518121600666411 -0.24259067484840299 0 0.45606595353113982 -0.2348942090935259 0 0.44582088554477811 -0.24525862245079941 0 0.45518121600666411 -0.24259067484840299 0 0.45571617873614662 -0.24946335937342859 0 0.44582088554477811 -0.24525862245079941 0 0.44582088554477811 -0.24525862245079941 0 0.44233814121790038 -0.22173902575952509 0 0.45040787416373163 -0.22146407059246401 0 0.44582088554477811 -0.24525862245079941 0 0.45040787416373163 -0.22146407059246401 0 0.45606595353113982 -0.2348942090935259 0 0.44582088554477811 -0.24525862245079941 0 0.45040787416373163 -0.22146407059246401 0 0.43723926749718739 -0.20471492206911249 0 0.44233814121790038 -0.22173902575952509 0 0.45499486278268447 -0.1976695187341285 0 0.45040787416373163 -0.22146407059246401 0 0.45499486278268447 -0.1976695187341285 0 0.44233814121790038 -0.22173902575952509 0 0.45040787416373163 -0.22146407059246401 0 0.45499486278268447 -0.1976695187341285 0 0.44233814121790038 -0.22173902575952509 0 0.45499486278268447 -0.1976695187341285 0 0.43723926749718739 -0.20471492206911249 0 0.44395992212319679 -0.19308347956624619 0 0.45499486278268447 -0.1976695187341285 0 0.43389642119060762 -0.191962199940241 0 0.44405046135624082 -0.18412940313962539 0 0.44395992212319679 -0.19308347956624619 0 0.43389642119060762 -0.191962199940241 0 0.43723926749718739 -0.20471492206911249 0 0.44395992212319679 -0.19308347956624619 0 0.44395992212319679 -0.19308347956624619 0 0.45499486278268447 -0.1976695187341285 0 0.45131049953134228 -0.18433764364674099 0 0.4501360628432447 -0.19063724014234421 0 0.45563086259623248 -0.19437033231739831 0 0.44395992212319679 -0.19308347956624619 0 0.4501360628432447 -0.19063724014234421 0 0.45499486278268447 -0.1976695187341285 0 0.44405046135624082 -0.18412940313962539 0 0.44395992212319679 -0.19308347956624619 0 0.4501360628432447 -0.19063724014234421 0 0.46817453342310178 -0.17984984725849121 0 0.46013683997144489 -0.19980648616473931 0 0.47427671796452459 -0.19390449174425081 0 0.46817453342310178 -0.17984984725849121 0 0.46013683997144489 -0.19980648616473931 0 0.46817453342310178 -0.17984984725849121 0 0.45563086259623248 -0.19437033231739831 0 0.46013683997144489 -0.19980648616473931 0 0.4501360628432447 -0.19063724014234421 0 0.45563086259623248 -0.19437033231739831 0 0.45499486278268447 -0.1976695187341285 0 0.45499486278268447 -0.1976695187341285 0 0.46013683997144489 -0.19980648616473931 0 0.45563086259623248 -0.19437033231739831 0 0.45499486278268447 -0.1976695187341285 0 0.45563086259623248 -0.19437033231739831 0 0.45499486278268447 -0.1976695187341285 0 0.46013683997144489 -0.19980648616473931 0 0.46013683997144489 -0.19980648616473931 0 0.46586242272604061 -0.21273545752659301 0 0.48006841998572208 -0.20808990240084899 0 0.45040787416373163 -0.22146407059246401 0 0.45499486278268447 -0.1976695187341285 0 0.4548395438527213 -0.21295904373074681 0 0.4593659812364308 -0.22004368230368379 0 0.45040787416373163 -0.22146407059246401 0 0.4548395438527213 -0.21295904373074681 0 0.4593659812364308 -0.22004368230368379 0 0.4548395438527213 -0.21295904373074681 0 0.46586242272604061 -0.21273545752659301 0 0.46013683997144489 -0.19980648616473931 0 0.4548395438527213 -0.21295904373074681 0 0.45499486278268447 -0.1976695187341285 0 0.46013683997144489 -0.19980648616473931 0 0.4548395438527213 -0.21295904373074681 0 0.46013683997144489 -0.19980648616473931 0 0.4548395438527213 -0.21295904373074681 0 0.46586242272604061 -0.21273545752659301 0 0.46013683997144489 -0.19980648616473931 0 0.48006841998572208 -0.20808990240084899 0 0.46586242272604061 -0.21273545752659301 0 0.48006841998572208 -0.20808990240084899 0 0.47005683011064803 -0.22590290220369119 0 0.46013683997144489 -0.19980648616473931 0 0.48006841998572208 -0.20808990240084899 0 0.47427671796452459 -0.19390449174425081 0 0.47868008644015098 -0.18364062408913809 0 0.47427671796452459 -0.19390449174425081 0 0.5 -0.1885669917164324 0 0.48006841998572208 -0.20808990240084899 0 0.47427671796452459 -0.19390449174425081 0 0.5 -0.1885669917164324 0 0.48006841998572208 -0.20808990240084899 0 0.5 -0.1885669917164324 0 0.49999999999999961 -0.21637331863695819 0 0.48006841998572208 -0.20808990240084899 0 0.49999999999999961 -0.21637331863695819 0 0.48006841998572208 -0.20808990240084899 0 0.49999999999999961 -0.21637331863695819 0 0.4862545149737133 -0.22430099187442659 0 0.49999999999999961 -0.21637331863695819 0 0.5 -0.2322286651118938 0 0.4862545149737133 -0.22430099187442659 0 0.5 -0.2322286651118938 0 0.4862545149737133 -0.22430099187442659 0 0.48731543898686108 -0.23834171508702701 0 0.4862545149737133 -0.22430099187442659 0 0.47005683011064803 -0.22590290220369119 0 0.48731543898686108 -0.23834171508702701 0 0.48006841998572208 -0.20808990240084899 0 0.4862545149737133 -0.22430099187442659 0 0.47005683011064803 -0.22590290220369119 0 0.46661169077989217 -0.2415165845456661 0 0.47005683011064803 -0.22590290220369119 0 0.48731543898686108 -0.23834171508702701 0 0.46661169077989217 -0.2415165845456661 0 0.47785808936807489 -0.24877368548012899 0 0.48731543898686108 -0.23834171508702701 0 0.47785808936807489 -0.24877368548012899 0 0.50000000000000333 -0.24808401158682941 0 0.48731543898686108 -0.23834171508702701 0 0.5 -0.2322286651118938 0 0.50000000000000333 -0.24808401158682941 0 0.48731543898686108 -0.23834171508702701 0 0.47785808936807489 -0.24877368548012899 0 0.50000000000000333 -0.24808401158682941 0 0.50000000000000333 -0.24808401158682941 0 0.48656724266228879 -0.26126228076250718 0 0.5 -0.26842994380811291 0 0.47785808936807489 -0.24877368548012899 0 0.50000000000000333 -0.24808401158682941 0 0.48656724266228879 -0.26126228076250718 0 0.5 -0.26842994380811291 0 0.48208681399926079 -0.27581357356502773 0 0.50000000000000111 -0.28877587602939642 0 0.48656724266228879 -0.26126228076250718 0 0.5 -0.26842994380811291 0 0.48208681399926079 -0.27581357356502773 0 0.48208681399926079 -0.27581357356502773 0 0.46068671901070851 -0.28535474144655731 0 0.48208681399926079 -0.27581357356502773 0 0.46768981413575761 -0.2649492641288182 0 0.46068671901070851 -0.28535474144655731 0 0.48656724266228879 -0.26126228076250718 0 0.48208681399926079 -0.27581357356502773 0 0.46768981413575761 -0.2649492641288182 0 0.47785808936807489 -0.24877368548012899 0 0.48656724266228879 -0.26126228076250718 0 0.46768981413575761 -0.2649492641288182 0 0.45571617873614662 -0.24946335937342859 0 0.47785808936807489 -0.24877368548012899 0 0.46768981413575761 -0.2649492641288182 0 0.45571617873614662 -0.24946335937342859 0 0.46768981413575761 -0.2649492641288182 0 0.44713049355746243 -0.26775388735664418 0 0.46768981413575761 -0.2649492641288182 0 0.44713049355746243 -0.26775388735664418 0 0.46068671901070851 -0.28535474144655731 0 0.44713049355746243 -0.26775388735664418 0 0.46068671901070851 -0.28535474144655731 0 0.45571617873614662 -0.24946335937342859 0 0.44713049355746243 -0.26775388735664418 0 0.43357426810421817 -0.25015303326672972 0 0.44713049355746243 -0.26775388735664418 0 0.43357426810421817 -0.25015303326672972 0 0.43808872290812301 -0.29542998993102848 0 0.44582747314286902 -0.31276753443956201 0 0.43031487288344161 -0.31703067604683871 0 0.43808872290812301 -0.29542998993102848 0 0.45932525709009708 -0.30194153040829069 0 0.44582747314286902 -0.31276753443956201 0 0.43808872290812301 -0.29542998993102848 0 0.46068671901070851 -0.28535474144655731 0 0.45932525709009708 -0.30194153040829069 0 0.43808872290812301 -0.29542998993102848 0 0.46068671901070851 -0.28535474144655731 0 0.44713049355746243 -0.26775388735664418 0 0.43808872290812301 -0.29542998993102848 0 0.46068671901070851 -0.28535474144655731 0 0.46068671901070851 -0.28535474144655731 0 0.47654280981399377 -0.30594164756046982 0 0.46068671901070851 -0.28535474144655731 0 0.45932525709009708 -0.30194153040829069 0 0.47654280981399377 -0.30594164756046982 0 0.45932525709009708 -0.30194153040829069 0 0.46020140703816609 -0.31790014661013011 0 0.44582747314286902 -0.31276753443956201 0 0.47654280981399377 -0.30594164756046982 0 0.46020140703816609 -0.31790014661013011 0 0.45932525709009708 -0.30194153040829069 0 0.47654280981399377 -0.30594164756046982 0 0.46020140703816609 -0.31790014661013011 0 0.47654280981399377 -0.30594164756046982 0 0.48452590656705868 -0.31630657706248883 0 0.48208681399926079 -0.27581357356502773 0 0.46068671901070851 -0.28535474144655731 0 0.47654280981399377 -0.30594164756046982 0 0.48208681399926079 -0.27581357356502773 0 0.47654280981399377 -0.30594164756046982 0 0.50000000000000111 -0.28877587602939642 0 0.50000000000000111 -0.28877587602939642 0 0.5 -0.31627016595707702 0 0.48452590656705868 -0.31630657706248883 0 0.47654280981399377 -0.30594164756046982 0 0.50000000000000111 -0.28877587602939642 0 0.47654280981399377 -0.30594164756046982 0 0.50000000000000111 -0.28877587602939642 0 0.48452590656705868 -0.31630657706248883 0 0.5 -0.31627016595707702 0 0.48452590656705868 -0.31630657706248883 0 0.4798244965011923 -0.33203805400226027 0 0.5 -0.31627016595707702 0 0.4798244965011923 -0.33203805400226027 0 0.5 -0.34376445588475768 0 0.4798244965011923 -0.33203805400226027 0 0.46847105179670839 -0.34389899480205388 0 0.46020140703816609 -0.31790014661013011 0 0.47654280981399377 -0.30594164756046982 0 0.47527365498010271 -0.31804660630883719 0 0.46020140703816609 -0.31790014661013011 0 0.48452590656705868 -0.31630657706248883 0 0.4798244965011923 -0.33203805400226027 0 0.47527365498010271 -0.31804660630883719 0 0.4798244965011923 -0.33203805400226027 0 0.47527365498010271 -0.31804660630883719 0 0.46020140703816609 -0.31790014661013011 0 0.47654280981399377 -0.30594164756046982 0 0.48452590656705868 -0.31630657706248883 0 0.47527365498010271 -0.31804660630883719 0 0.49999999999999711 -0.37125874581243851 0 0.48806042456369142 -0.35612155968098341 0 0.47674069655525092 -0.3698978429939776 0 0.4798244965011923 -0.33203805400226027 0 0.48806042456369142 -0.35612155968098341 0 0.5 -0.34376445588475768 0 0.49999999999999711 -0.37125874581243851 0 0.48806042456369142 -0.35612155968098341 0 0.5 -0.34376445588475768 0 0.4798244965011923 -0.33203805400226027 0 0.48806042456369142 -0.35612155968098341 0 0.46847105179670839 -0.34389899480205388 0 0.48806042456369142 -0.35612155968098341 0 0.47674069655525092 -0.3698978429939776 0 0.46847105179670839 -0.34389899480205388 0 0.47674069655525092 -0.3698978429939776 0 0.46847105179670839 -0.34389899480205388 0 0.47674069655525092 -0.3698978429939776 0 0.45392603783110008 -0.37108838658624999 0 0.46847105179670839 -0.34389899480205388 0 0.45392603783110008 -0.37108838658624999 0 0.46847105179670839 -0.34389899480205388 0 0.44672977628043381 -0.35017364189741718 0 0.45392603783110008 -0.37108838658624999 0 0.44672977628043381 -0.35017364189741718 0 0.42785183481717409 -0.36595316276467199 0 0.45392603783110008 -0.37108838658624999 0 0.42785183481717409 -0.36595316276467199 0 0.43242581624588322 -0.38730115333965082 0 0.46847105179670839 -0.34389899480205388 0 0.46020140703816609 -0.31790014661013011 0 0.46847105179670839 -0.34389899480205388 0 0.46020140703816609 -0.31790014661013011 0 0.45431986664039198 -0.33607192194780172 0 0.46847105179670839 -0.34389899480205388 0 0.44672977628043381 -0.35017364189741718 0 0.45431986664039198 -0.33607192194780172 0 0.44672977628043381 -0.35017364189741718 0 0.44127539957872802 -0.33175003730325792 0 0.42823689835664952 -0.34636857782623809 0 0.44672977628043381 -0.35017364189741718 0 0.45431986664039198 -0.33607192194780172 0 0.44127539957872802 -0.33175003730325792 0 0.46020140703816609 -0.31790014661013011 0 0.45431986664039198 -0.33607192194780172 0 0.44127539957872802 -0.33175003730325792 0 0.44127539957872802 -0.33175003730325792 0 0.44582747314286902 -0.31276753443956201 0 0.43031487288344161 -0.31703067604683871 0 0.46020140703816609 -0.31790014661013011 0 0.44127539957872802 -0.33175003730325792 0 0.46020140703816609 -0.31790014661013011 0 0.44127539957872802 -0.33175003730325792 0 0.44582747314286902 -0.31276753443956201 0 0.44127539957872802 -0.33175003730325792 0 0.43031487288344161 -0.31703067604683871 0 0.41707429101309201 -0.3297381436533145 0 0.44127539957872802 -0.33175003730325792 0 0.41707429101309201 -0.3297381436533145 0 0.42823689835664952 -0.34636857782623809 0 0.41707429101309201 -0.3297381436533145 0 0.42823689835664952 -0.34636857782623809 0 0.40866613474490449 -0.35252068697126149 0 0.41707429101309201 -0.3297381436533145 0 0.39289273070295128 -0.31558048689996993 0 0.41549072680553711 -0.30550523841549909 0 0.43031487288344161 -0.31703067604683871 0 0.41707429101309201 -0.3297381436533145 0 0.41549072680553711 -0.30550523841549909 0 0.44672977628043381 -0.35017364189741718 0 0.42785183481717409 -0.36595316276467199 0 0.42823689835664952 -0.34636857782623809 0 0.42785183481717409 -0.36595316276467199 0 0.40866613474490449 -0.35252068697126149 0 0.42785183481717409 -0.36595316276467199 0 0.42823689835664952 -0.34636857782623809 0 0.40866613474490449 -0.35252068697126149 0 0.42785183481717409 -0.36595316276467199 0 0.4111933065081313 -0.36805982019164402 0 0.41287057948892703 -0.38518927514730122 0 0.42785183481717409 -0.36595316276467199 0 0.40866613474490449 -0.35252068697126149 0 0.4111933065081313 -0.36805982019164402 0 0.39290052262193498 -0.35565000096393579 0 0.38249634533461108 -0.36797477098799591 0 0.39650622041158878 -0.3765742856902482 0 0.4111933065081313 -0.36805982019164402 0 0.39290052262193498 -0.35565000096393579 0 0.39650622041158878 -0.3765742856902482 0 0.40866613474490449 -0.35252068697126149 0 0.39290052262193498 -0.35565000096393579 0 0.38948043467263488 -0.33908821117785082 0 0.40866613474490449 -0.35252068697126149 0 0.38948043467263488 -0.33908821117785082 0 0.40866613474490449 -0.35252068697126149 0 0.4111933065081313 -0.36805982019164402 0 0.39290052262193498 -0.35565000096393579 0 0.39290052262193498 -0.35565000096393579 0 0.37818146540529818 -0.34934783795600571 0 0.38249634533461108 -0.36797477098799591 0 0.39290052262193498 -0.35565000096393579 0 0.37818146540529818 -0.34934783795600571 0 0.38948043467263488 -0.33908821117785082 0 0.37818146540529818 -0.34934783795600571 0 0.38249634533461108 -0.36797477098799591 0 0.37305712147220338 -0.36102055586376819 0 0.41707429101309201 -0.3297381436533145 0 0.40866613474490449 -0.35252068697126149 0 0.38948043467263488 -0.33908821117785082 0 0.41707429101309201 -0.3297381436533145 0 0.39289273070295128 -0.31558048689996993 0 0.38948043467263488 -0.33908821117785082 0 0.37818146540529818 -0.34934783795600571 0 0.38948043467263488 -0.33908821117785082 0 0.37212478857772979 -0.33864880005647208 0 0.38948043467263488 -0.33908821117785082 0 0.37029473460036533 -0.32565573538444043 0 0.38948043467263488 -0.33908821117785082 0 0.37029473460036533 -0.32565573538444043 0 0.37212478857772979 -0.33864880005647208 0 0.39289273070295128 -0.31558048689996993 0 0.38064079273778262 -0.31288188218018531 0 0.37029473460036533 -0.32565573538444043 0 0.39289273070295128 -0.31558048689996993 0 0.37029473460036533 -0.32565573538444043 0 0.39289273070295128 -0.31558048689996993 0 0.38948043467263488 -0.33908821117785082 0 0.37029473460036533 -0.32565573538444043 0 0.38064079273778262 -0.31288188218018531 0 0.37804720550635529 -0.30651687721429538 0 0.38870969627640167 -0.30439929484627132 0 0.38064079273778262 -0.31288188218018531 0 0.37804720550635529 -0.30651687721429538 0 0.37325959660283969 -0.31225701655594912 0 0.37804720550635529 -0.30651687721429538 0 0.38032829646105881 -0.29636137241382532 0 0.36761344479238373 -0.29508033606196837 0 0.37804720550635529 -0.30651687721429538 0 0.38870969627640167 -0.30439929484627132 0 0.38032829646105881 -0.29636137241382532 0 0.38870969627640167 -0.30439929484627132 0 0.3879772147484597 -0.29176707856862888 0 0.38032829646105881 -0.29636137241382532 0 0.39289273070295128 -0.31558048689996993 0 0.38064079273778262 -0.31288188218018531 0 0.38870969627640167 -0.30439929484627132 0 0.39289273070295128 -0.31558048689996993 0 0.39985527598894161 -0.30920798579428682 0 0.41549072680553711 -0.30550523841549909 0 0.39985527598894161 -0.30920798579428682 0 0.39681295496079538 -0.29611275996065012 0 0.40939030264251791 -0.28957609748361951 0 0.39985527598894161 -0.30920798579428682 0 0.40939030264251791 -0.28957609748361951 0 0.39289273070295128 -0.31558048689996993 0 0.41549072680553711 -0.30550523841549909 0 0.39289273070295128 -0.31558048689996993 0 0.38870969627640167 -0.30439929484627132 0 0.39985527598894161 -0.30920798579428682 0 0.38870969627640167 -0.30439929484627132 0 0.39681295496079538 -0.29611275996065012 0 0.3879772147484597 -0.29176707856862888 0 0.38870969627640167 -0.30439929484627132 0 0.39985527598894161 -0.30920798579428682 0 0.39681295496079538 -0.29611275996065012 0 0.39922652050867191 -0.28295197323892363 0 0.39681295496079538 -0.29611275996065012 0 0.40939030264251791 -0.28957609748361951 0 0.39922652050867191 -0.28295197323892363 0 0.39681295496079538 -0.29611275996065012 0 0.3879772147484597 -0.29176707856862888 0 0.39922652050867191 -0.28295197323892363 0 0.3879772147484597 -0.29176707856862888 0 0.38840358504398731 -0.28029486931936831 0 0.3879772147484597 -0.29176707856862888 0 0.37929392098169401 -0.28404327537796259 0 0.38840358504398731 -0.28029486931936831 0 0.38032829646105881 -0.29636137241382532 0 0.37929392098169401 -0.28404327537796259 0 0.36761344479238373 -0.29508033606196837 0 0.3879772147484597 -0.29176707856862888 0 0.38032829646105881 -0.29636137241382532 0 0.37929392098169401 -0.28404327537796259 0 0.37929392098169401 -0.28404327537796259 0 0.38326599173650672 -0.27147868498013239 0 0.3725796289452375 -0.26579697317357759 0 0.37929392098169401 -0.28404327537796259 0 0.38326599173650672 -0.27147868498013239 0 0.38840358504398731 -0.28029486931936831 0 0.38326599173650672 -0.27147868498013239 0 0.38840358504398731 -0.28029486931936831 0 0.39544519547575041 -0.26880031542545191 0 0.37754581309809132 -0.23651361028518689 0 0.3725796289452375 -0.26579697317357759 0 0.37754581309809132 -0.23651361028518689 0 0.3871149211879113 -0.25548270742864421 0 0.3725796289452375 -0.26579697317357759 0 0.38326599173650672 -0.27147868498013239 0 0.3871149211879113 -0.25548270742864421 0 0.39544519547575041 -0.26880031542545191 0 0.38326599173650672 -0.27147868498013239 0 0.3871149211879113 -0.25548270742864421 0 0.3725796289452375 -0.26579697317357759 0 0.3871149211879113 -0.25548270742864421 0 0.40207495352916539 -0.25113417058953519 0 0.39544519547575041 -0.26880031542545191 0 0.40207495352916539 -0.25113417058953519 0 0.39544519547575041 -0.26880031542545191 0 0.41892532929609411 -0.26994420917295231 0 0.39922652050867191 -0.28295197323892363 0 0.39544519547575041 -0.26880031542545191 0 0.41892532929609411 -0.26994420917295231 0 0.39922652050867191 -0.28295197323892363 0 0.38840358504398731 -0.28029486931936831 0 0.39544519547575041 -0.26880031542545191 0 0.41892532929609411 -0.26994420917295231 0 0.40939030264251791 -0.28957609748361951 0 0.41892532929609411 -0.26994420917295231 0 0.42674472615619141 -0.28201696019190231 0 0.40939030264251791 -0.28957609748361951 0 0.39922652050867191 -0.28295197323892363 0 0.41892532929609411 -0.26994420917295231 0 0.40939030264251791 -0.28957609748361951 0 0.40207495352916539 -0.25113417058953519 0 0.41892532929609411 -0.26994420917295231 0 0.42846035594967069 -0.25031232086228522 0 0.40207495352916539 -0.25113417058953519 0 0.42846035594967069 -0.25031232086228522 0 0.44713049355746243 -0.26775388735664418 0 0.4314427817274139 -0.26389233879167029 0 0.43357426810421817 -0.25015303326672972 0 0.41892532929609411 -0.26994420917295231 0 0.42846035594967069 -0.25031232086228522 0 0.41892532929609411 -0.26994420917295231 0 0.42846035594967069 -0.25031232086228522 0 0.4314427817274139 -0.26389233879167029 0 0.42846035594967069 -0.25031232086228522 0 0.4314427817274139 -0.26389233879167029 0 0.43357426810421817 -0.25015303326672972 0 0.42846035594967069 -0.25031232086228522 0 0.43357426810421817 -0.25015303326672972 0 0.41892532929609411 -0.26994420917295231 0 0.4314427817274139 -0.26389233879167029 0 0.42674472615619141 -0.28201696019190231 0 0.44713049355746243 -0.26775388735664418 0 0.4314427817274139 -0.26389233879167029 0 0.42674472615619141 -0.28201696019190231 0 0.43808872290812301 -0.29542998993102848 0 0.42674472615619141 -0.28201696019190231 0 0.41549072680553711 -0.30550523841549909 0 0.44713049355746243 -0.26775388735664418 0 0.43808872290812301 -0.29542998993102848 0 0.42674472615619141 -0.28201696019190231 0 0.43808872290812301 -0.29542998993102848 0 0.43031487288344161 -0.31703067604683871 0 0.41549072680553711 -0.30550523841549909 0 0.43808872290812301 -0.29542998993102848 0 0.41549072680553711 -0.30550523841549909 0 0.39985527598894161 -0.30920798579428682 0 0.41549072680553711 -0.30550523841549909 0 0.40939030264251791 -0.28957609748361951 0 0.42674472615619141 -0.28201696019190231 0 0.41549072680553711 -0.30550523841549909 0 0.40939030264251791 -0.28957609748361951 0 0.43773802119989941 -0.49999999999999978 0 0.45890943729545802 -0.4823892052391901 0 0.4796611806106722 -0.48718440019654963 0 0.43773802119989941 -0.49999999999999978 0 0.44535189907423273 -0.48425652050154361 0 0.43773802119989941 -0.49999999999999978 0 0.44535189907423273 -0.48425652050154361 0 0.45890943729545802 -0.4823892052391901 0 0.43920548674920379 -0.47249175324936749 0 0.44535189907423273 -0.48425652050154361 0 0.45296577694856682 -0.46851304100308783 0 0.43920548674920379 -0.47249175324936749 0 0.44535189907423273 -0.48425652050154361 0 0.42866409193048188 -0.47676758270227471 0 0.44535189907423273 -0.48425652050154361 0 0.45589009982111051 -0.4775459799915327 0 0.45296577694856682 -0.46851304100308783 0 0.44535189907423273 -0.48425652050154361 0 0.45296577694856682 -0.46851304100308783 0 0.45589009982111051 -0.4775459799915327 0 0.45890943729545802 -0.4823892052391901 0 0.46145872075250199 -0.4714816097570898 0 0.44535189907423273 -0.48425652050154361 0 0.45589009982111051 -0.4775459799915327 0 0.45890943729545802 -0.4823892052391901 0 0.45890943729545802 -0.4823892052391901 0 0.46145872075250199 -0.4714816097570898 0 0.47563876839417468 -0.4748936591889994 0 0.46145872075250199 -0.4714816097570898 0 0.45296577694856682 -0.46851304100308783 0 0.45589009982111051 -0.4775459799915327 0 0.46145872075250199 -0.4714816097570898 0 0.45296577694856682 -0.46851304100308783 0 0.43773802119989941 -0.49999999999999978 0 0.4796611806106722 -0.48718440019654963 0 0.5 -0.5 0 0.4796611806106722 -0.48718440019654963 0 0.5 -0.5 0 0.5 -0.47026069904804169 0 0.5 -0.47026069904804169 0 0.47563876839417468 -0.4748936591889994 0 0.47905351322328699 -0.46315238170412548 0 0.4796611806106722 -0.48718440019654963 0 0.5 -0.47026069904804169 0 0.47563876839417468 -0.4748936591889994 0 0.46145872075250199 -0.4714816097570898 0 0.47563876839417468 -0.4748936591889994 0 0.47905351322328699 -0.46315238170412548 0 0.45890943729545802 -0.4823892052391901 0 0.4796611806106722 -0.48718440019654963 0 0.47563876839417468 -0.4748936591889994 0 0.47905351322328699 -0.46315238170412548 0 0.45899603635761982 -0.45604406436020939 0 0.47905351322328699 -0.46315238170412548 0 0.4788951805990147 -0.44564391983896778 0 0.45899603635761982 -0.45604406436020939 0 0.5 -0.47026069904804169 0 0.47905351322328699 -0.46315238170412548 0 0.5 -0.44373220895607401 0 0.5 -0.47026069904804169 0 0.47905351322328699 -0.46315238170412548 0 0.5 -0.44373220895607401 0 0.4788951805990147 -0.44564391983896778 0 0.48552804520920678 -0.42799216931292611 0 0.47905351322328699 -0.46315238170412548 0 0.5 -0.44373220895607401 0 0.4788951805990147 -0.44564391983896778 0 0.4788951805990147 -0.44564391983896778 0 0.45899603635761982 -0.45604406436020939 0 0.46924702726821282 -0.43484773472326599 0 0.45899603635761982 -0.45604406436020939 0 0.46924702726821282 -0.43484773472326599 0 0.45899603635761982 -0.45604406436020939 0 0.44838303037477362 -0.43447900987216292 0 0.46924702726821282 -0.43484773472326599 0 0.46145872075250199 -0.4714816097570898 0 0.47905351322328699 -0.46315238170412548 0 0.45899603635761982 -0.45604406436020939 0 0.46145872075250199 -0.4714816097570898 0 0.45899603635761982 -0.45604406436020939 0 0.45296577694856682 -0.46851304100308783 0 0.45899603635761982 -0.45604406436020939 0 0.45296577694856682 -0.46851304100308783 0 0.44562172027540892 -0.45801600689332289 0 0.45296577694856682 -0.46851304100308783 0 0.42984017904353489 -0.46042986879056458 0 0.43920548674920379 -0.47249175324936749 0 0.45296577694856682 -0.46851304100308783 0 0.42984017904353489 -0.46042986879056458 0 0.44562172027540892 -0.45801600689332289 0 0.43764883001816302 -0.44847867026387339 0 0.42984017904353489 -0.46042986879056458 0 0.45899603635761982 -0.45604406436020939 0 0.44562172027540892 -0.45801600689332289 0 0.45296577694856682 -0.46851304100308783 0 0.45296577694856682 -0.46851304100308783 0 0.42984017904353489 -0.46042986879056458 0 0.45899603635761982 -0.45604406436020939 0 0.44562172027540892 -0.45801600689332289 0 0.43764883001816302 -0.44847867026387339 0 0.45899603635761982 -0.45604406436020939 0 0.43764883001816302 -0.44847867026387339 0 0.44838303037477362 -0.43447900987216292 0 0.43764883001816302 -0.44847867026387339 0 0.44838303037477362 -0.43447900987216292 0 0.43199803478474752 -0.43480066315574151 0 0.45899603635761982 -0.45604406436020939 0 0.43764883001816302 -0.44847867026387339 0 0.44838303037477362 -0.43447900987216292 0 0.43524810038533429 -0.42324892749070769 0 0.43199803478474752 -0.43480066315574151 0 0.44838303037477362 -0.43447900987216292 0 0.45481320319103757 -0.41743251132042969 0 0.43524810038533429 -0.42324892749070769 0 0.45481320319103757 -0.41743251132042969 0 0.43477646914432833 -0.40550992295969079 0 0.43524810038533429 -0.42324892749070769 0 0.45481320319103757 -0.41743251132042969 0 0.46680969583490778 -0.41274858841526157 0 0.46924702726821282 -0.43484773472326599 0 0.45481320319103757 -0.41743251132042969 0 0.46680969583490778 -0.41274858841526157 0 0.46697148891275431 -0.40002921638500172 0 0.44838303037477362 -0.43447900987216292 0 0.45481320319103757 -0.41743251132042969 0 0.46924702726821282 -0.43484773472326599 0 0.5 -0.44373220895607401 0 0.48552804520920678 -0.42799216931292611 0 0.5 -0.40208557795999961 0 0.46924702726821282 -0.43484773472326599 0 0.48552804520920678 -0.42799216931292611 0 0.47949801817880677 -0.41365140508632309 0 0.4788951805990147 -0.44564391983896778 0 0.46924702726821282 -0.43484773472326599 0 0.48552804520920678 -0.42799216931292611 0 0.46924702726821282 -0.43484773472326599 0 0.47949801817880677 -0.41365140508632309 0 0.48552804520920678 -0.42799216931292611 0 0.47949801817880677 -0.41365140508632309 0 0.5 -0.40208557795999961 0 0.46680969583490778 -0.41274858841526157 0 0.46924702726821282 -0.43484773472326599 0 0.47949801817880677 -0.41365140508632309 0 0.46680969583490778 -0.41274858841526157 0 0.47949801817880677 -0.41365140508632309 0 0.47485796399023311 -0.40328323013715978 0 0.47949801817880677 -0.41365140508632309 0 0.47485796399023311 -0.40328323013715978 0 0.48501034131379339 -0.39589669118590137 0 0.46680969583490778 -0.41274858841526157 0 0.47485796399023311 -0.40328323013715978 0 0.46697148891275431 -0.40002921638500172 0 0.47485796399023311 -0.40328323013715978 0 0.47548297721973709 -0.39513831255209197 0 0.46697148891275431 -0.40002921638500172 0 0.47548297721973709 -0.39513831255209197 0 0.47310568845609052 -0.38536867418522291 0 0.46697148891275431 -0.40002921638500172 0 0.47548297721973709 -0.39513831255209197 0 0.48501034131379339 -0.39589669118590137 0 0.47310568845609052 -0.38536867418522291 0 0.47485796399023311 -0.40328323013715978 0 0.47548297721973709 -0.39513831255209197 0 0.48501034131379339 -0.39589669118590137 0 0.47949801817880677 -0.41365140508632309 0 0.48974900908940078 -0.39245507544938019 0 0.47949801817880677 -0.41365140508632309 0 0.5 -0.40208557795999961 0 0.48974900908940078 -0.39245507544938019 0 0.47949801817880677 -0.41365140508632309 0 0.48974900908940078 -0.39245507544938019 0 0.48501034131379339 -0.39589669118590137 0 0.49999999999999711 -0.37125874581243851 0 0.5 -0.40208557795999961 0 0.48974900908940078 -0.39245507544938019 0 0.49999999999999711 -0.37125874581243851 0 0.47674069655525092 -0.3698978429939776 0 0.48974900908940078 -0.39245507544938019 0 0.49999999999999711 -0.37125874581243851 0 0.48974900908940078 -0.39245507544938019 0 0.47674069655525092 -0.3698978429939776 0 0.48501034131379339 -0.39589669118590137 0 0.47310568845609052 -0.38536867418522291 0 0.47674069655525092 -0.3698978429939776 0 0.48974900908940078 -0.39245507544938019 0 0.48501034131379339 -0.39589669118590137 0 0.47674069655525092 -0.3698978429939776 0 0.48501034131379339 -0.39589669118590137 0 0.45392603783110008 -0.37108838658624999 0 0.47310568845609052 -0.38536867418522291 0 0.45155556879862868 -0.3944603689424081 0 0.47674069655525092 -0.3698978429939776 0 0.45392603783110008 -0.37108838658624999 0 0.47310568845609052 -0.38536867418522291 0 0.45481320319103757 -0.41743251132042969 0 0.46697148891275431 -0.40002921638500172 0 0.45155556879862868 -0.3944603689424081 0 0.47310568845609052 -0.38536867418522291 0 0.46697148891275431 -0.40002921638500172 0 0.45155556879862868 -0.3944603689424081 0 0.45481320319103757 -0.41743251132042969 0 0.45155556879862868 -0.3944603689424081 0 0.43477646914432833 -0.40550992295969079 0 0.45155556879862868 -0.3944603689424081 0 0.43242581624588322 -0.38730115333965082 0 0.43477646914432833 -0.40550992295969079 0 0.45392603783110008 -0.37108838658624999 0 0.45155556879862868 -0.3944603689424081 0 0.43242581624588322 -0.38730115333965082 0 0.42785183481717409 -0.36595316276467199 0 0.43242581624588322 -0.38730115333965082 0 0.41287057948892703 -0.38518927514730122 0 0.43242581624588322 -0.38730115333965082 0 0.43477646914432833 -0.40550992295969079 0 0.41749483707519452 -0.40538692165420498 0 0.43242581624588322 -0.38730115333965082 0 0.41749483707519452 -0.40538692165420498 0 0.41287057948892703 -0.38518927514730122 0 0.41749483707519452 -0.40538692165420498 0 0.41287057948892703 -0.38518927514730122 0 0.40336078828097621 -0.40362515372992341 0 0.4111933065081313 -0.36805982019164402 0 0.41287057948892703 -0.38518927514730122 0 0.39650622041158878 -0.3765742856902482 0 0.41287057948892703 -0.38518927514730122 0 0.39650622041158878 -0.3765742856902482 0 0.39372170841196569 -0.3925803949292499 0 0.38249634533461108 -0.36797477098799591 0 0.39650622041158878 -0.3765742856902482 0 0.37900977316023637 -0.39091548517495972 0 0.39650622041158878 -0.3765742856902482 0 0.37900977316023637 -0.39091548517495972 0 0.39372170841196569 -0.3925803949292499 0 0.38249634533461108 -0.36797477098799591 0 0.37900977316023637 -0.39091548517495972 0 0.36724772315424481 -0.38247146420994571 0 0.37900977316023637 -0.39091548517495972 0 0.39372170841196569 -0.3925803949292499 0 0.37842665921942997 -0.40887405987875969 0 0.37900977316023637 -0.39091548517495972 0 0.37842665921942997 -0.40887405987875969 0 0.36824105802713031 -0.4000969440192842 0 0.39372170841196569 -0.3925803949292499 0 0.39194747191700757 -0.41402513481906722 0 0.37842665921942997 -0.40887405987875969 0 0.41287057948892703 -0.38518927514730122 0 0.39372170841196569 -0.3925803949292499 0 0.40336078828097621 -0.40362515372992341 0 0.39372170841196569 -0.3925803949292499 0 0.40336078828097621 -0.40362515372992341 0 0.39194747191700757 -0.41402513481906722 0 0.40336078828097621 -0.40362515372992341 0 0.39194747191700757 -0.41402513481906722 0 0.41036500379586138 -0.42217021861448573 0 0.39194747191700757 -0.41402513481906722 0 0.37842665921942997 -0.40887405987875969 0 0.3754845505291648 -0.42231636227288599 0 0.39194747191700757 -0.41402513481906722 0 0.38276612650569841 -0.43173139982273478 0 0.39495441733924969 -0.43334788207120151 0 0.39194747191700757 -0.41402513481906722 0 0.3754845505291648 -0.42231636227288599 0 0.38276612650569841 -0.43173139982273478 0 0.38276612650569841 -0.43173139982273478 0 0.39495441733924969 -0.43334788207120151 0 0.38358898323347101 -0.44426352436551808 0 0.39495441733924969 -0.43334788207120151 0 0.41630162367870638 -0.44091327616753739 0 0.39194747191700757 -0.41402513481906722 0 0.39495441733924969 -0.43334788207120151 0 0.41036500379586138 -0.42217021861448573 0 0.41036500379586138 -0.42217021861448573 0 0.42295569064062533 -0.42699492369753778 0 0.41630162367870638 -0.44091327616753739 0 0.39495441733924969 -0.43334788207120151 0 0.41036500379586138 -0.42217021861448573 0 0.41630162367870638 -0.44091327616753739 0 0.41749483707519452 -0.40538692165420498 0 0.40336078828097621 -0.40362515372992341 0 0.41036500379586138 -0.42217021861448573 0 0.41749483707519452 -0.40538692165420498 0 0.41036500379586138 -0.42217021861448573 0 0.42458756094721539 -0.41613405657310448 0 0.41036500379586138 -0.42217021861448573 0 0.42458756094721539 -0.41613405657310448 0 0.42295569064062533 -0.42699492369753778 0 0.43477646914432833 -0.40550992295969079 0 0.41749483707519452 -0.40538692165420498 0 0.42458756094721539 -0.41613405657310448 0 0.43477646914432833 -0.40550992295969079 0 0.42458756094721539 -0.41613405657310448 0 0.43524810038533429 -0.42324892749070769 0 0.43199803478474752 -0.43480066315574151 0 0.42295569064062533 -0.42699492369753778 0 0.41630162367870638 -0.44091327616753739 0 0.43524810038533429 -0.42324892749070769 0 0.43199803478474752 -0.43480066315574151 0 0.42295569064062533 -0.42699492369753778 0 0.42458756094721539 -0.41613405657310448 0 0.43524810038533429 -0.42324892749070769 0 0.42295569064062533 -0.42699492369753778 0 0.43764883001816302 -0.44847867026387339 0 0.41630162367870638 -0.44091327616753739 0 0.43764883001816302 -0.44847867026387339 0 0.42984017904353489 -0.46042986879056458 0 0.41630162367870638 -0.44091327616753739 0 0.43764883001816302 -0.44847867026387339 0 0.43199803478474752 -0.43480066315574151 0 0.41630162367870638 -0.44091327616753739 0 0.42984017904353489 -0.46042986879056458 0 0.41583716859034447 -0.46620520778226737 0 0.42866409193048188 -0.47676758270227471 0 0.42984017904353489 -0.46042986879056458 0 0.4067145811385029 -0.45234669657804139 0 0.42984017904353489 -0.46042986879056458 0 0.41583716859034447 -0.46620520778226737 0 0.4067145811385029 -0.45234669657804139 0 0.41583716859034447 -0.46620520778226737 0 0.4067145811385029 -0.45234669657804139 0 0.40148396946935899 -0.46677367853588281 0 0.42984017904353489 -0.46042986879056458 0 0.4067145811385029 -0.45234669657804139 0 0.41630162367870638 -0.44091327616753739 0 0.4067145811385029 -0.45234669657804139 0 0.38358898323347101 -0.44426352436551808 0 0.39182712026942329 -0.45690385307896481 0 0.39495441733924969 -0.43334788207120151 0 0.4067145811385029 -0.45234669657804139 0 0.41630162367870638 -0.44091327616753739 0 0.39495441733924969 -0.43334788207120151 0 0.4067145811385029 -0.45234669657804139 0 0.38358898323347101 -0.44426352436551808 0 0.4067145811385029 -0.45234669657804139 0 0.38358898323347101 -0.44426352436551808 0 0.38358898323347101 -0.44426352436551808 0 0.37514595674159079 -0.45476526552439389 0 0.39182712026942329 -0.45690385307896481 0 0.38276612650569841 -0.43173139982273478 0 0.38358898323347101 -0.44426352436551808 0 0.36596817218281208 -0.43846752572535042 0 0.37514595674159079 -0.45476526552439389 0 0.38538716437757631 -0.46842775420537441 0 0.39182712026942329 -0.45690385307896481 0 0.37514595674159079 -0.45476526552439389 0 0.38538716437757631 -0.46842775420537441 0 0.37212180294075042 -0.46808428500039262 0 0.38538716437757631 -0.46842775420537441 0 0.39182712026942329 -0.45690385307896481 0 0.40148396946935899 -0.46677367853588281 0 0.4067145811385029 -0.45234669657804139 0 0.39182712026942329 -0.45690385307896481 0 0.40148396946935899 -0.46677367853588281 0 0.39434508200087892 -0.48168095957978257 0 0.4057717135424021 -0.48929931529832937 0 0.41138522724611992 -0.47610642689805982 0 0.38538716437757631 -0.46842775420537441 0 0.40148396946935899 -0.46677367853588281 0 0.39434508200087892 -0.48168095957978257 0 0.40148396946935899 -0.46677367853588281 0 0.39434508200087892 -0.48168095957978257 0 0.41138522724611992 -0.47610642689805982 0 0.38538716437757631 -0.46842775420537441 0 0.39434508200087892 -0.48168095957978257 0 0.37586822855092661 -0.48439202442808083 0 0.38538716437757631 -0.46842775420537441 0 0.37586822855092661 -0.48439202442808083 0 0.37212180294075042 -0.46808428500039262 0 0.39434508200087892 -0.48168095957978257 0 0.37586822855092661 -0.48439202442808083 0 0.39289039342582149 -0.5 0 0.37586822855092661 -0.48439202442808083 0 0.39289039342582149 -0.5 0 0.3704665795387827 -0.49999999999999961 0 0.39434508200087892 -0.48168095957978257 0 0.39289039342582149 -0.5 0 0.4057717135424021 -0.48929931529832937 0 0.39289039342582149 -0.5 0 0.4057717135424021 -0.48929931529832937 0 0.41531420731286051 -0.5 0 0.4057717135424021 -0.48929931529832937 0 0.41138522724611992 -0.47610642689805982 0 0.425256426736628 -0.48969697811313823 0 0.4057717135424021 -0.48929931529832937 0 0.41531420731286051 -0.5 0 0.425256426736628 -0.48969697811313823 0 0.41583716859034447 -0.46620520778226737 0 0.41138522724611992 -0.47610642689805982 0 0.42866409193048188 -0.47676758270227471 0 0.41138522724611992 -0.47610642689805982 0 0.42866409193048188 -0.47676758270227471 0 0.425256426736628 -0.48969697811313823 0 0.41583716859034447 -0.46620520778226737 0 0.40148396946935899 -0.46677367853588281 0 0.41138522724611992 -0.47610642689805982 0 0.44535189907423273 -0.48425652050154361 0 0.42866409193048188 -0.47676758270227471 0 0.425256426736628 -0.48969697811313823 0 0.43920548674920379 -0.47249175324936749 0 0.42984017904353489 -0.46042986879056458 0 0.42866409193048188 -0.47676758270227471 0 0.43773802119989941 -0.49999999999999978 0 0.44535189907423273 -0.48425652050154361 0 0.425256426736628 -0.48969697811313823 0 0.43773802119989941 -0.49999999999999978 0 0.41531420731286051 -0.5 0 0.425256426736628 -0.48969697811313823 0 0.32577547594680167 -0.48549728563522948 0 0.313100747974287 -0.5 0 0.34178366375653479 -0.5 0 0.32577547594680167 -0.48549728563522948 0 0.33309118936964399 -0.46704031311580291 0 0.30810638268294871 -0.47012115952174682 0 0.353331436476917 -0.48488928282810861 0 0.33309118936964399 -0.46704031311580291 0 0.32577547594680167 -0.48549728563522948 0 0.353331436476917 -0.48488928282810861 0 0.33309118936964399 -0.46704031311580291 0 0.32577547594680167 -0.48549728563522948 0 0.353331436476917 -0.48488928282810861 0 0.32577547594680167 -0.48549728563522948 0 0.34178366375653479 -0.5 0 0.353331436476917 -0.48488928282810861 0 0.34178366375653479 -0.5 0 0.353331436476917 -0.48488928282810861 0 0.3704665795387827 -0.49999999999999961 0 0.353331436476917 -0.48488928282810861 0 0.3704665795387827 -0.49999999999999961 0 0.37586822855092661 -0.48439202442808083 0 0.353331436476917 -0.48488928282810861 0 0.37586822855092661 -0.48439202442808083 0 0.353331436476917 -0.48488928282810861 0 0.3704665795387827 -0.49999999999999961 0 0.37586822855092661 -0.48439202442808083 0 0.353331436476917 -0.48488928282810861 0 0.36174609683149922 -0.47333229839911978 0 0.37586822855092661 -0.48439202442808083 0 0.36174609683149922 -0.47333229839911978 0 0.37212180294075042 -0.46808428500039262 0 0.353331436476917 -0.48488928282810861 0 0.3511187368843669 -0.46644655109408317 0 0.33309118936964399 -0.46704031311580291 0 0.353331436476917 -0.48488928282810861 0 0.36174609683149922 -0.47333229839911978 0 0.3511187368843669 -0.46644655109408317 0 0.3511187368843669 -0.46644655109408317 0 0.34821094164401439 -0.44963138573543099 0 0.33309118936964399 -0.46704031311580291 0 0.3511187368843669 -0.46644655109408317 0 0.36000734278227892 -0.4581682973830864 0 0.34821094164401439 -0.44963138573543099 0 0.36174609683149922 -0.47333229839911978 0 0.3511187368843669 -0.46644655109408317 0 0.36000734278227892 -0.4581682973830864 0 0.36174609683149922 -0.47333229839911978 0 0.36000734278227892 -0.4581682973830864 0 0.37212180294075042 -0.46808428500039262 0 0.37514595674159079 -0.45476526552439389 0 0.36000734278227892 -0.4581682973830864 0 0.37212180294075042 -0.46808428500039262 0 0.38358898323347101 -0.44426352436551808 0 0.37514595674159079 -0.45476526552439389 0 0.36596817218281208 -0.43846752572535042 0 0.37514595674159079 -0.45476526552439389 0 0.36000734278227892 -0.4581682973830864 0 0.36596817218281208 -0.43846752572535042 0 0.36596817218281208 -0.43846752572535042 0 0.34821094164401439 -0.44963138573543099 0 0.34622956703096991 -0.43300533851794337 0 0.36000734278227892 -0.4581682973830864 0 0.36596817218281208 -0.43846752572535042 0 0.34821094164401439 -0.44963138573543099 0 0.34821094164401439 -0.44963138573543099 0 0.33295970409203041 -0.44505156475946112 0 0.34622956703096991 -0.43300533851794337 0 0.34821094164401439 -0.44963138573543099 0 0.33295970409203041 -0.44505156475946112 0 0.33309118936964399 -0.46704031311580291 0 0.33295970409203041 -0.44505156475946112 0 0.33309118936964399 -0.46704031311580291 0 0.31285094226236981 -0.44919134340349842 0 0.33309118936964399 -0.46704031311580291 0 0.31285094226236981 -0.44919134340349842 0 0.33309118936964399 -0.46704031311580291 0 0.31285094226236981 -0.44919134340349842 0 0.30810638268294871 -0.47012115952174682 0 0.33295970409203041 -0.44505156475946112 0 0.31285094226236981 -0.44919134340349842 0 0.32443481461114221 -0.42819348402864749 0 0.31285094226236981 -0.44919134340349842 0 0.32443481461114221 -0.42819348402864749 0 0.30716585811758268 -0.42152601893676211 0 0.32443481461114221 -0.42819348402864749 0 0.3377381929345476 -0.41993594981441068 0 0.31826237910007699 -0.40611857650776678 0 0.32443481461114221 -0.42819348402864749 0 0.31826237910007699 -0.40611857650776678 0 0.30716585811758268 -0.42152601893676211 0 0.3377381929345476 -0.41993594981441068 0 0.33955155732169001 -0.40481801647484189 0 0.31826237910007699 -0.40611857650776678 0 0.32443481461114221 -0.42819348402864749 0 0.3377381929345476 -0.41993594981441068 0 0.34622956703096991 -0.43300533851794337 0 0.33295970409203041 -0.44505156475946112 0 0.32443481461114221 -0.42819348402864749 0 0.34622956703096991 -0.43300533851794337 0 0.3377381929345476 -0.41993594981441068 0 0.34622956703096991 -0.43300533851794337 0 0.35818280584871282 -0.41603879828427831 0 0.36596817218281208 -0.43846752572535042 0 0.34622956703096991 -0.43300533851794337 0 0.35818280584871282 -0.41603879828427831 0 0.3754845505291648 -0.42231636227288599 0 0.36596817218281208 -0.43846752572535042 0 0.35818280584871282 -0.41603879828427831 0 0.3754845505291648 -0.42231636227288599 0 0.38276612650569841 -0.43173139982273478 0 0.36596817218281208 -0.43846752572535042 0 0.37842665921942997 -0.40887405987875969 0 0.3754845505291648 -0.42231636227288599 0 0.35818280584871282 -0.41603879828427831 0 0.37842665921942997 -0.40887405987875969 0 0.35818280584871282 -0.41603879828427831 0 0.36824105802713031 -0.4000969440192842 0 0.3377381929345476 -0.41993594981441068 0 0.35818280584871282 -0.41603879828427831 0 0.33955155732169001 -0.40481801647484189 0 0.35818280584871282 -0.41603879828427831 0 0.35120943534252291 -0.3914849644630724 0 0.33955155732169001 -0.40481801647484189 0 0.35818280584871282 -0.41603879828427831 0 0.35120943534252291 -0.3914849644630724 0 0.36824105802713031 -0.4000969440192842 0 0.37900977316023637 -0.39091548517495972 0 0.36824105802713031 -0.4000969440192842 0 0.36724772315424481 -0.38247146420994571 0 0.35120943534252291 -0.3914849644630724 0 0.36824105802713031 -0.4000969440192842 0 0.36724772315424481 -0.38247146420994571 0 0.36724772315424481 -0.38247146420994571 0 0.3553956415560332 -0.375446985373177 0 0.36664078794155069 -0.36853845970684512 0 0.35120943534252291 -0.3914849644630724 0 0.3553956415560332 -0.375446985373177 0 0.34024068493209042 -0.37145909403295352 0 0.35120943534252291 -0.3914849644630724 0 0.36724772315424481 -0.38247146420994571 0 0.3553956415560332 -0.375446985373177 0 0.35120943534252291 -0.3914849644630724 0 0.33045907805143321 -0.38798152631774108 0 0.34024068493209042 -0.37145909403295352 0 0.33045907805143321 -0.38798152631774108 0 0.34024068493209042 -0.37145909403295352 0 0.32473595581008968 -0.36877041147622941 0 0.33045907805143321 -0.38798152631774108 0 0.33955155732169001 -0.40481801647484189 0 0.31826237910007699 -0.40611857650776678 0 0.35120943534252291 -0.3914849644630724 0 0.33045907805143321 -0.38798152631774108 0 0.33955155732169001 -0.40481801647484189 0 0.33045907805143321 -0.38798152631774108 0 0.31826237910007699 -0.40611857650776678 0 0.30852465471842783 -0.38296478278532459 0 0.33045907805143321 -0.38798152631774108 0 0.30852465471842783 -0.38296478278532459 0 0.32473595581008968 -0.36877041147622941 0 0.30852465471842783 -0.38296478278532459 0 0.30157177088572762 -0.39984768184154418 0 0.28524522637625171 -0.38748256695808048 0 0.31826237910007699 -0.40611857650776678 0 0.30852465471842783 -0.38296478278532459 0 0.30157177088572762 -0.39984768184154418 0 0.30157177088572762 -0.39984768184154418 0 0.28524522637625171 -0.38748256695808048 0 0.28909827497095891 -0.41314244090476959 0 0.30852465471842783 -0.38296478278532459 0 0.28524522637625171 -0.38748256695808048 0 0.29576167506738288 -0.36584798696867898 0 0.28524522637625171 -0.38748256695808048 0 0.26194523537769671 -0.38343407302417171 0 0.27628411724202862 -0.36524783617958329 0 0.26194523537769671 -0.38343407302417171 0 0.2677956642119742 -0.40840362680373948 0 0.24730388124056729 -0.40448370284608931 0 0.28524522637625171 -0.38748256695808048 0 0.26194523537769671 -0.38343407302417171 0 0.2677956642119742 -0.40840362680373948 0 0.28524522637625171 -0.38748256695808048 0 0.2677956642119742 -0.40840362680373948 0 0.28909827497095891 -0.41314244090476959 0 0.2677956642119742 -0.40840362680373948 0 0.27472650047210662 -0.43131219108599711 0 0.28909827497095891 -0.41314244090476959 0 0.2677956642119742 -0.40840362680373948 0 0.24845486683426421 -0.43056678600332871 0 0.24730388124056729 -0.40448370284608931 0 0.2677956642119742 -0.40840362680373948 0 0.27472650047210662 -0.43131219108599711 0 0.24845486683426421 -0.43056678600332871 0 0.27472650047210662 -0.43131219108599711 0 0.26710508502781599 -0.44926171113960661 0 0.24845486683426421 -0.43056678600332871 0 0.27472650047210662 -0.43131219108599711 0 0.29418269027227539 -0.43431919247607059 0 0.28909827497095891 -0.41314244090476959 0 0.29418269027227539 -0.43431919247607059 0 0.28909827497095891 -0.41314244090476959 0 0.30716585811758268 -0.42152601893676211 0 0.31826237910007699 -0.40611857650776678 0 0.30157177088572762 -0.39984768184154418 0 0.30716585811758268 -0.42152601893676211 0 0.30157177088572762 -0.39984768184154418 0 0.28909827497095891 -0.41314244090476959 0 0.30716585811758268 -0.42152601893676211 0 0.31285094226236981 -0.44919134340349842 0 0.29418269027227539 -0.43431919247607059 0 0.30716585811758268 -0.42152601893676211 0 0.31285094226236981 -0.44919134340349842 0 0.29418269027227539 -0.43431919247607059 0 0.28597809560131299 -0.4567624239266439 0 0.31285094226236981 -0.44919134340349842 0 0.28597809560131299 -0.4567624239266439 0 0.30810638268294871 -0.47012115952174682 0 0.28597809560131299 -0.4567624239266439 0 0.27356505094757272 -0.46654042127887851 0 0.28658471780149791 -0.47429793876749549 0 0.28597809560131299 -0.4567624239266439 0 0.28658471780149791 -0.47429793876749549 0 0.30810638268294871 -0.47012115952174682 0 0.27472650047210662 -0.43131219108599711 0 0.29418269027227539 -0.43431919247607059 0 0.28597809560131299 -0.4567624239266439 0 0.27472650047210662 -0.43131219108599711 0 0.28597809560131299 -0.4567624239266439 0 0.26710508502781599 -0.44926171113960661 0 0.26710508502781599 -0.44926171113960661 0 0.25055382002994903 -0.45112655962101422 0 0.24845486683426421 -0.43056678600332871 0 0.25055382002994903 -0.45112655962101422 0 0.25749380142066591 -0.46566674131117769 0 0.24452211955108941 -0.47321082899062988 0 0.26710508502781599 -0.44926171113960661 0 0.25055382002994903 -0.45112655962101422 0 0.25749380142066591 -0.46566674131117769 0 0.26710508502781599 -0.44926171113960661 0 0.25749380142066591 -0.46566674131117769 0 0.27356505094757272 -0.46654042127887851 0 0.28597809560131299 -0.4567624239266439 0 0.26710508502781599 -0.44926171113960661 0 0.27356505094757272 -0.46654042127887851 0 0.25749380142066591 -0.46566674131117769 0 0.27356505094757272 -0.46654042127887851 0 0.27066355488657068 -0.48671329124946883 0 0.27356505094757272 -0.46654042127887851 0 0.27066355488657068 -0.48671329124946883 0 0.28658471780149791 -0.47429793876749549 0 0.27066355488657068 -0.48671329124946883 0 0.24310759435645521 -0.48732129405658853 0 0.24452211955108941 -0.47321082899062988 0 0.25749380142066591 -0.46566674131117769 0 0.27066355488657068 -0.48671329124946883 0 0.24452211955108941 -0.47321082899062988 0 0.25573491640979129 -0.5 0 0.27066355488657068 -0.48671329124946883 0 0.24310759435645521 -0.48732129405658853 0 0.27066355488657068 -0.48671329124946883 0 0.24310759435645521 -0.48732129405658853 0 0.25573491640979129 -0.5 0 0.27066355488657068 -0.48671329124946883 0 0.2844178321920392 -0.5 0 0.27066355488657068 -0.48671329124946883 0 0.2844178321920392 -0.5 0 0.29821951541668618 -0.48610528844234918 0 0.27066355488657068 -0.48671329124946883 0 0.29821951541668618 -0.48610528844234918 0 0.27066355488657068 -0.48671329124946883 0 0.28658471780149791 -0.47429793876749549 0 0.29821951541668618 -0.48610528844234918 0 0.28658471780149791 -0.47429793876749549 0 0.30810638268294871 -0.47012115952174682 0 0.29821951541668618 -0.48610528844234918 0 0.32577547594680167 -0.48549728563522948 0 0.30810638268294871 -0.47012115952174682 0 0.29821951541668618 -0.48610528844234918 0 0.313100747974287 -0.5 0 0.2844178321920392 -0.5 0 0.29821951541668618 -0.48610528844234918 0 0.32577547594680167 -0.48549728563522948 0 0.29821951541668618 -0.48610528844234918 0 0.32577547594680167 -0.48549728563522948 0 0.313100747974287 -0.5 0 0.29821951541668618 -0.48610528844234918 0 0.330274064289036 -0.28402767586280209 0 0.34332234684577362 -0.29793808318023329 0 0.34457666422559302 -0.26801309975333321 0 0.330274064289036 -0.28402767586280209 0 0.34332234684577362 -0.29793808318023329 0 0.32977293544345387 -0.30596193421111573 0 0.34332234684577362 -0.29793808318023329 0 0.32977293544345387 -0.30596193421111573 0 0.34206802946595682 -0.32786306660713371 0 0.31744302567780058 -0.29875438106107682 0 0.32081511337912821 -0.31891284763754968 0 0.29956219729229971 -0.30996262866796498 0 0.32977293544345387 -0.30596193421111573 0 0.31744302567780058 -0.29875438106107682 0 0.32081511337912821 -0.31891284763754968 0 0.31744302567780058 -0.29875438106107682 0 0.315203972569992 -0.28599406388836862 0 0.30893165249025939 -0.29458973757352408 0 0.330274064289036 -0.28402767586280209 0 0.32977293544345387 -0.30596193421111573 0 0.31744302567780058 -0.29875438106107682 0 0.330274064289036 -0.28402767586280209 0 0.31744302567780058 -0.29875438106107682 0 0.315203972569992 -0.28599406388836862 0 0.31616400359283131 -0.27140021809428472 0 0.31565659849655159 -0.26881006701694032 0 0.34457666422559302 -0.26801309975333321 0 0.31616400359283131 -0.27140021809428472 0 0.31565659849655159 -0.26881006701694032 0 0.330274064289036 -0.28402767586280209 0 0.315203972569992 -0.28599406388836862 0 0.31616400359283131 -0.27140021809428472 0 0.31140457280844042 -0.24710474912070499 0 0.31565659849655159 -0.26881006701694032 0 0.31140457280844042 -0.24710474912070499 0 0.31565659849655159 -0.26881006701694032 0 0.32909477526671738 -0.25319804842994992 0 0.34542116247921317 -0.24786541093840589 0 0.32909477526671738 -0.25319804842994992 0 0.34457666422559302 -0.26801309975333321 0 0.31565659849655159 -0.26881006701694032 0 0.32909477526671738 -0.25319804842994992 0 0.34457666422559302 -0.26801309975333321 0 0.31565659849655159 -0.26881006701694032 0 0.34457666422559302 -0.26801309975333321 0 0.330274064289036 -0.28402767586280209 0 0.31616400359283131 -0.27140021809428472 0 0.34457666422559302 -0.26801309975333321 0 0.35327842571551671 -0.2677733001931194 0 0.36211004630048071 -0.25874315800932568 0 0.36139056500297317 -0.28258450191058321 0 0.34457666422559302 -0.26801309975333321 0 0.35327842571551671 -0.2677733001931194 0 0.36139056500297317 -0.28258450191058321 0 0.34457666422559302 -0.26801309975333321 0 0.35327842571551671 -0.2677733001931194 0 0.34542116247921317 -0.24786541093840589 0 0.35327842571551671 -0.2677733001931194 0 0.36211004630048071 -0.25874315800932568 0 0.34542116247921317 -0.24786541093840589 0 0.34457666422559302 -0.26801309975333321 0 0.34542116247921317 -0.24786541093840589 0 0.34457666422559302 -0.26801309975333321 0 0.35327842571551671 -0.2677733001931194 0 0.36876625398544938 -0.24898888889403961 0 0.37754581309809132 -0.23651361028518689 0 0.3725796289452375 -0.26579697317357759 0 0.36876625398544938 -0.24898888889403961 0 0.36211004630048071 -0.25874315800932568 0 0.3725796289452375 -0.26579697317357759 0 0.36211004630048071 -0.25874315800932568 0 0.36139056500297317 -0.28258450191058321 0 0.36211004630048071 -0.25874315800932568 0 0.3725796289452375 -0.26579697317357759 0 0.36139056500297317 -0.28258450191058321 0 0.3725796289452375 -0.26579697317357759 0 0.36761344479238373 -0.29508033606196837 0 0.3725796289452375 -0.26579697317357759 0 0.36139056500297317 -0.28258450191058321 0 0.36761344479238373 -0.29508033606196837 0 0.36139056500297317 -0.28258450191058321 0 0.36067108370546558 -0.30642584581184062 0 0.36139056500297317 -0.28258450191058321 0 0.36761344479238373 -0.29508033606196837 0 0.36067108370546558 -0.30642584581184062 0 0.37929392098169401 -0.28404327537796259 0 0.3725796289452375 -0.26579697317357759 0 0.36761344479238373 -0.29508033606196837 0 0.34332234684577362 -0.29793808318023329 0 0.36139056500297317 -0.28258450191058321 0 0.36067108370546558 -0.30642584581184062 0 0.34332234684577362 -0.29793808318023329 0 0.34457666422559302 -0.26801309975333321 0 0.34332234684577362 -0.29793808318023329 0 0.34457666422559302 -0.26801309975333321 0 0.36139056500297317 -0.28258450191058321 0 0.34332234684577362 -0.29793808318023329 0 0.36067108370546558 -0.30642584581184062 0 0.35385294866325562 -0.31815161708919842 0 0.37804720550635529 -0.30651687721429538 0 0.36761344479238373 -0.29508033606196837 0 0.37325959660283969 -0.31225701655594912 0 0.36761344479238373 -0.29508033606196837 0 0.37325959660283969 -0.31225701655594912 0 0.36522996683296982 -0.32210974174446261 0 0.36761344479238373 -0.29508033606196837 0 0.3626472606395299 -0.32436369895035932 0 0.36761344479238373 -0.29508033606196837 0 0.36067108370546558 -0.30642584581184062 0 0.3626472606395299 -0.32436369895035932 0 0.36067108370546558 -0.30642584581184062 0 0.35995160240795782 -0.33026718971309799 0 0.37325959660283969 -0.31225701655594912 0 0.36522996683296982 -0.32210974174446261 0 0.37029473460036533 -0.32565573538444043 0 0.36761344479238373 -0.29508033606196837 0 0.3626472606395299 -0.32436369895035932 0 0.36522996683296982 -0.32210974174446261 0 0.36067108370546558 -0.30642584581184062 0 0.3626472606395299 -0.32436369895035932 0 0.35995160240795782 -0.33026718971309799 0 0.38064079273778262 -0.31288188218018531 0 0.37325959660283969 -0.31225701655594912 0 0.37029473460036533 -0.32565573538444043 0 0.3626472606395299 -0.32436369895035932 0 0.37029473460036533 -0.32565573538444043 0 0.35995160240795782 -0.33026718971309799 0 0.37029473460036533 -0.32565573538444043 0 0.35995160240795782 -0.33026718971309799 0 0.3626472606395299 -0.32436369895035932 0 0.36522996683296982 -0.32210974174446261 0 0.37029473460036533 -0.32565573538444043 0 0.36522996683296982 -0.32210974174446261 0 0.37029473460036533 -0.32565573538444043 0 0.35995160240795782 -0.33026718971309799 0 0.35941557651728179 -0.34802939929915899 0 0.37029473460036533 -0.32565573538444043 0 0.37212478857772979 -0.33864880005647208 0 0.35995160240795782 -0.33026718971309799 0 0.3654326502107581 -0.34245967622864359 0 0.35995160240795782 -0.33026718971309799 0 0.35941557651728179 -0.34802939929915899 0 0.37212478857772979 -0.33864880005647208 0 0.3654326502107581 -0.34245967622864359 0 0.37040156667629781 -0.34671437794913718 0 0.37212478857772979 -0.33864880005647208 0 0.3654326502107581 -0.34245967622864359 0 0.35995160240795782 -0.33026718971309799 0 0.35995160240795782 -0.33026718971309799 0 0.35941557651728179 -0.34802939929915899 0 0.34162477060798069 -0.33843815246039383 0 0.35941557651728179 -0.34802939929915899 0 0.34146637893605181 -0.3422169952266676 0 0.34162477060798069 -0.33843815246039383 0 0.35995160240795782 -0.33026718971309799 0 0.34162477060798069 -0.33843815246039383 0 0.35995160240795782 -0.33026718971309799 0 0.34764647170350632 -0.33021231032179682 0 0.34162477060798069 -0.33843815246039383 0 0.35995160240795782 -0.33026718971309799 0 0.34764647170350632 -0.33021231032179682 0 0.35274785573456591 -0.3260756163463463 0 0.34764647170350632 -0.33021231032179682 0 0.34206802946595682 -0.32786306660713371 0 0.34162477060798069 -0.33843815246039383 0 0.34764647170350632 -0.33021231032179682 0 0.34206802946595682 -0.32786306660713371 0 0.35385294866325562 -0.31815161708919842 0 0.35274785573456591 -0.3260756163463463 0 0.34206802946595682 -0.32786306660713371 0 0.34764647170350632 -0.33021231032179682 0 0.35274785573456591 -0.3260756163463463 0 0.34206802946595682 -0.32786306660713371 0 0.34332234684577362 -0.29793808318023329 0 0.35385294866325562 -0.31815161708919842 0 0.34206802946595682 -0.32786306660713371 0 0.36067108370546558 -0.30642584581184062 0 0.35995160240795782 -0.33026718971309799 0 0.35385294866325562 -0.31815161708919842 0 0.35995160240795782 -0.33026718971309799 0 0.35385294866325562 -0.31815161708919842 0 0.35274785573456591 -0.3260756163463463 0 0.38249634533461108 -0.36797477098799591 0 0.36724772315424481 -0.38247146420994571 0 0.36664078794155069 -0.36853845970684512 0 0.38249634533461108 -0.36797477098799591 0 0.36664078794155069 -0.36853845970684512 0 0.37305712147220338 -0.36102055586376819 0 0.3553956415560332 -0.375446985373177 0 0.36664078794155069 -0.36853845970684512 0 0.35901533294662008 -0.36129221050145399 0 0.36664078794155069 -0.36853845970684512 0 0.37305712147220338 -0.36102055586376819 0 0.36517854466496658 -0.35714892472411869 0 0.36664078794155069 -0.36853845970684512 0 0.36517854466496658 -0.35714892472411869 0 0.35901533294662008 -0.36129221050145399 0 0.36517854466496658 -0.35714892472411869 0 0.35941557651728179 -0.34802939929915899 0 0.35901533294662008 -0.36129221050145399 0 0.36517854466496658 -0.35714892472411869 0 0.36469303305047901 -0.34973837317986511 0 0.35941557651728179 -0.34802939929915899 0 0.36517854466496658 -0.35714892472411869 0 0.37030234625384911 -0.35279401393457888 0 0.36469303305047901 -0.34973837317986511 0 0.37818146540529818 -0.34934783795600571 0 0.37305712147220338 -0.36102055586376819 0 0.37030234625384911 -0.35279401393457888 0 0.37305712147220338 -0.36102055586376819 0 0.36517854466496658 -0.35714892472411869 0 0.37030234625384911 -0.35279401393457888 0 0.37818146540529818 -0.34934783795600571 0 0.37212478857772979 -0.33864880005647208 0 0.37040156667629781 -0.34671437794913718 0 0.37818146540529818 -0.34934783795600571 0 0.37030234625384911 -0.35279401393457888 0 0.37040156667629781 -0.34671437794913718 0 0.37030234625384911 -0.35279401393457888 0 0.37040156667629781 -0.34671437794913718 0 0.36469303305047901 -0.34973837317986511 0 0.3654326502107581 -0.34245967622864359 0 0.37040156667629781 -0.34671437794913718 0 0.36469303305047901 -0.34973837317986511 0 0.36469303305047901 -0.34973837317986511 0 0.35941557651728179 -0.34802939929915899 0 0.3654326502107581 -0.34245967622864359 0 0.36469303305047901 -0.34973837317986511 0 0.35941557651728179 -0.34802939929915899 0 0.35003449333301101 -0.35574942476505861 0 0.34024068493209042 -0.37145909403295352 0 0.34146637893605181 -0.3422169952266676 0 0.35941557651728179 -0.34802939929915899 0 0.35003449333301101 -0.35574942476505861 0 0.34146637893605181 -0.3422169952266676 0 0.35941557651728179 -0.34802939929915899 0 0.34146637893605181 -0.3422169952266676 0 0.35941557651728179 -0.34802939929915899 0 0.35901533294662008 -0.36129221050145399 0 0.35941557651728179 -0.34802939929915899 0 0.35003449333301101 -0.35574942476505861 0 0.35901533294662008 -0.36129221050145399 0 0.35003449333301101 -0.35574942476505861 0 0.35901533294662008 -0.36129221050145399 0 0.34024068493209042 -0.37145909403295352 0 0.3553956415560332 -0.375446985373177 0 0.35901533294662008 -0.36129221050145399 0 0.34024068493209042 -0.37145909403295352 0 0.34024068493209042 -0.37145909403295352 0 0.33264239376833749 -0.35548373211026962 0 0.32473595581008968 -0.36877041147622941 0 0.34024068493209042 -0.37145909403295352 0 0.33264239376833749 -0.35548373211026962 0 0.34146637893605181 -0.3422169952266676 0 0.34024068493209042 -0.37145909403295352 0 0.34146637893605181 -0.3422169952266676 0 0.33264239376833749 -0.35548373211026962 0 0.32969677432389999 -0.34883746930945858 0 0.32350037713642671 -0.3535383953733186 0 0.33264239376833749 -0.35548373211026962 0 0.33484083241944268 -0.34588391539316982 0 0.34146637893605181 -0.3422169952266676 0 0.33264239376833749 -0.35548373211026962 0 0.33484083241944268 -0.34588391539316982 0 0.32969677432389999 -0.34883746930945858 0 0.33484083241944268 -0.34588391539316982 0 0.32969677432389999 -0.34883746930945858 0 0.33080291213000951 -0.34437854531234752 0 0.32969677432389999 -0.34883746930945858 0 0.33080291213000951 -0.34437854531234752 0 0.32576759743036687 -0.34544500479448842 0 0.32576759743036687 -0.34544500479448842 0 0.32008489300350967 -0.34478001059398899 0 0.32350037713642671 -0.3535383953733186 0 0.32969677432389999 -0.34883746930945858 0 0.32576759743036687 -0.34544500479448842 0 0.32350037713642671 -0.3535383953733186 0 0.32576759743036687 -0.34544500479448842 0 0.32008489300350967 -0.34478001059398899 0 0.3230261242077439 -0.3426129045732173 0 0.32008489300350967 -0.34478001059398899 0 0.31455300750316167 -0.34989325112993808 0 0.32350037713642671 -0.3535383953733186 0 0.32008489300350967 -0.34478001059398899 0 0.31455300750316167 -0.34989325112993808 0 0.31278358272303802 -0.34129775444127147 0 0.31455300750316167 -0.34989325112993808 0 0.32350037713642671 -0.3535383953733186 0 0.31266700858965563 -0.36105898834543543 0 0.33264239376833749 -0.35548373211026962 0 0.32350037713642671 -0.3535383953733186 0 0.32473595581008968 -0.36877041147622941 0 0.30852465471842783 -0.38296478278532459 0 0.31266700858965563 -0.36105898834543543 0 0.32473595581008968 -0.36877041147622941 0 0.32350037713642671 -0.3535383953733186 0 0.31266700858965563 -0.36105898834543543 0 0.32473595581008968 -0.36877041147622941 0 0.34332234684577362 -0.29793808318023329 0 0.34206802946595682 -0.32786306660713371 0 0.32977293544345387 -0.30596193421111573 0 0.34206802946595682 -0.32786306660713371 0 0.32081511337912821 -0.31891284763754968 0 0.34206802946595682 -0.32786306660713371 0 0.32602109842812482 -0.32927153728442071 0 0.32081511337912821 -0.31891284763754968 0 0.34206802946595682 -0.32786306660713371 0 0.32081511337912821 -0.31891284763754968 0 0.34206802946595682 -0.32786306660713371 0 0.34162477060798069 -0.33843815246039383 0 0.33801441914131958 -0.33597980122333287 0 0.34206802946595682 -0.32786306660713371 0 0.34162477060798069 -0.33843815246039383 0 0.34206802946595682 -0.32786306660713371 0 0.33503975802439162 -0.33352730776002742 0 0.32602109842812482 -0.32927153728442071 0 0.34206802946595682 -0.32786306660713371 0 0.33801441914131958 -0.33597980122333287 0 0.33503975802439162 -0.33352730776002742 0 0.34146637893605181 -0.3422169952266676 0 0.34162477060798069 -0.33843815246039383 0 0.33664845261102122 -0.34065682884787418 0 0.34146637893605181 -0.3422169952266676 0 0.34162477060798069 -0.33843815246039383 0 0.34162477060798069 -0.33843815246039383 0 0.33801441914131958 -0.33597980122333287 0 0.33664845261102122 -0.34065682884787418 0 0.34162477060798069 -0.33843815246039383 0 0.33664845261102122 -0.34065682884787418 0 0.33801441914131958 -0.33597980122333287 0 0.33664845261102122 -0.34065682884787418 0 0.334556636173299 -0.33621284741772872 0 0.33484083241944268 -0.34588391539316982 0 0.34146637893605181 -0.3422169952266676 0 0.33664845261102122 -0.34065682884787418 0 0.34146637893605181 -0.3422169952266676 0 0.33664845261102122 -0.34065682884787418 0 0.33080291213000951 -0.34437854531234752 0 0.33664845261102122 -0.34065682884787418 0 0.32753883147517121 -0.34023469067202677 0 0.33664845261102122 -0.34065682884787418 0 0.334556636173299 -0.33621284741772872 0 0.32852391491646382 -0.33468745183968091 0 0.33484083241944268 -0.34588391539316982 0 0.33080291213000951 -0.34437854531234752 0 0.33664845261102122 -0.34065682884787418 0 0.33503975802439162 -0.33352730776002742 0 0.32852391491646382 -0.33468745183968091 0 0.32602109842812482 -0.32927153728442071 0 0.334556636173299 -0.33621284741772872 0 0.33503975802439162 -0.33352730776002742 0 0.32852391491646382 -0.33468745183968091 0 0.33801441914131958 -0.33597980122333287 0 0.334556636173299 -0.33621284741772872 0 0.33503975802439162 -0.33352730776002742 0 0.32753883147517121 -0.34023469067202677 0 0.31871317492192791 -0.33999191223236508 0 0.30992165968220392 -0.33200201743577268 0 0.32852391491646382 -0.33468745183968091 0 0.32602109842812482 -0.32927153728442071 0 0.30992165968220392 -0.33200201743577268 0 0.33664845261102122 -0.34065682884787418 0 0.32852391491646382 -0.33468745183968091 0 0.30992165968220392 -0.33200201743577268 0 0.33664845261102122 -0.34065682884787418 0 0.32753883147517121 -0.34023469067202677 0 0.30992165968220392 -0.33200201743577268 0 0.32602109842812482 -0.32927153728442071 0 0.31516553794356478 -0.32688419612254632 0 0.30992165968220392 -0.33200201743577268 0 0.33664845261102122 -0.34065682884787418 0 0.30992165968220392 -0.33200201743577268 0 0.32753883147517121 -0.34023469067202677 0 0.3230261242077439 -0.3426129045732173 0 0.31871317492192791 -0.33999191223236508 0 0.33080291213000951 -0.34437854531234752 0 0.32576759743036687 -0.34544500479448842 0 0.32753883147517121 -0.34023469067202677 0 0.32576759743036687 -0.34544500479448842 0 0.32753883147517121 -0.34023469067202677 0 0.3230261242077439 -0.3426129045732173 0 0.32008489300350967 -0.34478001059398899 0 0.3230261242077439 -0.3426129045732173 0 0.31871317492192791 -0.33999191223236508 0 0.31871317492192791 -0.33999191223236508 0 0.31278358272303802 -0.34129775444127147 0 0.30992165968220392 -0.33200201743577268 0 0.32008489300350967 -0.34478001059398899 0 0.31871317492192791 -0.33999191223236508 0 0.31278358272303802 -0.34129775444127147 0 0.32602109842812482 -0.32927153728442071 0 0.31516553794356478 -0.32688419612254632 0 0.32081511337912821 -0.31891284763754968 0 0.31516553794356478 -0.32688419612254632 0 0.32081511337912821 -0.31891284763754968 0 0.29956219729229971 -0.30996262866796498 0 0.31516553794356478 -0.32688419612254632 0 0.30992165968220392 -0.33200201743577268 0 0.29956219729229971 -0.30996262866796498 0 0.30992165968220392 -0.33200201743577268 0 0.28319486675338662 -0.32334720602367162 0 0.29956219729229971 -0.30996262866796498 0 0.32081511337912821 -0.31891284763754968 0 0.29956219729229971 -0.30996262866796498 0 0.31516553794356478 -0.32688419612254632 0 0.29956219729229971 -0.30996262866796498 0 0.31278358272303802 -0.34129775444127147 0 0.30544777269898171 -0.33968681455295602 0 0.30372917606317851 -0.34879110689567611 0 0.31278358272303802 -0.34129775444127147 0 0.30992165968220392 -0.33200201743577268 0 0.30544777269898171 -0.33968681455295602 0 0.30992165968220392 -0.33200201743577268 0 0.30544777269898171 -0.33968681455295602 0 0.29535667232750618 -0.33665637943910393 0 0.30544777269898171 -0.33968681455295602 0 0.29535667232750618 -0.33665637943910393 0 0.30372917606317851 -0.34879110689567611 0 0.30992165968220392 -0.33200201743577268 0 0.29535667232750618 -0.33665637943910393 0 0.28319486675338662 -0.32334720602367162 0 0.29535667232750618 -0.33665637943910393 0 0.28811986741475609 -0.34954264064797458 0 0.28056009198101312 -0.33712721632873971 0 0.29535667232750618 -0.33665637943910393 0 0.28319486675338662 -0.32334720602367162 0 0.28056009198101312 -0.33712721632873971 0 0.30992165968220392 -0.33200201743577268 0 0.28319486675338662 -0.32334720602367162 0 0.30852465471842783 -0.38296478278532459 0 0.31266700858965563 -0.36105898834543543 0 0.29576167506738288 -0.36584798696867898 0 0.31266700858965563 -0.36105898834543543 0 0.30372917606317851 -0.34879110689567611 0 0.29576167506738288 -0.36584798696867898 0 0.31455300750316167 -0.34989325112993808 0 0.31266700858965563 -0.36105898834543543 0 0.30372917606317851 -0.34879110689567611 0 0.31455300750316167 -0.34989325112993808 0 0.31278358272303802 -0.34129775444127147 0 0.30372917606317851 -0.34879110689567611 0 0.30372917606317851 -0.34879110689567611 0 0.28811986741475609 -0.34954264064797458 0 0.29576167506738288 -0.36584798696867898 0 0.29535667232750618 -0.33665637943910393 0 0.30372917606317851 -0.34879110689567611 0 0.28811986741475609 -0.34954264064797458 0 0.28811986741475609 -0.34954264064797458 0 0.29576167506738288 -0.36584798696867898 0 0.27628411724202862 -0.36524783617958329 0 0.28524522637625171 -0.38748256695808048 0 0.29576167506738288 -0.36584798696867898 0 0.27628411724202862 -0.36524783617958329 0 0.27628411724202862 -0.36524783617958329 0 0.26970242523906313 -0.3463930650348116 0 0.25620327224306561 -0.36049072758523892 0 0.28811986741475609 -0.34954264064797458 0 0.27628411724202862 -0.36524783617958329 0 0.26970242523906313 -0.3463930650348116 0 0.28811986741475609 -0.34954264064797458 0 0.26970242523906313 -0.3463930650348116 0 0.28056009198101312 -0.33712721632873971 0 0.26970242523906313 -0.3463930650348116 0 0.25620327224306561 -0.36049072758523892 0 0.25110761996098008 -0.33756133299550262 0 0.26194523537769671 -0.38343407302417171 0 0.27628411724202862 -0.36524783617958329 0 0.25620327224306561 -0.36049072758523892 0 0.26194523537769671 -0.38343407302417171 0 0.25620327224306561 -0.36049072758523892 0 0.2380746425401753 -0.37739124482652259 0 0.28319486675338662 -0.32334720602367162 0 0.25646807382456938 -0.31469239461157061 0 0.28319486675338662 -0.32334720602367162 0 0.25646807382456938 -0.31469239461157061 0 0.26668910057358802 -0.30550764638795852 0 0.28319486675338662 -0.32334720602367162 0 0.26642662817035351 -0.32969679049813649 0 0.25646807382456938 -0.31469239461157061 0 0.26970242523906313 -0.3463930650348116 0 0.26642662817035351 -0.32969679049813649 0 0.28056009198101312 -0.33712721632873971 0 0.28319486675338662 -0.32334720602367162 0 0.26642662817035351 -0.32969679049813649 0 0.28056009198101312 -0.33712721632873971 0 0.26970242523906313 -0.3463930650348116 0 0.26642662817035351 -0.32969679049813649 0 0.25110761996098008 -0.33756133299550262 0 0.26642662817035351 -0.32969679049813649 0 0.25110761996098008 -0.33756133299550262 0 0.25646807382456938 -0.31469239461157061 0 0.26020915296869068 -0.2933899210744732 0 0.26668910057358802 -0.30550764638795852 0 0.24613976577650579 -0.30323365481969039 0 0.25646807382456938 -0.31469239461157061 0 0.26668910057358802 -0.30550764638795852 0 0.24613976577650579 -0.30323365481969039 0 0.26020915296869068 -0.2933899210744732 0 0.25058364390229548 -0.28023087545190861 0 0.26295470628353768 -0.27026240406269297 0 0.26020915296869068 -0.2933899210744732 0 0.25058364390229548 -0.28023087545190861 0 0.24053263080688631 -0.28510356727772701 0 0.26020915296869068 -0.2933899210744732 0 0.24053263080688631 -0.28510356727772701 0 0.26020915296869068 -0.2933899210744732 0 0.28125845178791892 -0.29011251636532881 0 0.26295470628353768 -0.27026240406269297 0 0.26020915296869068 -0.2933899210744732 0 0.27988567513049512 -0.30167627487121951 0 0.28125845178791892 -0.29011251636532881 0 0.26020915296869068 -0.2933899210744732 0 0.26668910057358802 -0.30550764638795852 0 0.27988567513049512 -0.30167627487121951 0 0.26020915296869068 -0.2933899210744732 0 0.27988567513049512 -0.30167627487121951 0 0.28319486675338662 -0.32334720602367162 0 0.26668910057358802 -0.30550764638795852 0 0.27988567513049512 -0.30167627487121951 0 0.27988567513049512 -0.30167627487121951 0 0.29956219729229971 -0.30996262866796498 0 0.28125845178791892 -0.29011251636532881 0 0.29956219729229971 -0.30996262866796498 0 0.27988567513049512 -0.30167627487121951 0 0.28125845178791892 -0.29011251636532881 0 0.29956219729229971 -0.30996262866796498 0 0.28319486675338662 -0.32334720602367162 0 0.27988567513049512 -0.30167627487121951 0 0.29956219729229971 -0.30996262866796498 0 0.28125845178791892 -0.29011251636532881 0 0.30351741442094582 -0.28364787667668517 0 0.29956219729229971 -0.30996262866796498 0 0.30351741442094582 -0.28364787667668517 0 0.30893165249025939 -0.29458973757352408 0 0.29956219729229971 -0.30996262866796498 0 0.315203972569992 -0.28599406388836862 0 0.30351741442094582 -0.28364787667668517 0 0.30893165249025939 -0.29458973757352408 0 0.31744302567780058 -0.29875438106107682 0 0.30893165249025939 -0.29458973757352408 0 0.29956219729229971 -0.30996262866796498 0 0.31140457280844042 -0.24710474912070499 0 0.31565659849655159 -0.26881006701694032 0 0.29718577407036301 -0.25519814195989071 0 0.31565659849655159 -0.26881006701694032 0 0.29718577407036301 -0.25519814195989071 0 0.28930565239004458 -0.26953623553981648 0 0.31565659849655159 -0.26881006701694032 0 0.28930565239004458 -0.26953623553981648 0 0.31565659849655159 -0.26881006701694032 0 0.30351741442094582 -0.28364787667668517 0 0.28930565239004458 -0.26953623553981648 0 0.315203972569992 -0.28599406388836862 0 0.31616400359283131 -0.27140021809428472 0 0.30351741442094582 -0.28364787667668517 0 0.31616400359283131 -0.27140021809428472 0 0.31565659849655159 -0.26881006701694032 0 0.30351741442094582 -0.28364787667668517 0 0.28125845178791892 -0.29011251636532881 0 0.30351741442094582 -0.28364787667668517 0 0.28930565239004458 -0.26953623553981648 0 0.29234931722919649 -0.23956849287787771 0 0.29718577407036301 -0.25519814195989071 0 0.28009493911397709 -0.25531812806766069 0 0.29718577407036301 -0.25519814195989071 0 0.28930565239004458 -0.26953623553981648 0 0.28009493911397709 -0.25531812806766069 0 0.28009493911397709 -0.25531812806766069 0 0.26295470628353768 -0.27026240406269297 0 0.26515279713901752 -0.25474276698909742 0 0.28930565239004458 -0.26953623553981648 0 0.28009493911397709 -0.25531812806766069 0 0.26295470628353768 -0.27026240406269297 0 0.27362138757170362 -0.2426007269765893 0 0.28009493911397709 -0.25531812806766069 0 0.26515279713901752 -0.25474276698909742 0 0.28930565239004458 -0.26953623553981648 0 0.26295470628353768 -0.27026240406269297 0 0.28125845178791892 -0.29011251636532881 0 0.28930565239004458 -0.26953623553981648 0 0.26295470628353768 -0.27026240406269297 0 0.28125845178791892 -0.29011251636532881 0 0.26295470628353768 -0.27026240406269297 0 0.26295470628353768 -0.27026240406269297 0 0.25920525151110962 -0.26619618175379239 0 0.2333624491378041 -0.27107789530058801 0 0.26295470628353768 -0.27026240406269297 0 0.25920525151110962 -0.26619618175379239 0 0.26515279713901752 -0.25474276698909742 0 0.25909559454287789 -0.26033526294480458 0 0.25575058308532189 -0.25269357128633052 0 0.26295470628353768 -0.27026240406269297 0 0.25920525151110962 -0.26619618175379239 0 0.25909559454287789 -0.26033526294480458 0 0.26295470628353768 -0.27026240406269297 0 0.26515279713901752 -0.25474276698909742 0 0.25909559454287789 -0.26033526294480458 0 0.25920525151110962 -0.26619618175379239 0 0.25909559454287789 -0.26033526294480458 0 0.2525593813984649 -0.26013433662011259 0 0.2525593813984649 -0.26013433662011259 0 0.25575058308532189 -0.25269357128633052 0 0.2462907050713771 -0.25204034373521428 0 0.25909559454287789 -0.26033526294480458 0 0.2525593813984649 -0.26013433662011259 0 0.25575058308532189 -0.25269357128633052 0 0.2525593813984649 -0.26013433662011259 0 0.2372713891187809 -0.25677075628574592 0 0.2333624491378041 -0.27107789530058801 0 0.2525593813984649 -0.26013433662011259 0 0.2462907050713771 -0.25204034373521428 0 0.2372713891187809 -0.25677075628574592 0 0.2525593813984649 -0.26013433662011259 0 0.2372713891187809 -0.25677075628574592 0 0.2462907050713771 -0.25204034373521428 0 0.2372713891187809 -0.25677075628574592 0 0.2374752251495614 -0.24157268794541539 0 0.26295470628353768 -0.27026240406269297 0 0.2333624491378041 -0.27107789530058801 0 0.25058364390229548 -0.28023087545190861 0 0.2333624491378041 -0.27107789530058801 0 0.24053263080688631 -0.28510356727772701 0 0.25920525151110962 -0.26619618175379239 0 0.2525593813984649 -0.26013433662011259 0 0.2333624491378041 -0.27107789530058801 0 0.25058364390229548 -0.28023087545190861 0 0.26295470628353768 -0.27026240406269297 0 0.2333624491378041 -0.27107789530058801 0 0.2333624491378041 -0.27107789530058801 0 0.22391874229476511 -0.2824004848955064 0 0.24053263080688631 -0.28510356727772701 0 0.2333624491378041 -0.27107789530058801 0 0.22198339683909701 -0.25340717595137879 0 0.22391874229476511 -0.2824004848955064 0 0.22198339683909701 -0.25340717595137879 0 0.21277476220729311 -0.27908963951381288 0 0.22391874229476511 -0.2824004848955064 0 0.22198339683909701 -0.25340717595137879 0 0.22391874229476511 -0.2824004848955064 0 0.2372713891187809 -0.25677075628574592 0 0.2333624491378041 -0.27107789530058801 0 0.22198339683909701 -0.25340717595137879 0 0.2372713891187809 -0.25677075628574592 0 0.22198339683909701 -0.25340717595137879 0 0.2374752251495614 -0.24157268794541539 0 0.2372713891187809 -0.25677075628574592 0 0.22198339683909701 -0.25340717595137879 0 0.22198339683909701 -0.25340717595137879 0 0.19767743283581299 -0.26201501502554969 0 0.19815896102696709 -0.24816545406213189 0 0.22198339683909701 -0.25340717595137879 0 0.19815896102696709 -0.24816545406213189 0 0.22198339683909701 -0.25340717595137879 0 0.2070014623020448 -0.26844420161526761 0 0.19767743283581299 -0.26201501502554969 0 0.22198339683909701 -0.25340717595137879 0 0.21277476220729311 -0.27908963951381288 0 0.2070014623020448 -0.26844420161526761 0 0.21277476220729311 -0.27908963951381288 0 0.19627752834655959 -0.27465633278028612 0 0.20552852767052071 -0.28818040814850709 0 0.21277476220729311 -0.27908963951381288 0 0.2070014623020448 -0.26844420161526761 0 0.19627752834655959 -0.27465633278028612 0 0.2070014623020448 -0.26844420161526761 0 0.19627752834655959 -0.27465633278028612 0 0.19767743283581299 -0.26201501502554969 0 0.19627752834655959 -0.27465633278028612 0 0.19767743283581299 -0.26201501502554969 0 0.1861358052291735 -0.26379397041404468 0 0.19767743283581299 -0.26201501502554969 0 0.1861358052291735 -0.26379397041404468 0 0.19815896102696709 -0.24816545406213189 0 0.1861358052291735 -0.26379397041404468 0 0.18066177981631051 -0.25348299893649828 0 0.19815896102696709 -0.24816545406213189 0 0.20129939135720101 -0.31175464383988888 0 0.20552852767052071 -0.28818040814850709 0 0.1861316223780578 -0.30340045511113362 0 0.20552852767052071 -0.28818040814850709 0 0.18615950714984131 -0.28714944863913389 0 0.1861316223780578 -0.30340045511113362 0 0.19627752834655959 -0.27465633278028612 0 0.20552852767052071 -0.28818040814850709 0 0.18615950714984131 -0.28714944863913389 0 0.21277476220729311 -0.27908963951381288 0 0.20552852767052071 -0.28818040814850709 0 0.22391874229476511 -0.2824004848955064 0 0.20552852767052071 -0.28818040814850709 0 0.21283890344555609 -0.30228465628523993 0 0.22391874229476511 -0.2824004848955064 0 0.20129939135720101 -0.31175464383988888 0 0.20552852767052071 -0.28818040814850709 0 0.21283890344555609 -0.30228465628523993 0 0.225854087750432 -0.31139379383963389 0 0.22391874229476511 -0.2824004848955064 0 0.21283890344555609 -0.30228465628523993 0 0.225854087750432 -0.31139379383963389 0 0.22391874229476511 -0.2824004848955064 0 0.225854087750432 -0.31139379383963389 0 0.22391874229476511 -0.2824004848955064 0 0.24053263080688631 -0.28510356727772701 0 0.26020915296869068 -0.2933899210744732 0 0.24053263080688631 -0.28510356727772701 0 0.24613976577650579 -0.30323365481969039 0 0.225854087750432 -0.31139379383963389 0 0.24053263080688631 -0.28510356727772701 0 0.24613976577650579 -0.30323365481969039 0 0.225854087750432 -0.31139379383963389 0 0.24613976577650579 -0.30323365481969039 0 0.24147179610371719 -0.32145365581003182 0 0.25110761996098008 -0.33756133299550262 0 0.25646807382456938 -0.31469239461157061 0 0.24147179610371719 -0.32145365581003182 0 0.25646807382456938 -0.31469239461157061 0 0.24613976577650579 -0.30323365481969039 0 0.24147179610371719 -0.32145365581003182 0 0.25110761996098008 -0.33756133299550262 0 0.24147179610371719 -0.32145365581003182 0 0.2277894332060989 -0.3403871027837615 0 0.225854087750432 -0.31139379383963389 0 0.24147179610371719 -0.32145365581003182 0 0.2277894332060989 -0.3403871027837615 0 0.225854087750432 -0.31139379383963389 0 0.2277894332060989 -0.3403871027837615 0 0.2131017443993804 -0.32550716011161479 0 0.225854087750432 -0.31139379383963389 0 0.2277894332060989 -0.3403871027837615 0 0.25620327224306561 -0.36049072758523892 0 0.23939100935974761 -0.35412122659527612 0 0.2380746425401753 -0.37739124482652259 0 0.25110761996098008 -0.33756133299550262 0 0.2277894332060989 -0.3403871027837615 0 0.23939100935974761 -0.35412122659527612 0 0.25620327224306561 -0.36049072758523892 0 0.25110761996098008 -0.33756133299550262 0 0.23939100935974761 -0.35412122659527612 0 0.2277894332060989 -0.3403871027837615 0 0.23939100935974761 -0.35412122659527612 0 0.22160146260088931 -0.35672021721344238 0 0.2277894332060989 -0.3403871027837615 0 0.22160146260088931 -0.35672021721344238 0 0.21393580002607371 -0.34141846605291087 0 0.23939100935974761 -0.35412122659527612 0 0.22160146260088931 -0.35672021721344238 0 0.2380746425401753 -0.37739124482652259 0 0.22160146260088931 -0.35672021721344238 0 0.21646245367279571 -0.38358476595235552 0 0.22160146260088931 -0.35672021721344238 0 0.2380746425401753 -0.37739124482652259 0 0.21646245367279571 -0.38358476595235552 0 0.22160146260088931 -0.35672021721344238 0 0.19836301469614079 -0.36402790855933592 0 0.2025217842010896 -0.37807387373583923 0 0.22160146260088931 -0.35672021721344238 0 0.21646245367279571 -0.38358476595235552 0 0.2025217842010896 -0.37807387373583923 0 0.22160146260088931 -0.35672021721344238 0 0.20535211274276649 -0.35018034328080122 0 0.21393580002607371 -0.34141846605291087 0 0.22160146260088931 -0.35672021721344238 0 0.20535211274276649 -0.35018034328080122 0 0.19836301469614079 -0.36402790855933592 0 0.20535211274276649 -0.35018034328080122 0 0.19180082998577391 -0.35029167033112268 0 0.20100079568597551 -0.33875735092892167 0 0.19180082998577391 -0.35029167033112268 0 0.19836301469614079 -0.36402790855933592 0 0.18636698824462991 -0.36225910140511608 0 0.19180082998577391 -0.35029167033112268 0 0.18636698824462991 -0.36225910140511608 0 0.18448777755487131 -0.35210036546502188 0 0.20535211274276649 -0.35018034328080122 0 0.19180082998577391 -0.35029167033112268 0 0.19836301469614079 -0.36402790855933592 0 0.19836301469614079 -0.36402790855933592 0 0.19083927531350181 -0.37426462870353422 0 0.18636698824462991 -0.36225910140511608 0 0.19836301469614079 -0.36402790855933592 0 0.19083927531350181 -0.37426462870353422 0 0.2025217842010896 -0.37807387373583923 0 0.20129939135720101 -0.31175464383988888 0 0.21283890344555609 -0.30228465628523993 0 0.2131017443993804 -0.32550716011161479 0 0.21283890344555609 -0.30228465628523993 0 0.225854087750432 -0.31139379383963389 0 0.2131017443993804 -0.32550716011161479 0 0.2277894332060989 -0.3403871027837615 0 0.2131017443993804 -0.32550716011161479 0 0.21393580002607371 -0.34141846605291087 0 0.2131017443993804 -0.32550716011161479 0 0.21393580002607371 -0.34141846605291087 0 0.20100079568597551 -0.33875735092892167 0 0.20535211274276649 -0.35018034328080122 0 0.21393580002607371 -0.34141846605291087 0 0.20100079568597551 -0.33875735092892167 0 0.19180082998577391 -0.35029167033112268 0 0.20100079568597551 -0.33875735092892167 0 0.1840044286915227 -0.33601373309634508 0 0.20100079568597551 -0.33875735092892167 0 0.19352690233448341 -0.32516644492614982 0 0.1840044286915227 -0.33601373309634508 0 0.2131017443993804 -0.32550716011161479 0 0.20100079568597551 -0.33875735092892167 0 0.19352690233448341 -0.32516644492614982 0 0.20129939135720101 -0.31175464383988888 0 0.2131017443993804 -0.32550716011161479 0 0.19352690233448341 -0.32516644492614982 0 0.20129939135720101 -0.31175464383988888 0 0.19352690233448341 -0.32516644492614982 0 0.1861316223780578 -0.30340045511113362 0 0.19352690233448341 -0.32516644492614982 0 0.17526094699071121 -0.32121364916979261 0 0.1840044286915227 -0.33601373309634508 0 0.19352690233448341 -0.32516644492614982 0 0.17526094699071121 -0.32121364916979261 0 0.1861316223780578 -0.30340045511113362 0 0.17526094699071121 -0.32121364916979261 0 0.1840044286915227 -0.33601373309634508 0 0.17670370261134591 -0.35101137430815987 0 0.17526094699071121 -0.32121364916979261 0 0.16632300769682529 -0.33914532989683449 0 0.17670370261134591 -0.35101137430815987 0 0.17526094699071121 -0.32121364916979261 0 0.17670370261134591 -0.35101137430815987 0 0.16632300769682529 -0.33914532989683449 0 0.15635532043033851 -0.32762317205032648 0 0.15384528835215919 -0.34888323103730828 0 0.17526094699071121 -0.32121364916979261 0 0.16632300769682529 -0.33914532989683449 0 0.15635532043033851 -0.32762317205032648 0 0.17526094699071121 -0.32121364916979261 0 0.15635532043033851 -0.32762317205032648 0 0.16613015085753399 -0.29794196337136208 0 0.19083927531350181 -0.37426462870353422 0 0.18636698824462991 -0.36225910140511608 0 0.17814645823198061 -0.38080909944652741 0 0.17670370261134591 -0.35101137430815987 0 0.1695008882053643 -0.3539014675276998 0 0.17814645823198061 -0.38080909944652741 0 0.17670370261134591 -0.35101137430815987 0 0.17814645823198061 -0.38080909944652741 0 0.18636698824462991 -0.36225910140511608 0 0.17670370261134591 -0.35101137430815987 0 0.17814645823198061 -0.38080909944652741 0 0.18636698824462991 -0.36225910140511608 0 0.18448777755487131 -0.35210036546502188 0 0.17670370261134591 -0.35101137430815987 0 0.18448777755487131 -0.35210036546502188 0 0.18424918471087839 -0.34735428580016242 0 0.17670370261134591 -0.35101137430815987 0 0.19180082998577391 -0.35029167033112268 0 0.1840044286915227 -0.33601373309634508 0 0.18424918471087839 -0.34735428580016242 0 0.1840044286915227 -0.33601373309634508 0 0.18424918471087839 -0.34735428580016242 0 0.17670370261134591 -0.35101137430815987 0 0.19180082998577391 -0.35029167033112268 0 0.18448777755487131 -0.35210036546502188 0 0.18424918471087839 -0.34735428580016242 0 0.16632300769682529 -0.33914532989683449 0 0.1695008882053643 -0.3539014675276998 0 0.15384528835215919 -0.34888323103730828 0 0.1695008882053643 -0.3539014675276998 0 0.15622266046030589 -0.36560529067035252 0 0.15384528835215919 -0.34888323103730828 0 0.16632300769682529 -0.33914532989683449 0 0.17670370261134591 -0.35101137430815987 0 0.1695008882053643 -0.3539014675276998 0 0.1695008882053643 -0.3539014675276998 0 0.15622266046030589 -0.36560529067035252 0 0.1662516937484437 -0.37945746017663878 0 0.1695008882053643 -0.3539014675276998 0 0.17814645823198061 -0.38080909944652741 0 0.1662516937484437 -0.37945746017663878 0 0.1695008882053643 -0.3539014675276998 0 0.1662516937484437 -0.37945746017663878 0 0.15622266046030589 -0.36560529067035252 0 0.15384528835215919 -0.34888323103730828 0 0.13913284643621729 -0.36987147755796063 0 0.15622266046030589 -0.36560529067035252 0 0.13913284643621729 -0.36987147755796063 0 0.15122325216971341 -0.38057118911269922 0 0.15384528835215919 -0.34888323103730828 0 0.13913284643621729 -0.36987147755796063 0 0.1385684583736729 -0.34280877879487409 0 0.1385684583736729 -0.34280877879487409 0 0.1245186505824013 -0.36113750934922573 0 0.1203073559828662 -0.34481831064573482 0 0.13913284643621729 -0.36987147755796063 0 0.1385684583736729 -0.34280877879487409 0 0.13913284643621729 -0.36987147755796063 0 0.1385684583736729 -0.34280877879487409 0 0.1245186505824013 -0.36113750934922573 0 0.13913284643621729 -0.36987147755796063 0 0.12672469353237761 -0.38193719477194499 0 0.1245186505824013 -0.36113750934922573 0 0.15635532043033851 -0.32762317205032648 0 0.13800407031112841 -0.31574608003178772 0 0.16613015085753399 -0.29794196337136208 0 0.15635532043033851 -0.32762317205032648 0 0.15384528835215919 -0.34888323103730828 0 0.1385684583736729 -0.34280877879487409 0 0.15635532043033851 -0.32762317205032648 0 0.1385684583736729 -0.34280877879487409 0 0.13800407031112841 -0.31574608003178772 0 0.1385684583736729 -0.34280877879487409 0 0.13800407031112841 -0.31574608003178772 0 0.1385684583736729 -0.34280877879487409 0 0.1252730154641265 -0.33501756179834041 0 0.127277047630593 -0.32368123984794023 0 0.1385684583736729 -0.34280877879487409 0 0.1252730154641265 -0.33501756179834041 0 0.1203073559828662 -0.34481831064573482 0 0.13800407031112841 -0.31574608003178772 0 0.127277047630593 -0.32368123984794023 0 0.1207194796176513 -0.31206082339016011 0 0.1385684583736729 -0.34280877879487409 0 0.13800407031112841 -0.31574608003178772 0 0.127277047630593 -0.32368123984794023 0 0.13800407031112841 -0.31574608003178772 0 0.13743968224858391 -0.28868338126870119 0 0.1207194796176513 -0.31206082339016011 0 0.13800407031112841 -0.31574608003178772 0 0.13743968224858391 -0.28868338126870119 0 0.13800407031112841 -0.31574608003178772 0 0.13743968224858391 -0.28868338126870119 0 0.16613015085753399 -0.29794196337136208 0 0.13743968224858391 -0.28868338126870119 0 0.16013622185265231 -0.27370264407204231 0 0.16613015085753399 -0.29794196337136208 0 0.13743968224858391 -0.28868338126870119 0 0.13687529418603939 -0.26162068250561471 0 0.13743968224858391 -0.28868338126870119 0 0.13687529418603939 -0.26162068250561471 0 0.12122917553908071 -0.27280048239714111 0 0.13687529418603939 -0.26162068250561471 0 0.15867772839633809 -0.25707915377424612 0 0.15532271566916761 -0.23874085795770611 0 0.13687529418603939 -0.26162068250561471 0 0.16013622185265231 -0.27370264407204231 0 0.15867772839633809 -0.25707915377424612 0 0.13743968224858391 -0.28868338126870119 0 0.13687529418603939 -0.26162068250561471 0 0.16013622185265231 -0.27370264407204231 0 0.16013622185265231 -0.27370264407204231 0 0.17163424862532001 -0.26348395238230132 0 0.17866520103123101 -0.27392164610568698 0 0.16013622185265231 -0.27370264407204231 0 0.15867772839633809 -0.25707915377424612 0 0.17163424862532001 -0.26348395238230132 0 0.15867772839633809 -0.25707915377424612 0 0.17163424862532001 -0.26348395238230132 0 0.17304535898525439 -0.24904788565112909 0 0.17163424862532001 -0.26348395238230132 0 0.18066177981631051 -0.25348299893649828 0 0.17304535898525439 -0.24904788565112909 0 0.17163424862532001 -0.26348395238230132 0 0.1861358052291735 -0.26379397041404468 0 0.18066177981631051 -0.25348299893649828 0 0.19627752834655959 -0.27465633278028612 0 0.17866520103123101 -0.27392164610568698 0 0.18615950714984131 -0.28714944863913389 0 0.19627752834655959 -0.27465633278028612 0 0.1861358052291735 -0.26379397041404468 0 0.17866520103123101 -0.27392164610568698 0 0.17163424862532001 -0.26348395238230132 0 0.1861358052291735 -0.26379397041404468 0 0.17866520103123101 -0.27392164610568698 0 0.17866520103123101 -0.27392164610568698 0 0.18615950714984131 -0.28714944863913389 0 0.16613015085753399 -0.29794196337136208 0 0.18615950714984131 -0.28714944863913389 0 0.1861316223780578 -0.30340045511113362 0 0.16613015085753399 -0.29794196337136208 0 0.17526094699071121 -0.32121364916979261 0 0.1861316223780578 -0.30340045511113362 0 0.16613015085753399 -0.29794196337136208 0 0.16013622185265231 -0.27370264407204231 0 0.17866520103123101 -0.27392164610568698 0 0.16613015085753399 -0.29794196337136208 0 0.19650118937966099 -0.48458767462136337 0 0.18247472509388471 -0.47020227486163019 0 0.1839174807145193 -0.49999999999999789 0 0.19650118937966099 -0.48458767462136337 0 0.2054847406710314 -0.5 0 0.1839174807145193 -0.49999999999999789 0 0.19650118937966099 -0.48458767462136337 0 0.1995265252191368 -0.47051219141525807 0 0.18247472509388471 -0.47020227486163019 0 0.19650118937966099 -0.48458767462136337 0 0.1995265252191368 -0.47051219141525807 0 0.21142085222808771 -0.48158275099342862 0 0.1995265252191368 -0.47051219141525807 0 0.21142085222808771 -0.48158275099342862 0 0.21140626781342409 -0.46122374827882839 0 0.21142085222808771 -0.48158275099342862 0 0.23068219321441441 -0.47630316546961982 0 0.21140626781342409 -0.46122374827882839 0 0.19650118937966099 -0.48458767462136337 0 0.21142085222808771 -0.48158275099342862 0 0.2054847406710314 -0.5 0 0.21142085222808771 -0.48158275099342862 0 0.2054847406710314 -0.5 0 0.22705200062754341 -0.49999999999999972 0 0.21142085222808771 -0.48158275099342862 0 0.22705200062754341 -0.49999999999999972 0 0.23068219321441441 -0.47630316546961982 0 0.22705200062754341 -0.49999999999999972 0 0.24310759435645521 -0.48732129405658853 0 0.23068219321441441 -0.47630316546961982 0 0.22705200062754341 -0.49999999999999972 0 0.23068219321441441 -0.47630316546961982 0 0.25573491640979129 -0.5 0 0.22705200062754341 -0.49999999999999972 0 0.24310759435645521 -0.48732129405658853 0 0.24310759435645521 -0.48732129405658853 0 0.24452211955108941 -0.47321082899062988 0 0.23068219321441441 -0.47630316546961982 0 0.23068219321441441 -0.47630316546961982 0 0.23431238580128549 -0.45260633093924002 0 0.23068219321441441 -0.47630316546961982 0 0.23431238580128549 -0.45260633093924002 0 0.21140626781342409 -0.46122374827882839 0 0.24452211955108941 -0.47321082899062988 0 0.23068219321441441 -0.47630316546961982 0 0.23431238580128549 -0.45260633093924002 0 0.25055382002994903 -0.45112655962101422 0 0.24452211955108941 -0.47321082899062988 0 0.23431238580128549 -0.45260633093924002 0 0.25055382002994903 -0.45112655962101422 0 0.23431238580128549 -0.45260633093924002 0 0.24845486683426421 -0.43056678600332871 0 0.23431238580128549 -0.45260633093924002 0 0.2061844358166085 -0.43731386343018219 0 0.22816721351006641 -0.42382217308135922 0 0.23431238580128549 -0.45260633093924002 0 0.21140626781342409 -0.46122374827882839 0 0.2061844358166085 -0.43731386343018219 0 0.21140626781342409 -0.46122374827882839 0 0.1958295915806266 -0.45496450832104018 0 0.2061844358166085 -0.43731386343018219 0 0.1995265252191368 -0.47051219141525807 0 0.1958295915806266 -0.45496450832104018 0 0.18247472509388471 -0.47020227486163019 0 0.1995265252191368 -0.47051219141525807 0 0.21140626781342409 -0.46122374827882839 0 0.1958295915806266 -0.45496450832104018 0 0.1958295915806266 -0.45496450832104018 0 0.2061844358166085 -0.43731386343018219 0 0.18103196947325001 -0.44040454972326271 0 0.19189840580791451 -0.42494462472696731 0 0.2061844358166085 -0.43731386343018219 0 0.18103196947325001 -0.44040454972326271 0 0.19189840580791451 -0.42494462472696731 0 0.1954291475964339 -0.41062193775622902 0 0.2113234447447021 -0.41044931469126889 0 0.19189840580791451 -0.42494462472696731 0 0.1954291475964339 -0.41062193775622902 0 0.17958921385261531 -0.41060682458489489 0 0.19189840580791451 -0.42494462472696731 0 0.2113234447447021 -0.41044931469126889 0 0.2061844358166085 -0.43731386343018219 0 0.2113234447447021 -0.41044931469126889 0 0.2061844358166085 -0.43731386343018219 0 0.22816721351006641 -0.42382217308135922 0 0.2113234447447021 -0.41044931469126889 0 0.2061844358166085 -0.43731386343018219 0 0.23431238580128549 -0.45260633093924002 0 0.22816721351006641 -0.42382217308135922 0 0.24845486683426421 -0.43056678600332871 0 0.22816721351006641 -0.42382217308135922 0 0.24845486683426421 -0.43056678600332871 0 0.24730388124056729 -0.40448370284608931 0 0.22816721351006641 -0.42382217308135922 0 0.22802948983690591 -0.39972126622214238 0 0.24730388124056729 -0.40448370284608931 0 0.2113234447447021 -0.41044931469126889 0 0.22816721351006641 -0.42382217308135922 0 0.22802948983690591 -0.39972126622214238 0 0.22802948983690591 -0.39972126622214238 0 0.24730388124056729 -0.40448370284608931 0 0.2380746425401753 -0.37739124482652259 0 0.26194523537769671 -0.38343407302417171 0 0.24730388124056729 -0.40448370284608931 0 0.2380746425401753 -0.37739124482652259 0 0.22802948983690591 -0.39972126622214238 0 0.2380746425401753 -0.37739124482652259 0 0.21646245367279571 -0.38358476595235552 0 0.21646245367279571 -0.38358476595235552 0 0.19890552598050351 -0.3964869870217847 0 0.2025217842010896 -0.37807387373583923 0 0.2113234447447021 -0.41044931469126889 0 0.22802948983690591 -0.39972126622214238 0 0.21646245367279571 -0.38358476595235552 0 0.2113234447447021 -0.41044931469126889 0 0.21646245367279571 -0.38358476595235552 0 0.2113234447447021 -0.41044931469126889 0 0.21646245367279571 -0.38358476595235552 0 0.19890552598050351 -0.3964869870217847 0 0.1954291475964339 -0.41062193775622902 0 0.2113234447447021 -0.41044931469126889 0 0.19890552598050351 -0.3964869870217847 0 0.1954291475964339 -0.41062193775622902 0 0.19890552598050351 -0.3964869870217847 0 0.17958921385261531 -0.41060682458489489 0 0.19890552598050351 -0.3964869870217847 0 0.19000045151593811 -0.3880482826985161 0 0.17958921385261531 -0.41060682458489489 0 0.19890552598050351 -0.3964869870217847 0 0.19000045151593811 -0.3880482826985161 0 0.2025217842010896 -0.37807387373583923 0 0.19083927531350181 -0.37426462870353422 0 0.19000045151593811 -0.3880482826985161 0 0.2025217842010896 -0.37807387373583923 0 0.19083927531350181 -0.37426462870353422 0 0.19000045151593811 -0.3880482826985161 0 0.17814645823198061 -0.38080909944652741 0 0.17814645823198061 -0.38080909944652741 0 0.17958921385261531 -0.41060682458489489 0 0.19000045151593811 -0.3880482826985161 0 0.17814645823198061 -0.38080909944652741 0 0.17958921385261531 -0.41060682458489489 0 0.17814645823198061 -0.38080909944652741 0 0.17073561596382039 -0.39301209499015272 0 0.17958921385261531 -0.41060682458489489 0 0.16300249929152311 -0.40501345282557782 0 0.1662516937484437 -0.37945746017663878 0 0.1548118257048379 -0.39098754083749682 0 0.17073561596382039 -0.39301209499015272 0 0.16300249929152311 -0.40501345282557782 0 0.1662516937484437 -0.37945746017663878 0 0.17073561596382039 -0.39301209499015272 0 0.16300249929152311 -0.40501345282557782 0 0.17958921385261531 -0.41060682458489489 0 0.16300249929152311 -0.40501345282557782 0 0.1662516937484437 -0.37945746017663878 0 0.1662516937484437 -0.37945746017663878 0 0.15122325216971341 -0.38057118911269922 0 0.1548118257048379 -0.39098754083749682 0 0.17814645823198061 -0.38080909944652741 0 0.17073561596382039 -0.39301209499015272 0 0.1662516937484437 -0.37945746017663878 0 0.15622266046030589 -0.36560529067035252 0 0.1662516937484437 -0.37945746017663878 0 0.15122325216971341 -0.38057118911269922 0 0.15122325216971341 -0.38057118911269922 0 0.13969723449876181 -0.39693417632104711 0 0.1548118257048379 -0.39098754083749682 0 0.13913284643621729 -0.36987147755796063 0 0.15122325216971341 -0.38057118911269922 0 0.13969723449876181 -0.39693417632104711 0 0.13913284643621729 -0.36987147755796063 0 0.12672469353237761 -0.38193719477194499 0 0.13969723449876181 -0.39693417632104711 0 0.13913284643621729 -0.36987147755796063 0 0.13969723449876181 -0.39693417632104711 0 0.12672469353237761 -0.38193719477194499 0 0.13969723449876181 -0.39693417632104711 0 0.1219351525082772 -0.40864131998943182 0 0.16300249929152311 -0.40501345282557782 0 0.13969723449876181 -0.39693417632104711 0 0.1524997256598466 -0.41582351463554701 0 0.16300249929152311 -0.40501345282557782 0 0.13969723449876181 -0.39693417632104711 0 0.1548118257048379 -0.39098754083749682 0 0.13969723449876181 -0.39693417632104711 0 0.1524997256598466 -0.41582351463554701 0 0.14026162256130631 -0.42399687508413381 0 0.13969723449876181 -0.39693417632104711 0 0.14026162256130631 -0.42399687508413381 0 0.13969723449876181 -0.39693417632104711 0 0.14026162256130631 -0.42399687508413381 0 0.1219351525082772 -0.40864131998943182 0 0.1272554141007321 -0.42571201066291808 0 0.14026162256130631 -0.42399687508413381 0 0.1219351525082772 -0.40864131998943182 0 0.13018508541287829 -0.43658956786597553 0 0.14026162256130631 -0.42399687508413381 0 0.14082601062385081 -0.45105957384722029 0 0.13018508541287829 -0.43658956786597553 0 0.1272554141007321 -0.42571201066291808 0 0.14026162256130631 -0.42399687508413381 0 0.1524997256598466 -0.41582351463554701 0 0.14026162256130631 -0.42399687508413381 0 0.15975330483460251 -0.43056944547451692 0 0.14026162256130631 -0.42399687508413381 0 0.15975330483460251 -0.43056944547451692 0 0.14082601062385081 -0.45105957384722029 0 0.16300249929152311 -0.40501345282557782 0 0.15975330483460251 -0.43056944547451692 0 0.17958921385261531 -0.41060682458489489 0 0.16300249929152311 -0.40501345282557782 0 0.15975330483460251 -0.43056944547451692 0 0.16300249929152311 -0.40501345282557782 0 0.1524997256598466 -0.41582351463554701 0 0.15975330483460251 -0.43056944547451692 0 0.15975330483460251 -0.43056944547451692 0 0.17958921385261531 -0.41060682458489489 0 0.18103196947325001 -0.44040454972326271 0 0.17958921385261531 -0.41060682458489489 0 0.18103196947325001 -0.44040454972326271 0 0.19189840580791451 -0.42494462472696731 0 0.17958921385261531 -0.41060682458489489 0 0.18103196947325001 -0.44040454972326271 0 0.18103196947325001 -0.44040454972326271 0 0.16491961284223791 -0.45249038001545161 0 0.18247472509388471 -0.47020227486163019 0 0.18103196947325001 -0.44040454972326271 0 0.18247472509388471 -0.47020227486163019 0 0.1958295915806266 -0.45496450832104018 0 0.18103196947325001 -0.44040454972326271 0 0.18247472509388471 -0.47020227486163019 0 0.16491961284223791 -0.45249038001545161 0 0.1605120541856016 -0.47021605617062739 0 0.18247472509388471 -0.47020227486163019 0 0.15975330483460251 -0.43056944547451692 0 0.18103196947325001 -0.44040454972326271 0 0.16491961284223791 -0.45249038001545161 0 0.15975330483460251 -0.43056944547451692 0 0.16491961284223791 -0.45249038001545161 0 0.14082601062385081 -0.45105957384722029 0 0.14026162256130631 -0.42399687508413381 0 0.14082601062385081 -0.45105957384722029 0 0.14082601062385081 -0.45105957384722029 0 0.12543676829432579 -0.44683393452868708 0 0.12531186358948529 -0.45757018679138572 0 0.13018508541287829 -0.43658956786597553 0 0.14082601062385081 -0.45105957384722029 0 0.12543676829432579 -0.44683393452868708 0 0.14082601062385081 -0.45105957384722029 0 0.12842365125323091 -0.46593607888014599 0 0.13328939848609819 -0.47119455711627289 0 0.14082601062385081 -0.45105957384722029 0 0.14139039868639619 -0.47812227261030682 0 0.13328939848609819 -0.47119455711627289 0 0.12842365125323091 -0.46593607888014599 0 0.12531186358948529 -0.45757018679138572 0 0.1232316263288145 -0.46410889533344052 0 0.12842365125323091 -0.46593607888014599 0 0.1245497287119053 -0.47085317529077592 0 0.12311265484265969 -0.46777846846391841 0 0.14082601062385081 -0.45105957384722029 0 0.12842365125323091 -0.46593607888014599 0 0.12531186358948529 -0.45757018679138572 0 0.16491961284223791 -0.45249038001545161 0 0.14082601062385081 -0.45105957384722029 0 0.1605120541856016 -0.47021605617062739 0 0.14082601062385081 -0.45105957384722029 0 0.14139039868639619 -0.47812227261030682 0 0.14082601062385081 -0.45105957384722029 0 0.14139039868639619 -0.47812227261030682 0 0.1605120541856016 -0.47021605617062739 0 0.14139039868639619 -0.47812227261030682 0 0.15939735020609169 -0.48906113630515408 0 0.1605120541856016 -0.47021605617062739 0 0.14139039868639619 -0.47812227261030682 0 0.15939735020609169 -0.48906113630515408 0 0.14139039868639619 -0.47812227261030682 0 0.13328939848609819 -0.47119455711627289 0 0.13520794413867351 -0.47916570768291911 0 0.14139039868639619 -0.47812227261030682 0 0.13520794413867351 -0.47916570768291911 0 0.13309005864575499 -0.48654881223837643 0 0.13328939848609819 -0.47119455711627289 0 0.13520794413867351 -0.47916570768291911 0 0.1282166063692238 -0.47963436787526348 0 0.13520794413867351 -0.47916570768291911 0 0.1282166063692238 -0.47963436787526348 0 0.13309005864575499 -0.48654881223837643 0 0.12842365125323091 -0.46593607888014599 0 0.1275076222339897 -0.47406719287555171 0 0.1245497287119053 -0.47085317529077592 0 0.12842365125323091 -0.46593607888014599 0 0.13328939848609819 -0.47119455711627289 0 0.1275076222339897 -0.47406719287555171 0 0.13328939848609819 -0.47119455711627289 0 0.1282166063692238 -0.47963436787526348 0 0.1275076222339897 -0.47406719287555171 0 0.1282166063692238 -0.47963436787526348 0 0.1275076222339897 -0.47406719287555171 0 0.12271037357175291 -0.47562361121234281 0 0.14139039868639619 -0.47812227261030682 0 0.13309005864575499 -0.48654881223837643 0 0.1417493920694651 -0.49533619053082339 0 0.1325088383252874 -0.49999999999999689 0 0.11946717228548211 -0.4870343347309507 0 0.1325088383252874 -0.49999999999999689 0 0.13309005864575499 -0.48654881223837643 0 0.11946717228548211 -0.4870343347309507 0 0.1282166063692238 -0.47963436787526348 0 0.13309005864575499 -0.48654881223837643 0 0.11946717228548211 -0.4870343347309507 0 0.1325088383252874 -0.49999999999999689 0 0.13309005864575499 -0.48654881223837643 0 0.1417493920694651 -0.49533619053082339 0 0.1325088383252874 -0.49999999999999689 0 0.1417493920694651 -0.49533619053082339 0 0.15495657002553739 -0.5 0 0.14139039868639619 -0.47812227261030682 0 0.14937342774687271 -0.49062989986157102 0 0.15939735020609169 -0.48906113630515408 0 0.14139039868639619 -0.47812227261030682 0 0.1417493920694651 -0.49533619053082339 0 0.14139039868639619 -0.47812227261030682 0 0.1417493920694651 -0.49533619053082339 0 0.14937342774687271 -0.49062989986157102 0 0.1417493920694651 -0.49533619053082339 0 0.14937342774687271 -0.49062989986157102 0 0.15495657002553739 -0.5 0 0.14937342774687271 -0.49062989986157102 0 0.15495657002553739 -0.5 0 0.15939735020609169 -0.48906113630515408 0 0.15939735020609169 -0.48906113630515408 0 0.17467337585270831 -0.48420504396041608 0 0.1774043017257875 -0.50000000000000111 0 0.15939735020609169 -0.48906113630515408 0 0.1774043017257875 -0.50000000000000111 0 0.15495657002553739 -0.5 0 0.15939735020609169 -0.48906113630515408 0 0.1774043017257875 -0.50000000000000111 0 0.15939735020609169 -0.48906113630515408 0 0.1605120541856016 -0.47021605617062739 0 0.17467337585270831 -0.48420504396041608 0 0.1605120541856016 -0.47021605617062739 0 0.17467337585270831 -0.48420504396041608 0 0.18247472509388471 -0.47020227486163019 0 0.18247472509388471 -0.47020227486163019 0 0.1839174807145193 -0.49999999999999789 0 0.17467337585270831 -0.48420504396041608 0 0.18247472509388471 -0.47020227486163019 0 0.1839174807145193 -0.49999999999999789 0 0.17467337585270831 -0.48420504396041608 0 0.1839174807145193 -0.49999999999999789 0 0.1774043017257875 -0.50000000000000111 0 0.065949985054517032 -0.48884997455687013 0 0.080677891680827868 -0.48404188118506331 0 0.084758324792090334 -0.49999999999999989 0 0.065949985054517032 -0.48884997455687013 0 0.084758324792090334 -0.49999999999999989 0 0.055728539092515517 -0.5 0 0.065949985054517032 -0.48884997455687013 0 0.069113753880103546 -0.47032146630200872 0 0.080677891680827868 -0.48404188118506331 0 0.065949985054517032 -0.48884997455687013 0 0.069113753880103546 -0.47032146630200872 0 0.057596711449277201 -0.48334309492942701 0 0.069113753880103546 -0.47032146630200872 0 0.080677891680827868 -0.48404188118506331 0 0.088790870678748121 -0.47481427013272492 0 0.069113753880103546 -0.47032146630200872 0 0.088790870678748121 -0.47481427013272492 0 0.09506323621333454 -0.46277261346061632 0 0.080677891680827868 -0.48404188118506331 0 0.088790870678748121 -0.47481427013272492 0 0.094776523998680279 -0.48622369493371298 0 0.080677891680827868 -0.48404188118506331 0 0.084758324792090334 -0.49999999999999989 0 0.094776523998680279 -0.48622369493371298 0 0.084758324792090334 -0.49999999999999989 0 0.10099043700106421 -0.499999999999999 0 0.094776523998680279 -0.48622369493371298 0 0.084758324792090334 -0.49999999999999989 0 0.094776523998680279 -0.48622369493371298 0 0.10099043700106421 -0.499999999999999 0 0.1064255062456735 -0.47406866946190801 0 0.10099043700106421 -0.499999999999999 0 0.094776523998680279 -0.48622369493371298 0 0.1064255062456735 -0.47406866946190801 0 0.10099043700106421 -0.499999999999999 0 0.11946717228548211 -0.4870343347309507 0 0.1064255062456735 -0.47406866946190801 0 0.1325088383252874 -0.49999999999999689 0 0.1167496376631757 -0.5 0 0.11946717228548211 -0.4870343347309507 0 0.10099043700106421 -0.499999999999999 0 0.1167496376631757 -0.5 0 0.11946717228548211 -0.4870343347309507 0 0.12074084002908721 -0.47045370359981148 0 0.12271037357175291 -0.47562361121234281 0 0.11625567037499381 -0.47238364776222469 0 0.12074084002908721 -0.47045370359981148 0 0.11625567037499381 -0.47238364776222469 0 0.1192823524431306 -0.4663394170250621 0 0.12074084002908721 -0.47045370359981148 0 0.1245497287119053 -0.47085317529077592 0 0.12271037357175291 -0.47562361121234281 0 0.12074084002908721 -0.47045370359981148 0 0.1245497287119053 -0.47085317529077592 0 0.12311265484265969 -0.46777846846391841 0 0.1275076222339897 -0.47406719287555171 0 0.1245497287119053 -0.47085317529077592 0 0.12271037357175291 -0.47562361121234281 0 0.1282166063692238 -0.47963436787526348 0 0.11946717228548211 -0.4870343347309507 0 0.12271037357175291 -0.47562361121234281 0 0.11946717228548211 -0.4870343347309507 0 0.12271037357175291 -0.47562361121234281 0 0.11625567037499381 -0.47238364776222469 0 0.11946717228548211 -0.4870343347309507 0 0.1064255062456735 -0.47406866946190801 0 0.11946717228548211 -0.4870343347309507 0 0.11625567037499381 -0.47238364776222469 0 0.1064255062456735 -0.47406866946190801 0 0.11625567037499381 -0.47238364776222469 0 0.1064255062456735 -0.47406866946190801 0 0.11129693947086181 -0.46795476393154728 0 0.1064255062456735 -0.47406866946190801 0 0.10479472320527 -0.47244738986742602 0 0.1075632658294263 -0.46864028970971422 0 0.1064255062456735 -0.47406866946190801 0 0.1075632658294263 -0.46864028970971422 0 0.11129693947086181 -0.46795476393154728 0 0.088790870678748121 -0.47481427013272492 0 0.094776523998680279 -0.48622369493371298 0 0.10479472320527 -0.47244738986742602 0 0.1064255062456735 -0.47406866946190801 0 0.1075632658294263 -0.46864028970971422 0 0.088790870678748121 -0.47481427013272492 0 0.10479472320527 -0.47244738986742602 0 0.09506323621333454 -0.46277261346061632 0 0.10479472320527 -0.47244738986742602 0 0.1075632658294263 -0.46864028970971422 0 0.1064255062456735 -0.47406866946190801 0 0.10479472320527 -0.47244738986742602 0 0.094776523998680279 -0.48622369493371298 0 0.1064255062456735 -0.47406866946190801 0 0.10479472320527 -0.47244738986742602 0 0.094776523998680279 -0.48622369493371298 0 0.10479472320527 -0.47244738986742602 0 0.10479472320527 -0.47244738986742602 0 0.09506323621333454 -0.46277261346061632 0 0.1060131744550812 -0.45411466011360518 0 0.1075632658294263 -0.46864028970971422 0 0.11260152047704799 -0.44460220652757759 0 0.09506323621333454 -0.46277261346061632 0 0.10011436795704159 -0.45274002486564408 0 0.091519926973447546 -0.44626784630584138 0 0.09506323621333454 -0.46277261346061632 0 0.10386028492466159 -0.46021350167150438 0 0.09506323621333454 -0.46277261346061632 0 0.10386028492466159 -0.46021350167150438 0 0.10011436795704159 -0.45274002486564408 0 0.10386028492466159 -0.46021350167150438 0 0.1060131744550812 -0.45411466011360518 0 0.10011436795704159 -0.45274002486564408 0 0.10386028492466159 -0.46021350167150438 0 0.1060131744550812 -0.45411466011360518 0 0.1075632658294263 -0.46864028970971422 0 0.10479472320527 -0.47244738986742602 0 0.09506323621333454 -0.46277261346061632 0 0.1075632658294263 -0.46864028970971422 0 0.09506323621333454 -0.46277261346061632 0 0.10386028492466159 -0.46021350167150438 0 0.1075632658294263 -0.46864028970971422 0 0.1075632658294263 -0.46864028970971422 0 0.1123560704600764 -0.46204957042440498 0 0.11260152047704799 -0.44460220652757759 0 0.1075632658294263 -0.46864028970971422 0 0.1123560704600764 -0.46204957042440498 0 0.1075632658294263 -0.46864028970971422 0 0.11129693947086181 -0.46795476393154728 0 0.1123560704600764 -0.46204957042440498 0 0.1075632658294263 -0.46864028970971422 0 0.11260152047704799 -0.44460220652757759 0 0.11129693947086181 -0.46795476393154728 0 0.1123560704600764 -0.46204957042440498 0 0.11129693947086181 -0.46795476393154728 0 0.1149697984784732 -0.46556593525158491 0 0.1123560704600764 -0.46204957042440498 0 0.11625567037499381 -0.47238364776222469 0 0.1149697984784732 -0.46556593525158491 0 0.1192823524431306 -0.4663394170250621 0 0.11625567037499381 -0.47238364776222469 0 0.11129693947086181 -0.46795476393154728 0 0.1149697984784732 -0.46556593525158491 0 0.1149697984784732 -0.46556593525158491 0 0.1123560704600764 -0.46204957042440498 0 0.118705430672609 -0.46205297743075813 0 0.1123560704600764 -0.46204957042440498 0 0.11635977570981471 -0.45654396370023359 0 0.118705430672609 -0.46205297743075813 0 0.1123560704600764 -0.46204957042440498 0 0.11635977570981471 -0.45654396370023359 0 0.12531186358948529 -0.45757018679138572 0 0.11635977570981471 -0.45654396370023359 0 0.118705430672609 -0.46205297743075813 0 0.12543676829432579 -0.44683393452868708 0 0.12531186358948529 -0.45757018679138572 0 0.11635977570981471 -0.45654396370023359 0 0.12531186358948529 -0.45757018679138572 0 0.1232316263288145 -0.46410889533344052 0 0.118705430672609 -0.46205297743075813 0 0.1232316263288145 -0.46410889533344052 0 0.12311265484265969 -0.46777846846391841 0 0.1192823524431306 -0.4663394170250621 0 0.12842365125323091 -0.46593607888014599 0 0.1232316263288145 -0.46410889533344052 0 0.12311265484265969 -0.46777846846391841 0 0.12074084002908721 -0.47045370359981148 0 0.12311265484265969 -0.46777846846391841 0 0.1192823524431306 -0.4663394170250621 0 0.1149697984784732 -0.46556593525158491 0 0.1192823524431306 -0.4663394170250621 0 0.118705430672609 -0.46205297743075813 0 0.1232316263288145 -0.46410889533344052 0 0.1192823524431306 -0.4663394170250621 0 0.118705430672609 -0.46205297743075813 0 0.1123560704600764 -0.46204957042440498 0 0.11714561148417681 -0.43534544520691831 0 0.1123560704600764 -0.46204957042440498 0 0.11260152047704799 -0.44460220652757759 0 0.11714561148417681 -0.43534544520691831 0 0.1123560704600764 -0.46204957042440498 0 0.11635977570981471 -0.45654396370023359 0 0.11714561148417681 -0.43534544520691831 0 0.12543676829432579 -0.44683393452868708 0 0.11635977570981471 -0.45654396370023359 0 0.11714561148417681 -0.43534544520691831 0 0.13018508541287829 -0.43658956786597553 0 0.12543676829432579 -0.44683393452868708 0 0.11714561148417681 -0.43534544520691831 0 0.10592643308722841 -0.44437727779358549 0 0.083881602994700072 -0.43088647549478237 0 0.10592643308722841 -0.44437727779358549 0 0.091519926973447546 -0.44626784630584138 0 0.083881602994700072 -0.43088647549478237 0 0.11260152047704799 -0.44460220652757759 0 0.10592643308722841 -0.44437727779358549 0 0.1086116799951807 -0.43095684568344572 0 0.1060131744550812 -0.45411466011360518 0 0.10592643308722841 -0.44437727779358549 0 0.10011436795704159 -0.45274002486564408 0 0.1060131744550812 -0.45411466011360518 0 0.11260152047704799 -0.44460220652757759 0 0.10592643308722841 -0.44437727779358549 0 0.10592643308722841 -0.44437727779358549 0 0.10011436795704159 -0.45274002486564408 0 0.091519926973447546 -0.44626784630584138 0 0.09506323621333454 -0.46277261346061632 0 0.073976492589610171 -0.44180875358221461 0 0.09506323621333454 -0.46277261346061632 0 0.091519926973447546 -0.44626784630584138 0 0.073976492589610171 -0.44180875358221461 0 0.091519926973447546 -0.44626784630584138 0 0.073976492589610171 -0.44180875358221461 0 0.083881602994700072 -0.43088647549478237 0 0.069113753880103546 -0.47032146630200872 0 0.09506323621333454 -0.46277261346061632 0 0.09506323621333454 -0.46277261346061632 0 0.075948319170580939 -0.45709497223106438 0 0.073976492589610171 -0.44180875358221461 0 0.069113753880103546 -0.47032146630200872 0 0.09506323621333454 -0.46277261346061632 0 0.075948319170580939 -0.45709497223106438 0 0.069113753880103546 -0.47032146630200872 0 0.075948319170580939 -0.45709497223106438 0 0.064267892493667544 -0.45245405090636609 0 0.064267892493667544 -0.45245405090636609 0 0.073976492589610171 -0.44180875358221461 0 0.061221704008603092 -0.43412854505433712 0 0.075948319170580939 -0.45709497223106438 0 0.064267892493667544 -0.45245405090636609 0 0.073976492589610171 -0.44180875358221461 0 0.083881602994700072 -0.43088647549478237 0 0.061836772902171017 -0.41739567319598042 0 0.061221704008603092 -0.43412854505433712 0 0.073976492589610171 -0.44180875358221461 0 0.083881602994700072 -0.43088647549478237 0 0.061221704008603092 -0.43412854505433712 0 0.083881602994700072 -0.43088647549478237 0 0.061836772902171017 -0.41739567319598042 0 0.087852613914545186 -0.40334306140395609 0 0.070156507476487037 -0.39917662383738439 0 0.061836772902171017 -0.41739567319598042 0 0.087852613914545186 -0.40334306140395609 0 0.061836772902171017 -0.41739567319598042 0 0.090204007114443943 -0.4177400312392191 0 0.087852613914545186 -0.40334306140395609 0 0.061836772902171017 -0.41739567319598042 0 0.090204007114443943 -0.4177400312392191 0 0.083881602994700072 -0.43088647549478237 0 0.061836772902171017 -0.41739567319598042 0 0.090204007114443943 -0.4177400312392191 0 0.083881602994700072 -0.43088647549478237 0 0.10022705322515101 -0.42809075962971732 0 0.10592643308722841 -0.44437727779358549 0 0.083881602994700072 -0.43088647549478237 0 0.10022705322515101 -0.42809075962971732 0 0.10592643308722841 -0.44437727779358549 0 0.10022705322515101 -0.42809075962971732 0 0.1086116799951807 -0.43095684568344572 0 0.10022705322515101 -0.42809075962971732 0 0.1086116799951807 -0.43095684568344572 0 0.10561771621597441 -0.41891116251106192 0 0.11260152047704799 -0.44460220652757759 0 0.11714561148417681 -0.43534544520691831 0 0.11763977512467 -0.42056412334544119 0 0.11714561148417681 -0.43534544520691831 0 0.1219351525082772 -0.40864131998943182 0 0.11260152047704799 -0.44460220652757759 0 0.11763977512467 -0.42056412334544119 0 0.11260152047704799 -0.44460220652757759 0 0.1086116799951807 -0.43095684568344572 0 0.11763977512467 -0.42056412334544119 0 0.1272554141007321 -0.42571201066291808 0 0.11714561148417681 -0.43534544520691831 0 0.1219351525082772 -0.40864131998943182 0 0.1086116799951807 -0.43095684568344572 0 0.11763977512467 -0.42056412334544119 0 0.10561771621597441 -0.41891116251106192 0 0.13018508541287829 -0.43658956786597553 0 0.1272554141007321 -0.42571201066291808 0 0.11714561148417681 -0.43534544520691831 0 0.1219351525082772 -0.40864131998943182 0 0.11763977512467 -0.42056412334544119 0 0.1226780297722921 -0.39652604016330478 0 0.11763977512467 -0.42056412334544119 0 0.1063857367604352 -0.40565829933023112 0 0.1226780297722921 -0.39652604016330478 0 0.11714561148417681 -0.43534544520691831 0 0.1219351525082772 -0.40864131998943182 0 0.11763977512467 -0.42056412334544119 0 0.11763977512467 -0.42056412334544119 0 0.1226780297722921 -0.39652604016330478 0 0.11763977512467 -0.42056412334544119 0 0.10561771621597441 -0.41891116251106192 0 0.1063857367604352 -0.40565829933023112 0 0.090204007114443943 -0.4177400312392191 0 0.1063857367604352 -0.40565829933023112 0 0.087852613914545186 -0.40334306140395609 0 0.090204007114443943 -0.4177400312392191 0 0.10561771621597441 -0.41891116251106192 0 0.1063857367604352 -0.40565829933023112 0 0.090204007114443943 -0.4177400312392191 0 0.10022705322515101 -0.42809075962971732 0 0.10561771621597441 -0.41891116251106192 0 0.1063857367604352 -0.40565829933023112 0 0.11269819459067421 -0.38831450138448881 0 0.097085641119374302 -0.38571424072610178 0 0.1063857367604352 -0.40565829933023112 0 0.097085641119374302 -0.38571424072610178 0 0.087852613914545186 -0.40334306140395609 0 0.12672469353237761 -0.38193719477194499 0 0.1219351525082772 -0.40864131998943182 0 0.1063857367604352 -0.40565829933023112 0 0.1226780297722921 -0.39652604016330478 0 0.11269819459067421 -0.38831450138448881 0 0.12672469353237761 -0.38193719477194499 0 0.1219351525082772 -0.40864131998943182 0 0.1226780297722921 -0.39652604016330478 0 0.12672469353237761 -0.38193719477194499 0 0.11269819459067421 -0.38831450138448881 0 0.1080928822255358 -0.3703790814713866 0 0.12672469353237761 -0.38193719477194499 0 0.1226780297722921 -0.39652604016330478 0 0.11269819459067421 -0.38831450138448881 0 0.11269819459067421 -0.38831450138448881 0 0.097085641119374302 -0.38571424072610178 0 0.1080928822255358 -0.3703790814713866 0 0.097085641119374302 -0.38571424072610178 0 0.078524092076429908 -0.38558307009035819 0 0.085574671404253372 -0.36606529366265911 0 0.097085641119374302 -0.38571424072610178 0 0.078524092076429908 -0.38558307009035819 0 0.087852613914545186 -0.40334306140395609 0 0.078524092076429908 -0.38558307009035819 0 0.087852613914545186 -0.40334306140395609 0 0.070156507476487037 -0.39917662383738439 0 0.078524092076429908 -0.38558307009035819 0 0.070156507476487037 -0.39917662383738439 0 0.064141871653705745 -0.38905297891460661 0 0.070156507476487037 -0.39917662383738439 0 0.058427186835583247 -0.40050833558202109 0 0.061836772902171017 -0.41739567319598042 0 0.070156507476487037 -0.39917662383738439 0 0.064141871653705745 -0.38905297891460661 0 0.058427186835583247 -0.40050833558202109 0 0.078524092076429908 -0.38558307009035819 0 0.064141871653705745 -0.38905297891460661 0 0.064781398010314309 -0.37536455347105108 0 0.078524092076429908 -0.38558307009035819 0 0.064781398010314309 -0.37536455347105108 0 0.085574671404253372 -0.36606529366265911 0 0.064781398010314309 -0.37536455347105108 0 0.05115882120843647 -0.38571757356542352 0 0.043890455581289831 -0.3709268115488259 0 0.05115882120843647 -0.38571757356542352 0 0.043890455581289831 -0.3709268115488259 0 0.064141871653705745 -0.38905297891460661 0 0.064781398010314309 -0.37536455347105108 0 0.05115882120843647 -0.38571757356542352 0 0.064141871653705745 -0.38905297891460661 0 0.05115882120843647 -0.38571757356542352 0 0.058427186835583247 -0.40050833558202109 0 0.05115882120843647 -0.38571757356542352 0 0.058427186835583247 -0.40050833558202109 0 0.05115882120843647 -0.38571757356542352 0 0.058427186835583247 -0.40050833558202109 0 0.039291666751458072 -0.38953557003537942 0 0.058427186835583247 -0.40050833558202109 0 0.03861507037192409 -0.403184658796582 0 0.039291666751458072 -0.38953557003537942 0 0.039291666751458072 -0.38953557003537942 0 0.030780854092194759 -0.38031894893150719 0 0.043890455581289831 -0.3709268115488259 0 0.05115882120843647 -0.38571757356542352 0 0.039291666751458072 -0.38953557003537942 0 0.043890455581289831 -0.3709268115488259 0 0.030780854092194759 -0.38031894893150719 0 0.043890455581289831 -0.3709268115488259 0 0.030780854092194759 -0.38031894893150719 0 0.0132535835722172 -0.37610527220974688 0 0.01539336784167648 -0.38897364439718468 0 0.039291666751458072 -0.38953557003537942 0 0.030780854092194759 -0.38031894893150719 0 0.01539336784167648 -0.38897364439718468 0 0.030780854092194759 -0.38031894893150719 0 0.0132535835722172 -0.37610527220974688 0 0.022072978528308879 -0.36937310690127451 0 -0.0078283346885702904 -0.37476262999778609 0 -0.0023576536845698339 -0.39611583857600319 0 0.01539336784167648 -0.38897364439718468 0 -0.0078283346885702904 -0.37476262999778609 0 0.01539336784167648 -0.38897364439718468 0 -0.0078283346885702904 -0.37476262999778609 0 0.0132535835722172 -0.37610527220974688 0 0.01539336784167648 -0.38897364439718468 0 -0.0023576536845698339 -0.39611583857600319 0 -0.0081630895937607941 -0.41129335178386173 0 0.01158543002224671 -0.40754374071996963 0 -0.0023576536845698339 -0.39611583857600319 0 0.01539336784167648 -0.38897364439718468 0 0.01158543002224671 -0.40754374071996963 0 0.03861507037192409 -0.403184658796582 0 0.039291666751458072 -0.38953557003537942 0 0.01539336784167648 -0.38897364439718468 0 0.03861507037192409 -0.403184658796582 0 0.01539336784167648 -0.38897364439718468 0 0.026736383496206509 -0.41290648431754168 0 0.01539336784167648 -0.38897364439718468 0 0.026736383496206509 -0.41290648431754168 0 0.01158543002224671 -0.40754374071996963 0 0.03861507037192409 -0.403184658796582 0 0.01539336784167648 -0.38897364439718468 0 0.026736383496206509 -0.41290648431754168 0 0.01158543002224671 -0.40754374071996963 0 0.01747615232015888 -0.42514842909431222 0 0.026736383496206509 -0.41290648431754168 0 0.01747615232015888 -0.42514842909431222 0 0.02768083642208749 -0.42593076319487821 0 0.01158543002224671 -0.40754374071996963 0 0.0026957591361241309 -0.41958824334712869 0 0.01747615232015888 -0.42514842909431222 0 -0.0081630895937607941 -0.41129335178386173 0 0.01158543002224671 -0.40754374071996963 0 0.0026957591361241309 -0.41958824334712869 0 0.0026957591361241309 -0.41958824334712869 0 0.003851027954898749 -0.43172418954792041 0 0.01747615232015888 -0.42514842909431222 0 0.003851027954898749 -0.43172418954792041 0 0.01410030331848921 -0.43483725365991388 0 0.01747615232015888 -0.42514842909431222 0 0.003851027954898749 -0.43172418954792041 0 0.01410030331848921 -0.43483725365991388 0 0.011432193992105429 -0.44462200732167467 0 0.01747615232015888 -0.42514842909431222 0 0.023728282280598981 -0.43798020184644493 0 0.01410030331848921 -0.43483725365991388 0 0.01747615232015888 -0.42514842909431222 0 0.023728282280598981 -0.43798020184644493 0 0.01747615232015888 -0.42514842909431222 0 0.02768083642208749 -0.42593076319487821 0 0.023728282280598981 -0.43798020184644493 0 0.026736383496206509 -0.41290648431754168 0 0.02768083642208749 -0.42593076319487821 0 0.042782527591385587 -0.42768793752121392 0 0.042782527591385587 -0.42768793752121392 0 0.023728282280598981 -0.43798020184644493 0 0.02768083642208749 -0.42593076319487821 0 0.042782527591385587 -0.42768793752121392 0 0.023728282280598981 -0.43798020184644493 0 0.042782527591385587 -0.42768793752121392 0 0.038339333849137569 -0.44224603439757942 0 0.023728282280598981 -0.43798020184644493 0 0.03861507037192409 -0.403184658796582 0 0.026736383496206509 -0.41290648431754168 0 0.042782527591385587 -0.42768793752121392 0 0.03861507037192409 -0.403184658796582 0 0.042782527591385587 -0.42768793752121392 0 0.061836772902171017 -0.41739567319598042 0 0.03861507037192409 -0.403184658796582 0 0.061836772902171017 -0.41739567319598042 0 0.058427186835583247 -0.40050833558202109 0 0.03861507037192409 -0.403184658796582 0 0.061836772902171017 -0.41739567319598042 0 0.042782527591385587 -0.42768793752121392 0 0.061836772902171017 -0.41739567319598042 0 0.061221704008603092 -0.43412854505433712 0 0.042782527591385587 -0.42768793752121392 0 0.061836772902171017 -0.41739567319598042 0 0.042782527591385587 -0.42768793752121392 0 0.061221704008603092 -0.43412854505433712 0 0.052693917870023622 -0.44730825455084611 0 0.064267892493667544 -0.45245405090636609 0 0.061221704008603092 -0.43412854505433712 0 0.052693917870023622 -0.44730825455084611 0 0.069113753880103546 -0.47032146630200872 0 0.064267892493667544 -0.45245405090636609 0 0.052594011880735161 -0.46258963849414558 0 0.064267892493667544 -0.45245405090636609 0 0.052693917870023622 -0.44730825455084611 0 0.052594011880735161 -0.46258963849414558 0 0.033446276913734967 -0.45792526049492271 0 0.024747075647264399 -0.46972246297684461 0 0.043164271546872197 -0.4778703191434 0 0.052693917870023622 -0.44730825455084611 0 0.052594011880735161 -0.46258963849414558 0 0.033446276913734967 -0.45792526049492271 0 0.052594011880735161 -0.46258963849414558 0 0.033446276913734967 -0.45792526049492271 0 0.043164271546872197 -0.4778703191434 0 0.033446276913734967 -0.45792526049492271 0 0.043164271546872197 -0.4778703191434 0 0.042782527591385587 -0.42768793752121392 0 0.052693917870023622 -0.44730825455084611 0 0.038339333849137569 -0.44224603439757942 0 0.033446276913734967 -0.45792526049492271 0 0.038339333849137569 -0.44224603439757942 0 0.023728282280598981 -0.43798020184644493 0 0.052693917870023622 -0.44730825455084611 0 0.033446276913734967 -0.45792526049492271 0 0.038339333849137569 -0.44224603439757942 0 0.023728282280598981 -0.43798020184644493 0 0.011432193992105429 -0.44462200732167467 0 0.01779212199045099 -0.45571080357091009 0 0.033446276913734967 -0.45792526049492271 0 0.023728282280598981 -0.43798020184644493 0 0.033446276913734967 -0.45792526049492271 0 0.023728282280598981 -0.43798020184644493 0 0.01779212199045099 -0.45571080357091009 0 0.023728282280598981 -0.43798020184644493 0 0.011432193992105429 -0.44462200732167467 0 0.01410030331848921 -0.43483725365991388 0 0.023728282280598981 -0.43798020184644493 0 0.011432193992105429 -0.44462200732167467 0 -0.01027783979290609 -0.4450418277695869 0 0.011432193992105429 -0.44462200732167467 0 0.0031349746952128348 -0.45732154608844711 0 -0.01027783979290609 -0.4450418277695869 0 0.003851027954898749 -0.43172418954792041 0 0.011432193992105429 -0.44462200732167467 0 0.011432193992105429 -0.44462200732167467 0 0.0031349746952128348 -0.45732154608844711 0 0.01779212199045099 -0.45571080357091009 0 -0.00094907817261298132 -0.47112804672216879 0 0.0031349746952128348 -0.45732154608844711 0 0.01026392841378935 -0.46669334269712659 0 0.0031349746952128348 -0.45732154608844711 0 0.01026392841378935 -0.46669334269712659 0 0.01779212199045099 -0.45571080357091009 0 0.01026392841378935 -0.46669334269712659 0 0.01779212199045099 -0.45571080357091009 0 0.024747075647264399 -0.46972246297684461 0 0.033446276913734967 -0.45792526049492271 0 0.01779212199045099 -0.45571080357091009 0 0.024747075647264399 -0.46972246297684461 0 0.024747075647264399 -0.46972246297684461 0 0.019392481307258409 -0.48478566889839131 0 0.043164271546872197 -0.4778703191434 0 0.01026392841378935 -0.46669334269712659 0 0.024747075647264399 -0.46972246297684461 0 0.019392481307258409 -0.48478566889839131 0 0.01026392841378935 -0.46669334269712659 0 0.0053352152350804568 -0.4807791696356124 0 0.019392481307258409 -0.48478566889839131 0 -0.0043176495648967151 -0.48070428616945038 0 -0.00094907817261298132 -0.47112804672216879 0 0.0053352152350804568 -0.4807791696356124 0 -0.00094907817261298132 -0.47112804672216879 0 0.01026392841378935 -0.46669334269712659 0 0.0053352152350804568 -0.4807791696356124 0 -0.0023310323066341181 -0.5 0 -0.0043793089323552817 -0.49170101865338262 0 0.019392481307258409 -0.48478566889839131 0 -0.0043793089323552817 -0.49170101865338262 0 0.019392481307258409 -0.48478566889839131 0 -0.0043793089323552817 -0.49170101865338262 0 0.0053352152350804568 -0.4807791696356124 0 0.019392481307258409 -0.48478566889839131 0 -0.0023310323066341181 -0.5 0 0.019392481307258409 -0.48478566889839131 0 0.026698753392940699 -0.5 0 0.019392481307258409 -0.48478566889839131 0 0.026698753392940699 -0.5 0 0.035353585390671842 -0.48974665193930511 0 0.035353585390671842 -0.48974665193930511 0 0.043164271546872197 -0.4778703191434 0 0.052158835315616027 -0.49633061971542908 0 0.026698753392940699 -0.5 0 0.055728539092515517 -0.5 0 0.052158835315616027 -0.49633061971542908 0 0.026698753392940699 -0.5 0 0.035353585390671842 -0.48974665193930511 0 0.052158835315616027 -0.49633061971542908 0 0.019392481307258409 -0.48478566889839131 0 0.035353585390671842 -0.48974665193930511 0 0.043164271546872197 -0.4778703191434 0 0.019392481307258409 -0.48478566889839131 0 0.043164271546872197 -0.4778703191434 0 0.069113753880103546 -0.47032146630200872 0 0.052594011880735161 -0.46258963849414558 0 0.043164271546872197 -0.4778703191434 0 0.069113753880103546 -0.47032146630200872 0 0.043164271546872197 -0.4778703191434 0 0.057596711449277201 -0.48334309492942701 0 0.069113753880103546 -0.47032146630200872 0 0.043164271546872197 -0.4778703191434 0 0.043164271546872197 -0.4778703191434 0 0.057596711449277201 -0.48334309492942701 0 0.052158835315616027 -0.49633061971542908 0 0.065949985054517032 -0.48884997455687013 0 0.057596711449277201 -0.48334309492942701 0 0.052158835315616027 -0.49633061971542908 0 0.043164271546872197 -0.4778703191434 0 0.052158835315616027 -0.49633061971542908 0 0.065949985054517032 -0.48884997455687013 0 0.055728539092515517 -0.5 0 0.052158835315616027 -0.49633061971542908 0 0.091646396761647708 -0.28947790237370968 0 0.07071546022358817 -0.28620470259943642 0 0.079999995207784586 -0.26983589460815821 0 0.091646396761647708 -0.28947790237370968 0 0.072783535289555654 -0.30157633939854622 0 0.07071546022358817 -0.28620470259943642 0 0.091646396761647708 -0.28947790237370968 0 0.087363613427391865 -0.30807629250996549 0 0.072783535289555654 -0.30157633939854622 0 0.072783535289555654 -0.30157633939854622 0 0.073259594084162577 -0.32259772896999273 0 0.056038135353808333 -0.31320409925325249 0 0.087363613427391865 -0.30807629250996549 0 0.072783535289555654 -0.30157633939854622 0 0.073259594084162577 -0.32259772896999273 0 0.072783535289555654 -0.30157633939854622 0 0.07071546022358817 -0.28620470259943642 0 0.04944647540011983 -0.29680206833493911 0 0.07071546022358817 -0.28620470259943642 0 0.079999995207784586 -0.26983589460815821 0 0.059700898458833078 -0.27333130828182889 0 0.06835359365392131 -0.25019388684260668 0 0.079999995207784586 -0.26983589460815821 0 0.08421140423371333 -0.243891226620808 0 0.06835359365392131 -0.25019388684260668 0 0.079999995207784586 -0.26983589460815821 0 0.06835359365392131 -0.25019388684260668 0 0.079999995207784586 -0.26983589460815821 0 0.059700898458833078 -0.27333130828182889 0 0.079999995207784586 -0.26983589460815821 0 0.097662046653794854 -0.25561444261418242 0 0.08421140423371333 -0.243891226620808 0 0.079999995207784586 -0.26983589460815821 0 0.1034904733698796 -0.27103876000237981 0 0.097662046653794854 -0.25561444261418242 0 0.091646396761647708 -0.28947790237370968 0 0.079999995207784586 -0.26983589460815821 0 0.091646396761647708 -0.28947790237370968 0 0.079999995207784586 -0.26983589460815821 0 0.1034904733698796 -0.27103876000237981 0 0.1034904733698796 -0.27103876000237981 0 0.097662046653794854 -0.25561444261418242 0 0.1147239364606354 -0.25215539330366038 0 0.13687529418603939 -0.26162068250561471 0 0.1147239364606354 -0.25215539330366038 0 0.1223190960555403 -0.2394332616338683 0 0.1034904733698796 -0.27103876000237981 0 0.1147239364606354 -0.25215539330366038 0 0.12122917553908071 -0.27280048239714111 0 0.13687529418603939 -0.26162068250561471 0 0.1147239364606354 -0.25215539330366038 0 0.12122917553908071 -0.27280048239714111 0 0.1034904733698796 -0.27103876000237981 0 0.12122917553908071 -0.27280048239714111 0 0.11361649143026541 -0.29050419490534962 0 0.13743968224858391 -0.28868338126870119 0 0.12122917553908071 -0.27280048239714111 0 0.11361649143026541 -0.29050419490534962 0 0.091646396761647708 -0.28947790237370968 0 0.11361649143026541 -0.29050419490534962 0 0.10329279831551071 -0.3091199101392611 0 0.091646396761647708 -0.28947790237370968 0 0.1034904733698796 -0.27103876000237981 0 0.11361649143026541 -0.29050419490534962 0 0.091646396761647708 -0.28947790237370968 0 0.10329279831551071 -0.3091199101392611 0 0.091646396761647708 -0.28947790237370968 0 0.087363613427391865 -0.30807629250996549 0 0.10329279831551071 -0.3091199101392611 0 0.11361649143026541 -0.29050419490534962 0 0.10329279831551071 -0.3091199101392611 0 0.1207194796176513 -0.31206082339016011 0 0.13743968224858391 -0.28868338126870119 0 0.11361649143026541 -0.29050419490534962 0 0.1207194796176513 -0.31206082339016011 0 0.10329279831551071 -0.3091199101392611 0 0.11030782598785099 -0.32334328523235578 0 0.1149391998693738 -0.32876191790481257 0 0.10329279831551071 -0.3091199101392611 0 0.1207194796176513 -0.31206082339016011 0 0.1149391998693738 -0.32876191790481257 0 0.127277047630593 -0.32368123984794023 0 0.1207194796176513 -0.31206082339016011 0 0.1149391998693738 -0.32876191790481257 0 0.1252730154641265 -0.33501756179834041 0 0.127277047630593 -0.32368123984794023 0 0.1149391998693738 -0.32876191790481257 0 0.11030782598785099 -0.32334328523235578 0 0.1149391998693738 -0.32876191790481257 0 0.1071562875265276 -0.34088406714172798 0 0.1252730154641265 -0.33501756179834041 0 0.1149391998693738 -0.32876191790481257 0 0.1203073559828662 -0.34481831064573482 0 0.1149391998693738 -0.32876191790481257 0 0.1071562875265276 -0.34088406714172798 0 0.1203073559828662 -0.34481831064573482 0 0.11030782598785099 -0.32334328523235578 0 0.1071562875265276 -0.34088406714172798 0 0.088168702518997374 -0.33920446067117932 0 0.11030782598785099 -0.32334328523235578 0 0.088168702518997374 -0.33920446067117932 0 0.11030782598785099 -0.32334328523235578 0 0.092685396428672781 -0.32103820683708328 0 0.088168702518997374 -0.33920446067117932 0 0.10329279831551071 -0.3091199101392611 0 0.11030782598785099 -0.32334328523235578 0 0.092685396428672781 -0.32103820683708328 0 0.087363613427391865 -0.30807629250996549 0 0.10329279831551071 -0.3091199101392611 0 0.092685396428672781 -0.32103820683708328 0 0.10329279831551071 -0.3091199101392611 0 0.1149391998693738 -0.32876191790481257 0 0.1245186505824013 -0.36113750934922573 0 0.111761677400382 -0.35565256239397869 0 0.1080928822255358 -0.3703790814713866 0 0.12672469353237761 -0.38193719477194499 0 0.1245186505824013 -0.36113750934922573 0 0.1080928822255358 -0.3703790814713866 0 0.1245186505824013 -0.36113750934922573 0 0.111761677400382 -0.35565256239397869 0 0.1203073559828662 -0.34481831064573482 0 0.1071562875265276 -0.34088406714172798 0 0.111761677400382 -0.35565256239397869 0 0.1203073559828662 -0.34481831064573482 0 0.1071562875265276 -0.34088406714172798 0 0.09828664694928807 -0.35383226801130691 0 0.088168702518997374 -0.33920446067117932 0 0.1071562875265276 -0.34088406714172798 0 0.111761677400382 -0.35565256239397869 0 0.09828664694928807 -0.35383226801130691 0 0.097085641119374302 -0.38571424072610178 0 0.1080928822255358 -0.3703790814713866 0 0.085574671404253372 -0.36606529366265911 0 0.111761677400382 -0.35565256239397869 0 0.09828664694928807 -0.35383226801130691 0 0.1080928822255358 -0.3703790814713866 0 0.09828664694928807 -0.35383226801130691 0 0.1080928822255358 -0.3703790814713866 0 0.085574671404253372 -0.36606529366265911 0 0.085574671404253372 -0.36606529366265911 0 0.066029579050143783 -0.35506563611000291 0 0.088168702518997374 -0.33920446067117932 0 0.09828664694928807 -0.35383226801130691 0 0.085574671404253372 -0.36606529366265911 0 0.088168702518997374 -0.33920446067117932 0 0.066029579050143783 -0.35506563611000291 0 0.088168702518997374 -0.33920446067117932 0 0.064781398010314309 -0.37536455347105108 0 0.085574671404253372 -0.36606529366265911 0 0.066029579050143783 -0.35506563611000291 0 0.066029579050143783 -0.35506563611000291 0 0.088168702518997374 -0.33920446067117932 0 0.073259594084162577 -0.32259772896999273 0 0.066029579050143783 -0.35506563611000291 0 0.073259594084162577 -0.32259772896999273 0 0.048222299164917798 -0.333319266554439 0 0.092685396428672781 -0.32103820683708328 0 0.088168702518997374 -0.33920446067117932 0 0.073259594084162577 -0.32259772896999273 0 0.087363613427391865 -0.30807629250996549 0 0.092685396428672781 -0.32103820683708328 0 0.073259594084162577 -0.32259772896999273 0 0.073259594084162577 -0.32259772896999273 0 0.056038135353808333 -0.31320409925325249 0 0.048222299164917798 -0.333319266554439 0 0.056038135353808333 -0.31320409925325249 0 0.048222299164917798 -0.333319266554439 0 0.036478772830285791 -0.31172509300834528 0 0.048222299164917798 -0.333319266554439 0 0.033610930591278822 -0.35000849021355163 0 0.023331405601267931 -0.32909016887827719 0 0.048222299164917798 -0.333319266554439 0 0.023331405601267931 -0.32909016887827719 0 0.036478772830285791 -0.31172509300834528 0 0.066029579050143783 -0.35506563611000291 0 0.048355778033110031 -0.35315995845717169 0 0.043890455581289831 -0.3709268115488259 0 0.066029579050143783 -0.35506563611000291 0 0.043890455581289831 -0.3709268115488259 0 0.064781398010314309 -0.37536455347105108 0 0.066029579050143783 -0.35506563611000291 0 0.043890455581289831 -0.3709268115488259 0 0.066029579050143783 -0.35506563611000291 0 0.048222299164917798 -0.333319266554439 0 0.048355778033110031 -0.35315995845717169 0 0.048222299164917798 -0.333319266554439 0 0.048355778033110031 -0.35315995845717169 0 0.033610930591278822 -0.35000849021355163 0 0.048355778033110031 -0.35315995845717169 0 0.033610930591278822 -0.35000849021355163 0 0.043890455581289831 -0.3709268115488259 0 0.033610930591278822 -0.35000849021355163 0 0.03286340713970079 -0.36889202113574671 0 0.043890455581289831 -0.3709268115488259 0 0.033610930591278822 -0.35000849021355163 0 0.043890455581289831 -0.3709268115488259 0 0.030780854092194759 -0.38031894893150719 0 0.03286340713970079 -0.36889202113574671 0 0.043890455581289831 -0.3709268115488259 0 0.033610930591278822 -0.35000849021355163 0 0.03286340713970079 -0.36889202113574671 0 0.022072978528308879 -0.36937310690127451 0 0.030780854092194759 -0.38031894893150719 0 0.03286340713970079 -0.36889202113574671 0 0.022072978528308879 -0.36937310690127451 0 0.033610930591278822 -0.35000849021355163 0 0.022072978528308879 -0.36937310690127451 0 0.014393680356963701 -0.35536411395587292 0 0.033610930591278822 -0.35000849021355163 0 0.014393680356963701 -0.35536411395587292 0 0.0105762414372169 -0.3395135522035268 0 -0.00014080085946228561 -0.35082738964002957 0 0.014393680356963701 -0.35536411395587292 0 0.0105762414372169 -0.3395135522035268 0 -0.00014080085946228561 -0.35082738964002957 0 0.014393680356963701 -0.35536411395587292 0 0.0058490520874761691 -0.36709803082098191 0 0.022072978528308879 -0.36937310690127451 0 0.014393680356963701 -0.35536411395587292 0 0.0058490520874761691 -0.36709803082098191 0 0.022072978528308879 -0.36937310690127451 0 0.0058490520874761691 -0.36709803082098191 0 0.0132535835722172 -0.37610527220974688 0 0.022072978528308879 -0.36937310690127451 0 0.0058490520874761691 -0.36709803082098191 0 -0.0078283346885702904 -0.37476262999778609 0 0.0132535835722172 -0.37610527220974688 0 0.0058490520874761691 -0.36709803082098191 0 0.023331405601267931 -0.32909016887827719 0 0.013051880611257029 -0.30817184754300292 0 0.023331405601267931 -0.32909016887827719 0 0.013051880611257029 -0.30817184754300292 0 0.036478772830285791 -0.31172509300834528 0 0.033610930591278822 -0.35000849021355163 0 0.023331405601267931 -0.32909016887827719 0 0.0105762414372169 -0.3395135522035268 0 0.033610930591278822 -0.35000849021355163 0 0.023331405601267931 -0.32909016887827719 0 0.023331405601267931 -0.32909016887827719 0 0.0105762414372169 -0.3395135522035268 0 3.5896068887442723e-05 -0.32803491845883598 0 -0.00014080085946228561 -0.35082738964002957 0 0.0105762414372169 -0.3395135522035268 0 3.5896068887442723e-05 -0.32803491845883598 0 -0.0063780240591087903 -0.31078717533589839 0 3.5896068887442723e-05 -0.32803491845883598 0 0.013051880611257029 -0.30817184754300292 0 0.023331405601267931 -0.32909016887827719 0 3.5896068887442723e-05 -0.32803491845883598 0 0.013051880611257029 -0.30817184754300292 0 0.013051880611257029 -0.30817184754300292 0 0.0027723556212477219 -0.28725352620772771 0 0.0027723556212477219 -0.28725352620772771 0 0.026109415510684009 -0.29202779727133188 0 -0.0017476628817073611 -0.27805551369469472 0 0.0027723556212477219 -0.28725352620772771 0 0.01602201902671789 -0.28191194131808539 0 0.013051880611257029 -0.30817184754300292 0 0.0027723556212477219 -0.28725352620772771 0 0.026109415510684009 -0.29202779727133188 0 0.0027723556212477219 -0.28725352620772771 0 0.026109415510684009 -0.29202779727133188 0 0.01602201902671789 -0.28191194131808539 0 -0.0074917523477661804 -0.29461577546968681 0 0.013051880611257029 -0.30817184754300292 0 0.0027723556212477219 -0.28725352620772771 0 -0.0017476628817073611 -0.27805551369469472 0 0.0027723556212477219 -0.28725352620772771 0 0.026109415510684009 -0.29202779727133188 0 0.01602201902671789 -0.28191194131808539 0 0.036314123194761641 -0.27872041929058161 0 0.013051880611257029 -0.30817184754300292 0 0.026109415510684009 -0.29202779727133188 0 0.036478772830285791 -0.31172509300834528 0 0.026109415510684009 -0.29202779727133188 0 0.036478772830285791 -0.31172509300834528 0 0.04944647540011983 -0.29680206833493911 0 0.026109415510684009 -0.29202779727133188 0 0.04944647540011983 -0.29680206833493911 0 0.036314123194761641 -0.27872041929058161 0 0.026109415510684009 -0.29202779727133188 0 0.04944647540011983 -0.29680206833493911 0 0.04944647540011983 -0.29680206833493911 0 0.059700898458833078 -0.27333130828182889 0 0.036314123194761641 -0.27872041929058161 0 0.07071546022358817 -0.28620470259943642 0 0.04944647540011983 -0.29680206833493911 0 0.059700898458833078 -0.27333130828182889 0 0.072783535289555654 -0.30157633939854622 0 0.04944647540011983 -0.29680206833493911 0 0.056038135353808333 -0.31320409925325249 0 0.036478772830285791 -0.31172509300834528 0 0.04944647540011983 -0.29680206833493911 0 0.072783535289555654 -0.30157633939854622 0 0.056038135353808333 -0.31320409925325249 0 0.04944647540011983 -0.29680206833493911 0 0.06835359365392131 -0.25019388684260668 0 0.044986508142045613 -0.25948109579330381 0 0.047362788675733028 -0.24199119006041811 0 0.06835359365392131 -0.25019388684260668 0 0.059700898458833078 -0.27333130828182889 0 0.044986508142045613 -0.25948109579330381 0 0.06835359365392131 -0.25019388684260668 0 0.044986508142045613 -0.25948109579330381 0 0.059700898458833078 -0.27333130828182889 0 0.036314123194761641 -0.27872041929058161 0 0.044986508142045613 -0.25948109579330381 0 0.036314123194761641 -0.27872041929058161 0 0.044986508142045613 -0.25948109579330381 0 0.02161942263016943 -0.26876830474400021 0 0.044986508142045613 -0.25948109579330381 0 0.02161942263016943 -0.26876830474400021 0 0.044986508142045613 -0.25948109579330381 0 0.029973277209287209 -0.25054958921230208 0 0.02161942263016943 -0.26876830474400021 0 0.044986508142045613 -0.25948109579330381 0 0.029973277209287209 -0.25054958921230208 0 0.047362788675733028 -0.24199119006041811 0 0.029973277209287209 -0.25054958921230208 0 0.015960739131678031 -0.25406337006458851 0 0.02161942263016943 -0.26876830474400021 0 0.01602201902671789 -0.28191194131808539 0 0.036314123194761641 -0.27872041929058161 0 0.02161942263016943 -0.26876830474400021 0 -0.0017476628817073611 -0.27805551369469472 0 0.01602201902671789 -0.28191194131808539 0 0.02161942263016943 -0.26876830474400021 0 -0.0017476628817073611 -0.27805551369469472 0 0.02161942263016943 -0.26876830474400021 0 -0.0017476628817073611 -0.27805551369469472 0 0.02161942263016943 -0.26876830474400021 0 0.0057386521092319797 -0.26220041049146298 0 0.015960739131678031 -0.25406337006458851 0 0.02161942263016943 -0.26876830474400021 0 0.0057386521092319797 -0.26220041049146298 0 0.015960739131678031 -0.25406337006458851 0 0.0057386521092319797 -0.26220041049146298 0 0.0025328853753160741 -0.24958102673793139 0 0.0010854142569982001 -0.23807309260292489 0 0.010575476039053681 -0.22730954243123891 0 0.017210747296828609 -0.24036453645492739 0 0.0010854142569982001 -0.23807309260292489 0 0.0025328853753160741 -0.24958102673793139 0 0.017210747296828609 -0.24036453645492739 0 0.015960739131678031 -0.25406337006458851 0 0.0025328853753160741 -0.24958102673793139 0 0.017210747296828609 -0.24036453645492739 0 -0.0061584899570064598 -0.22962027277065361 0 0.0010854142569982001 -0.23807309260292489 0 0.010575476039053681 -0.22730954243123891 0 -0.0061584899570064598 -0.22962027277065361 0 0.010575476039053681 -0.22730954243123891 0 0.0064165675551885711 -0.21575046092143421 0 -0.0061584899570064598 -0.22962027277065361 0 0.0064165675551885711 -0.21575046092143421 0 0.010575476039053681 -0.22730954243123891 0 0.0064165675551885711 -0.21575046092143421 0 0.021509429760601551 -0.21557394742371069 0 0.010575476039053681 -0.22730954243123891 0 0.0064165675551885711 -0.21575046092143421 0 0.010575476039053681 -0.22730954243123891 0 0.02225812238200572 -0.22838936745028471 0 0.017210747296828609 -0.24036453645492739 0 0.010575476039053681 -0.22730954243123891 0 0.02225812238200572 -0.22838936745028471 0 0.021509429760601551 -0.21557394742371069 0 0.02225812238200572 -0.22838936745028471 0 0.029479073121619459 -0.22118232130399371 0 0.021509429760601551 -0.21557394742371069 0 0.02225812238200572 -0.22838936745028471 0 0.029479073121619459 -0.22118232130399371 0 0.031866256870133697 -0.23515517363185631 0 0.029973277209287209 -0.25054958921230208 0 0.017210747296828609 -0.24036453645492739 0 0.031866256870133697 -0.23515517363185631 0 0.02225812238200572 -0.22838936745028471 0 0.017210747296828609 -0.24036453645492739 0 0.031866256870133697 -0.23515517363185631 0 0.029973277209287209 -0.25054958921230208 0 0.015960739131678031 -0.25406337006458851 0 0.017210747296828609 -0.24036453645492739 0 -0.0015622250741301779 -0.1935745667631632 0 0.01896638504685547 -0.20190848785827681 0 0.0091962193441852118 -0.18107109871456811 0 -0.0015622250741301779 -0.1935745667631632 0 0.0064165675551885711 -0.21575046092143421 0 0.01896638504685547 -0.20190848785827681 0 -0.0015622250741301779 -0.1935745667631632 0 0.0064165675551885711 -0.21575046092143421 0 0.0064165675551885711 -0.21575046092143421 0 0.01896638504685547 -0.20190848785827681 0 0.0064165675551885711 -0.21575046092143421 0 0.021509429760601551 -0.21557394742371069 0 0.01896638504685547 -0.20190848785827681 0 0.029479073121619459 -0.22118232130399371 0 0.021509429760601551 -0.21557394742371069 0 0.033558692489570878 -0.21195100443687931 0 0.021509429760601551 -0.21557394742371069 0 0.029251690937081031 -0.20258635003767089 0 0.033558692489570878 -0.21195100443687931 0 0.021509429760601551 -0.21557394742371069 0 0.01896638504685547 -0.20190848785827681 0 0.029251690937081031 -0.20258635003767089 0 0.01896638504685547 -0.20190848785827681 0 0.031516202538524517 -0.1880665147951214 0 0.0091962193441852118 -0.18107109871456811 0 0.01896638504685547 -0.20190848785827681 0 0.029251690937081031 -0.20258635003767089 0 0.031516202538524517 -0.1880665147951214 0 0.01896638504685547 -0.20190848785827681 0 0.031516202538524517 -0.1880665147951214 0 0.043838458457815248 -0.18986676967386279 0 0.039506267971797952 -0.20154200132731501 0 0.055741541871671067 -0.19352675789948551 0 0.043838458457815248 -0.18986676967386279 0 0.031516202538524517 -0.1880665147951214 0 0.039506267971797952 -0.20154200132731501 0 0.031516202538524517 -0.1880665147951214 0 0.039506267971797952 -0.20154200132731501 0 0.029251690937081031 -0.20258635003767089 0 0.031516202538524517 -0.1880665147951214 0 0.039506267971797952 -0.20154200132731501 0 0.039506267971797952 -0.20154200132731501 0 0.033558692489570878 -0.21195100443687931 0 0.047496333405074677 -0.2150174878595065 0 0.039506267971797952 -0.20154200132731501 0 0.047496333405074677 -0.2150174878595065 0 0.029251690937081031 -0.20258635003767089 0 0.039506267971797952 -0.20154200132731501 0 0.033558692489570878 -0.21195100443687931 0 0.033558692489570878 -0.21195100443687931 0 0.047496333405074677 -0.2150174878595065 0 0.033558692489570878 -0.21195100443687931 0 0.047496333405074677 -0.2150174878595065 0 0.039554961726260877 -0.22474601638733641 0 0.039506267971797952 -0.20154200132731501 0 0.047496333405074677 -0.2150174878595065 0 0.05523956109653505 -0.20714630445374671 0 0.047496333405074677 -0.2150174878595065 0 0.05523956109653505 -0.20714630445374671 0 0.064206587222380762 -0.21869398638814641 0 0.047496333405074677 -0.2150174878595065 0 0.064206587222380762 -0.21869398638814641 0 0.039506267971797952 -0.20154200132731501 0 0.05523956109653505 -0.20714630445374671 0 0.055741541871671067 -0.19352675789948551 0 0.05523956109653505 -0.20714630445374671 0 0.055741541871671067 -0.19352675789948551 0 0.069247075011750078 -0.20695128879428309 0 0.055741541871671067 -0.19352675789948551 0 0.069247075011750078 -0.20695128879428309 0 0.029973277209287209 -0.25054958921230208 0 0.031866256870133697 -0.23515517363185631 0 0.047362788675733028 -0.24199119006041811 0 0.031866256870133697 -0.23515517363185631 0 0.039554961726260877 -0.22474601638733641 0 0.047362788675733028 -0.24199119006041811 0 0.029479073121619459 -0.22118232130399371 0 0.031866256870133697 -0.23515517363185631 0 0.039554961726260877 -0.22474601638733641 0 0.029479073121619459 -0.22118232130399371 0 0.033558692489570878 -0.21195100443687931 0 0.039554961726260877 -0.22474601638733641 0 0.047496333405074677 -0.2150174878595065 0 0.05536207860111314 -0.2282833045590259 0 0.064206587222380762 -0.21869398638814641 0 0.05536207860111314 -0.2282833045590259 0 0.063311866646695691 -0.24149928944984211 0 0.064206587222380762 -0.21869398638814641 0 0.039554961726260877 -0.22474601638733641 0 0.05536207860111314 -0.2282833045590259 0 0.047362788675733028 -0.24199119006041811 0 0.047496333405074677 -0.2150174878595065 0 0.039554961726260877 -0.22474601638733641 0 0.05536207860111314 -0.2282833045590259 0 0.047496333405074677 -0.2150174878595065 0 0.05536207860111314 -0.2282833045590259 0 0.05536207860111314 -0.2282833045590259 0 0.063311866646695691 -0.24149928944984211 0 0.06835359365392131 -0.25019388684260668 0 0.047362788675733028 -0.24199119006041811 0 0.063311866646695691 -0.24149928944984211 0 0.05536207860111314 -0.2282833045590259 0 0.047362788675733028 -0.24199119006041811 0 0.063311866646695691 -0.24149928944984211 0 0.06835359365392131 -0.25019388684260668 0 0.08421140423371333 -0.243891226620808 0 0.06835359365392131 -0.25019388684260668 0 0.063311866646695691 -0.24149928944984211 0 0.063311866646695691 -0.24149928944984211 0 0.074219814037010917 -0.24224782663387789 0 0.081086434463253185 -0.23335707181355411 0 0.06835359365392131 -0.25019388684260668 0 0.063311866646695691 -0.24149928944984211 0 0.074219814037010917 -0.24224782663387789 0 0.06835359365392131 -0.25019388684260668 0 0.074219814037010917 -0.24224782663387789 0 0.08421140423371333 -0.243891226620808 0 0.08421140423371333 -0.243891226620808 0 0.081086434463253185 -0.23335707181355411 0 0.10006921481350529 -0.2375885663990091 0 0.08421140423371333 -0.243891226620808 0 0.10006921481350529 -0.2375885663990091 0 0.074219814037010917 -0.24224782663387789 0 0.08421140423371333 -0.243891226620808 0 0.081086434463253185 -0.23335707181355411 0 0.081086434463253185 -0.23335707181355411 0 0.085851572697872774 -0.2234561975504171 0 0.10006921481350529 -0.2375885663990091 0 0.085851572697872774 -0.2234561975504171 0 0.08275260815182911 -0.2203758196890806 0 0.098293187803831117 -0.21887499219370271 0 0.085851572697872774 -0.2234561975504171 0 0.10006921481350529 -0.2375885663990091 0 0.081086434463253185 -0.23335707181355411 0 0.085851572697872774 -0.2234561975504171 0 0.080916841039686133 -0.2223704849167896 0 0.085851572697872774 -0.2234561975504171 0 0.080916841039686133 -0.2223704849167896 0 0.085851572697872774 -0.2234561975504171 0 0.08275260815182911 -0.2203758196890806 0 0.080916841039686133 -0.2223704849167896 0 0.085851572697872774 -0.2234561975504171 0 0.08275260815182911 -0.2203758196890806 0 0.08275260815182911 -0.2203758196890806 0 0.080916841039686133 -0.2223704849167896 0 0.063311866646695691 -0.24149928944984211 0 0.080916841039686133 -0.2223704849167896 0 0.063311866646695691 -0.24149928944984211 0 0.080916841039686133 -0.2223704849167896 0 0.064206587222380762 -0.21869398638814641 0 0.080916841039686133 -0.2223704849167896 0 0.064206587222380762 -0.21869398638814641 0 0.063311866646695691 -0.24149928944984211 0 0.081086434463253185 -0.23335707181355411 0 0.080916841039686133 -0.2223704849167896 0 0.080916841039686133 -0.2223704849167896 0 0.064206587222380762 -0.21869398638814641 0 0.069247075011750078 -0.20695128879428309 0 0.05523956109653505 -0.20714630445374671 0 0.064206587222380762 -0.21869398638814641 0 0.069247075011750078 -0.20695128879428309 0 0.08275260815182911 -0.2203758196890806 0 0.069247075011750078 -0.20695128879428309 0 0.08275260815182911 -0.2203758196890806 0 0.080916841039686133 -0.2223704849167896 0 0.069247075011750078 -0.20695128879428309 0 0.055741541871671067 -0.19352675789948551 0 0.069247075011750078 -0.20695128879428309 0 0.070887819862862286 -0.1914088031202833 0 0.069247075011750078 -0.20695128879428309 0 0.070887819862862286 -0.1914088031202833 0 0.082832551139222166 -0.19914513048671481 0 0.070887819862862286 -0.1914088031202833 0 0.082832551139222166 -0.19914513048671481 0 0.081821336385090343 -0.18186245165470949 0 0.082832551139222166 -0.19914513048671481 0 0.097084301305641635 -0.20480362112478781 0 0.095405874932467813 -0.18887779734800569 0 0.082832551139222166 -0.19914513048671481 0 0.095405874932467813 -0.18887779734800569 0 0.081821336385090343 -0.18186245165470949 0 0.08275260815182911 -0.2203758196890806 0 0.082832551139222166 -0.19914513048671481 0 0.097084301305641635 -0.20480362112478781 0 0.08275260815182911 -0.2203758196890806 0 0.069247075011750078 -0.20695128879428309 0 0.082832551139222166 -0.19914513048671481 0 0.08275260815182911 -0.2203758196890806 0 0.097084301305641635 -0.20480362112478781 0 0.098293187803831117 -0.21887499219370271 0 0.08275260815182911 -0.2203758196890806 0 0.097084301305641635 -0.20480362112478781 0 0.097084301305641635 -0.20480362112478781 0 0.1146962174531268 -0.21673223195775559 0 0.098293187803831117 -0.21887499219370271 0 0.097084301305641635 -0.20480362112478781 0 0.095405874932467813 -0.18887779734800569 0 0.11141599445945349 -0.1892314225604943 0 0.097084301305641635 -0.20480362112478781 0 0.11141599445945349 -0.1892314225604943 0 0.097084301305641635 -0.20480362112478781 0 0.1210323504124224 -0.2015702574875764 0 0.11141599445945349 -0.1892314225604943 0 0.1210323504124224 -0.2015702574875764 0 0.11141599445945349 -0.1892314225604943 0 0.13523084618428721 -0.18276855246186111 0 0.1210323504124224 -0.2015702574875764 0 0.1146962174531268 -0.21673223195775559 0 0.13583218450739579 -0.2116030352811932 0 0.097084301305641635 -0.20480362112478781 0 0.1210323504124224 -0.2015702574875764 0 0.1146962174531268 -0.21673223195775559 0 0.1110812394106853 -0.22900709064647229 0 0.12594488917549271 -0.2231145762792166 0 0.1363109061234978 -0.23455798374252809 0 0.1110812394106853 -0.22900709064647229 0 0.1223190960555403 -0.2394332616338683 0 0.1363109061234978 -0.23455798374252809 0 0.1110812394106853 -0.22900709064647229 0 0.1363109061234978 -0.23455798374252809 0 0.1146962174531268 -0.21673223195775559 0 0.1110812394106853 -0.22900709064647229 0 0.12594488917549271 -0.2231145762792166 0 0.1110812394106853 -0.22900709064647229 0 0.1223190960555403 -0.2394332616338683 0 0.1084330749156753 -0.23426436422737831 0 0.1147239364606354 -0.25215539330366038 0 0.1223190960555403 -0.2394332616338683 0 0.1084330749156753 -0.23426436422737831 0 0.097662046653794854 -0.25561444261418242 0 0.1147239364606354 -0.25215539330366038 0 0.10006921481350529 -0.2375885663990091 0 0.1147239364606354 -0.25215539330366038 0 0.10006921481350529 -0.2375885663990091 0 0.1084330749156753 -0.23426436422737831 0 0.097662046653794854 -0.25561444261418242 0 0.08421140423371333 -0.243891226620808 0 0.10006921481350529 -0.2375885663990091 0 0.10006921481350529 -0.2375885663990091 0 0.1084330749156753 -0.23426436422737831 0 0.1147239364606354 -0.25215539330366038 0 0.10006921481350529 -0.2375885663990091 0 0.085851572697872774 -0.2234561975504171 0 0.1110812394106853 -0.22900709064647229 0 0.1146962174531268 -0.21673223195775559 0 0.1110812394106853 -0.22900709064647229 0 0.098293187803831117 -0.21887499219370271 0 0.085851572697872774 -0.2234561975504171 0 0.1110812394106853 -0.22900709064647229 0 0.098293187803831117 -0.21887499219370271 0 0.085851572697872774 -0.2234561975504171 0 0.1110812394106853 -0.22900709064647229 0 0.10006921481350529 -0.2375885663990091 0 0.1110812394106853 -0.22900709064647229 0 0.10006921481350529 -0.2375885663990091 0 0.1084330749156753 -0.23426436422737831 0 0.1040552578412003 -0.15282191894301261 0 0.1005807427949069 -0.13366374688330029 0 0.11727103389215909 -0.1361484369810822 0 0.1005807427949069 -0.13366374688330029 0 0.11727103389215909 -0.1361484369810822 0 0.1051359327507693 -0.1227177542784853 0 0.1040552578412003 -0.15282191894301261 0 0.1005807427949069 -0.13366374688330029 0 0.082362828069140165 -0.1319846138898183 0 0.11727103389215909 -0.1361484369810822 0 0.1154331983948798 -0.1174886032934183 0 0.13404900744611239 -0.12609877526333699 0 0.11727103389215909 -0.1361484369810822 0 0.1051359327507693 -0.1227177542784853 0 0.1154331983948798 -0.1174886032934183 0 0.1040552578412003 -0.15282191894301261 0 0.11727103389215909 -0.1361484369810822 0 0.1232701832726428 -0.15427141090171109 0 0.11727103389215909 -0.1361484369810822 0 0.1232701832726428 -0.15427141090171109 0 0.13444198148756639 -0.1449420832838656 0 0.1040552578412003 -0.15282191894301261 0 0.12574768761326591 -0.17365922399620121 0 0.1040552578412003 -0.15282191894301261 0 0.1002282447692335 -0.17458527697826651 0 0.12574768761326591 -0.17365922399620121 0 0.1040552578412003 -0.15282191894301261 0 0.1232701832726428 -0.15427141090171109 0 0.12574768761326591 -0.17365922399620121 0 0.11141599445945349 -0.1892314225604943 0 0.1002282447692335 -0.17458527697826651 0 0.12574768761326591 -0.17365922399620121 0 0.11141599445945349 -0.1892314225604943 0 0.12574768761326591 -0.17365922399620121 0 0.13523084618428721 -0.18276855246186111 0 0.11141599445945349 -0.1892314225604943 0 0.12574768761326591 -0.17365922399620121 0 0.095405874932467813 -0.18887779734800569 0 0.11141599445945349 -0.1892314225604943 0 0.1002282447692335 -0.17458527697826651 0 0.1040552578412003 -0.15282191894301261 0 0.1002282447692335 -0.17458527697826651 0 0.08311303581058499 -0.16124853818171381 0 0.095405874932467813 -0.18887779734800569 0 0.1002282447692335 -0.17458527697826651 0 0.081821336385090343 -0.18186245165470949 0 0.1002282447692335 -0.17458527697826651 0 0.08311303581058499 -0.16124853818171381 0 0.081821336385090343 -0.18186245165470949 0 0.08311303581058499 -0.16124853818171381 0 0.081821336385090343 -0.18186245165470949 0 0.066780308608768796 -0.17493307235476979 0 0.070887819862862286 -0.1914088031202833 0 0.081821336385090343 -0.18186245165470949 0 0.066780308608768796 -0.17493307235476979 0 0.055741541871671067 -0.19352675789948551 0 0.070887819862862286 -0.1914088031202833 0 0.066780308608768796 -0.17493307235476979 0 0.08311303581058499 -0.16124853818171381 0 0.066780308608768796 -0.17493307235476979 0 0.065413952892267702 -0.150678580858252 0 0.065413952892267702 -0.150678580858252 0 0.082362828069140165 -0.1319846138898183 0 0.08311303581058499 -0.16124853818171381 0 0.065413952892267702 -0.150678580858252 0 0.082362828069140165 -0.1319846138898183 0 0.1040552578412003 -0.15282191894301261 0 0.08311303581058499 -0.16124853818171381 0 0.082362828069140165 -0.1319846138898183 0 0.1040552578412003 -0.15282191894301261 0 0.082362828069140165 -0.1319846138898183 0 0.1005807427949069 -0.13366374688330029 0 0.082362828069140165 -0.1319846138898183 0 0.095577299328253623 -0.1174095529111252 0 0.082362828069140165 -0.1319846138898183 0 0.070308403876621794 -0.13238109852993221 0 0.069837722907261313 -0.1199532536492431 0 0.065413952892267702 -0.150678580858252 0 0.082362828069140165 -0.1319846138898183 0 0.070308403876621794 -0.13238109852993221 0 0.082362828069140165 -0.1319846138898183 0 0.069837722907261313 -0.1199532536492431 0 0.065413952892267702 -0.150678580858252 0 0.070308403876621794 -0.13238109852993221 0 0.06118566078759103 -0.13005342953014129 0 0.070308403876621794 -0.13238109852993221 0 0.06118566078759103 -0.13005342953014129 0 0.069837722907261313 -0.1199532536492431 0 0.065413952892267702 -0.150678580858252 0 0.06118566078759103 -0.13005342953014129 0 0.053245925046226952 -0.14076102386291889 0 0.06118566078759103 -0.13005342953014129 0 0.049352038069647858 -0.1295439288512826 0 0.048525659269531229 -0.11802361343548989 0 0.049352038069647858 -0.1295439288512826 0 0.053245925046226952 -0.14076102386291889 0 0.041700188437408421 -0.13409859591225329 0 0.06118566078759103 -0.13005342953014129 0 0.049352038069647858 -0.1295439288512826 0 0.053245925046226952 -0.14076102386291889 0 0.065413952892267702 -0.150678580858252 0 0.053245925046226952 -0.14076102386291889 0 0.048465077715394989 -0.16937254782668559 0 0.053245925046226952 -0.14076102386291889 0 0.040505841312838547 -0.14468304457988079 0 0.048465077715394989 -0.16937254782668559 0 0.040505841312838547 -0.14468304457988079 0 0.03393783807298914 -0.14093707321474161 0 0.030230252537669321 -0.1566253376229266 0 0.040505841312838547 -0.14468304457988079 0 0.030230252537669321 -0.1566253376229266 0 0.040505841312838547 -0.14468304457988079 0 0.03393783807298914 -0.14093707321474161 0 0.041700188437408421 -0.13409859591225329 0 0.03393783807298914 -0.14093707321474161 0 0.041700188437408421 -0.13409859591225329 0 0.024480650806643651 -0.1375151559245551 0 0.041700188437408421 -0.13409859591225329 0 0.042102756807481732 -0.1247829815156095 0 0.031290738437872938 -0.1201921761368282 0 0.049352038069647858 -0.1295439288512826 0 0.041700188437408421 -0.13409859591225329 0 0.042102756807481732 -0.1247829815156095 0 0.053245925046226952 -0.14076102386291889 0 0.040505841312838547 -0.14468304457988079 0 0.041700188437408421 -0.13409859591225329 0 0.055741541871671067 -0.19352675789948551 0 0.066780308608768796 -0.17493307235476979 0 0.048465077715394989 -0.16937254782668559 0 0.043838458457815248 -0.18986676967386279 0 0.055741541871671067 -0.19352675789948551 0 0.048465077715394989 -0.16937254782668559 0 0.066780308608768796 -0.17493307235476979 0 0.065413952892267702 -0.150678580858252 0 0.048465077715394989 -0.16937254782668559 0 0.065413952892267702 -0.150678580858252 0 0.048465077715394989 -0.16937254782668559 0 0.040505841312838547 -0.14468304457988079 0 0.048465077715394989 -0.16937254782668559 0 0.030230252537669321 -0.1566253376229266 0 0.048465077715394989 -0.16937254782668559 0 0.033338822752702377 -0.1705348433046637 0 0.030230252537669321 -0.1566253376229266 0 0.043838458457815248 -0.18986676967386279 0 0.031516202538524517 -0.1880665147951214 0 0.048465077715394989 -0.16937254782668559 0 0.031516202538524517 -0.1880665147951214 0 0.048465077715394989 -0.16937254782668559 0 0.031516202538524517 -0.1880665147951214 0 0.048465077715394989 -0.16937254782668559 0 0.033338822752702377 -0.1705348433046637 0 0.031516202538524517 -0.1880665147951214 0 0.033338822752702377 -0.1705348433046637 0 0.01995466376250531 -0.16856763066597699 0 0.031516202538524517 -0.1880665147951214 0 0.01995466376250531 -0.16856763066597699 0 0.031516202538524517 -0.1880665147951214 0 0.01995466376250531 -0.16856763066597699 0 0.0091962193441852118 -0.18107109871456811 0 0.01995466376250531 -0.16856763066597699 0 0.030230252537669321 -0.1566253376229266 0 0.008868239412810253 -0.14987004135808221 0 0.033338822752702377 -0.1705348433046637 0 0.01995466376250531 -0.16856763066597699 0 0.030230252537669321 -0.1566253376229266 0 0.01995466376250531 -0.16856763066597699 0 0.030230252537669321 -0.1566253376229266 0 -0.0025999653858941639 -0.16131422913783491 0 0.0067086063528142403 -0.16809244781376179 0 0.008868239412810253 -0.14987004135808221 0 0.01995466376250531 -0.16856763066597699 0 0.008868239412810253 -0.14987004135808221 0 0.01995466376250531 -0.16856763066597699 0 0.0067086063528142403 -0.16809244781376179 0 0.008868239412810253 -0.14987004135808221 0 -0.0084927016390539001 -0.17431231470194719 0 0.0067086063528142403 -0.16809244781376179 0 0.0091962193441852118 -0.18107109871456811 0 0.01995466376250531 -0.16856763066597699 0 0.0091962193441852118 -0.18107109871456811 0 0.01995466376250531 -0.16856763066597699 0 0.0067086063528142403 -0.16809244781376179 0 0.0091962193441852118 -0.18107109871456811 0 -0.0015622250741301779 -0.1935745667631632 0 0.0091962193441852118 -0.18107109871456811 0 0.041700188437408421 -0.13409859591225329 0 0.014197789575412951 -0.12328672932727321 0 0.031290738437872938 -0.1201921761368282 0 0.041700188437408421 -0.13409859591225329 0 0.024480650806643651 -0.1375151559245551 0 0.014197789575412951 -0.12328672932727321 0 0.041700188437408421 -0.13409859591225329 0 0.014197789575412951 -0.12328672932727321 0 0.024480650806643651 -0.1375151559245551 0 0.011332123714495041 -0.13546109466502479 0 0.014197789575412951 -0.12328672932727321 0 0.03393783807298914 -0.14093707321474161 0 0.030230252537669321 -0.1566253376229266 0 0.024480650806643651 -0.1375151559245551 0 0.030230252537669321 -0.1566253376229266 0 0.024480650806643651 -0.1375151559245551 0 0.008868239412810253 -0.14987004135808221 0 0.024480650806643651 -0.1375151559245551 0 0.008868239412810253 -0.14987004135808221 0 0.011332123714495041 -0.13546109466502479 0 -0.00221818493688669 -0.13117245205018849 0 -0.0031786103040098569 -0.14705450477373769 0 0.008868239412810253 -0.14987004135808221 0 -0.0031786103040098569 -0.14705450477373769 0 -0.0025999653858941639 -0.16131422913783491 0 0.008868239412810253 -0.14987004135808221 0 -0.00221818493688669 -0.13117245205018849 0 0.008868239412810253 -0.14987004135808221 0 -0.00221818493688669 -0.13117245205018849 0 0.011332123714495041 -0.13546109466502479 0 0.014197789575412951 -0.12328672932727321 0 -0.00221818493688669 -0.13117245205018849 0 0.008868239412810253 -0.14987004135808221 0 0.011332123714495041 -0.13546109466502479 0 -0.013304609286582791 -0.1124748627422944 0 0.014197789575412951 -0.12328672932727321 0 0.014197789575412951 -0.12328672932727321 0 0.020945276257035669 -0.1055296092587116 0 0.0046245275045138064 -0.1076828264142336 0 -0.013304609286582791 -0.1124748627422944 0 0.014197789575412951 -0.12328672932727321 0 0.0046245275045138064 -0.1076828264142336 0 0.014197789575412951 -0.12328672932727321 0 0.020945276257035669 -0.1055296092587116 0 0.031290738437872938 -0.1201921761368282 0 0.020945276257035669 -0.1055296092587116 0 0.031290738437872938 -0.1201921761368282 0 0.040241467446851142 -0.1026788937802551 0 0.020945276257035669 -0.1055296092587116 0 0.028115865357471449 -0.087896533900266943 0 0.040241467446851142 -0.1026788937802551 0 0.020945276257035669 -0.1055296092587116 0 0.0072012692200917657 -0.09144049599341271 0 0.028115865357471449 -0.087896533900266943 0 -0.0070294542012635762 -0.10327829347153671 0 0.0046245275045138064 -0.1076828264142336 0 0.0072012692200917657 -0.09144049599341271 0 0.020945276257035669 -0.1055296092587116 0 0.0046245275045138064 -0.1076828264142336 0 0.0072012692200917657 -0.09144049599341271 0 0.0072012692200917657 -0.09144049599341271 0 0.0054575408194632406 -0.073720759659108445 0 0.018511759797904249 -0.077210571545524964 0 -0.0056293594721457006 -0.082036805430144924 0 0.0072012692200917657 -0.09144049599341271 0 0.0054575408194632406 -0.073720759659108445 0 0.0054575408194632406 -0.073720759659108445 0 0.018354718881549058 -0.065167425818499949 0 0.003426744450576454 -0.054815297075420773 0 -0.0072319765520409062 -0.068818796064575097 0 0.0054575408194632406 -0.073720759659108445 0 0.003426744450576454 -0.054815297075420773 0 0.0054575408194632406 -0.073720759659108445 0 0.018354718881549058 -0.065167425818499949 0 0.018511759797904249 -0.077210571545524964 0 0.018511759797904249 -0.077210571545524964 0 0.028115865357471449 -0.087896533900266943 0 0.033429404710945708 -0.067827642356336801 0 0.018354718881549058 -0.065167425818499949 0 0.018511759797904249 -0.077210571545524964 0 0.033429404710945708 -0.067827642356336801 0 0.0072012692200917657 -0.09144049599341271 0 0.018511759797904249 -0.077210571545524964 0 0.028115865357471449 -0.087896533900266943 0 0.028115865357471449 -0.087896533900266943 0 0.044094628308957058 -0.087651847290754856 0 0.040241467446851142 -0.1026788937802551 0 0.028115865357471449 -0.087896533900266943 0 0.044094628308957058 -0.087651847290754856 0 0.033429404710945708 -0.067827642356336801 0 0.044094628308957058 -0.087651847290754856 0 0.033429404710945708 -0.067827642356336801 0 0.052580487019044733 -0.06457445167855122 0 0.052580487019044733 -0.06457445167855122 0 0.057640786708643768 -0.07951032993234286 0 0.068682665651441266 -0.069637891440837665 0 0.044094628308957058 -0.087651847290754856 0 0.052580487019044733 -0.06457445167855122 0 0.057640786708643768 -0.07951032993234286 0 0.044094628308957058 -0.087651847290754856 0 0.057640786708643768 -0.07951032993234286 0 0.064045145718632748 -0.088800152685812248 0 0.056223070490067702 -0.1049071233711502 0 0.048525659269531229 -0.11802361343548989 0 0.040241467446851142 -0.1026788937802551 0 0.044094628308957058 -0.087651847290754856 0 0.056223070490067702 -0.1049071233711502 0 0.064045145718632748 -0.088800152685812248 0 0.06118566078759103 -0.13005342953014129 0 0.056223070490067702 -0.1049071233711502 0 0.048525659269531229 -0.11802361343548989 0 0.048525659269531229 -0.11802361343548989 0 0.042102756807481732 -0.1247829815156095 0 0.031290738437872938 -0.1201921761368282 0 0.048525659269531229 -0.11802361343548989 0 0.031290738437872938 -0.1201921761368282 0 0.040241467446851142 -0.1026788937802551 0 0.049352038069647858 -0.1295439288512826 0 0.048525659269531229 -0.11802361343548989 0 0.042102756807481732 -0.1247829815156095 0 0.044094628308957058 -0.087651847290754856 0 0.056223070490067702 -0.1049071233711502 0 0.040241467446851142 -0.1026788937802551 0 0.020415517075116841 0.0076517724901667356 0 0.020207185183206099 -0.010785841930981459 0 0.039787151186370009 -0.0039594854922263374 0 0.020207185183206099 -0.010785841930981459 0 0.0047038114401232534 -0.001040937293712483 0 0.0026421611525163911 -0.019923693291100199 0 0.020415517075116841 0.0076517724901667356 0 0.020207185183206099 -0.010785841930981459 0 0.0047038114401232534 -0.001040937293712483 0 0.020207185183206099 -0.010785841930981459 0 0.0026421611525163911 -0.019923693291100199 0 0.018057611388834851 -0.030223969914345401 0 0.0026421611525163911 -0.019923693291100199 0 0.018057611388834851 -0.030223969914345401 0 0.001114662024295677 -0.034644724797188199 0 0.018057611388834851 -0.030223969914345401 0 0.03214982838215158 -0.036550164909951742 0 0.03396684481877061 -0.021771474300517551 0 0.020207185183206099 -0.010785841930981459 0 0.018057611388834851 -0.030223969914345401 0 0.03396684481877061 -0.021771474300517551 0 0.018057611388834851 -0.030223969914345401 0 0.010882918392325341 -0.043546784918672053 0 0.022583515379492949 -0.04946345385366932 0 0.018057611388834851 -0.030223969914345401 0 0.022583515379492949 -0.04946345385366932 0 0.03214982838215158 -0.036550164909951742 0 0.010882918392325341 -0.043546784918672053 0 0.001114662024295677 -0.034644724797188199 0 0.003426744450576454 -0.054815297075420773 0 0.018057611388834851 -0.030223969914345401 0 0.010882918392325341 -0.043546784918672053 0 0.001114662024295677 -0.034644724797188199 0 0.018354718881549058 -0.065167425818499949 0 0.003426744450576454 -0.054815297075420773 0 0.022583515379492949 -0.04946345385366932 0 0.010882918392325341 -0.043546784918672053 0 0.003426744450576454 -0.054815297075420773 0 0.022583515379492949 -0.04946345385366932 0 0.018354718881549058 -0.065167425818499949 0 0.033429404710945708 -0.067827642356336801 0 0.022583515379492949 -0.04946345385366932 0 0.033429404710945708 -0.067827642356336801 0 0.022583515379492949 -0.04946345385366932 0 0.040434423972952403 -0.049093231793294147 0 0.033429404710945708 -0.067827642356336801 0 0.052580487019044733 -0.06457445167855122 0 0.040434423972952403 -0.049093231793294147 0 0.052580487019044733 -0.06457445167855122 0 0.040434423972952403 -0.049093231793294147 0 0.05544232884238081 -0.044875881875575382 0 0.052580487019044733 -0.06457445167855122 0 0.05544232884238081 -0.044875881875575382 0 0.068339170937992105 -0.053424337060716878 0 0.040434423972952403 -0.049093231793294147 0 0.05544232884238081 -0.044875881875575382 0 0.045706746350707102 -0.032198694687932281 0 0.05544232884238081 -0.044875881875575382 0 0.045706746350707102 -0.032198694687932281 0 0.061157621829282929 -0.025231604425866621 0 0.040434423972952403 -0.049093231793294147 0 0.045706746350707102 -0.032198694687932281 0 0.03214982838215158 -0.036550164909951742 0 0.022583515379492949 -0.04946345385366932 0 0.040434423972952403 -0.049093231793294147 0 0.03214982838215158 -0.036550164909951742 0 0.045706746350707102 -0.032198694687932281 0 0.03214982838215158 -0.036550164909951742 0 0.03396684481877061 -0.021771474300517551 0 0.045706746350707102 -0.032198694687932281 0 0.03396684481877061 -0.021771474300517551 0 0.047710046720236987 -0.018368172826886429 0 0.061157621829282929 -0.025231604425866621 0 0.047710046720236987 -0.018368172826886429 0 0.057931869416054299 -0.0086796052278893948 0 0.045706746350707102 -0.032198694687932281 0 0.061157621829282929 -0.025231604425866621 0 0.047710046720236987 -0.018368172826886429 0 0.053306813386582982 0.0056008818424343951 0 0.057931869416054299 -0.0086796052278893948 0 0.039787151186370009 -0.0039594854922263374 0 0.047710046720236987 -0.018368172826886429 0 0.057931869416054299 -0.0086796052278893948 0 0.039787151186370009 -0.0039594854922263374 0 0.053306813386582982 0.0056008818424343951 0 0.065940651683257009 0.0024831850618150888 0 0.057931869416054299 -0.0086796052278893948 0 0.020207185183206099 -0.010785841930981459 0 0.03396684481877061 -0.021771474300517551 0 0.039787151186370009 -0.0039594854922263374 0 0.03396684481877061 -0.021771474300517551 0 0.047710046720236987 -0.018368172826886429 0 0.039787151186370009 -0.0039594854922263374 0 0.07992851590561921 0.0082161523869754144 0 0.085319843464057188 -0.007629982329875426 0 0.074177093133044117 -0.010507922444979889 0 0.07992851590561921 0.0082161523869754144 0 0.085319843464057188 -0.007629982329875426 0 0.09649789417263642 -0.0037639840011086311 0 0.093491186985964037 -0.01472799792969565 0 0.085319843464057188 -0.007629982329875426 0 0.09649789417263642 -0.0037639840011086311 0 0.093491186985964037 -0.01472799792969565 0 0.085319843464057188 -0.007629982329875426 0 0.083581835824733053 -0.016535058395947159 0 0.085319843464057188 -0.007629982329875426 0 0.074177093133044117 -0.010507922444979889 0 0.083581835824733053 -0.016535058395947159 0 0.061157621829282929 -0.025231604425866621 0 0.057931869416054299 -0.0086796052278893948 0 0.074177093133044117 -0.010507922444979889 0 0.065940651683257009 0.0024831850618150888 0 0.057931869416054299 -0.0086796052278893948 0 0.074177093133044117 -0.010507922444979889 0 0.061157621829282929 -0.025231604425866621 0 0.077044537184394621 -0.024954964190685061 0 0.071280738265345076 -0.03811759874850193 0 0.061157621829282929 -0.025231604425866621 0 0.074177093133044117 -0.010507922444979889 0 0.077044537184394621 -0.024954964190685061 0 0.077044537184394621 -0.024954964190685061 0 0.087876518356205288 -0.024854425084499782 0 0.083696735197635597 -0.035074751153617953 0 0.077044537184394621 -0.024954964190685061 0 0.083581835824733053 -0.016535058395947159 0 0.087876518356205288 -0.024854425084499782 0 0.074177093133044117 -0.010507922444979889 0 0.077044537184394621 -0.024954964190685061 0 0.083581835824733053 -0.016535058395947159 0 0.093491186985964037 -0.01472799792969565 0 0.083581835824733053 -0.016535058395947159 0 0.087876518356205288 -0.024854425084499782 0 0.093491186985964037 -0.01472799792969565 0 0.087876518356205288 -0.024854425084499782 0 0.096892307268332672 -0.02266252034611416 0 0.087876518356205288 -0.024854425084499782 0 0.093921030959280866 -0.033511072873054298 0 0.096892307268332672 -0.02266252034611416 0 0.087876518356205288 -0.024854425084499782 0 0.083696735197635597 -0.035074751153617953 0 0.093921030959280866 -0.033511072873054298 0 0.088828324516270887 -0.041348533459236683 0 0.095977453204919599 -0.050472192210401508 0 0.093921030959280866 -0.033511072873054298 0 0.088828324516270887 -0.041348533459236683 0 0.083696735197635597 -0.035074751153617953 0 0.093921030959280866 -0.033511072873054298 0 0.088828324516270887 -0.041348533459236683 0 0.081718078703247488 -0.046336117599872988 0 0.095977453204919599 -0.050472192210401508 0 0.088828324516270887 -0.041348533459236683 0 0.081718078703247488 -0.046336117599872988 0 0.083696735197635597 -0.035074751153617953 0 0.081718078703247488 -0.046336117599872988 0 0.083696735197635597 -0.035074751153617953 0 0.071280738265345076 -0.03811759874850193 0 0.05544232884238081 -0.044875881875575382 0 0.061157621829282929 -0.025231604425866621 0 0.071280738265345076 -0.03811759874850193 0 0.05544232884238081 -0.044875881875575382 0 0.071280738265345076 -0.03811759874850193 0 0.068339170937992105 -0.053424337060716878 0 0.077044537184394621 -0.024954964190685061 0 0.083696735197635597 -0.035074751153617953 0 0.071280738265345076 -0.03811759874850193 0 0.081718078703247488 -0.046336117599872988 0 0.071280738265345076 -0.03811759874850193 0 0.068339170937992105 -0.053424337060716878 0 0.081718078703247488 -0.046336117599872988 0 0.068339170937992105 -0.053424337060716878 0 0.079819511512682115 -0.059373961925762081 0 0.068339170937992105 -0.053424337060716878 0 0.079819511512682115 -0.059373961925762081 0 0.068682665651441266 -0.069637891440837665 0 0.079819511512682115 -0.059373961925762081 0 0.095977453204919599 -0.050472192210401508 0 0.084380189065810102 -0.076999271316981366 0 0.081718078703247488 -0.046336117599872988 0 0.079819511512682115 -0.059373961925762081 0 0.095977453204919599 -0.050472192210401508 0 0.095977453204919599 -0.050472192210401508 0 0.1084893608633546 -0.054995312108922077 0 0.1003826539890946 -0.069656067773248523 0 0.095977453204919599 -0.050472192210401508 0 0.1084893608633546 -0.054995312108922077 0 0.10497618281608501 -0.042163163930312997 0 0.1084893608633546 -0.054995312108922077 0 0.12021542192502691 -0.05736310542253667 0 0.11225492598618329 -0.067700646346746801 0 0.12021542192502691 -0.05736310542253667 0 0.1181844865236701 -0.045884275653046647 0 0.1350650896680477 -0.050994701792827862 0 0.1084893608633546 -0.054995312108922077 0 0.12021542192502691 -0.05736310542253667 0 0.1181844865236701 -0.045884275653046647 0 0.1084893608633546 -0.054995312108922077 0 0.1181844865236701 -0.045884275653046647 0 0.10497618281608501 -0.042163163930312997 0 0.1181844865236701 -0.045884275653046647 0 0.1169603374125384 -0.034526050343312617 0 0.10497618281608501 -0.042163163930312997 0 0.10497618281608501 -0.042163163930312997 0 0.1139069069496291 -0.021464697665753471 0 0.1169603374125384 -0.034526050343312617 0 0.10497618281608501 -0.042163163930312997 0 0.1139069069496291 -0.021464697665753471 0 0.1181844865236701 -0.045884275653046647 0 0.1169603374125384 -0.034526050343312617 0 0.1283586559847627 -0.040725310836502493 0 0.095977453204919599 -0.050472192210401508 0 0.10497618281608501 -0.042163163930312997 0 0.1075747173440291 -0.023945113103821601 0 0.095977453204919599 -0.050472192210401508 0 0.093921030959280866 -0.033511072873054298 0 0.1075747173440291 -0.023945113103821601 0 0.095977453204919599 -0.050472192210401508 0 0.1075747173440291 -0.023945113103821601 0 0.10497618281608501 -0.042163163930312997 0 0.1075747173440291 -0.023945113103821601 0 0.1139069069496291 -0.021464697665753471 0 0.093921030959280866 -0.033511072873054298 0 0.096892307268332672 -0.02266252034611416 0 0.1075747173440291 -0.023945113103821601 0 0.093491186985964037 -0.01472799792969565 0 0.096892307268332672 -0.02266252034611416 0 0.10169828607787421 -0.015923098960230999 0 0.096892307268332672 -0.02266252034611416 0 0.10169828607787421 -0.015923098960230999 0 0.1075747173440291 -0.023945113103821601 0 0.10169828607787421 -0.015923098960230999 0 0.1075747173440291 -0.023945113103821601 0 0.1082483433893755 -0.0084409933366877514 0 0.1169603374125384 -0.034526050343312617 0 0.1213672368215104 -0.025634276355807499 0 0.12969235634276979 -0.031284000123743903 0 0.1169603374125384 -0.034526050343312617 0 0.1213672368215104 -0.025634276355807499 0 0.1139069069496291 -0.021464697665753471 0 0.1213672368215104 -0.025634276355807499 0 0.1139069069496291 -0.021464697665753471 0 0.12490934658110441 -0.01526235729042 0 0.11917198148314 0.002581966002757949 0 0.1075747173440291 -0.023945113103821601 0 0.1139069069496291 -0.021464697665753471 0 0.11917198148314 0.002581966002757949 0 0.1139069069496291 -0.021464697665753471 0 0.1228376310831711 -0.00076623140119310329 0 0.11917198148314 0.002581966002757949 0 0.1075747173440291 -0.023945113103821601 0 0.1082483433893755 -0.0084409933366877514 0 0.1139069069496291 -0.021464697665753471 0 0.12490934658110441 -0.01526235729042 0 0.1228376310831711 -0.00076623140119310329 0 0.1139069069496291 -0.021464697665753471 0 0.1228376310831711 -0.00076623140119310329 0 0.11917198148314 0.002581966002757949 0 0.1075747173440291 -0.023945113103821601 0 0.11917198148314 0.002581966002757949 0 0.1105415625726717 -0.0014271332550589229 0 0.1082483433893755 -0.0084409933366877514 0 0.1078625722471533 0.0022823866337398822 0 0.1105415625726717 -0.0014271332550589229 0 0.1039166904039584 -0.0028966343462391718 0 0.1039166904039584 -0.0028966343462391718 0 0.1082483433893755 -0.0084409933366877514 0 0.10154047648190589 -0.00941290969201335 0 0.1105415625726717 -0.0014271332550589229 0 0.1039166904039584 -0.0028966343462391718 0 0.1082483433893755 -0.0084409933366877514 0 0.10169828607787421 -0.015923098960230999 0 0.1082483433893755 -0.0084409933366877514 0 0.10154047648190589 -0.00941290969201335 0 0.093491186985964037 -0.01472799792969565 0 0.10154047648190589 -0.00941290969201335 0 0.09649789417263642 -0.0037639840011086311 0 0.093491186985964037 -0.01472799792969565 0 0.10169828607787421 -0.015923098960230999 0 0.10154047648190589 -0.00941290969201335 0 0.1039166904039584 -0.0028966343462391718 0 0.10154047648190589 -0.00941290969201335 0 0.09649789417263642 -0.0037639840011086311 0 0.088046088292129038 -0.10430519341125349 0 0.072782924926700548 -0.1035263504235614 0 0.088717560391344957 -0.092993146067331611 0 0.088046088292129038 -0.10430519341125349 0 0.080670658246847674 -0.112136361820053 0 0.072782924926700548 -0.1035263504235614 0 0.088046088292129038 -0.10430519341125349 0 0.088717560391344957 -0.092993146067331611 0 0.100171096126226 -0.096028489315426471 0 0.088046088292129038 -0.10430519341125349 0 0.089116900718008318 -0.11226838151764811 0 0.096817389343646892 -0.1088784313235004 0 0.088046088292129038 -0.10430519341125349 0 0.089116900718008318 -0.11226838151764811 0 0.080670658246847674 -0.112136361820053 0 0.089116900718008318 -0.11226838151764811 0 0.082844213492092533 -0.1195429602861619 0 0.095577299328253623 -0.1174095529111252 0 0.082362828069140165 -0.1319846138898183 0 0.082844213492092533 -0.1195429602861619 0 0.095577299328253623 -0.1174095529111252 0 0.082362828069140165 -0.1319846138898183 0 0.095577299328253623 -0.1174095529111252 0 0.082362828069140165 -0.1319846138898183 0 0.082844213492092533 -0.1195429602861619 0 0.069837722907261313 -0.1199532536492431 0 0.089116900718008318 -0.11226838151764811 0 0.082844213492092533 -0.1195429602861619 0 0.080670658246847674 -0.112136361820053 0 0.080670658246847674 -0.112136361820053 0 0.069837722907261313 -0.1199532536492431 0 0.072782924926700548 -0.1035263504235614 0 0.06118566078759103 -0.13005342953014129 0 0.072782924926700548 -0.1035263504235614 0 0.06118566078759103 -0.13005342953014129 0 0.069837722907261313 -0.1199532536492431 0 0.072782924926700548 -0.1035263504235614 0 0.06118566078759103 -0.13005342953014129 0 0.056223070490067702 -0.1049071233711502 0 0.072782924926700548 -0.1035263504235614 0 0.082844213492092533 -0.1195429602861619 0 0.080670658246847674 -0.112136361820053 0 0.069837722907261313 -0.1199532536492431 0 0.056223070490067702 -0.1049071233711502 0 0.072782924926700548 -0.1035263504235614 0 0.064045145718632748 -0.088800152685812248 0 0.057640786708643768 -0.07951032993234286 0 0.064045145718632748 -0.088800152685812248 0 0.068682665651441266 -0.069637891440837665 0 0.064045145718632748 -0.088800152685812248 0 0.068682665651441266 -0.069637891440837665 0 0.084380189065810102 -0.076999271316981366 0 0.072782924926700548 -0.1035263504235614 0 0.064045145718632748 -0.088800152685812248 0 0.084380189065810102 -0.076999271316981366 0 0.052580487019044733 -0.06457445167855122 0 0.068339170937992105 -0.053424337060716878 0 0.068682665651441266 -0.069637891440837665 0 0.079819511512682115 -0.059373961925762081 0 0.068682665651441266 -0.069637891440837665 0 0.084380189065810102 -0.076999271316981366 0 0.095977453204919599 -0.050472192210401508 0 0.084380189065810102 -0.076999271316981366 0 0.1003826539890946 -0.069656067773248523 0 0.095977453204919599 -0.050472192210401508 0 0.084380189065810102 -0.076999271316981366 0 0.084380189065810102 -0.076999271316981366 0 0.095693843046354268 -0.0841642264331387 0 0.1003826539890946 -0.069656067773248523 0 0.072782924926700548 -0.1035263504235614 0 0.084380189065810102 -0.076999271316981366 0 0.072782924926700548 -0.1035263504235614 0 0.084380189065810102 -0.076999271316981366 0 0.088717560391344957 -0.092993146067331611 0 0.084380189065810102 -0.076999271316981366 0 0.088717560391344957 -0.092993146067331611 0 0.095693843046354268 -0.0841642264331387 0 0.088717560391344957 -0.092993146067331611 0 0.095693843046354268 -0.0841642264331387 0 0.100171096126226 -0.096028489315426471 0 0.095693843046354268 -0.0841642264331387 0 0.1061825878765964 -0.082065358753895937 0 0.100171096126226 -0.096028489315426471 0 0.095693843046354268 -0.0841642264331387 0 0.1061825878765964 -0.082065358753895937 0 0.1003826539890946 -0.069656067773248523 0 0.1061825878765964 -0.082065358753895937 0 0.1152940355071756 -0.093458773729521216 0 0.100171096126226 -0.096028489315426471 0 0.1061825878765964 -0.082065358753895937 0 0.1003826539890946 -0.069656067773248523 0 0.11225492598618329 -0.067700646346746801 0 0.1084893608633546 -0.054995312108922077 0 0.1003826539890946 -0.069656067773248523 0 0.11225492598618329 -0.067700646346746801 0 0.1061825878765964 -0.082065358753895937 0 0.11225492598618329 -0.067700646346746801 0 0.1171317857577618 -0.078667044940758796 0 0.1171317857577618 -0.078667044940758796 0 0.12857779857738699 -0.078718698725873171 0 0.12708324658387871 -0.067240591211139955 0 0.11225492598618329 -0.067700646346746801 0 0.1171317857577618 -0.078667044940758796 0 0.12708324658387871 -0.067240591211139955 0 0.12021542192502691 -0.05736310542253667 0 0.11225492598618329 -0.067700646346746801 0 0.12708324658387871 -0.067240591211139955 0 0.1061825878765964 -0.082065358753895937 0 0.1152940355071756 -0.093458773729521216 0 0.1171317857577618 -0.078667044940758796 0 0.1171317857577618 -0.078667044940758796 0 0.1286838548293292 -0.09135300801218077 0 0.12857779857738699 -0.078718698725873171 0 0.1152940355071756 -0.093458773729521216 0 0.1171317857577618 -0.078667044940758796 0 0.1286838548293292 -0.09135300801218077 0 0.1152940355071756 -0.093458773729521216 0 0.1230450488982011 -0.098166020395255585 0 0.1286838548293292 -0.09135300801218077 0 0.1152940355071756 -0.093458773729521216 0 0.1230450488982011 -0.098166020395255585 0 0.1196469902177196 -0.1061558951397697 0 0.1230450488982011 -0.098166020395255585 0 0.1196469902177196 -0.1061558951397697 0 0.12917406780106669 -0.1036793655145172 0 0.1196469902177196 -0.1061558951397697 0 0.1094725419179296 -0.1044020385603272 0 0.1154331983948798 -0.1174886032934183 0 0.1152940355071756 -0.093458773729521216 0 0.1196469902177196 -0.1061558951397697 0 0.1094725419179296 -0.1044020385603272 0 0.1152940355071756 -0.093458773729521216 0 0.1094725419179296 -0.1044020385603272 0 0.100171096126226 -0.096028489315426471 0 0.1094725419179296 -0.1044020385603272 0 0.096817389343646892 -0.1088784313235004 0 0.100171096126226 -0.096028489315426471 0 0.088046088292129038 -0.10430519341125349 0 0.096817389343646892 -0.1088784313235004 0 0.100171096126226 -0.096028489315426471 0 0.096817389343646892 -0.1088784313235004 0 0.1051359327507693 -0.1227177542784853 0 0.1154331983948798 -0.1174886032934183 0 0.096817389343646892 -0.1088784313235004 0 0.1154331983948798 -0.1174886032934183 0 0.1005807427949069 -0.13366374688330029 0 0.095577299328253623 -0.1174095529111252 0 0.1051359327507693 -0.1227177542784853 0 0.1094725419179296 -0.1044020385603272 0 0.096817389343646892 -0.1088784313235004 0 0.1154331983948798 -0.1174886032934183 0 0.089116900718008318 -0.11226838151764811 0 0.096817389343646892 -0.1088784313235004 0 0.095577299328253623 -0.1174095529111252 0 0.096817389343646892 -0.1088784313235004 0 0.095577299328253623 -0.1174095529111252 0 0.1051359327507693 -0.1227177542784853 0 0.1154331983948798 -0.1174886032934183 0 0.13404900744611239 -0.12609877526333699 0 0.1196469902177196 -0.1061558951397697 0 0.1154331983948798 -0.1174886032934183 0 0.12686113813069899 -0.1114359576666621 0 0.1154331983948798 -0.1174886032934183 0 0.12686113813069899 -0.1114359576666621 0 0.13390982127973511 -0.11942472678041111 0 0.1154331983948798 -0.1174886032934183 0 0.13390982127973511 -0.11942472678041111 0 0.13404900744611239 -0.12609877526333699 0 0.12686113813069899 -0.1114359576666621 0 0.13614161296009411 -0.11043119760519431 0 0.13390982127973511 -0.11942472678041111 0 0.13614161296009411 -0.11043119760519431 0 0.14023431030656019 -0.11642081500581559 0 0.13390982127973511 -0.11942472678041111 0 0.13614161296009411 -0.11043119760519431 0 0.14023431030656019 -0.11642081500581559 0 0.14347338005148061 -0.1082488085161593 0 0.13773130733042549 -0.12113088311922759 0 0.1427320902892944 -0.12257921542734659 0 0.13404900744611239 -0.12609877526333699 0 0.13390982127973511 -0.11942472678041111 0 0.13773130733042549 -0.12113088311922759 0 0.13404900744611239 -0.12609877526333699 0 0.13390982127973511 -0.11942472678041111 0 0.13404900744611239 -0.12609877526333699 0 0.14023431030656019 -0.11642081500581559 0 0.13773130733042549 -0.12113088311922759 0 0.1427320902892944 -0.12257921542734659 0 0.14023431030656019 -0.11642081500581559 0 0.13390982127973511 -0.11942472678041111 0 0.13773130733042549 -0.12113088311922759 0 0.1427320902892944 -0.12257921542734659 0 0.15192118682329561 -0.12273271218809589 0 0.1490682445489844 -0.1279194233146575 0 0.1427320902892944 -0.12257921542734659 0 0.1474293378639818 -0.11515719203513899 0 0.15192118682329561 -0.12273271218809589 0 0.14023431030656019 -0.11642081500581559 0 0.1427320902892944 -0.12257921542734659 0 0.1474293378639818 -0.11515719203513899 0 0.1474293378639818 -0.11515719203513899 0 0.15201290161170181 -0.107226104105896 0 0.14347338005148061 -0.1082488085161593 0 0.14023431030656019 -0.11642081500581559 0 0.1474293378639818 -0.11515719203513899 0 0.14347338005148061 -0.1082488085161593 0 0.1474293378639818 -0.11515719203513899 0 0.15419764536576119 -0.1149677746217292 0 0.15201290161170181 -0.107226104105896 0 0.15419764536576119 -0.1149677746217292 0 0.15201290161170181 -0.107226104105896 0 0.1590985184781393 -0.1107939778183322 0 0.15419764536576119 -0.1149677746217292 0 0.15192118682329561 -0.12273271218809589 0 0.1605262820516872 -0.11892888696118289 0 0.1474293378639818 -0.11515719203513899 0 0.15419764536576119 -0.1149677746217292 0 0.15192118682329561 -0.12273271218809589 0 0.153855148049276 -0.097460838801678593 0 0.15201290161170181 -0.107226104105896 0 0.1462355681673109 -0.099255024001954253 0 0.153855148049276 -0.097460838801678593 0 0.1462355681673109 -0.099255024001954253 0 0.1490737095502995 -0.088653392770718792 0 0.153855148049276 -0.097460838801678593 0 0.15201290161170181 -0.107226104105896 0 0.16008969536972259 -0.10263897543636979 0 0.14347338005148061 -0.1082488085161593 0 0.1462355681673109 -0.099255024001954253 0 0.13800617896953651 -0.1013117005447786 0 0.15201290161170181 -0.107226104105896 0 0.14347338005148061 -0.1082488085161593 0 0.1462355681673109 -0.099255024001954253 0 0.1462355681673109 -0.099255024001954253 0 0.13800617896953651 -0.1013117005447786 0 0.14099209077157121 -0.092629299272494275 0 0.13800617896953651 -0.1013117005447786 0 0.1286838548293292 -0.09135300801218077 0 0.14099209077157121 -0.092629299272494275 0 0.13614161296009411 -0.11043119760519431 0 0.13800617896953651 -0.1013117005447786 0 0.12917406780106669 -0.1036793655145172 0 0.13614161296009411 -0.11043119760519431 0 0.14347338005148061 -0.1082488085161593 0 0.13800617896953651 -0.1013117005447786 0 0.1196469902177196 -0.1061558951397697 0 0.12686113813069899 -0.1114359576666621 0 0.12917406780106669 -0.1036793655145172 0 0.12686113813069899 -0.1114359576666621 0 0.13614161296009411 -0.11043119760519431 0 0.12917406780106669 -0.1036793655145172 0 0.1230450488982011 -0.098166020395255585 0 0.12917406780106669 -0.1036793655145172 0 0.1286838548293292 -0.09135300801218077 0 0.13800617896953651 -0.1013117005447786 0 0.12917406780106669 -0.1036793655145172 0 0.1286838548293292 -0.09135300801218077 0 0.1286838548293292 -0.09135300801218077 0 0.12857779857738699 -0.078718698725873171 0 0.13748132505412469 -0.08396770010957226 0 0.13748132505412469 -0.08396770010957226 0 0.1367334774756912 -0.073531819827653083 0 0.14538989296775451 -0.078880163337803719 0 0.12857779857738699 -0.078718698725873171 0 0.13748132505412469 -0.08396770010957226 0 0.1367334774756912 -0.073531819827653083 0 0.1286838548293292 -0.09135300801218077 0 0.13748132505412469 -0.08396770010957226 0 0.14099209077157121 -0.092629299272494275 0 0.12857779857738699 -0.078718698725873171 0 0.12708324658387871 -0.067240591211139955 0 0.1367334774756912 -0.073531819827653083 0 0.12708324658387871 -0.067240591211139955 0 0.1367334774756912 -0.073531819827653083 0 0.14110971147140131 -0.064913967020147179 0 0.1367334774756912 -0.073531819827653083 0 0.14110971147140131 -0.064913967020147179 0 0.14964674351361701 -0.070099729323911744 0 0.14110971147140131 -0.064913967020147179 0 0.14964674351361701 -0.070099729323911744 0 0.15194569281242609 -0.056105127932606663 0 0.1367334774756912 -0.073531819827653083 0 0.14964674351361701 -0.070099729323911744 0 0.14538989296775451 -0.078880163337803719 0 0.14964674351361701 -0.070099729323911744 0 0.14538989296775451 -0.078880163337803719 0 0.15822082836811369 -0.079982126599630443 0 0.14964674351361701 -0.070099729323911744 0 0.15822082836811369 -0.079982126599630443 0 0.1603896916223197 -0.069044426588861466 0 0.14964674351361701 -0.070099729323911744 0 0.1603896916223197 -0.069044426588861466 0 0.15194569281242609 -0.056105127932606663 0 0.13748132505412469 -0.08396770010957226 0 0.14099209077157121 -0.092629299272494275 0 0.1490737095502995 -0.088653392770718792 0 0.1462355681673109 -0.099255024001954253 0 0.14099209077157121 -0.092629299272494275 0 0.1490737095502995 -0.088653392770718792 0 0.13748132505412469 -0.08396770010957226 0 0.14538989296775451 -0.078880163337803719 0 0.1490737095502995 -0.088653392770718792 0 0.14538989296775451 -0.078880163337803719 0 0.1490737095502995 -0.088653392770718792 0 0.15822082836811369 -0.079982126599630443 0 0.153855148049276 -0.097460838801678593 0 0.1490737095502995 -0.088653392770718792 0 0.1594354292934542 -0.091737259282716963 0 0.1490737095502995 -0.088653392770718792 0 0.1594354292934542 -0.091737259282716963 0 0.15822082836811369 -0.079982126599630443 0 0.1594354292934542 -0.091737259282716963 0 0.15822082836811369 -0.079982126599630443 0 0.1684140015429216 -0.087293140772549349 0 0.15822082836811369 -0.079982126599630443 0 0.1684140015429216 -0.087293140772549349 0 0.1694423915093585 -0.075846288749261012 0 0.1684140015429216 -0.087293140772549349 0 0.1776016981043757 -0.094466756631608209 0 0.16825903644140999 -0.098606158866582916 0 0.1594354292934542 -0.091737259282716963 0 0.1684140015429216 -0.087293140772549349 0 0.16825903644140999 -0.098606158866582916 0 0.15822082836811369 -0.079982126599630443 0 0.1603896916223197 -0.069044426588861466 0 0.1694423915093585 -0.075846288749261012 0 0.1603896916223197 -0.069044426588861466 0 0.1694423915093585 -0.075846288749261012 0 0.17187576892014289 -0.062138750134232333 0 0.17971720707086189 -0.073145871694163048 0 0.17187576892014289 -0.062138750134232333 0 0.19180584502786041 -0.068172372335855602 0 0.17187576892014289 -0.062138750134232333 0 0.19180584502786041 -0.068172372335855602 0 0.1694423915093585 -0.075846288749261012 0 0.17971720707086189 -0.073145871694163048 0 0.17187576892014289 -0.062138750134232333 0 0.1694423915093585 -0.075846288749261012 0 0.17971720707086189 -0.073145871694163048 0 0.17803685153179119 -0.083473416706129469 0 0.17971720707086189 -0.073145871694163048 0 0.18645595400882431 -0.078186102724248294 0 0.19180584502786041 -0.068172372335855602 0 0.1684140015429216 -0.087293140772549349 0 0.17803685153179119 -0.083473416706129469 0 0.1776016981043757 -0.094466756631608209 0 0.1684140015429216 -0.087293140772549349 0 0.1694423915093585 -0.075846288749261012 0 0.17803685153179119 -0.083473416706129469 0 0.17803685153179119 -0.083473416706129469 0 0.18645595400882431 -0.078186102724248294 0 0.18748362772352481 -0.090285751384613616 0 0.17971720707086189 -0.073145871694163048 0 0.17803685153179119 -0.083473416706129469 0 0.18645595400882431 -0.078186102724248294 0 0.17803685153179119 -0.083473416706129469 0 0.18748362772352481 -0.090285751384613616 0 0.1776016981043757 -0.094466756631608209 0 0.1776016981043757 -0.094466756631608209 0 0.1757785255420414 -0.1036637588673371 0 0.18737718651252391 -0.1018645954104864 0 0.18748362772352481 -0.090285751384613616 0 0.1776016981043757 -0.094466756631608209 0 0.18737718651252391 -0.1018645954104864 0 0.1776016981043757 -0.094466756631608209 0 0.1757785255420414 -0.1036637588673371 0 0.16825903644140999 -0.098606158866582916 0 0.1757785255420414 -0.1036637588673371 0 0.17797479248166551 -0.1125427820454727 0 0.16787713834435419 -0.11000951374301229 0 0.1757785255420414 -0.1036637588673371 0 0.18737718651252391 -0.1018645954104864 0 0.17797479248166551 -0.1125427820454727 0 0.18737718651252391 -0.1018645954104864 0 0.18701697985041221 -0.11880972375357141 0 0.17797479248166551 -0.1125427820454727 0 0.18701697985041221 -0.11880972375357141 0 0.173543926957343 -0.1211375462363173 0 0.17990838590865871 -0.12844737664361131 0 0.18701697985041221 -0.11880972375357141 0 0.173543926957343 -0.1211375462363173 0 0.17797479248166551 -0.1125427820454727 0 0.173543926957343 -0.1211375462363173 0 0.17797479248166551 -0.1125427820454727 0 0.16787713834435419 -0.11000951374301229 0 0.173543926957343 -0.1211375462363173 0 0.16787713834435419 -0.11000951374301229 0 0.1605262820516872 -0.11892888696118289 0 0.173543926957343 -0.1211375462363173 0 0.1605262820516872 -0.11892888696118289 0 0.1641162962428066 -0.126449221113482 0 0.15192118682329561 -0.12273271218809589 0 0.1605262820516872 -0.11892888696118289 0 0.1587247560068413 -0.12564209046719049 0 0.1605262820516872 -0.11892888696118289 0 0.1587247560068413 -0.12564209046719049 0 0.1641162962428066 -0.126449221113482 0 0.15419764536576119 -0.1149677746217292 0 0.1605262820516872 -0.11892888696118289 0 0.1590985184781393 -0.1107939778183322 0 0.16787713834435419 -0.11000951374301229 0 0.1605262820516872 -0.11892888696118289 0 0.1590985184781393 -0.1107939778183322 0 0.15201290161170181 -0.107226104105896 0 0.1590985184781393 -0.1107939778183322 0 0.16008969536972259 -0.10263897543636979 0 0.16787713834435419 -0.11000951374301229 0 0.1590985184781393 -0.1107939778183322 0 0.16008969536972259 -0.10263897543636979 0 0.1594354292934542 -0.091737259282716963 0 0.16008969536972259 -0.10263897543636979 0 0.16825903644140999 -0.098606158866582916 0 0.153855148049276 -0.097460838801678593 0 0.1594354292934542 -0.091737259282716963 0 0.16008969536972259 -0.10263897543636979 0 0.1757785255420414 -0.1036637588673371 0 0.16787713834435419 -0.11000951374301229 0 0.16825903644140999 -0.098606158866582916 0 0.16787713834435419 -0.11000951374301229 0 0.16008969536972259 -0.10263897543636979 0 0.16825903644140999 -0.098606158866582916 0 0.1552076984021574 -0.0047487866015848753 0 0.1380919344669613 -0.01469948322874493 0 0.1606476670511833 -0.017066892083396779 0 0.14127976741107601 0.00215554095495248 0 0.1552076984021574 -0.0047487866015848753 0 0.1380919344669613 -0.01469948322874493 0 0.14127976741107601 0.00215554095495248 0 0.1228376310831711 -0.00076623140119310329 0 0.1380919344669613 -0.01469948322874493 0 0.1228376310831711 -0.00076623140119310329 0 0.1380919344669613 -0.01469948322874493 0 0.12490934658110441 -0.01526235729042 0 0.1228376310831711 -0.00076623140119310329 0 0.1380919344669613 -0.01469948322874493 0 0.1380919344669613 -0.01469948322874493 0 0.1415761600091012 -0.038003691908970592 0 0.12969235634276979 -0.031284000123743903 0 0.1213672368215104 -0.025634276355807499 0 0.12490934658110441 -0.01526235729042 0 0.12969235634276979 -0.031284000123743903 0 0.12490934658110441 -0.01526235729042 0 0.1380919344669613 -0.01469948322874493 0 0.12969235634276979 -0.031284000123743903 0 0.1380919344669613 -0.01469948322874493 0 0.15334623785075199 -0.02863273505629621 0 0.1415761600091012 -0.038003691908970592 0 0.1380919344669613 -0.01469948322874493 0 0.15334623785075199 -0.02863273505629621 0 0.1606476670511833 -0.017066892083396779 0 0.1380919344669613 -0.01469948322874493 0 0.15334623785075199 -0.02863273505629621 0 0.15437572795414581 -0.042117567211766717 0 0.1415761600091012 -0.038003691908970592 0 0.15194569281242609 -0.056105127932606663 0 0.15334623785075199 -0.02863273505629621 0 0.15437572795414581 -0.042117567211766717 0 0.1415761600091012 -0.038003691908970592 0 0.1181844865236701 -0.045884275653046647 0 0.1283586559847627 -0.040725310836502493 0 0.1350650896680477 -0.050994701792827862 0 0.1415761600091012 -0.038003691908970592 0 0.12969235634276979 -0.031284000123743903 0 0.1283586559847627 -0.040725310836502493 0 0.1169603374125384 -0.034526050343312617 0 0.12969235634276979 -0.031284000123743903 0 0.1283586559847627 -0.040725310836502493 0 0.1415761600091012 -0.038003691908970592 0 0.1283586559847627 -0.040725310836502493 0 0.1350650896680477 -0.050994701792827862 0 0.1181844865236701 -0.045884275653046647 0 0.1350650896680477 -0.050994701792827862 0 0.12021542192502691 -0.05736310542253667 0 0.12708324658387871 -0.067240591211139955 0 0.1350650896680477 -0.050994701792827862 0 0.12708324658387871 -0.067240591211139955 0 0.14110971147140131 -0.064913967020147179 0 0.1350650896680477 -0.050994701792827862 0 0.14110971147140131 -0.064913967020147179 0 0.15194569281242609 -0.056105127932606663 0 0.1415761600091012 -0.038003691908970592 0 0.1350650896680477 -0.050994701792827862 0 0.15194569281242609 -0.056105127932606663 0 0.1350650896680477 -0.050994701792827862 0 0.15194569281242609 -0.056105127932606663 0 0.14110971147140131 -0.064913967020147179 0 0.1350650896680477 -0.050994701792827862 0 0.15194569281242609 -0.056105127932606663 0 0.15194569281242609 -0.056105127932606663 0 0.16860054123454279 -0.042565986883847551 0 0.15437572795414581 -0.042117567211766717 0 0.15194569281242609 -0.056105127932606663 0 0.16860054123454279 -0.042565986883847551 0 0.1603896916223197 -0.069044426588861466 0 0.15194569281242609 -0.056105127932606663 0 0.17187576892014289 -0.062138750134232333 0 0.15194569281242609 -0.056105127932606663 0 0.165016394264413 -0.053661354003145263 0 0.17187576892014289 -0.062138750134232333 0 0.15194569281242609 -0.056105127932606663 0 0.165016394264413 -0.053661354003145263 0 0.16860054123454279 -0.042565986883847551 0 0.15194569281242609 -0.056105127932606663 0 0.17187576892014289 -0.062138750134232333 0 0.165016394264413 -0.053661354003145263 0 0.17187576892014289 -0.062138750134232333 0 0.18345715790010181 -0.056135992415964377 0 0.165016394264413 -0.053661354003145263 0 0.18345715790010181 -0.056135992415964377 0 0.16860054123454279 -0.042565986883847551 0 0.17187576892014289 -0.062138750134232333 0 0.18345715790010181 -0.056135992415964377 0 0.19180584502786041 -0.068172372335855602 0 0.18345715790010181 -0.056135992415964377 0 0.17385144243116649 -0.043269821226828903 0 0.18595588634396351 -0.043176695624854357 0 0.18345715790010181 -0.056135992415964377 0 0.17385144243116649 -0.043269821226828903 0 0.16860054123454279 -0.042565986883847551 0 0.18345715790010181 -0.056135992415964377 0 0.16860054123454279 -0.042565986883847551 0 0.18595588634396351 -0.043176695624854357 0 0.1782733089797521 -0.034702753096601993 0 0.1941468740000297 -0.021798736782002521 0 0.17385144243116649 -0.043269821226828903 0 0.18595588634396351 -0.043176695624854357 0 0.1782733089797521 -0.034702753096601993 0 0.17385144243116649 -0.043269821226828903 0 0.1782733089797521 -0.034702753096601993 0 0.16860054123454279 -0.042565986883847551 0 0.1782733089797521 -0.034702753096601993 0 0.16860054123454279 -0.042565986883847551 0 0.17385144243116649 -0.043269821226828903 0 0.1782733089797521 -0.034702753096601993 0 0.1782733089797521 -0.034702753096601993 0 0.16860054123454279 -0.042565986883847551 0 0.1670526359884773 -0.02836254214418232 0 0.15334623785075199 -0.02863273505629621 0 0.16860054123454279 -0.042565986883847551 0 0.1670526359884773 -0.02836254214418232 0 0.15334623785075199 -0.02863273505629621 0 0.15437572795414581 -0.042117567211766717 0 0.16860054123454279 -0.042565986883847551 0 0.15334623785075199 -0.02863273505629621 0 0.16860054123454279 -0.042565986883847551 0 0.15334623785075199 -0.02863273505629621 0 0.1606476670511833 -0.017066892083396779 0 0.1670526359884773 -0.02836254214418232 0 0.1606476670511833 -0.017066892083396779 0 0.1670526359884773 -0.02836254214418232 0 0.1743954248261565 -0.018844343600769399 0 0.1782733089797521 -0.034702753096601993 0 0.1743954248261565 -0.018844343600769399 0 0.1918659379284415 -0.0083679514935210662 0 0.1782733089797521 -0.034702753096601993 0 0.1670526359884773 -0.02836254214418232 0 0.1743954248261565 -0.018844343600769399 0 0.1782733089797521 -0.034702753096601993 0 0.1918659379284415 -0.0083679514935210662 0 0.1782733089797521 -0.034702753096601993 0 0.1941468740000297 -0.021798736782002521 0 0.1743954248261565 -0.018844343600769399 0 0.17983697574181159 -0.0080573062328258595 0 0.1918659379284415 -0.0083679514935210662 0 0.1743954248261565 -0.018844343600769399 0 0.17983697574181159 -0.0080573062328258595 0 0.17056947168728639 -0.0076341498549102596 0 0.17983697574181159 -0.0080573062328258595 0 0.18580903226614379 -0.0011502469314075439 0 0.17786282304025339 -0.001583287003114023 0 0.17983697574181159 -0.0080573062328258595 0 0.18580903226614379 -0.0011502469314075439 0 0.1918659379284415 -0.0083679514935210662 0 0.17983697574181159 -0.0080573062328258595 0 0.17786282304025339 -0.001583287003114023 0 0.17056947168728639 -0.0076341498549102596 0 0.17227434920368959 0.00081991249798677823 0 0.17786282304025339 -0.001583287003114023 0 0.17056947168728639 -0.0076341498549102596 0 0.17227434920368959 0.00081991249798677823 0 0.16550177429739321 0.001625335581948511 0 0.17056947168728639 -0.0076341498549102596 0 0.1606476670511833 -0.017066892083396779 0 0.1743954248261565 -0.018844343600769399 0 0.17056947168728639 -0.0076341498549102596 0 0.1552076984021574 -0.0047487866015848753 0 0.1606476670511833 -0.017066892083396779 0 0.17056947168728639 -0.0076341498549102596 0 0.15830422717032419 0.0026668804518291322 0 0.16550177429739321 0.001625335581948511 0 0.1552076984021574 -0.0047487866015848753 0 0.16550177429739321 0.001625335581948511 0 0.1552076984021574 -0.0047487866015848753 0 0.17056947168728639 -0.0076341498549102596 0 0.21653748859829491 -0.0035968485671754561 0 0.20239897911060981 -0.0049616950454924097 0 0.1941468740000297 -0.021798736782002521 0 0.21653748859829491 -0.0035968485671754561 0 0.1941468740000297 -0.021798736782002521 0 0.20955206102217341 -0.019021580532265901 0 0.21653748859829491 -0.0035968485671754561 0 0.20955206102217341 -0.019021580532265901 0 0.22864161374710179 -0.024239001361894639 0 0.21653748859829491 -0.0035968485671754561 0 0.1941468740000297 -0.021798736782002521 0 0.20938161325362409 0.0025060029461209908 0 0.21653748859829491 -0.0035968485671754561 0 0.20239897911060981 -0.0049616950454924097 0 0.19981118715584381 0.0070254328827108366 0 0.20239897911060981 -0.0049616950454924097 0 0.1918659379284415 -0.0083679514935210662 0 0.19981118715584381 0.0070254328827108366 0 0.1918659379284415 -0.0083679514935210662 0 0.20239897911060981 -0.0049616950454924097 0 0.1918659379284415 -0.0083679514935210662 0 0.1941468740000297 -0.021798736782002521 0 0.1894192936343001 0.0060385698470956234 0 0.18580903226614379 -0.0011502469314075439 0 0.1918659379284415 -0.0083679514935210662 0 0.1894192936343001 0.0060385698470956234 0 0.1918659379284415 -0.0083679514935210662 0 0.1918659379284415 -0.0083679514935210662 0 0.1941468740000297 -0.021798736782002521 0 0.1782733089797521 -0.034702753096601993 0 0.1918659379284415 -0.0083679514935210662 0 0.1941468740000297 -0.021798736782002521 0 0.1941468740000297 -0.021798736782002521 0 0.2031559883210855 -0.029985938475911671 0 0.20955206102217341 -0.019021580532265901 0 0.20955206102217341 -0.019021580532265901 0 0.21066165658577479 -0.033085676709690801 0 0.22864161374710179 -0.024239001361894639 0 0.2031559883210855 -0.029985938475911671 0 0.20955206102217341 -0.019021580532265901 0 0.21066165658577479 -0.033085676709690801 0 0.21864271396698939 -0.038649087319523719 0 0.21066165658577479 -0.033085676709690801 0 0.21034122995680221 -0.050048420551560682 0 0.21066165658577479 -0.033085676709690801 0 0.1982633616763636 -0.046037759879686967 0 0.21034122995680221 -0.050048420551560682 0 0.2031559883210855 -0.029985938475911671 0 0.21066165658577479 -0.033085676709690801 0 0.1982633616763636 -0.046037759879686967 0 0.21864271396698939 -0.038649087319523719 0 0.21034122995680221 -0.050048420551560682 0 0.21819242210762169 -0.050823402618315167 0 0.1941468740000297 -0.021798736782002521 0 0.2031559883210855 -0.029985938475911671 0 0.1982633616763636 -0.046037759879686967 0 0.18595588634396351 -0.043176695624854357 0 0.1941468740000297 -0.021798736782002521 0 0.1982633616763636 -0.046037759879686967 0 0.1941468740000297 -0.021798736782002521 0 0.1982633616763636 -0.046037759879686967 0 0.1982633616763636 -0.046037759879686967 0 0.19180584502786041 -0.068172372335855602 0 0.20237984935269879 -0.070276782977371152 0 0.1982633616763636 -0.046037759879686967 0 0.20237984935269879 -0.070276782977371152 0 0.18345715790010181 -0.056135992415964377 0 0.1982633616763636 -0.046037759879686967 0 0.19180584502786041 -0.068172372335855602 0 0.18345715790010181 -0.056135992415964377 0 0.18595588634396351 -0.043176695624854357 0 0.1982633616763636 -0.046037759879686967 0 0.21034122995680221 -0.050048420551560682 0 0.21390737605136481 -0.061417813804776289 0 0.20237984935269879 -0.070276782977371152 0 0.1982633616763636 -0.046037759879686967 0 0.21034122995680221 -0.050048420551560682 0 0.20237984935269879 -0.070276782977371152 0 0.21034122995680221 -0.050048420551560682 0 0.21819242210762169 -0.050823402618315167 0 0.21390737605136481 -0.061417813804776289 0 0.2255736282180465 -0.056882305063223393 0 0.23627526009844421 -0.049694667024589079 0 0.23165324526163639 -0.065502610206523884 0 0.21390737605136481 -0.061417813804776289 0 0.2255736282180465 -0.056882305063223393 0 0.2221192681341374 -0.068345353637844553 0 0.21819242210762169 -0.050823402618315167 0 0.21390737605136481 -0.061417813804776289 0 0.2255736282180465 -0.056882305063223393 0 0.21819242210762169 -0.050823402618315167 0 0.2255736282180465 -0.056882305063223393 0 0.22546512762764079 -0.044057692677509197 0 0.2255736282180465 -0.056882305063223393 0 0.23627526009844421 -0.049694667024589079 0 0.22546512762764079 -0.044057692677509197 0 0.24617004458672351 -0.058202332164817121 0 0.23627526009844421 -0.049694667024589079 0 0.24390890644978661 -0.075150332687283522 0 0.23627526009844421 -0.049694667024589079 0 0.24390890644978661 -0.075150332687283522 0 0.25164978009717781 -0.053061021673298493 0 0.24617004458672351 -0.058202332164817121 0 0.24422464309495209 -0.046986837608536558 0 0.24617004458672351 -0.058202332164817121 0 0.24422464309495209 -0.046986837608536558 0 0.23627526009844421 -0.049694667024589079 0 0.25164978009717781 -0.053061021673298493 0 0.2539732262079259 -0.044675773385505282 0 0.24422464309495209 -0.046986837608536558 0 0.24422464309495209 -0.046986837608536558 0 0.23627526009844421 -0.049694667024589079 0 0.24524507923365879 -0.0330622213940093 0 0.25845033672230949 -0.02738613623275089 0 0.24422464309495209 -0.046986837608536558 0 0.24524507923365879 -0.0330622213940093 0 0.23627526009844421 -0.049694667024589079 0 0.24524507923365879 -0.0330622213940093 0 0.22864161374710179 -0.024239001361894639 0 0.21864271396698939 -0.038649087319523719 0 0.21066165658577479 -0.033085676709690801 0 0.22864161374710179 -0.024239001361894639 0 0.23627526009844421 -0.049694667024589079 0 0.22864161374710179 -0.024239001361894639 0 0.21864271396698939 -0.038649087319523719 0 0.22546512762764079 -0.044057692677509197 0 0.22864161374710179 -0.024239001361894639 0 0.23627526009844421 -0.049694667024589079 0 0.22546512762764079 -0.044057692677509197 0 0.22864161374710179 -0.024239001361894639 0 0.21864271396698939 -0.038649087319523719 0 0.21819242210762169 -0.050823402618315167 0 0.22546512762764079 -0.044057692677509197 0 0.22864161374710179 -0.024239001361894639 0 0.24437070500465241 -0.019757014484825589 0 0.23246643938152739 -0.0092251246746631842 0 0.24524507923365879 -0.0330622213940093 0 0.22864161374710179 -0.024239001361894639 0 0.24437070500465241 -0.019757014484825589 0 0.25013504981522988 -0.025019616072594848 0 0.24524507923365879 -0.0330622213940093 0 0.24437070500465241 -0.019757014484825589 0 0.25247407830029878 -0.019873092178793648 0 0.25006914023697918 -0.01208141302270524 0 0.24437070500465241 -0.019757014484825589 0 0.25013504981522988 -0.025019616072594848 0 0.25247407830029878 -0.019873092178793648 0 0.24437070500465241 -0.019757014484825589 0 0.24437070500465241 -0.019757014484825589 0 0.242989310538931 -0.0092135161021761666 0 0.23246643938152739 -0.0092251246746631842 0 0.25006914023697918 -0.01208141302270524 0 0.242989310538931 -0.0092135161021761666 0 0.2479891295484222 -0.0022684572774312019 0 0.25006914023697918 -0.01208141302270524 0 0.24437070500465241 -0.019757014484825589 0 0.242989310538931 -0.0092135161021761666 0 0.2429424487767215 0.0026164120279975069 0 0.2479891295484222 -0.0022684572774312019 0 0.24005113852307369 -0.0027355710512556022 0 0.242989310538931 -0.0092135161021761666 0 0.2479891295484222 -0.0022684572774312019 0 0.24005113852307369 -0.0027355710512556022 0 0.23517440673197429 0.0051848507458196356 0 0.24005113852307369 -0.0027355710512556022 0 0.23246643938152739 -0.0092251246746631842 0 0.242989310538931 -0.0092135161021761666 0 0.24005113852307369 -0.0027355710512556022 0 0.23246643938152739 -0.0092251246746631842 0 0.22100796739575951 0.001216664300799794 0 0.22864161374710179 -0.024239001361894639 0 0.23246643938152739 -0.0092251246746631842 0 0.23517440673197429 0.0051848507458196356 0 0.22100796739575951 0.001216664300799794 0 0.23246643938152739 -0.0092251246746631842 0 0.22100796739575951 0.001216664300799794 0 0.21653748859829491 -0.0035968485671754561 0 0.22864161374710179 -0.024239001361894639 0 0.22100796739575951 0.001216664300799794 0 0.22864161374710179 -0.024239001361894639 0 0.206496337029034 -0.094515806075055359 0 0.21061282470536921 -0.1187548291727395 0 0.206496337029034 -0.094515806075055359 0 0.22623965631488491 -0.089683688039789988 0 0.22333782165884589 -0.10574313483481231 0 0.206496337029034 -0.094515806075055359 0 0.21061282470536921 -0.1187548291727395 0 0.22333782165884589 -0.10574313483481231 0 0.18737718651252391 -0.1018645954104864 0 0.18701697985041221 -0.11880972375357141 0 0.21061282470536921 -0.1187548291727395 0 0.18701697985041221 -0.11880972375357141 0 0.21061282470536921 -0.1187548291727395 0 0.19260125287660149 -0.13207131947283501 0 0.18748362772352481 -0.090285751384613616 0 0.18737718651252391 -0.1018645954104864 0 0.206496337029034 -0.094515806075055359 0 0.18737718651252391 -0.1018645954104864 0 0.206496337029034 -0.094515806075055359 0 0.21061282470536921 -0.1187548291727395 0 0.18748362772352481 -0.090285751384613616 0 0.206496337029034 -0.094515806075055359 0 0.19448955746265811 -0.082220240722777116 0 0.206496337029034 -0.094515806075055359 0 0.19448955746265811 -0.082220240722777116 0 0.20237984935269879 -0.070276782977371152 0 0.18645595400882431 -0.078186102724248294 0 0.18748362772352481 -0.090285751384613616 0 0.19448955746265811 -0.082220240722777116 0 0.18645595400882431 -0.078186102724248294 0 0.19448955746265811 -0.082220240722777116 0 0.19180584502786041 -0.068172372335855602 0 0.19448955746265811 -0.082220240722777116 0 0.19180584502786041 -0.068172372335855602 0 0.20237984935269879 -0.070276782977371152 0 0.21390737605136481 -0.061417813804776289 0 0.20237984935269879 -0.070276782977371152 0 0.21248527081093549 -0.070330245212121473 0 0.20237984935269879 -0.070276782977371152 0 0.21248527081093549 -0.070330245212121473 0 0.2145783618208984 -0.079628257083024359 0 0.21248527081093549 -0.070330245212121473 0 0.2145783618208984 -0.079628257083024359 0 0.2221192681341374 -0.068345353637844553 0 0.21390737605136481 -0.061417813804776289 0 0.21248527081093549 -0.070330245212121473 0 0.2221192681341374 -0.068345353637844553 0 0.206496337029034 -0.094515806075055359 0 0.20237984935269879 -0.070276782977371152 0 0.2145783618208984 -0.079628257083024359 0 0.206496337029034 -0.094515806075055359 0 0.2145783618208984 -0.079628257083024359 0 0.22623965631488491 -0.089683688039789988 0 0.206496337029034 -0.094515806075055359 0 0.20237984935269879 -0.070276782977371152 0 0.2145783618208984 -0.079628257083024359 0 0.22623965631488491 -0.089683688039789988 0 0.23038916340776741 -0.077440392619678861 0 0.22623965631488491 -0.089683688039789988 0 0.23038916340776741 -0.077440392619678861 0 0.23781669784438761 -0.088769324738514177 0 0.22623965631488491 -0.089683688039789988 0 0.23781669784438761 -0.088769324738514177 0 0.23714180950183539 -0.10160942858925499 0 0.2145783618208984 -0.079628257083024359 0 0.2221192681341374 -0.068345353637844553 0 0.23038916340776741 -0.077440392619678861 0 0.2255736282180465 -0.056882305063223393 0 0.2221192681341374 -0.068345353637844553 0 0.23165324526163639 -0.065502610206523884 0 0.2221192681341374 -0.068345353637844553 0 0.23038916340776741 -0.077440392619678861 0 0.23165324526163639 -0.065502610206523884 0 0.25256726729664603 -0.064532785491330763 0 0.24617004458672351 -0.058202332164817121 0 0.24390890644978661 -0.075150332687283522 0 0.23627526009844421 -0.049694667024589079 0 0.23165324526163639 -0.065502610206523884 0 0.24390890644978661 -0.075150332687283522 0 0.23038916340776741 -0.077440392619678861 0 0.23165324526163639 -0.065502610206523884 0 0.24390890644978661 -0.075150332687283522 0 0.25154255280112903 -0.1006059983499779 0 0.24390890644978661 -0.075150332687283522 0 0.25154255280112903 -0.1006059983499779 0 0.24390890644978661 -0.075150332687283522 0 0.23781669784438761 -0.088769324738514177 0 0.23038916340776741 -0.077440392619678861 0 0.24390890644978661 -0.075150332687283522 0 0.23781669784438761 -0.088769324738514177 0 0.25154255280112903 -0.1006059983499779 0 0.23714180950183539 -0.10160942858925499 0 0.24954668948061209 -0.11284283178631641 0 0.25154255280112903 -0.1006059983499779 0 0.23781669784438761 -0.088769324738514177 0 0.23714180950183539 -0.10160942858925499 0 0.23714180950183539 -0.10160942858925499 0 0.22333782165884589 -0.10574313483481231 0 0.23542538064511609 -0.1194854446592761 0 0.22623965631488491 -0.089683688039789988 0 0.23714180950183539 -0.10160942858925499 0 0.22333782165884589 -0.10574313483481231 0 0.21061282470536921 -0.1187548291727395 0 0.22333782165884589 -0.10574313483481231 0 0.23542538064511609 -0.1194854446592761 0 0.25741251913389712 -0.1305951081492244 0 0.23542538064511609 -0.1194854446592761 0 0.24954668948061209 -0.11284283178631641 0 0.23714180950183539 -0.10160942858925499 0 0.23542538064511609 -0.1194854446592761 0 0.24954668948061209 -0.11284283178631641 0 0.25741251913389712 -0.1305951081492244 0 0.25452239946831973 -0.14829655140993131 0 0.23191914561449989 -0.13726295483178369 0 0.25741251913389712 -0.1305951081492244 0 0.23542538064511609 -0.1194854446592761 0 0.23191914561449989 -0.13726295483178369 0 0.25452239946831973 -0.14829655140993131 0 0.23782434991563151 -0.15439369078169049 0 0.23191914561449989 -0.13726295483178369 0 0.23782434991563151 -0.15439369078169049 0 0.2147293123817042 -0.1429938522704238 0 0.23782434991563151 -0.15439369078169049 0 0.2147293123817042 -0.1429938522704238 0 0.21952864142792899 -0.1712536350637954 0 0.23782434991563151 -0.15439369078169049 0 0.23191914561449989 -0.13726295483178369 0 0.2147293123817042 -0.1429938522704238 0 0.21061282470536921 -0.1187548291727395 0 0.23542538064511609 -0.1194854446592761 0 0.23191914561449989 -0.13726295483178369 0 0.21061282470536921 -0.1187548291727395 0 0.23191914561449989 -0.13726295483178369 0 0.2147293123817042 -0.1429938522704238 0 0.2147293123817042 -0.1429938522704238 0 0.19260125287660149 -0.13207131947283501 0 0.21061282470536921 -0.1187548291727395 0 0.2147293123817042 -0.1429938522704238 0 0.19260125287660149 -0.13207131947283501 0 0.21061282470536921 -0.1187548291727395 0 0.2147293123817042 -0.1429938522704238 0 0.2147293123817042 -0.1429938522704238 0 0.20548350855114439 -0.15623176612928341 0 0.19677556980284089 -0.14597147697610061 0 0.20548350855114439 -0.15623176612928341 0 0.19677556980284089 -0.14597147697610061 0 0.19325106823209409 -0.153061144976989 0 0.19677556980284089 -0.14597147697610061 0 0.19325106823209409 -0.153061144976989 0 0.18786488322971459 -0.15098965934649999 0 0.19325106823209409 -0.153061144976989 0 0.18786488322971459 -0.15098965934649999 0 0.1842505296355367 -0.15589311325690541 0 0.19677556980284089 -0.14597147697610061 0 0.18786488322971459 -0.15098965934649999 0 0.188659048266132 -0.1418371739210742 0 0.2147293123817042 -0.1429938522704238 0 0.19677556980284089 -0.14597147697610061 0 0.19260125287660149 -0.13207131947283501 0 0.19677556980284089 -0.14597147697610061 0 0.188659048266132 -0.1418371739210742 0 0.19260125287660149 -0.13207131947283501 0 0.18830323417204939 -0.1765657128700695 0 0.20313295091115369 -0.1678787213591082 0 0.20600005448239761 -0.18645800734220749 0 0.18830323417204939 -0.1765657128700695 0 0.20600005448239761 -0.18645800734220749 0 0.1956377870383576 -0.1970896374814364 0 0.19325106823209409 -0.153061144976989 0 0.18830323417204939 -0.1765657128700695 0 0.19325106823209409 -0.153061144976989 0 0.18830323417204939 -0.1765657128700695 0 0.20313295091115369 -0.1678787213591082 0 0.19325106823209409 -0.153061144976989 0 0.18830323417204939 -0.1765657128700695 0 0.18144082188941271 -0.16389154531309821 0 0.20548350855114439 -0.15623176612928341 0 0.19325106823209409 -0.153061144976989 0 0.20313295091115369 -0.1678787213591082 0 0.20548350855114439 -0.15623176612928341 0 0.20313295091115369 -0.1678787213591082 0 0.21952864142792899 -0.1712536350637954 0 0.2147293123817042 -0.1429938522704238 0 0.21952864142792899 -0.1712536350637954 0 0.2147293123817042 -0.1429938522704238 0 0.20548350855114439 -0.15623176612928341 0 0.21952864142792899 -0.1712536350637954 0 0.20600005448239761 -0.18645800734220749 0 0.21952864142792899 -0.1712536350637954 0 0.22432797047415351 -0.19951341785716731 0 0.20313295091115369 -0.1678787213591082 0 0.20600005448239761 -0.18645800734220749 0 0.21952864142792899 -0.1712536350637954 0 0.21952864142792899 -0.1712536350637954 0 0.2437278363918948 -0.18195096812212239 0 0.22432797047415351 -0.19951341785716731 0 0.21952864142792899 -0.1712536350637954 0 0.22432797047415351 -0.19951341785716731 0 0.23782434991563151 -0.15439369078169049 0 0.21952864142792899 -0.1712536350637954 0 0.2437278363918948 -0.18195096812212239 0 0.260919387449559 -0.16579352929295721 0 0.23782434991563151 -0.15439369078169049 0 0.260919387449559 -0.16579352929295721 0 0.23782434991563151 -0.15439369078169049 0 0.2437278363918948 -0.18195096812212239 0 0.2437278363918948 -0.18195096812212239 0 0.24314545538918961 -0.20571013864437751 0 0.22432797047415351 -0.19951341785716731 0 0.2593871514889205 -0.19799184377322379 0 0.2437278363918948 -0.18195096812212239 0 0.24314545538918961 -0.20571013864437751 0 0.22432797047415351 -0.19951341785716731 0 0.2342802842193491 -0.2219117808856606 0 0.21564630723174069 -0.21833189921059021 0 0.24314545538918961 -0.20571013864437751 0 0.22432797047415351 -0.19951341785716731 0 0.2342802842193491 -0.2219117808856606 0 0.2462907050713771 -0.25204034373521428 0 0.2499607574480687 -0.24385609709525671 0 0.2374752251495614 -0.24157268794541539 0 0.25134951441318748 -0.22920843539767929 0 0.2499607574480687 -0.24385609709525671 0 0.2374752251495614 -0.24157268794541539 0 0.25134951441318748 -0.22920843539767929 0 0.24314545538918961 -0.20571013864437751 0 0.2342802842193491 -0.2219117808856606 0 0.25134951441318748 -0.22920843539767929 0 0.2374752251495614 -0.24157268794541539 0 0.2342802842193491 -0.2219117808856606 0 0.2374752251495614 -0.24157268794541539 0 0.22060620183210919 -0.232775489656291 0 0.2342802842193491 -0.2219117808856606 0 0.22060620183210919 -0.232775489656291 0 0.2342802842193491 -0.2219117808856606 0 0.21564630723174069 -0.21833189921059021 0 0.22198339683909701 -0.25340717595137879 0 0.2374752251495614 -0.24157268794541539 0 0.22060620183210919 -0.232775489656291 0 0.22198339683909701 -0.25340717595137879 0 0.22060620183210919 -0.232775489656291 0 0.22198339683909701 -0.25340717595137879 0 0.22060620183210919 -0.232775489656291 0 0.20573671357227499 -0.23448295905173899 0 0.22198339683909701 -0.25340717595137879 0 0.20573671357227499 -0.23448295905173899 0 0.19815896102696709 -0.24816545406213189 0 0.22060620183210919 -0.232775489656291 0 0.20573671357227499 -0.23448295905173899 0 0.21564630723174069 -0.21833189921059021 0 0.20573671357227499 -0.23448295905173899 0 0.19801089506944891 -0.22061097325298201 0 0.21564630723174069 -0.21833189921059021 0 0.20573671357227499 -0.23448295905173899 0 0.19801089506944891 -0.22061097325298201 0 0.18862314846194941 -0.23474346369713109 0 0.19801089506944891 -0.22061097325298201 0 0.18862314846194941 -0.23474346369713109 0 0.17884496266341901 -0.22149700646801701 0 0.20573671357227499 -0.23448295905173899 0 0.18862314846194941 -0.23474346369713109 0 0.19815896102696709 -0.24816545406213189 0 0.20600005448239761 -0.18645800734220749 0 0.22432797047415351 -0.19951341785716731 0 0.20571207111442141 -0.20503903284801611 0 0.22432797047415351 -0.19951341785716731 0 0.21564630723174069 -0.21833189921059021 0 0.20571207111442141 -0.20503903284801611 0 0.19801089506944891 -0.22061097325298201 0 0.21564630723174069 -0.21833189921059021 0 0.20571207111442141 -0.20503903284801611 0 0.19801089506944891 -0.22061097325298201 0 0.19227081910603411 -0.2100117569492751 0 0.17884496266341901 -0.22149700646801701 0 0.20571207111442141 -0.20503903284801611 0 0.19227081910603411 -0.2100117569492751 0 0.1956377870383576 -0.1970896374814364 0 0.19801089506944891 -0.22061097325298201 0 0.20571207111442141 -0.20503903284801611 0 0.19227081910603411 -0.2100117569492751 0 0.18830323417204939 -0.1765657128700695 0 0.1956377870383576 -0.1970896374814364 0 0.18335540011200491 -0.20007028076315 0 0.19227081910603411 -0.2100117569492751 0 0.1956377870383576 -0.1970896374814364 0 0.18335540011200491 -0.20007028076315 0 0.1956377870383576 -0.1970896374814364 0 0.18335540011200491 -0.20007028076315 0 0.20600005448239761 -0.18645800734220749 0 0.20571207111442141 -0.20503903284801611 0 0.1956377870383576 -0.1970896374814364 0 0.18830323417204939 -0.1765657128700695 0 0.18335540011200491 -0.20007028076315 0 0.18335540011200491 -0.20007028076315 0 0.16873688803845349 -0.19227854821165941 0 0.17543185729929969 -0.18273889272689711 0 0.19227081910603411 -0.2100117569492751 0 0.18335540011200491 -0.20007028076315 0 0.17884496266341901 -0.22149700646801701 0 0.18335540011200491 -0.20007028076315 0 0.17884496266341901 -0.22149700646801701 0 0.18335540011200491 -0.20007028076315 0 0.16621660047528611 -0.21253283526692829 0 0.17884496266341901 -0.22149700646801701 0 0.16621660047528611 -0.21253283526692829 0 0.1593158439583067 -0.2059041094785751 0 0.15302060169630469 -0.2217977003443504 0 0.18335540011200491 -0.20007028076315 0 0.16621660047528611 -0.21253283526692829 0 0.1593158439583067 -0.2059041094785751 0 0.16621660047528611 -0.21253283526692829 0 0.1593158439583067 -0.2059041094785751 0 0.1593158439583067 -0.2059041094785751 0 0.15759932706250929 -0.18907488386135229 0 0.16873688803845349 -0.19227854821165941 0 0.18335540011200491 -0.20007028076315 0 0.1593158439583067 -0.2059041094785751 0 0.18335540011200491 -0.20007028076315 0 0.1593158439583067 -0.2059041094785751 0 0.16873688803845349 -0.19227854821165941 0 0.18066177981631051 -0.25348299893649828 0 0.19815896102696709 -0.24816545406213189 0 0.17433452521483719 -0.24292373217288479 0 0.19815896102696709 -0.24816545406213189 0 0.17433452521483719 -0.24292373217288479 0 0.18862314846194941 -0.23474346369713109 0 0.19815896102696709 -0.24816545406213189 0 0.17433452521483719 -0.24292373217288479 0 0.18066177981631051 -0.25348299893649828 0 0.17304535898525439 -0.24904788565112909 0 0.17433452521483719 -0.24292373217288479 0 0.17304535898525439 -0.24904788565112909 0 0.17433452521483719 -0.24292373217288479 0 0.18862314846194941 -0.23474346369713109 0 0.17433452521483719 -0.24292373217288479 0 0.17884496266341901 -0.22149700646801701 0 0.17433452521483719 -0.24292373217288479 0 0.17884496266341901 -0.22149700646801701 0 0.17433452521483719 -0.24292373217288479 0 0.17884496266341901 -0.22149700646801701 0 0.16512535944417561 -0.22744738033917331 0 0.16512535944417561 -0.22744738033917331 0 0.15532271566916761 -0.23874085795770611 0 0.15302060169630469 -0.2217977003443504 0 0.16621660047528611 -0.21253283526692829 0 0.17884496266341901 -0.22149700646801701 0 0.16512535944417561 -0.22744738033917331 0 0.16621660047528611 -0.21253283526692829 0 0.16512535944417561 -0.22744738033917331 0 0.15302060169630469 -0.2217977003443504 0 0.17304535898525439 -0.24904788565112909 0 0.17433452521483719 -0.24292373217288479 0 0.15532271566916761 -0.23874085795770611 0 0.15867772839633809 -0.25707915377424612 0 0.17304535898525439 -0.24904788565112909 0 0.15532271566916761 -0.23874085795770611 0 0.17433452521483719 -0.24292373217288479 0 0.16512535944417561 -0.22744738033917331 0 0.15532271566916761 -0.23874085795770611 0 0.17433452521483719 -0.24292373217288479 0 0.15532271566916761 -0.23874085795770611 0 0.15532271566916761 -0.23874085795770611 0 0.1363109061234978 -0.23455798374252809 0 0.13687529418603939 -0.26162068250561471 0 0.15532271566916761 -0.23874085795770611 0 0.1363109061234978 -0.23455798374252809 0 0.15532271566916761 -0.23874085795770611 0 0.15302060169630469 -0.2217977003443504 0 0.1363109061234978 -0.23455798374252809 0 0.15302060169630469 -0.2217977003443504 0 0.1363109061234978 -0.23455798374252809 0 0.13583218450739579 -0.2116030352811932 0 0.12594488917549271 -0.2231145762792166 0 0.1363109061234978 -0.23455798374252809 0 0.13583218450739579 -0.2116030352811932 0 0.1363109061234978 -0.23455798374252809 0 0.13583218450739579 -0.2116030352811932 0 0.13687529418603939 -0.26162068250561471 0 0.1363109061234978 -0.23455798374252809 0 0.13687529418603939 -0.26162068250561471 0 0.1223190960555403 -0.2394332616338683 0 0.1363109061234978 -0.23455798374252809 0 0.1593158439583067 -0.2059041094785751 0 0.15759932706250929 -0.18907488386135229 0 0.14727334507129489 -0.19433633097022029 0 0.14727334507129489 -0.19433633097022029 0 0.13523084618428721 -0.18276855246186111 0 0.1593158439583067 -0.2059041094785751 0 0.14727334507129489 -0.19433633097022029 0 0.1593158439583067 -0.2059041094785751 0 0.14727334507129489 -0.19433633097022029 0 0.13583218450739579 -0.2116030352811932 0 0.1593158439583067 -0.2059041094785751 0 0.13583218450739579 -0.2116030352811932 0 0.1593158439583067 -0.2059041094785751 0 0.15302060169630469 -0.2217977003443504 0 0.13583218450739579 -0.2116030352811932 0 0.1146962174531268 -0.21673223195775559 0 0.12594488917549271 -0.2231145762792166 0 0.13583218450739579 -0.2116030352811932 0 0.1146962174531268 -0.21673223195775559 0 0.13583218450739579 -0.2116030352811932 0 0.13583218450739579 -0.2116030352811932 0 0.13523084618428721 -0.18276855246186111 0 0.1210323504124224 -0.2015702574875764 0 0.13583218450739579 -0.2116030352811932 0 0.13523084618428721 -0.18276855246186111 0 0.14727334507129489 -0.19433633097022029 0 0.13583218450739579 -0.2116030352811932 0 0.13523084618428721 -0.18276855246186111 0 0.13523084618428721 -0.18276855246186111 0 0.13483495552902119 -0.16378539130439421 0 0.13523084618428721 -0.18276855246186111 0 0.14953284821028701 -0.17659781711855899 0 0.13483495552902119 -0.16378539130439421 0 0.12574768761326591 -0.17365922399620121 0 0.13523084618428721 -0.18276855246186111 0 0.13483495552902119 -0.16378539130439421 0 0.12574768761326591 -0.17365922399620121 0 0.13523084618428721 -0.18276855246186111 0 0.15759932706250929 -0.18907488386135229 0 0.14727334507129489 -0.19433633097022029 0 0.14953284821028701 -0.17659781711855899 0 0.14727334507129489 -0.19433633097022029 0 0.13523084618428721 -0.18276855246186111 0 0.14953284821028701 -0.17659781711855899 0 0.15759932706250929 -0.18907488386135229 0 0.14953284821028701 -0.17659781711855899 0 0.16056198994912749 -0.17787080610445691 0 0.14953284821028701 -0.17659781711855899 0 0.15118562361057611 -0.16212531631630639 0 0.13483495552902119 -0.16378539130439421 0 0.15118562361057611 -0.16212531631630639 0 0.13483495552902119 -0.16378539130439421 0 0.15272907190244081 -0.1550331303974728 0 0.15118562361057611 -0.16212531631630639 0 0.15272907190244081 -0.1550331303974728 0 0.15987479688754311 -0.1572750313981319 0 0.14953284821028701 -0.17659781711855899 0 0.15118562361057611 -0.16212531631630639 0 0.1601367247146048 -0.167216461388007 0 0.1232701832726428 -0.15427141090171109 0 0.12574768761326591 -0.17365922399620121 0 0.13483495552902119 -0.16378539130439421 0 0.12574768761326591 -0.17365922399620121 0 0.13483495552902119 -0.16378539130439421 0 0.13483495552902119 -0.16378539130439421 0 0.13444198148756639 -0.1449420832838656 0 0.14315652521050079 -0.14523933820255211 0 0.1232701832726428 -0.15427141090171109 0 0.13483495552902119 -0.16378539130439421 0 0.13444198148756639 -0.1449420832838656 0 0.13483495552902119 -0.16378539130439421 0 0.13444198148756639 -0.1449420832838656 0 0.13444198148756639 -0.1449420832838656 0 0.1434537453928684 -0.13532839273855221 0 0.14315652521050079 -0.14523933820255211 0 0.13444198148756639 -0.1449420832838656 0 0.13404900744611239 -0.12609877526333699 0 0.13444198148756639 -0.1449420832838656 0 0.13404900744611239 -0.12609877526333699 0 0.1434537453928684 -0.13532839273855221 0 0.11727103389215909 -0.1361484369810822 0 0.13444198148756639 -0.1449420832838656 0 0.13404900744611239 -0.12609877526333699 0 0.13404900744611239 -0.12609877526333699 0 0.1490682445489844 -0.1279194233146575 0 0.1609569453379138 -0.13854421730491809 0 0.13404900744611239 -0.12609877526333699 0 0.1609569453379138 -0.13854421730491809 0 0.13404900744611239 -0.12609877526333699 0 0.1434537453928684 -0.13532839273855221 0 0.1609569453379138 -0.13854421730491809 0 0.1434537453928684 -0.13532839273855221 0 0.14993504674019009 -0.14021612160814689 0 0.1609569453379138 -0.13854421730491809 0 0.1427320902892944 -0.12257921542734659 0 0.13404900744611239 -0.12609877526333699 0 0.1490682445489844 -0.1279194233146575 0 0.1434537453928684 -0.13532839273855221 0 0.14993504674019009 -0.14021612160814689 0 0.14315652521050079 -0.14523933820255211 0 0.14993504674019009 -0.14021612160814689 0 0.15469010670848909 -0.14221164189652771 0 0.1609569453379138 -0.13854421730491809 0 0.15568199284830581 -0.1296421963895899 0 0.1490682445489844 -0.1279194233146575 0 0.1609569453379138 -0.13854421730491809 0 0.15192118682329561 -0.12273271218809589 0 0.15568199284830581 -0.1296421963895899 0 0.1587247560068413 -0.12564209046719049 0 0.15192118682329561 -0.12273271218809589 0 0.15568199284830581 -0.1296421963895899 0 0.1490682445489844 -0.1279194233146575 0 0.13483495552902119 -0.16378539130439421 0 0.15469010670848909 -0.14221164189652771 0 0.13483495552902119 -0.16378539130439421 0 0.14315652521050079 -0.14523933820255211 0 0.15469010670848909 -0.14221164189652771 0 0.13483495552902119 -0.16378539130439421 0 0.15469010670848909 -0.14221164189652771 0 0.15272907190244081 -0.1550331303974728 0 0.14993504674019009 -0.14021612160814689 0 0.14315652521050079 -0.14523933820255211 0 0.15469010670848909 -0.14221164189652771 0 0.15272907190244081 -0.1550331303974728 0 0.16278769519534109 -0.1503194818261428 0 0.15987479688754311 -0.1572750313981319 0 0.16278769519534109 -0.1503194818261428 0 0.15987479688754311 -0.1572750313981319 0 0.16866771310860729 -0.15951236945753941 0 0.15469010670848909 -0.14221164189652771 0 0.15272907190244081 -0.1550331303974728 0 0.16278769519534109 -0.1503194818261428 0 0.15469010670848909 -0.14221164189652771 0 0.16278769519534109 -0.1503194818261428 0 0.1609569453379138 -0.13854421730491809 0 0.16278769519534109 -0.1503194818261428 0 0.1609569453379138 -0.13854421730491809 0 0.17433915911560069 -0.15342176620747169 0 0.16278769519534109 -0.1503194818261428 0 0.17433915911560069 -0.15342176620747169 0 0.16866771310860729 -0.15951236945753941 0 0.1609569453379138 -0.13854421730491809 0 0.16898528270356589 -0.1319020538664718 0 0.17739448715537109 -0.13831623988886119 0 0.1587247560068413 -0.12564209046719049 0 0.1613780220681113 -0.13045743568360191 0 0.1641162962428066 -0.126449221113482 0 0.15568199284830581 -0.1296421963895899 0 0.1587247560068413 -0.12564209046719049 0 0.1613780220681113 -0.13045743568360191 0 0.15568199284830581 -0.1296421963895899 0 0.1613780220681113 -0.13045743568360191 0 0.1609569453379138 -0.13854421730491809 0 0.1613780220681113 -0.13045743568360191 0 0.1609569453379138 -0.13854421730491809 0 0.16898528270356589 -0.1319020538664718 0 0.173543926957343 -0.1211375462363173 0 0.16898528270356589 -0.1319020538664718 0 0.1641162962428066 -0.126449221113482 0 0.1613780220681113 -0.13045743568360191 0 0.16898528270356589 -0.1319020538664718 0 0.1641162962428066 -0.126449221113482 0 0.173543926957343 -0.1211375462363173 0 0.16898528270356589 -0.1319020538664718 0 0.17990838590865871 -0.12844737664361131 0 0.16898528270356589 -0.1319020538664718 0 0.17739448715537109 -0.13831623988886119 0 0.17990838590865871 -0.12844737664361131 0 0.188659048266132 -0.1418371739210742 0 0.19260125287660149 -0.13207131947283501 0 0.17739448715537109 -0.13831623988886119 0 0.19260125287660149 -0.13207131947283501 0 0.17739448715537109 -0.13831623988886119 0 0.17990838590865871 -0.12844737664361131 0 0.18701697985041221 -0.11880972375357141 0 0.19260125287660149 -0.13207131947283501 0 0.17990838590865871 -0.12844737664361131 0 0.18786488322971459 -0.15098965934649999 0 0.1609569453379138 -0.13854421730491809 0 0.17433915911560069 -0.15342176620747169 0 0.18786488322971459 -0.15098965934649999 0 0.1609569453379138 -0.13854421730491809 0 0.18786488322971459 -0.15098965934649999 0 0.1609569453379138 -0.13854421730491809 0 0.17739448715537109 -0.13831623988886119 0 0.18786488322971459 -0.15098965934649999 0 0.188659048266132 -0.1418371739210742 0 0.17739448715537109 -0.13831623988886119 0 0.18786488322971459 -0.15098965934649999 0 0.17433915911560069 -0.15342176620747169 0 0.1842505296355367 -0.15589311325690541 0 0.17433915911560069 -0.15342176620747169 0 0.1842505296355367 -0.15589311325690541 0 0.18144082188941271 -0.16389154531309821 0 0.19325106823209409 -0.153061144976989 0 0.1842505296355367 -0.15589311325690541 0 0.18144082188941271 -0.16389154531309821 0 0.18830323417204939 -0.1765657128700695 0 0.18144082188941271 -0.16389154531309821 0 0.17072519494025609 -0.1704686386871877 0 0.17433915911560069 -0.15342176620747169 0 0.18144082188941271 -0.16389154531309821 0 0.16866771310860729 -0.15951236945753941 0 0.18144082188941271 -0.16389154531309821 0 0.16866771310860729 -0.15951236945753941 0 0.17072519494025609 -0.1704686386871877 0 0.18830323417204939 -0.1765657128700695 0 0.18335540011200491 -0.20007028076315 0 0.17543185729929969 -0.18273889272689711 0 0.18830323417204939 -0.1765657128700695 0 0.17543185729929969 -0.18273889272689711 0 0.17072519494025609 -0.1704686386871877 0 0.17543185729929969 -0.18273889272689711 0 0.16056198994912749 -0.17787080610445691 0 0.17072519494025609 -0.1704686386871877 0 0.16873688803845349 -0.19227854821165941 0 0.17543185729929969 -0.18273889272689711 0 0.16056198994912749 -0.17787080610445691 0 0.15759932706250929 -0.18907488386135229 0 0.16873688803845349 -0.19227854821165941 0 0.16056198994912749 -0.17787080610445691 0 0.14953284821028701 -0.17659781711855899 0 0.16056198994912749 -0.17787080610445691 0 0.1601367247146048 -0.167216461388007 0 0.16056198994912749 -0.17787080610445691 0 0.1601367247146048 -0.167216461388007 0 0.17072519494025609 -0.1704686386871877 0 0.1601367247146048 -0.167216461388007 0 0.15987479688754311 -0.1572750313981319 0 0.16866771310860729 -0.15951236945753941 0 0.15118562361057611 -0.16212531631630639 0 0.1601367247146048 -0.167216461388007 0 0.15987479688754311 -0.1572750313981319 0 0.1601367247146048 -0.167216461388007 0 0.16866771310860729 -0.15951236945753941 0 0.17072519494025609 -0.1704686386871877 0 
</DataArray>
</Points>
<Cells>
<DataArray type="UInt32" Name="connectivity" format="ascii">
0 1 2 3 4 5 6 7 8 9 10 11 12 13 14 15 16 17 18 19 20 21 22 23 24 25 26 27 28 29 30 31 32 33 34 35 36 37 38 39 40 41 42 43 44 45 46 47 48 49 50 51 52 53 54 55 56 57 58 59 60 61 62 63 64 65 66 67 68 69 70 71 72 73 74 75 76 77 78 79 80 81 82 83 84 85 86 87 88 89 90 91 92 93 94 95 96 97 98 99 100 101 102 103 104 105 106 107 108 109 110 111 112 113 114 115 116 117 118 119 120 121 122 123 124 125 126 127 128 129 130 131 132 133 134 135 136 137 138 139 140 141 142 143 144 145 146 147 148 149 150 151 152 153 154 155 156 157 158 159 160 161 162 163 164 165 166 167 168 169 170 171 172 173 174 175 176 177 178 179 180 181 182 183 184 185 186 187 188 189 190 191 192 193 194 195 196 197 198 199 200 201 202 203 204 205 206 207 208 209 210 211 212 213 214 215 216 217 218 219 220 221 222 223 224 225 226 227 228 229 230 231 232 233 234 235 236 237 238 239 240 241 242 243 244 245 246 247 248 249 250 251 252 253 254 255 256 257 258 259 260 261 262 263 264 265 266 267 268 269 270 271 272 273 274 275 276 277 278 279 280 281 282 283 284 285 286 287 288 289 290 291 292 293 294 295 296 297 298 299 300 301 302 303 304 305 306 307 308 309 310 311 312 313 314 315 316 317 318 319 320 321 322 323 324 325 326 327 328 329 330 331 332 333 334 335 336 337 338 339 340 341 342 343 344 345 346 347 348 349 350 351 352 353 354 355 356 357 358 359 360 361 362 363 364 365 366 367 368 369 370 371 372 373 374 375 376 377 378 379 380 381 382 383 384 385 386 387 388 389 390 391 392 393 394 395 396 397 398 399 400 401 402 403 404 405 406 407 408 409 410 411 412 413 414 415 416 417 418 419 420 421 422 423 424 425 426 427 428 429 430 431 432 433 434 435 436 437 438 439 440 441 442 443 444 445 446 447 448 449 450 451 452 453 454 455 456 457 458 459 460 461 462 463 464 465 466 467 468 469 470 471 472 473 474 475 476 477 478 479 480 481 482 483 484 485 486 487 488 489 490 491 492 493 494 495 496 497 498 499 500 501 502 503 504 505 506 507 508 509 510 511 512 513 514 515 516 517 518 519 520 521 522 523 524 525 526 527 528 529 530 531 532 533 534 535 536 537 538 539 540 541 542 543 544 545 546 547 548 549 550 551 552 553 554 555 556 557 558 559 560 561 562 563 564 565 566 567 568 569 570 571 572 573 574 575 576 577 578 579 580 581 582 583 584 585 586 587 588 589 590 591 592 593 594 595 596 597 598 599 600 601 602 603 604 605 606 607 608 609 610 611 612 613 614 615 616 617 618 619 620 621 622 623 624 625 626 627 628 629 630 631 632 633 634 635 636 637 638 639 640 641 642 643 644 645 646 647 648 649 650 651 652 653 654 655 656 657 658 659 660 661 662 663 664 665 666 667 668 669 670 671 672 673 674 675 676 677 678 679 680 681 682 683 684 685 686 687 688 689 690 691 692 693 694 695 696 697 698 699 700 701 702 703 704 705 706 707 708 709 710 711 712 713 714 715 716 717 718 719 720 721 722 723 724 725 726 727 728 729 730 731 732 733 734 735 736 737 738 739 740 741 742 743 744 745 746 747 748 749 750 751 752 753 754 755 756 757 758 759 760 761 762 763 764 765 766 767 768 769 770 771 772 773 774 775 776 777 778 779 780 781 782 783 784 785 786 787 788 789 790 791 792 793 794 795 796 797 798 799 800 801 802 803 804 805 806 807 808 809 810 811 812 813 814 815 816 817 818 819 820 821 822 823 824 825 826 827 828 829 830 831 832 833 834 835 836 837 838 839 840 841 842 843 844 845 846 847 848 849 850 851 852 853 854 855 856 857 858 859 860 861 862 863 864 865 866 867 868 869 870 871 872 873 874 875 876 877 878 879 880 881 882 883 884 885 886 887 888 889 890 891 892 893 894 895 896 897 898 899 900 901 902 903 904 905 906 907 908 909 910 911 912 913 914 915 916 917 918 919 920 921 922 923 924 925 926 927 928 929 930 931 932 933 934 935 936 937 938 939 940 941 942 943 944 945 946 947 948 949 950 951 952 953 954 955 956 957 958 959 960 961 962 963 964 965 966 967 968 969 970 971 972 973 974 975 976 977 978 979 980 981 982 983 984 985 986 987 988 989 990 991 992 993 994 995 996 997 998 999 1000 1001 1002 1003 1004 1005 1006 1007 1008 1009 1010 1011 1012 1013 1014 1015 1016 1017 1018 1019 1020 1021 1022 1023 1024 1025 1026 1027 1028 1029 1030 1031 1032 1033 1034 1035 1036 1037 1038 1039 1040 1041 1042 1043 1044 1045 1046 1047 1048 1049 1050 1051 1052 1053 1054 1055 1056 1057 1058 1059 1060 1061 1062 1063 1064 1065 1066 1067 1068 1069 1070 1071 1072 1073 1074 1075 1076 1077 1078 1079 1080 1081 1082 1083 1084 1085 1086 1087 1088 1089 1090 1091 1092 1093 1094 1095 1096 1097 1098 1099 1100 1101 1102 1103 1104 1105 1106 1107 1108 1109 1110 1111 1112 1113 1114 1115 1116 1117 1118 1119 1120 1121 1122 1123 1124 1125 1126 1127 1128 1129 1130 1131 1132 1133 1134 1135 1136 1137 1138 1139 1140 1141 1142 1143 1144 1145 1146 1147 1148 1149 1150 1151 1152 1153 1154 1155 1156 1157 1158 1159 1160 1161 1162 1163 1164 1165 1166 1167 1168 1169 1170 1171 1172 1173 1174 1175 1176 1177 1178 1179 1180 1181 1182 1183 1184 1185 1186 1187 1188 1189 1190 1191 1192 1193 1194 1195 1196 1197 1198 1199 1200 1201 1202 1203 1204 1205 1206 1207 1208 1209 1210 1211 1212 1213 1214 1215 1216 1217 1218 1219 1220 1221 1222 1223 1224 1225 1226 1227 1228 1229 1230 1231 1232 1233 1234 1235 1236 1237 1238 1239 1240 1241 1242 1243 1244 1245 1246 1247 1248 1249 1250 1251 1252 1253 1254 1255 1256 1257 1258 1259 1260 1261 1262 1263 1264 1265 1266 1267 1268 1269 1270 1271 1272 1273 1274 1275 1276 1277 1278 1279 1280 1281 1282 1283 1284 1285 1286 1287 1288 1289 1290 1291 1292 1293 1294 1295 1296 1297 1298 1299 1300 1301 1302 1303 1304 1305 1306 1307 1308 1309 1310 1311 1312 1313 1314 1315 1316 1317 1318 1319 1320 1321 1322 1323 1324 1325 1326 1327 1328 1329 1330 1331 1332 1333 1334 1335 1336 1337 1338 1339 1340 1341 1342 1343 1344 1345 1346 1347 1348 1349 1350 1351 1352 1353 1354 1355 1356 1357 1358 1359 1360 1361 1362 1363 1364 1365 1366 1367 1368 1369 1370 1371 1372 1373 1374 1375 1376 1377 1378 1379 1380 1381 1382 1383 1384 1385 1386 1387 1388 1389 1390 1391 1392 1393 1394 1395 1396 1397 1398 1399 1400 1401 1402 1403 1404 1405 1406 1407 1408 1409 1410 1411 1412 1413 1414 1415 1416 1417 1418 1419 1420 1421 1422 1423 1424 1425 1426 1427 1428 1429 1430 1431 1432 1433 1434 1435 1436 1437 1438 1439 1440 1441 1442 1443 1444 1445 1446 1447 1448 1449 1450 1451 1452 1453 1454 1455 1456 1457 1458 1459 1460 1461 1462 1463 1464 1465 1466 1467 1468 1469 1470 1471 1472 1473 1474 1475 1476 1477 1478 1479 1480 1481 1482 1483 1484 1485 1486 1487 1488 1489 1490 1491 1492 1493 1494 1495 1496 1497 1498 1499 1500 1501 1502 1503 1504 1505 1506 1507 1508 1509 1510 1511 1512 1513 1514 1515 1516 1517 1518 1519 1520 1521 1522 1523 1524 1525 1526 1527 1528 1529 1530 1531 1532 1533 1534 1535 1536 1537 1538 1539 1540 1541 1542 1543 1544 1545 1546 1547 1548 1549 1550 1551 1552 1553 1554 1555 1556 1557 1558 1559 1560 1561 1562 1563 1564 1565 1566 1567 1568 1569 1570 1571 1572 1573 1574 1575 1576 1577 1578 1579 1580 1581 1582 1583 1584 1585 1586 1587 1588 1589 1590 1591 1592 1593 1594 1595 1596 1597 1598 1599 1600 1601 1602 1603 1604 1605 1606 1607 1608 1609 1610 1611 1612 1613 1614 1615 1616 1617 1618 1619 1620 1621 1622 1623 1624 1625 1626 1627 1628 1629 1630 1631 1632 1633 1634 1635 1636 1637 1638 1639 1640 1641 1642 1643 1644 1645 1646 1647 1648 1649 1650 1651 1652 1653 1654 1655 1656 1657 1658 1659 1660 1661 1662 1663 1664 1665 1666 1667 1668 1669 1670 1671 1672 1673 1674 1675 1676 1677 1678 1679 1680 1681 1682 1683 1684 1685 1686 1687 1688 1689 1690 1691 1692 1693 1694 1695 1696 1697 1698 1699 1700 1701 1702 1703 1704 1705 1706 1707 1708 1709 1710 1711 1712 1713 1714 1715 1716 1717 1718 1719 1720 1721 1722 1723 1724 1725 1726 1727 1728 1729 1730 1731 1732 1733 1734 1735 1736 1737 1738 1739 1740 1741 1742 1743 1744 1745 1746 1747 1748 1749 1750 1751 1752 1753 1754 1755 1756 1757 1758 1759 1760 1761 1762 1763 1764 1765 1766 1767 1768 1769 1770 1771 1772 1773 1774 1775 1776 1777 1778 1779 1780 1781 1782 1783 1784 1785 1786 1787 1788 1789 1790 1791 1792 1793 1794 1795 1796 1797 1798 1799 1800 1801 1802 1803 1804 1805 1806 1807 1808 1809 1810 1811 1812 1813 1814 1815 1816 1817 1818 1819 1820 1821 1822 1823 1824 1825 1826 1827 1828 1829 1830 1831 1832 1833 1834 1835 1836 1837 1838 1839 1840 1841 1842 1843 1844 1845 1846 1847 1848 1849 1850 1851 1852 1853 1854 1855 1856 1857 1858 1859 1860 1861 1862 1863 1864 1865 1866 1867 1868 1869 1870 1871 1872 1873 1874 1875 1876 1877 1878 1879 1880 1881 1882 1883 1884 1885 1886 1887 1888 1889 1890 1891 1892 1893 1894 1895 1896 1897 1898 1899 1900 1901 1902 1903 1904 1905 1906 1907 1908 1909 1910 1911 1912 1913 1914 1915 1916 1917 1918 1919 1920 1921 1922 1923 1924 1925 1926 1927 1928 1929 1930 1931 1932 1933 1934 1935 1936 1937 1938 1939 1940 1941 1942 1943 1944 1945 1946 1947 1948 1949 1950 1951 1952 1953 1954 1955 1956 1957 1958 1959 1960 1961 1962 1963 1964 1965 1966 1967 1968 1969 1970 1971 1972 1973 1974 1975 1976 1977 1978 1979 1980 1981 1982 1983 1984 1985 1986 1987 1988 1989 1990 1991 1992 1993 1994 1995 1996 1997 1998 1999 2000 2001 2002 2003 2004 2005 2006 2007 2008 2009 2010 2011 2012 2013 2014 2015 2016 2017 2018 2019 2020 2021 2022 2023 2024 2025 2026 2027 2028 2029 2030 2031 2032 2033 2034 2035 2036 2037 2038 2039 2040 2041 2042 2043 2044 2045 2046 2047 2048 2049 2050 2051 2052 2053 2054 2055 2056 2057 2058 2059 2060 2061 2062 2063 2064 2065 2066 2067 2068 2069 2070 2071 2072 2073 2074 2075 2076 2077 2078 2079 2080 2081 2082 2083 2084 2085 2086 2087 2088 2089 2090 2091 2092 2093 2094 2095 2096 2097 2098 2099 2100 2101 2102 2103 2104 2105 2106 2107 2108 2109 2110 2111 2112 2113 2114 2115 2116 2117 2118 2119 2120 2121 2122 2123 2124 2125 2126 2127 2128 2129 2130 2131 2132 2133 2134 2135 2136 2137 2138 2139 2140 2141 2142 2143 2144 2145 2146 2147 2148 2149 2150 2151 2152 2153 2154 2155 2156 2157 2158 2159 2160 2161 2162 2163 2164 2165 2166 2167 2168 2169 2170 2171 2172 2173 2174 2175 2176 2177 2178 2179 2180 2181 2182 2183 2184 2185 2186 2187 2188 2189 2190 2191 2192 2193 2194 2195 2196 2197 2198 2199 2200 2201 2202 2203 2204 2205 2206 2207 2208 2209 2210 2211 2212 2213 2214 2215 2216 2217 2218 2219 2220 2221 2222 2223 2224 2225 2226 2227 2228 2229 2230 2231 2232 2233 2234 2235 2236 2237 2238 2239 2240 2241 2242 2243 2244 2245 2246 2247 2248 2249 2250 2251 2252 2253 2254 2255 2256 2257 2258 2259 2260 2261 2262 2263 2264 2265 2266 2267 2268 2269 2270 2271 2272 2273 2274 2275 2276 2277 2278 2279 2280 2281 2282 2283 2284 2285 2286 2287 2288 2289 2290 2291 2292 2293 2294 2295 2296 2297 2298 2299 2300 2301 2302 2303 2304 2305 2306 2307 2308 2309 2310 2311 2312 2313 2314 2315 2316 2317 2318 2319 2320 2321 2322 2323 2324 2325 2326 2327 2328 2329 2330 2331 2332 2333 2334 2335 2336 2337 2338 2339 2340 2341 2342 2343 2344 2345 2346 2347 2348 2349 2350 2351 2352 2353 2354 2355 2356 2357 2358 2359 2360 2361 2362 2363 2364 2365 2366 2367 2368 2369 2370 2371 2372 2373 2374 2375 2376 2377 2378 2379 2380 2381 2382 2383 2384 2385 2386 2387 2388 2389 2390 2391 2392 2393 2394 2395 2396 2397 2398 2399 2400 2401 2402 2403 2404 2405 2406 2407 2408 2409 2410 2411 2412 2413 2414 2415 2416 2417 2418 2419 2420 2421 2422 2423 2424 2425 2426 2427 2428 2429 2430 2431 2432 2433 2434 2435 2436 2437 2438 2439 2440 2441 2442 2443 2444 2445 2446 2447 2448 2449 2450 2451 2452 2453 2454 2455 2456 2457 2458 2459 2460 2461 2462 2463 2464 2465 2466 2467 2468 2469 2470 2471 2472 2473 2474 2475 2476 2477 2478 2479 2480 2481 2482 2483 2484 2485 2486 2487 2488 2489 2490 2491 2492 2493 2494 2495 2496 2497 2498 2499 2500 2501 2502 2503 2504 2505 2506 2507 2508 2509 2510 2511 2512 2513 2514 2515 2516 2517 2518 2519 2520 2521 2522 2523 2524 2525 2526 2527 2528 2529 2530 2531 2532 2533 2534 2535 2536 2537 2538 2539 2540 2541 2542 2543 2544 2545 2546 2547 2548 2549 2550 2551 2552 2553 2554 2555 2556 2557 2558 2559 2560 2561 2562 2563 2564 2565 2566 2567 2568 2569 2570 2571 2572 2573 2574 2575 2576 2577 2578 2579 2580 2581 2582 2583 2584 2585 2586 2587 2588 2589 2590 2591 2592 2593 2594 2595 2596 2597 2598 2599 2600 2601 2602 2603 2604 2605 2606 2607 2608 2609 2610 2611 2612 2613 2614 2615 2616 2617 2618 2619 2620 2621 2622 2623 2624 2625 2626 2627 2628 2629 2630 2631 2632 2633 2634 2635 2636 2637 2638 2639 2640 2641 2642 2643 2644 2645 2646 2647 2648 2649 2650 2651 2652 2653 2654 2655 2656 2657 2658 2659 2660 2661 2662 2663 2664 2665 2666 2667 2668 2669 2670 2671 2672 2673 2674 2675 2676 2677 2678 2679 2680 2681 2682 2683 2684 2685 2686 2687 2688 2689 2690 2691 2692 2693 2694 2695 2696 2697 2698 2699 2700 2701 2702 2703 2704 2705 2706 2707 2708 2709 2710 2711 2712 2713 2714 2715 2716 2717 2718 2719 2720 2721 2722 2723 2724 2725 2726 2727 2728 2729 2730 2731 2732 2733 2734 2735 2736 2737 2738 2739 2740 2741 2742 2743 2744 2745 2746 2747 2748 2749 2750 2751 2752 2753 2754 2755 2756 2757 2758 2759 2760 2761 2762 2763 2764 2765 2766 2767 2768 2769 2770 2771 2772 2773 2774 2775 2776 2777 2778 2779 2780 2781 2782 2783 2784 2785 2786 2787 2788 2789 2790 2791 2792 2793 2794 2795 2796 2797 2798 2799 2800 2801 2802 2803 2804 2805 2806 2807 2808 2809 2810 2811 2812 2813 2814 2815 2816 2817 2818 2819 2820 2821 2822 2823 2824 2825 2826 2827 2828 2829 2830 2831 2832 2833 2834 2835 2836 2837 2838 2839 2840 2841 2842 2843 2844 2845 2846 2847 2848 2849 2850 2851 2852 2853 2854 2855 2856 2857 2858 2859 2860 2861 2862 2863 2864 2865 2866 2867 2868 2869 2870 2871 2872 2873 2874 2875 2876 2877 2878 2879 2880 2881 2882 2883 2884 2885 2886 2887 2888 2889 2890 2891 2892 2893 2894 2895 2896 2897 2898 2899 2900 2901 2902 2903 2904 2905 2906 2907 2908 2909 2910 2911 2912 2913 2914 2915 2916 2917 2918 2919 2920 2921 2922 2923 2924 2925 2926 2927 2928 2929 2930 2931 2932 2933 2934 2935 2936 2937 2938 2939 2940 2941 2942 2943 2944 2945 2946 2947 2948 2949 2950 2951 2952 2953 2954 2955 2956 2957 2958 2959 2960 2961 2962 2963 2964 2965 2966 2967 2968 2969 2970 2971 2972 2973 2974 2975 2976 2977 2978 2979 2980 2981 2982 2983 2984 2985 2986 2987 2988 2989 2990 2991 2992 2993 2994 2995 2996 2997 2998 2999 3000 3001 3002 3003 3004 3005 3006 3007 3008 3009 3010 3011 3012 3013 3014 3015 3016 3017 3018 3019 3020 3021 3022 3023 3024 3025 3026 3027 3028 3029 3030 3031 3032 3033 3034 3035 3036 3037 3038 3039 3040 3041 3042 3043 3044 3045 3046 3047 3048 3049 3050 3051 3052 3053 3054 3055 3056 3057 3058 3059 3060 3061 3062 3063 3064 3065 3066 3067 3068 3069 3070 3071 3072 3073 3074 3075 3076 3077 3078 3079 3080 3081 3082 3083 3084 3085 3086 3087 3088 3089 3090 3091 3092 3093 3094 3095 3096 3097 3098 3099 3100 3101 3102 3103 3104 3105 3106 3107 3108 3109 3110 3111 3112 3113 3114 3115 3116 3117 3118 3119 3120 3121 3122 3123 3124 3125 3126 3127 3128 3129 3130 3131 3132 3133 3134 3135 3136 3137 3138 3139 3140 3141 3142 3143 3144 3145 3146 3147 3148 3149 3150 3151 3152 3153 3154 3155 3156 3157 3158 3159 3160 3161 3162 3163 3164 3165 3166 3167 3168 3169 3170 3171 3172 3173 3174 3175 3176 3177 3178 3179 3180 3181 3182 3183 3184 3185 3186 3187 3188 3189 3190 3191 3192 3193 3194 3195 3196 3197 3198 3199 3200 3201 3202 3203 3204 3205 3206 3207 3208 3209 3210 3211 3212 3213 3214 3215 3216 3217 3218 3219 3220 3221 3222 3223 3224 3225 3226 3227 3228 3229 3230 3231 3232 3233 3234 3235 3236 3237 3238 3239 3240 3241 3242 3243 3244 3245 3246 3247 3248 3249 3250 3251 3252 3253 3254 3255 3256 3257 3258 3259 3260 3261 3262 3263 3264 3265 3266 3267 3268 3269 3270 3271 3272 3273 3274 3275 3276 3277 3278 3279 3280 3281 3282 3283 3284 3285 3286 3287 3288 3289 3290 3291 3292 3293 3294 3295 3296 3297 3298 3299 3300 3301 3302 3303 3304 3305 3306 3307 3308 3309 3310 3311 3312 3313 3314 3315 3316 3317 3318 3319 3320 3321 3322 3323 3324 3325 3326 3327 3328 3329 3330 3331 3332 3333 3334 3335 3336 3337 3338 3339 3340 3341 3342 3343 3344 3345 3346 3347 3348 3349 3350 3351 3352 3353 3354 3355 3356 3357 3358 3359 3360 3361 3362 3363 3364 3365 3366 3367 3368 3369 3370 3371 3372 3373 3374 3375 3376 3377 3378 3379 3380 3381 3382 3383 3384 3385 3386 3387 3388 3389 3390 3391 3392 3393 3394 3395 3396 3397 3398 3399 3400 3401 3402 3403 3404 3405 3406 3407 3408 3409 3410 3411 3412 3413 3414 3415 3416 3417 3418 3419 3420 3421 3422 3423 3424 3425 3426 3427 3428 3429 3430 3431 3432 3433 3434 3435 3436 3437 3438 3439 3440 3441 3442 3443 3444 3445 3446 3447 3448 3449 3450 3451 3452 3453 3454 3455 3456 3457 3458 3459 3460 3461 3462 3463 3464 3465 3466 3467 3468 3469 3470 3471 3472 3473 3474 3475 3476 3477 3478 3479 3480 3481 3482 3483 3484 3485 3486 3487 3488 3489 3490 3491 3492 3493 3494 3495 3496 3497 3498 3499 3500 3501 3502 3503 3504 3505 3506 3507 3508 3509 3510 3511 3512 3513 3514 3515 3516 3517 3518 3519 3520 3521 3522 3523 3524 3525 3526 3527 3528 3529 3530 3531 3532 3533 3534 3535 3536 3537 3538 3539 3540 3541 3542 3543 3544 3545 3546 3547 3548 3549 3550 3551 3552 3553 3554 3555 3556 3557 3558 3559 3560 3561 3562 3563 3564 3565 3566 3567 3568 3569 3570 3571 3572 3573 3574 3575 3576 3577 3578 3579 3580 3581 3582 3583 3584 3585 3586 3587 3588 3589 3590 3591 3592 3593 3594 3595 3596 3597 3598 3599 3600 3601 3602 3603 3604 3605 3606 3607 3608 3609 3610 3611 3612 3613 3614 3615 3616 3617 3618 3619 3620 3621 3622 3623 3624 3625 3626 3627 3628 3629 3630 3631 3632 3633 3634 3635 3636 3637 3638 3639 3640 3641 3642 3643 3644 3645 3646 3647 3648 3649 3650 3651 3652 3653 3654 3655 3656 3657 3658 3659 3660 3661 3662 3663 3664 3665 3666 3667 3668 3669 3670 3671 3672 3673 3674 3675 3676 3677 3678 3679 3680 3681 3682 3683 3684 3685 3686 3687 3688 3689 3690 3691 3692 3693 3694 3695 3696 3697 3698 3699 3700 3701 3702 3703 3704 3705 3706 3707 3708 3709 3710 3711 3712 3713 3714 3715 3716 3717 3718 3719 3720 3721 3722 3723 3724 3725 3726 3727 3728 3729 3730 3731 3732 3733 3734 3735 3736 3737 3738 3739 3740 3741 3742 3743 3744 3745 3746 3747 3748 3749 3750 3751 3752 3753 3754 3755 3756 3757 3758 3759 3760 3761 3762 3763 3764 3765 3766 3767 3768 3769 3770 3771 3772 3773 3774 3775 3776 3777 3778 3779 3780 3781 3782 3783 3784 3785 3786 3787 3788 3789 3790 3791 3792 3793 3794 3795 3796 3797 3798 3799 3800 3801 3802 3803 3804 3805 3806 3807 3808 3809 3810 3811 3812 3813 3814 3815 3816 3817 3818 3819 3820 3821 3822 3823 3824 3825 3826 3827 3828 3829 3830 3831 3832 3833 3834 3835 3836 3837 3838 3839 3840 3841 3842 3843 3844 3845 3846 3847 3848 3849 3850 3851 3852 3853 3854 3855 3856 3857 3858 3859 3860 3861 3862 3863 3864 3865 3866 3867 3868 3869 3870 3871 3872 3873 3874 3875 3876 3877 3878 3879 3880 3881 3882 3883 3884 3885 3886 3887 3888 3889 3890 3891 3892 3893 3894 3895 3896 3897 3898 3899 3900 3901 3902 3903 3904 3905 3906 3907 3908 3909 3910 3911 3912 3913 3914 3915 3916 3917 3918 3919 3920 3921 3922 3923 3924 3925 3926 3927 3928 3929 3930 3931 3932 3933 3934 3935 3936 3937 3938 3939 3940 3941 3942 3943 3944 3945 3946 3947 3948 3949 3950 3951 3952 3953 3954 3955 3956 3957 3958 3959 3960 3961 3962 3963 3964 3965 3966 3967 3968 3969 3970 3971 3972 3973 3974 3975 3976 3977 3978 3979 3980 3981 3982 3983 3984 3985 3986 3987 3988 3989 3990 3991 3992 3993 3994 3995 3996 3997 3998 3999 4000 4001 4002 4003 4004 4005 4006 4007 4008 4009 4010 4011 4012 4013 4014 4015 4016 4017 4018 4019 4020 4021 4022 4023 4024 4025 4026 4027 4028 4029 4030 4031 4032 4033 4034 4035 4036 4037 4038 4039 4040 4041 4042 4043 4044 4045 4046 4047 4048 4049 4050 4051 4052 4053 4054 4055 4056 4057 4058 4059 4060 4061 4062 4063 4064 4065 4066 4067 4068 4069 4070 4071 4072 4073 4074 4075 4076 4077 4078 4079 4080 4081 4082 4083 4084 4085 4086 4087 4088 4089 4090 4091 4092 4093 4094 4095 4096 4097 4098 4099 4100 4101 4102 4103 4104 4105 4106 4107 4108 4109 4110 4111 4112 4113 4114 4115 4116 4117 4118 4119 4120 4121 4122 4123 4124 4125 4126 4127 4128 4129 4130 4131 4132 4133 4134 4135 4136 4137 4138 4139 4140 4141 4142 4143 4144 4145 4146 4147 4148 4149 4150 4151 4152 4153 4154 4155 4156 4157 4158 4159 4160 4161 4162 4163 4164 4165 4166 4167 4168 4169 4170 4171 4172 4173 4174 4175 4176 4177 4178 4179 4180 4181 4182 4183 4184 4185 4186 4187 4188 4189 4190 4191 4192 4193 4194 4195 4196 4197 4198 4199 4200 4201 4202 4203 4204 4205 4206 4207 4208 4209 4210 4211 4212 4213 4214 4215 4216 4217 4218 4219 4220 4221 4222 4223 4224 4225 4226 4227 4228 4229 4230 4231 4232 4233 4234 4235 4236 4237 4238 4239 4240 4241 4242 4243 4244 4245 4246 4247 4248 4249 4250 4251 4252 4253 4254 4255 4256 4257 4258 4259 4260 4261 4262 4263 4264 4265 4266 4267 4268 4269 4270 4271 4272 4273 4274 4275 4276 4277 4278 4279 4280 4281 4282 4283 4284 4285 4286 4287 4288 4289 4290 4291 4292 4293 4294 4295 4296 4297 4298 4299 4300 4301 4302 4303 4304 4305 4306 4307 4308 4309 4310 4311 4312 4313 4314 4315 4316 4317 4318 4319 4320 4321 4322 4323 4324 4325 4326 4327 4328 4329 4330 4331 4332 4333 4334 4335 4336 4337 4338 4339 4340 4341 4342 4343 4344 4345 4346 4347 4348 4349 4350 4351 4352 4353 4354 4355 4356 4357 4358 4359 4360 4361 4362 4363 4364 4365 4366 4367 4368 4369 4370 4371 4372 4373 4374 4375 4376 4377 4378 4379 4380 4381 4382 4383 4384 4385 4386 4387 4388 4389 4390 4391 4392 4393 4394 4395 4396 4397 4398 4399 4400 4401 4402 4403 4404 4405 4406 4407 4408 4409 4410 4411 4412 4413 4414 4415 4416 4417 4418 4419 4420 4421 4422 4423 4424 4425 4426 4427 4428 4429 4430 4431 4432 4433 4434 4435 4436 4437 4438 4439 4440 4441 4442 4443 4444 4445 4446 4447 4448 4449 4450 4451 4452 4453 4454 4455 4456 4457 4458 4459 4460 4461 4462 4463 4464 4465 4466 4467 4468 4469 4470 4471 4472 4473 4474 4475 4476 4477 4478 4479 4480 4481 4482 4483 4484 4485 4486 4487 4488 4489 4490 4491 4492 4493 4494 4495 4496 4497 4498 4499 4500 4501 4502 4503 4504 4505 4506 4507 4508 4509 4510 4511 4512 4513 4514 4515 4516 4517 4518 4519 4520 4521 4522 4523 4524 4525 4526 4527 4528 4529 4530 4531 4532 4533 4534 4535 4536 4537 4538 4539 4540 4541 4542 4543 4544 4545 4546 4547 4548 4549 4550 4551 4552 4553 4554 4555 4556 4557 4558 4559 4560 4561 4562 4563 4564 4565 4566 4567 4568 4569 4570 4571 4572 4573 4574 4575 4576 4577 4578 4579 4580 4581 4582 4583 4584 4585 4586 4587 4588 4589 4590 4591 4592 4593 4594 4595 4596 4597 4598 4599 4600 4601 4602 4603 4604 4605 4606 4607 4608 4609 4610 4611 4612 4613 4614 4615 4616 4617 4618 4619 4620 4621 4622 4623 4624 4625 4626 4627 4628 4629 4630 4631 4632 4633 4634 4635 4636 4637 4638 4639 4640 4641 4642 4643 4644 4645 4646 4647 4648 4649 4650 4651 4652 4653 4654 4655 4656 4657 4658 4659 4660 4661 4662 4663 4664 4665 4666 4667 4668 4669 4670 4671 4672 4673 4674 4675 4676 4677 4678 4679 4680 4681 4682 4683 4684 4685 4686 4687 4688 4689 4690 4691 4692 4693 4694 4695 4696 4697 4698 4699 4700 4701 4702 4703 4704 4705 4706 4707 4708 4709 4710 4711 4712 4713 4714 4715 4716 4717 4718 4719 4720 4721 4722 4723 4724 4725 4726 4727 4728 4729 4730 4731 4732 4733 4734 4735 4736 4737 4738 4739 4740 4741 4742 4743 4744 4745 4746 4747 4748 4749 4750 4751 4752 4753 4754 4755 4756 4757 4758 4759 4760 4761 4762 4763 4764 4765 4766 4767 4768 4769 4770 4771 4772 4773 4774 4775 4776 4777 4778 4779 4780 4781 4782 4783 4784 4785 4786 4787 4788 4789 4790 4791 4792 4793 4794 4795 4796 4797 4798 4799 4800 4801 4802 4803 4804 4805 4806 4807 4808 4809 4810 4811 4812 4813 4814 4815 4816 4817 4818 4819 4820 4821 4822 4823 4824 4825 4826 4827 4828 4829 4830 4831 4832 4833 4834 4835 4836 4837 4838 4839 4840 4841 4842 4843 4844 4845 4846 4847 4848 4849 4850 4851 4852 4853 4854 4855 4856 4857 4858 4859 4860 4861 4862 4863 4864 4865 4866 4867 4868 4869 4870 4871 4872 4873 4874 4875 4876 4877 4878 4879 4880 4881 4882 4883 4884 4885 4886 4887 4888 4889 4890 4891 4892 4893 4894 4895 4896 4897 4898 4899 4900 4901 4902 4903 4904 4905 4906 4907 4908 4909 4910 4911 4912 4913 4914 4915 4916 4917 4918 4919 4920 4921 4922 4923 4924 4925 4926 4927 4928 4929 4930 4931 4932 4933 4934 4935 4936 4937 4938 4939 4940 4941 4942 4943 4944 4945 4946 4947 4948 4949 4950 4951 4952 4953 4954 4955 4956 4957 4958 4959 4960 4961 4962 4963 4964 4965 4966 4967 4968 4969 4970 4971 4972 4973 4974 4975 4976 4977 4978 4979 4980 4981 4982 4983 4984 4985 4986 4987 4988 4989 4990 4991 4992 4993 4994 4995 4996 4997 4998 4999 5000 5001 5002 5003 5004 5005 5006 5007 5008 5009 5010 5011 5012 5013 5014 5015 5016 5017 5018 5019 5020 5021 5022 5023 5024 5025 5026 5027 5028 5029 5030 5031 5032 5033 5034 5035 5036 5037 5038 5039 5040 5041 5042 5043 5044 5045 5046 5047 5048 5049 5050 5051 5052 5053 5054 5055 5056 5057 5058 5059 5060 5061 5062 5063 5064 5065 5066 5067 5068 5069 5070 5071 5072 5073 5074 5075 5076 5077 5078 5079 5080 5081 5082 5083 5084 5085 5086 5087 5088 5089 5090 5091 5092 5093 5094 5095 5096 5097 5098 5099 5100 5101 5102 5103 5104 5105 5106 5107 5108 5109 5110 5111 5112 5113 5114 5115 5116 5117 5118 5119 5120 5121 5122 5123 5124 5125 5126 5127 5128 5129 5130 5131 5132 5133 5134 5135 5136 5137 5138 5139 5140 5141 5142 5143 5144 5145 5146 5147 5148 5149 5150 5151 5152 5153 5154 5155 5156 5157 5158 5159 5160 5161 5162 5163 5164 5165 5166 5167 5168 5169 5170 5171 5172 5173 5174 5175 5176 5177 5178 5179 5180 5181 5182 5183 5184 5185 5186 5187 5188 5189 5190 5191 5192 5193 5194 5195 5196 5197 5198 5199 5200 5201 5202 5203 5204 5205 5206 5207 5208 5209 5210 5211 5212 5213 5214 5215 5216 5217 5218 5219 5220 5221 5222 5223 5224 5225 5226 5227 5228 5229 5230 5231 5232 5233 5234 5235 5236 5237 5238 5239 5240 5241 5242 5243 5244 5245 5246 5247 5248 5249 5250 5251 5252 5253 5254 5255 5256 5257 5258 5259 5260 5261 5262 5263 5264 5265 5266 5267 5268 5269 5270 5271 5272 5273 5274 5275 5276 5277 5278 5279 5280 5281 5282 5283 5284 5285 5286 5287 5288 5289 5290 5291 5292 5293 5294 5295 5296 5297 5298 5299 5300 5301 5302 5303 5304 5305 5306 5307 5308 5309 5310 5311 5312 5313 5314 5315 5316 5317 5318 5319 5320 5321 5322 5323 5324 5325 5326 5327 5328 5329 5330 5331 5332 5333 5334 5335 5336 5337 5338 5339 5340 5341 5342 5343 5344 5345 5346 5347 5348 5349 5350 5351 5352 5353 5354 5355 5356 5357 5358 5359 5360 5361 5362 5363 5364 5365 5366 5367 5368 5369 5370 5371 5372 5373 5374 5375 5376 5377 5378 5379 5380 5381 5382 5383 5384 5385 5386 5387 5388 5389 5390 5391 5392 5393 5394 5395 5396 5397 5398 5399 5400 5401 5402 5403 5404 5405 5406 5407 5408 5409 5410 5411 5412 5413 5414 5415 5416 5417 5418 5419 5420 5421 5422 5423 5424 5425 5426 5427 5428 5429 5430 5431 5432 5433 5434 5435 5436 5437 5438 5439 5440 5441 5442 5443 5444 5445 5446 5447 5448 5449 5450 5451 5452 5453 5454 5455 5456 5457 5458 5459 5460 5461 5462 5463 5464 5465 5466 5467 5468 5469 5470 5471 5472 5473 5474 5475 5476 5477 5478 5479 5480 5481 5482 5483 5484 5485 5486 5487 5488 5489 5490 5491 5492 5493 5494 5495 5496 5497 5498 5499 5500 5501 5502 5503 5504 5505 5506 5507 5508 5509 5510 5511 5512 5513 5514 5515 5516 5517 5518 5519 5520 5521 5522 5523 5524 5525 5526 5527 5528 5529 5530 5531 5532 5533 5534 5535 5536 5537 5538 5539 5540 5541 5542 5543 5544 5545 5546 5547 5548 5549 5550 5551 5552 5553 5554 5555 5556 5557 5558 5559 5560 5561 5562 5563 5564 5565 5566 5567 5568 5569 5570 5571 5572 5573 5574 5575 5576 5577 5578 5579 5580 5581 5582 5583 5584 5585 5586 5587 5588 5589 5590 5591 5592 5593 5594 5595 5596 5597 5598 5599 5600 5601 5602 5603 5604 5605 5606 5607 5608 5609 5610 5611 5612 5613 5614 5615 5616 5617 5618 5619 5620 5621 5622 5623 5624 5625 5626 5627 5628 5629 5630 5631 5632 5633 5634 5635 5636 5637 5638 5639 5640 5641 5642 5643 5644 5645 5646 5647 5648 5649 5650 5651 5652 5653 5654 5655 5656 5657 5658 5659 5660 5661 5662 5663 5664 5665 5666 5667 5668 5669 5670 5671 5672 5673 5674 5675 5676 5677 5678 5679 5680 5681 5682 5683 5684 5685 5686 5687 5688 5689 5690 5691 5692 5693 5694 5695 5696 5697 5698 5699 5700 5701 5702 5703 5704 5705 5706 5707 5708 5709 5710 5711 5712 5713 5714 5715 5716 5717 5718 5719 5720 5721 5722 5723 5724 5725 5726 5727 5728 5729 5730 5731 5732 5733 5734 5735 5736 5737 5738 5739 5740 5741 5742 5743 5744 5745 5746 5747 5748 5749 5750 5751 5752 5753 5754 5755 5756 5757 5758 5759 5760 5761 5762 5763 5764 5765 5766 5767 5768 5769 5770 5771 5772 5773 5774 5775 5776 5777 5778 5779 5780 5781 5782 5783 5784 5785 5786 5787 5788 5789 5790 5791 5792 5793 5794 5795 5796 5797 5798 5799 5800 5801 5802 5803 5804 5805 5806 5807 5808 5809 5810 5811 5812 5813 5814 5815 5816 5817 5818 5819 5820 5821 5822 5823 5824 5825 5826 5827 5828 5829 5830 5831 5832 5833 5834 5835 5836 5837 5838 5839 5840 5841 5842 5843 5844 5845 5846 5847 5848 5849 5850 5851 5852 5853 5854 5855 5856 5857 5858 5859 5860 5861 5862 5863 5864 5865 5866 5867 5868 5869 5870 5871 5872 5873 5874 5875 5876 5877 5878 5879 5880 5881 5882 5883 5884 5885 5886 5887 5888 5889 5890 5891 5892 5893 5894 5895 5896 5897 5898 5899 5900 5901 5902 5903 5904 5905 5906 5907 5908 5909 5910 5911 5912 5913 5914 5915 5916 5917 5918 5919 5920 5921 5922 5923 5924 5925 5926 5927 5928 5929 5930 5931 5932 5933 5934 5935 5936 5937 5938 5939 5940 5941 5942 5943 5944 5945 5946 5947 5948 5949 5950 5951 5952 5953 5954 5955 5956 5957 5958 5959 5960 5961 5962 5963 5964 5965 5966 5967 5968 5969 5970 5971 5972 5973 5974 5975 5976 5977 5978 5979 5980 5981 5982 5983 5984 5985 5986 5987 5988 5989 5990 5991 5992 5993 5994 5995 5996 5997 5998 5999 6000 6001 6002 6003 6004 6005 6006 6007 6008 6009 6010 6011 6012 6013 6014 6015 6016 6017 6018 6019 6020 6021 6022 6023 6024 6025 6026 6027 6028 6029 6030 6031 6032 6033 6034 6035 6036 6037 6038 6039 6040 6041 6042 6043 6044 6045 6046 6047 6048 6049 6050 6051 6052 6053 6054 6055 6056 6057 6058 6059 6060 6061 6062 6063 6064 6065 6066 6067 6068 6069 6070 6071 6072 6073 6074 6075 6076 6077 6078 6079 6080 6081 6082 6083 6084 6085 6086 6087 6088 6089 6090 6091 6092 6093 6094 6095 6096 6097 6098 6099 6100 6101 6102 6103 6104 6105 6106 6107 6108 6109 6110 6111 6112 6113 6114 6115 6116 6117 6118 6119 6120 6121 6122 6123 6124 6125 6126 6127 6128 6129 6130 6131 6132 6133 6134 6135 6136 6137 6138 6139 6140 6141 6142 6143 6144 6145 6146 6147 6148 6149 6150 6151 6152 6153 6154 6155 6156 6157 6158 6159 6160 6161 6162 6163 6164 6165 6166 6167 6168 6169 6170 6171 6172 6173 6174 6175 6176 6177 6178 6179 6180 6181 6182 6183 6184 6185 6186 6187 6188 6189 6190 6191 6192 6193 6194 6195 6196 6197 6198 6199 6200 6201 6202 6203 6204 6205 6206 6207 6208 6209 6210 6211 6212 6213 6214 6215 6216 6217 6218 6219 6220 6221 6222 6223 6224 6225 6226 6227 6228 6229 6230 6231 6232 6233 6234 6235 6236 6237 6238 6239 6240 6241 6242 6243 6244 6245 6246 6247 6248 6249 6250 6251 6252 6253 6254 6255 6256 6257 6258 6259 6260 6261 6262 6263 6264 6265 6266 6267 6268 6269 6270 6271 6272 6273 6274 6275 6276 6277 6278 6279 6280 6281 6282 6283 6284 6285 6286 6287 6288 6289 6290 6291 6292 6293 6294 6295 6296 6297 6298 6299 6300 6301 6302 6303 6304 6305 6306 6307 6308 6309 6310 6311 6312 6313 6314 6315 6316 6317 6318 6319 6320 6321 6322 6323 6324 6325 6326 6327 6328 6329 6330 6331 6332 6333 6334 6335 6336 6337 6338 6339 6340 6341 6342 6343 6344 6345 6346 6347 6348 6349 6350 6351 6352 6353 6354 6355 6356 6357 6358 6359 6360 6361 6362 6363 6364 6365 6366 6367 6368 6369 6370 6371 6372 6373 6374 6375 6376 6377 6378 6379 6380 6381 6382 6383 6384 6385 6386 6387 6388 6389 6390 6391 6392 6393 6394 6395 6396 6397 6398 6399 6400 6401 6402 6403 6404 6405 6406 6407 6408 6409 6410 6411 6412 6413 6414 6415 6416 6417 6418 6419 6420 6421 6422 6423 6424 6425 6426 6427 6428 6429 6430 6431 6432 6433 6434 6435 6436 6437 6438 6439 6440 6441 6442 6443 6444 6445 6446 6447 6448 6449 6450 6451 6452 6453 6454 6455 6456 6457 6458 6459 6460 6461 6462 6463 6464 6465 6466 6467 6468 6469 6470 6471 6472 6473 6474 6475 6476 6477 6478 6479 6480 6481 6482 6483 6484 6485 6486 6487 6488 6489 6490 6491 6492 6493 6494 6495 6496 6497 6498 6499 6500 6501 6502 6503 6504 6505 6506 6507 6508 6509 6510 6511 6512 6513 6514 6515 6516 6517 6518 6519 6520 6521 6522 6523 6524 6525 6526 6527 6528 6529 6530 6531 6532 6533 6534 6535 6536 6537 6538 6539 6540 6541 6542 6543 6544 6545 6546 6547 6548 6549 6550 6551 6552 6553 6554 6555 6556 6557 6558 6559 6560 6561 6562 6563 6564 6565 6566 6567 6568 6569 6570 6571 6572 6573 6574 6575 6576 6577 6578 6579 6580 6581 6582 6583 6584 6585 6586 6587 6588 6589 6590 6591 6592 6593 6594 6595 6596 6597 6598 6599 6600 6601 6602 6603 6604 6605 6606 6607 6608 6609 6610 6611 6612 6613 6614 6615 6616 6617 6618 6619 6620 6621 6622 6623 6624 6625 6626 6627 6628 6629 6630 6631 6632 6633 6634 6635 6636 6637 6638 6639 6640 6641 6642 6643 6644 6645 6646 6647 6648 6649 6650 6651 6652 6653 6654 6655 6656 6657 6658 6659 6660 6661 6662 6663 6664 6665 6666 6667 6668 6669 6670 6671 6672 6673 6674 6675 6676 6677 6678 6679 6680 6681 6682 6683 6684 6685 6686 6687 6688 6689 6690 6691 6692 6693 6694 6695 6696 6697 6698 6699 6700 6701 6702 6703 6704 6705 6706 6707 6708 6709 6710 6711 6712 6713 6714 6715 6716 6717 6718 6719 6720 6721 6722 6723 6724 6725 6726 6727 6728 6729 6730 6731 6732 6733 6734 6735 6736 6737 6738 6739 6740 6741 6742 6743 6744 6745 6746 6747 6748 6749 6750 6751 6752 6753 6754 6755 6756 6757 6758 6759 6760 6761 6762 6763 6764 6765 6766 6767 6768 6769 6770 6771 6772 6773 6774 6775 6776 6777 6778 6779 6780 6781 6782 6783 6784 6785 6786 6787 6788 6789 6790 6791 6792 6793 6794 6795 6796 6797 6798 6799 6800 6801 6802 6803 6804 6805 6806 6807 6808 6809 6810 6811 6812 6813 6814 6815 6816 6817 6818 6819 6820 6821 6822 6823 6824 6825 6826 6827 6828 6829 6830 6831 6832 6833 6834 6835 6836 6837 6838 6839 6840 6841 6842 6843 6844 6845 6846 6847 6848 6849 6850 6851 6852 6853 6854 6855 6856 6857 6858 6859 6860 6861 6862 6863 6864 6865 6866 6867 6868 6869 6870 6871 6872 6873 6874 6875 6876 6877 6878 6879 6880 6881 6882 6883 6884 6885 6886 6887 6888 6889 6890 6891 6892 6893 6894 6895 6896 6897 6898 6899 6900 6901 6902 6903 6904 6905 6906 6907 6908 6909 6910 6911 6912 6913 6914 6915 6916 6917 6918 6919 6920 6921 6922 6923 6924 6925 6926 6927 6928 6929 6930 6931 6932 6933 6934 6935 6936 6937 6938 6939 6940 6941 6942 6943 6944 6945 6946 6947 6948 6949 6950 6951 6952 6953 6954 6955 6956 6957 6958 6959 6960 6961 6962 6963 6964 6965 6966 6967 6968 6969 6970 6971 6972 6973 6974 6975 6976 6977 6978 6979 6980 6981 6982 6983 6984 6985 6986 6987 6988 6989 6990 6991 6992 6993 6994 6995 6996 6997 6998 6999 7000 7001 7002 7003 7004 7005 7006 7007 7008 7009 7010 7011 7012 7013 7014 7015 7016 7017 7018 7019 7020 7021 7022 7023 7024 7025 7026 7027 7028 7029 7030 7031 7032 7033 7034 7035 7036 7037 7038 7039 7040 7041 7042 7043 7044 7045 7046 7047 7048 7049 7050 7051 7052 7053 7054 7055 7056 7057 7058 7059 7060 7061 7062 7063 7064 7065 7066 7067 7068 7069 7070 7071 7072 7073 7074 7075 7076 7077 7078 7079 7080 7081 7082 7083 7084 7085 7086 7087 7088 7089 7090 7091 7092 7093 7094 7095 7096 7097 7098 7099 7100 7101 7102 7103 7104 7105 7106 7107 7108 7109 7110 7111 7112 7113 7114 7115 7116 7117 7118 7119 7120 7121 7122 7123 7124 7125 7126 7127 7128 7129 7130 7131 7132 7133 7134 7135 7136 7137 7138 7139 7140 7141 7142 7143 7144 7145 7146 7147 7148 7149 7150 7151 7152 7153 7154 7155 7156 7157 7158 7159 7160 7161 7162 7163 7164 7165 7166 7167 7168 7169 7170 7171 7172 7173 7174 7175 7176 7177 7178 7179 7180 7181 7182 7183 7184 7185 7186 7187 7188 7189 7190 7191 7192 7193 7194 7195 7196 7197 7198 7199 7200 7201 7202 7203 7204 7205 7206 7207 7208 7209 7210 7211 7212 7213 7214 7215 7216 7217 7218 7219 7220 7221 7222 7223 7224 7225 7226 7227 7228 7229 7230 7231 7232 7233 7234 7235 7236 7237 7238 7239 7240 7241 7242 7243 7244 7245 7246 7247 7248 7249 7250 7251 7252 7253 7254 7255 7256 7257 7258 7259 7260 7261 7262 7263 7264 7265 7266 7267 7268 7269 7270 7271 7272 7273 7274 7275 7276 7277 7278 7279 7280 7281 7282 7283 7284 7285 7286 7287 7288 7289 7290 7291 7292 7293 7294 7295 7296 7297 7298 7299 7300 7301 7302 7303 7304 7305 7306 7307 7308 7309 7310 7311 7312 7313 7314 7315 7316 7317 7318 7319 7320 7321 7322 7323 7324 7325 7326 7327 7328 7329 7330 7331 7332 7333 7334 7335 7336 7337 7338 7339 7340 7341 7342 7343 7344 7345 7346 7347 7348 7349 7350 7351 7352 7353 7354 7355 7356 7357 7358 7359 7360 7361 7362 7363 7364 7365 7366 7367 7368 7369 7370 7371 7372 7373 7374 7375 7376 7377 7378 7379 7380 7381 7382 7383 7384 7385 7386 7387 7388 7389 7390 7391 7392 7393 7394 7395 7396 7397 7398 7399 7400 7401 7402 7403 7404 7405 7406 7407 7408 7409 7410 7411 7412 7413 7414 7415 7416 7417 7418 7419 7420 7421 7422 7423 7424 7425 7426 7427 7428 7429 7430 7431 7432 7433 7434 7435 7436 7437 7438 7439 7440 7441 7442 7443 7444 7445 7446 7447 7448 7449 7450 7451 7452 7453 7454 7455 7456 7457 7458 7459 7460 7461 7462 7463 7464 7465 7466 7467 7468 7469 7470 7471 7472 7473 7474 7475 7476 7477 7478 7479 7480 7481 7482 7483 7484 7485 7486 7487 7488 7489 7490 7491 7492 7493 7494 7495 7496 7497 7498 7499 7500 7501 7502 7503 7504 7505 7506 7507 7508 7509 7510 7511 7512 7513 7514 7515 7516 7517 7518 7519 7520 7521 7522 7523 7524 7525 7526 7527 7528 7529 7530 7531 7532 7533 7534 7535 7536 7537 7538 7539 7540 7541 7542 7543 7544 7545 7546 7547 7548 7549 7550 7551 7552 7553 7554 7555 7556 7557 7558 7559 7560 7561 7562 7563 7564 7565 7566 7567 7568 7569 7570 7571 7572 7573 7574 7575 7576 7577 7578 7579 7580 7581 7582 7583 7584 7585 7586 7587 7588 7589 7590 7591 7592 7593 7594 7595 7596 7597 7598 7599 7600 7601 7602 7603 7604 7605 7606 7607 7608 7609 7610 7611 7612 7613 7614 7615 7616 7617 7618 7619 7620 7621 7622 7623 7624 7625 7626 7627 7628 7629 7630 7631 7632 7633 7634 7635 7636 7637 7638 7639 7640 7641 7642 7643 7644 7645 7646 7647 7648 7649 7650 7651 7652 7653 7654 7655 7656 7657 7658 7659 7660 7661 7662 7663 7664 7665 7666 7667 7668 7669 7670 7671 7672 7673 7674 7675 7676 7677 7678 7679 7680 7681 7682 7683 7684 7685 7686 7687 7688 7689 7690 7691 7692 7693 7694 7695 7696 7697 7698 7699 7700 7701 7702 7703 7704 7705 7706 7707 7708 7709 7710 7711 7712 7713 7714 7715 7716 7717 7718 7719 7720 7721 7722 7723 7724 7725 7726 7727 7728 7729 7730 7731 7732 7733 7734 7735 7736 7737 7738 7739 7740 7741 7742 7743 7744 7745 7746 7747 7748 7749 7750 7751 7752 7753 7754 7755 7756 7757 7758 7759 7760 7761 7762 7763 7764 7765 7766 7767 7768 7769 7770 7771 7772 7773 7774 7775 7776 7777 7778 7779 7780 7781 7782 7783 7784 7785 7786 7787 7788 7789 7790 7791 7792 7793 7794 7795 7796 7797 7798 7799 7800 7801 7802 7803 7804 7805 7806 7807 7808 7809 7810 7811 7812 7813 7814 7815 7816 7817 7818 7819 7820 7821 7822 7823 7824 7825 7826 7827 7828 7829 7830 7831 7832 7833 7834 7835 7836 7837 7838 7839 7840 7841 7842 7843 7844 7845 7846 7847 7848 7849 7850 7851 7852 7853 7854 7855 7856 7857 7858 7859 7860 7861 7862 7863 7864 7865 7866 7867 7868 7869 7870 7871 7872 7873 7874 7875 7876 7877 7878 7879 7880 7881 7882 7883 7884 7885 7886 7887 7888 7889 7890 7891 7892 7893 7894 7895 7896 7897 7898 7899 7900 7901 7902 7903 7904 7905 7906 7907 7908 7909 7910 7911 7912 7913 7914 7915 7916 7917 7918 7919 7920 7921 7922 7923 7924 7925 7926 7927 7928 7929 7930 7931 7932 7933 7934 7935 7936 7937 7938 7939 7940 7941 7942 7943 7944 7945 7946 7947 7948 7949 7950 7951 7952 7953 7954 7955 7956 7957 7958 7959 7960 7961 7962 7963 7964 7965 7966 7967 7968 7969 7970 7971 7972 7973 7974 7975 7976 7977 7978 7979 7980 7981 7982 7983 7984 7985 7986 7987 7988 7989 7990 7991 7992 7993 7994 7995 7996 7997 7998 7999 8000 8001 8002 8003 8004 8005 8006 8007 8008 8009 8010 8011 8012 8013 8014 8015 8016 8017 8018 8019 8020 8021 8022 8023 8024 8025 8026 8027 8028 8029 8030 8031 8032 8033 8034 8035 8036 8037 8038 8039 8040 8041 8042 8043 8044 8045 8046 8047 8048 8049 8050 8051 8052 8053 8054 8055 8056 8057 8058 8059 8060 8061 8062 8063 8064 8065 8066 8067 8068 8069 8070 8071 8072 8073 8074 8075 8076 8077 8078 8079 8080 8081 8082 8083 8084 8085 8086 8087 8088 8089 8090 8091 8092 8093 8094 8095 8096 8097 8098 8099 8100 8101 8102 8103 8104 8105 8106 8107 8108 8109 8110 8111 8112 8113 8114 8115 8116 8117 8118 8119 8120 8121 8122 8123 8124 8125 8126 8127 8128 8129 8130 8131 8132 8133 8134 8135 8136 8137 8138 8139 8140 8141 8142 8143 8144 8145 8146 8147 8148 8149 8150 8151 8152 8153 8154 8155 8156 8157 8158 8159 8160 8161 8162 8163 8164 8165 8166 8167 8168 8169 8170 8171 8172 8173 8174 8175 8176 8177 8178 8179 8180 8181 8182 8183 8184 8185 8186 8187 8188 8189 8190 8191 8192 8193 8194 8195 8196 8197 8198 8199 8200 8201 8202 8203 8204 8205 8206 8207 8208 8209 8210 8211 8212 8213 8214 8215 8216 8217 8218 8219 8220 8221 8222 8223 8224 8225 8226 8227 8228 8229 8230 8231 8232 8233 8234 8235 8236 8237 8238 8239 8240 8241 8242 8243 8244 8245 8246 8247 8248 8249 8250 8251 8252 8253 8254 8255 8256 8257 8258 8259 8260 8261 8262 8263 8264 8265 8266 8267 8268 8269 8270 8271 8272 8273 8274 8275 8276 8277 8278 8279 8280 8281 8282 8283 8284 8285 8286 8287 8288 8289 8290 8291 8292 8293 8294 8295 8296 8297 8298 8299 8300 8301 8302 8303 8304 8305 8306 8307 8308 8309 8310 8311 8312 8313 8314 8315 8316 8317 8318 8319 8320 8321 8322 8323 8324 8325 8326 8327 8328 8329 8330 8331 8332 8333 8334 8335 8336 8337 8338 8339 8340 8341 8342 8343 8344 8345 8346 8347 8348 8349 8350 8351 8352 8353 8354 8355 8356 8357 8358 8359 8360 8361 8362 8363 8364 8365 8366 8367 8368 8369 8370 8371 8372 8373 8374 8375 8376 8377 8378 8379 8380 8381 8382 8383 8384 8385 8386 8387 8388 8389 8390 8391 8392 8393 8394 8395 8396 8397 8398 8399 8400 8401 8402 8403 8404 8405 8406 8407 8408 8409 8410 8411 8412 8413 8414 8415 8416 8417 8418 8419 8420 8421 8422 8423 8424 8425 8426 8427 8428 8429 8430 8431 8432 8433 8434 8435 8436 8437 8438 8439 8440 8441 8442 8443 8444 8445 8446 8447 8448 8449 8450 8451 8452 8453 8454 8455 8456 8457 8458 8459 8460 8461 8462 8463 8464 8465 8466 8467 8468 8469 8470 8471 8472 8473 8474 8475 8476 8477 8478 8479 8480 8481 8482 8483 8484 8485 8486 8487 8488 8489 8490 8491 8492 8493 8494 8495 8496 8497 8498 8499 8500 8501 8502 8503 8504 8505 8506 8507 8508 8509 8510 8511 8512 8513 8514 8515 8516 8517 8518 8519 8520 8521 8522 8523 8524 8525 8526 8527 8528 8529 8530 8531 8532 8533 8534 8535 8536 8537 8538 8539 8540 8541 8542 8543 8544 8545 8546 8547 8548 8549 8550 8551 8552 8553 8554 8555 8556 8557 8558 8559 8560 8561 8562 8563 8564 8565 8566 8567 8568 8569 8570 8571 8572 8573 8574 8575 8576 8577 8578 8579 8580 8581 8582 8583 8584 8585 8586 8587 8588 8589 8590 8591 8592 8593 8594 8595 8596 8597 8598 8599 8600 8601 8602 8603 8604 8605 8606 8607 8608 8609 8610 8611 8612 8613 8614 8615 8616 8617 8618 8619 8620 8621 8622 8623 8624 8625 8626 8627 8628 8629 8630 8631 8632 8633 8634 8635 8636 8637 8638 8639 8640 8641 8642 8643 8644 8645 8646 8647 8648 8649 8650 8651 8652 8653 8654 8655 8656 8657 8658 8659 8660 8661 8662 8663 8664 8665 8666 8667 8668 8669 8670 8671 8672 8673 8674 8675 8676 8677 8678 8679 8680 8681 8682 8683 8684 8685 8686 8687 8688 8689 8690 8691 8692 8693 8694 8695 8696 8697 8698 8699 8700 8701 8702 8703 8704 8705 8706 8707 8708 8709 8710 8711 8712 8713 8714 8715 8716 8717 8718 8719 8720 8721 8722 8723 8724 8725 8726 8727 8728 8729 8730 8731 8732 8733 8734 8735 8736 8737 8738 8739 8740 8741 8742 8743 8744 8745 8746 8747 8748 8749 8750 8751 8752 8753 8754 8755 8756 8757 8758 8759 8760 8761 8762 8763 8764 8765 8766 8767 8768 8769 8770 8771 8772 8773 8774 8775 8776 8777 8778 8779 8780 8781 8782 8783 8784 8785 8786 8787 8788 8789 8790 8791 8792 8793 8794 8795 8796 8797 8798 8799 8800 8801 8802 8803 8804 8805 8806 8807 8808 8809 8810 8811 8812 8813 8814 8815 8816 8817 8818 8819 8820 8821 8822 8823 8824 8825 8826 8827 8828 8829 8830 8831 8832 8833 8834 8835 8836 8837 8838 8839 8840 8841 8842 8843 8844 8845 8846 8847 8848 8849 8850 8851 8852 8853 8854 8855 8856 8857 8858 8859 8860 8861 8862 8863 8864 8865 8866 8867 8868 8869 8870 8871 8872 8873 8874 8875 8876 8877 8878 8879 8880 8881 8882 8883 8884 8885 8886 8887 8888 8889 8890 8891 8892 8893 8894 8895 8896 8897 8898 8899 8900 8901 8902 8903 8904 8905 8906 8907 8908 8909 8910 8911 8912 8913 8914 8915 8916 8917 8918 8919 8920 8921 8922 8923 8924 8925 8926 8927 8928 8929 8930 8931 8932 8933 8934 8935 8936 8937 8938 8939 8940 8941 8942 8943 8944 8945 8946 8947 8948 8949 8950 8951 8952 8953 8954 8955 8956 8957 8958 8959 8960 8961 8962 8963 8964 8965 8966 8967 8968 8969 8970 8971 8972 8973 8974 8975 8976 8977 8978 8979 8980 8981 8982 8983 8984 8985 8986 8987 8988 8989 8990 8991 8992 8993 8994 8995 8996 8997 8998 8999 9000 9001 9002 9003 9004 9005 9006 9007 9008 9009 9010 9011 9012 9013 9014 9015 9016 9017 9018 9019 9020 9021 9022 9023 9024 9025 9026 9027 9028 9029 9030 9031 9032 9033 9034 9035 9036 9037 9038 9039 9040 9041 9042 9043 9044 9045 9046 9047 9048 9049 9050 9051 9052 9053 9054 9055 9056 9057 9058 9059 9060 9061 9062 9063 9064 9065 9066 9067 9068 9069 9070 9071 9072 9073 9074 9075 9076 9077 9078 9079 9080 9081 9082 9083 9084 9085 9086 9087 9088 9089 9090 9091 9092 9093 9094 9095 9096 9097 9098 9099 9100 9101 9102 9103 9104 9105 9106 9107 9108 9109 9110 9111 9112 9113 9114 9115 9116 9117 9118 9119 9120 9121 9122 9123 9124 9125 9126 9127 9128 9129 9130 9131 9132 9133 9134 9135 9136 9137 9138 9139 9140 9141 9142 9143 9144 9145 9146 9147 9148 9149 9150 9151 9152 9153 9154 9155 9156 9157 9158 9159 9160 9161 9162 9163 9164 9165 9166 9167 9168 9169 9170 9171 9172 9173 9174 9175 9176 9177 9178 9179 9180 9181 9182 9183 9184 9185 9186 9187 9188 9189 9190 9191 9192 9193 9194 9195 9196 9197 9198 9199 9200 9201 9202 9203 9204 9205 9206 9207 9208 9209 9210 9211 9212 9213 9214 9215 9216 9217 9218 9219 9220 9221 9222 9223 9224 9225 9226 9227 9228 9229 9230 9231 9232 9233 9234 9235 9236 9237 9238 9239 9240 9241 9242 9243 9244 9245 9246 9247 9248 9249 9250 9251 9252 9253 9254 9255 9256 9257 9258 9259 9260 9261 9262 9263 9264 9265 9266 9267 9268 9269 9270 9271 9272 9273 9274 9275 9276 9277 9278 9279 9280 9281 9282 9283 9284 9285 9286 9287 9288 9289 9290 9291 9292 9293 9294 9295 9296 9297 9298 9299 9300 9301 9302 9303 9304 9305 9306 9307 9308 9309 9310 9311 9312 9313 9314 9315 9316 9317 9318 9319 9320 9321 9322 9323 9324 9325 9326 9327 9328 9329 9330 9331 9332 9333 9334 9335 9336 9337 9338 9339 9340 9341 9342 9343 9344 9345 9346 9347 9348 9349 9350 9351 9352 9353 9354 9355 9356 9357 9358 9359 9360 9361 9362 9363 9364 9365 9366 9367 9368 9369 9370 9371 9372 9373 9374 9375 9376 9377 9378 9379 9380 9381 9382 9383 9384 9385 9386 9387 9388 9389 9390 9391 9392 9393 9394 9395 9396 9397 9398 9399 9400 9401 9402 9403 9404 9405 9406 9407 9408 9409 9410 9411 9412 9413 9414 9415 9416 9417 9418 9419 9420 9421 9422 9423 9424 9425 9426 9427 9428 9429 9430 9431 9432 9433 9434 9435 9436 9437 9438 9439 9440 9441 9442 9443 9444 9445 9446 9447 9448 9449 9450 9451 9452 9453 9454 9455 9456 9457 9458 9459 9460 9461 9462 9463 9464 9465 9466 9467 9468 9469 9470 9471 9472 9473 9474 9475 9476 9477 9478 9479 9480 9481 9482 9483 9484 9485 9486 9487 9488 9489 9490 9491 9492 9493 9494 9495 9496 9497 9498 9499 9500 9501 9502 9503 9504 9505 9506 9507 9508 9509 9510 9511 9512 9513 9514 9515 9516 9517 9518 9519 9520 9521 9522 9523 9524 9525 9526 9527 9528 9529 9530 9531 9532 9533 9534 9535 9536 9537 9538 9539 9540 9541 9542 9543 9544 9545 9546 9547 9548 9549 9550 9551 9552 9553 9554 9555 9556 9557 9558 9559 9560 9561 9562 9563 9564 9565 9566 9567 9568 9569 9570 9571 9572 9573 9574 9575 9576 9577 9578 9579 9580 9581 9582 9583 9584 9585 9586 9587 9588 9589 9590 9591 9592 9593 9594 9595 9596 9597 9598 9599 9600 9601 9602 9603 9604 9605 9606 9607 9608 9609 9610 9611 9612 9613 9614 9615 9616 9617 9618 9619 9620 9621 9622 9623 9624 9625 9626 9627 9628 9629 9630 9631 9632 9633 9634 9635 9636 9637 9638 9639 9640 9641 9642 9643 9644 9645 9646 9647 9648 9649 9650 9651 9652 9653 9654 9655 9656 9657 9658 9659 9660 9661 9662 9663 9664 9665 9666 9667 9668 9669 9670 9671 9672 9673 9674 9675 9676 9677 9678 9679 9680 9681 9682 9683 9684 9685 9686 9687 9688 9689 9690 9691 9692 9693 9694 9695 9696 9697 9698 9699 9700 9701 9702 9703 9704 9705 9706 9707 9708 9709 9710 9711 9712 9713 9714 9715 9716 9717 9718 9719 9720 9721 9722 9723 9724 9725 9726 9727 9728 9729 9730 9731 9732 9733 9734 9735 9736 9737 9738 9739 9740 9741 9742 9743 9744 9745 9746 9747 9748 9749 9750 9751 9752 9753 9754 9755 9756 9757 9758 9759 9760 9761 9762 9763 9764 9765 9766 9767 9768 9769 9770 9771 9772 9773 9774 9775 9776 9777 9778 9779 9780 9781 9782 9783 9784 9785 9786 9787 9788 9789 9790 9791 9792 9793 9794 9795 9796 9797 9798 9799 9800 9801 9802 9803 9804 9805 9806 9807 9808 9809 9810 9811 9812 9813 9814 9815 9816 9817 9818 9819 9820 9821 9822 9823 9824 9825 9826 9827 9828 9829 9830 9831 9832 9833 9834 9835 9836 9837 9838 9839 9840 9841 9842 9843 9844 9845 9846 9847 9848 9849 9850 9851 9852 9853 9854 9855 9856 9857 9858 9859 9860 9861 9862 9863 9864 9865 9866 9867 9868 9869 9870 9871 9872 9873 9874 9875 9876 9877 9878 9879 9880 9881 9882 9883 9884 9885 9886 9887 9888 9889 9890 9891 9892 9893 9894 9895 9896 9897 9898 9899 9900 9901 9902 9903 9904 9905 9906 9907 9908 9909 9910 9911 9912 9913 9914 9915 9916 9917 9918 9919 9920 9921 9922 9923 9924 9925 9926 9927 9928 9929 9930 9931 9932 9933 9934 9935 9936 9937 9938 9939 9940 9941 9942 9943 9944 9945 9946 9947 9948 9949 9950 9951 9952 9953 9954 9955 9956 9957 9958 9959 9960 9961 9962 9963 9964 9965 9966 9967 9968 9969 9970 9971 9972 9973 9974 9975 9976 9977 9978 9979 9980 9981 9982 9983 9984 9985 9986 9987 9988 9989 9990 9991 9992 9993 9994 9995 9996 9997 9998 9999 10000 10001 10002 10003 10004 10005 10006 10007 10008 10009 10010 10011 10012 10013 10014 10015 10016 10017 10018 10019 10020 10021 10022 10023 10024 10025 10026 10027 10028 10029 10030 10031 10032 10033 10034 10035 10036 10037 10038 10039 10040 10041 10042 10043 10044 10045 10046 10047 10048 10049 10050 10051 10052 10053 10054 10055 10056 10057 10058 10059 10060 10061 10062 10063 10064 10065 10066 10067 10068 10069 10070 10071 10072 10073 10074 10075 10076 10077 10078 10079 10080 10081 10082 10083 10084 10085 10086 10087 10088 10089 10090 10091 10092 10093 10094 10095 10096 10097 10098 10099 10100 10101 10102 10103 10104 10105 10106 10107 10108 10109 10110 10111 10112 10113 10114 10115 10116 10117 10118 10119 10120 10121 10122 10123 10124 10125 10126 10127 10128 10129 10130 10131 10132 10133 10134 10135 10136 10137 10138 10139 10140 10141 10142 10143 10144 10145 10146 10147 10148 10149 10150 10151 10152 10153 10154 10155 10156 10157 10158 10159 10160 10161 10162 10163 10164 10165 10166 10167 10168 10169 10170 10171 10172 10173 10174 10175 10176 10177 10178 10179 10180 10181 10182 10183 10184 10185 10186 10187 10188 10189 10190 10191 10192 10193 10194 10195 10196 10197 10198 10199 10200 10201 10202 10203 10204 10205 10206 10207 10208 10209 10210 10211 10212 10213 10214 10215 10216 10217 10218 10219 10220 10221 10222 10223 10224 10225 10226 10227 10228 10229 10230 10231 10232 10233 10234 10235 10236 10237 10238 10239 10240 10241 10242 10243 10244 10245 10246 10247 10248 10249 10250 10251 10252 10253 10254 10255 10256 10257 10258 10259 10260 10261 10262 10263 10264 10265 10266 10267 10268 10269 10270 10271 10272 10273 10274 10275 10276 10277 10278 10279 10280 10281 10282 10283 10284 10285 10286 10287 10288 10289 10290 10291 10292 10293 10294 10295 10296 10297 10298 10299 10300 10301 10302 10303 10304 10305 10306 10307 10308 10309 10310 10311 10312 10313 10314 10315 10316 10317 10318 10319 10320 10321 10322 10323 10324 10325 10326 10327 10328 10329 10330 10331 10332 10333 10334 10335 10336 10337 10338 10339 10340 10341 10342 10343 10344 10345 10346 10347 10348 10349 10350 10351 10352 10353 10354 10355 10356 10357 10358 10359 10360 10361 10362 10363 10364 10365 10366 10367 10368 10369 10370 10371 10372 10373 10374 10375 10376 10377 10378 10379 10380 10381 10382 10383 10384 10385 10386 10387 10388 10389 10390 10391 10392 10393 10394 10395 10396 10397 10398 10399 10400 10401 10402 10403 10404 10405 10406 10407 10408 10409 10410 10411 10412 10413 10414 10415 10416 10417 10418 10419 10420 10421 10422 10423 10424 10425 10426 10427 10428 10429 10430 10431 10432 10433 10434 10435 10436 10437 10438 10439 10440 10441 10442 10443 10444 10445 10446 10447 10448 10449 10450 10451 10452 10453 10454 10455 10456 10457 10458 10459 10460 10461 10462 10463 10464 10465 10466 10467 10468 10469 10470 10471 10472 10473 10474 10475 10476 10477 10478 10479 10480 10481 10482 10483 10484 10485 10486 10487 10488 10489 10490 10491 10492 10493 10494 10495 10496 10497 10498 10499 10500 10501 10502 10503 10504 10505 10506 10507 10508 10509 10510 10511 10512 10513 10514 10515 10516 10517 10518 10519 10520 10521 10522 10523 10524 10525 10526 10527 10528 10529 10530 10531 10532 10533 10534 10535 10536 10537 10538 10539 10540 10541 10542 10543 10544 10545 10546 10547 10548 10549 10550 10551 10552 10553 10554 10555 10556 10557 10558 10559 10560 10561 10562 10563 10564 10565 10566 10567 10568 10569 10570 10571 10572 10573 10574 10575 10576 10577 10578 10579 10580 10581 10582 10583 10584 10585 10586 10587 10588 10589 10590 10591 10592 10593 10594 10595 10596 10597 10598 10599 10600 10601 10602 10603 10604 10605 10606 10607 10608 10609 10610 10611 10612 10613 10614 10615 10616 10617 10618 10619 10620 10621 10622 10623 10624 10625 10626 10627 10628 10629 10630 10631 10632 10633 10634 10635 10636 10637 10638 10639 10640 10641 10642 10643 10644 10645 10646 10647 10648 10649 10650 10651 10652 10653 10654 10655 10656 10657 10658 10659 10660 10661 10662 10663 10664 10665 10666 10667 10668 10669 10670 10671 10672 10673 10674 10675 10676 10677 10678 10679 10680 10681 10682 10683 10684 10685 10686 10687 10688 10689 10690 10691 10692 10693 10694 10695 10696 10697 10698 10699 10700 10701 10702 10703 10704 10705 10706 10707 10708 10709 10710 10711 10712 10713 10714 10715 10716 10717 10718 10719 10720 10721 10722 10723 10724 10725 10726 10727 10728 10729 10730 10731 10732 10733 10734 10735 10736 10737 10738 10739 10740 10741 10742 10743 10744 10745 10746 10747 10748 10749 10750 10751 10752 10753 10754 10755 10756 10757 10758 10759 10760 10761 10762 10763 10764 10765 10766 10767 10768 10769 10770 10771 10772 10773 10774 10775 10776 10777 10778 10779 10780 10781 10782 10783 10784 10785 10786 10787 10788 10789 10790 10791 10792 10793 10794 10795 10796 10797 10798 10799 10800 10801 10802 10803 10804 10805 10806 10807 10808 10809 10810 10811 10812 10813 10814 10815 10816 10817 10818 10819 10820 10821 10822 10823 10824 10825 10826 10827 10828 10829 10830 10831 10832 10833 10834 10835 10836 10837 10838 10839 10840 10841 10842 10843 10844 10845 10846 10847 10848 10849 10850 10851 10852 10853 10854 10855 10856 10857 10858 10859 10860 10861 10862 10863 10864 10865 10866 10867 10868 10869 10870 10871 10872 10873 10874 10875 10876 10877 10878 10879 10880 10881 10882 10883 10884 10885 10886 10887 10888 10889 10890 10891 10892 10893 10894 10895 10896 10897 10898 10899 10900 10901 10902 10903 10904 10905 10906 10907 10908 10909 10910 10911 10912 10913 10914 10915 10916 10917 10918 10919 10920 10921 10922 10923 10924 10925 10926 10927 10928 10929 10930 10931 10932 10933 10934 10935 10936 10937 10938 10939 10940 10941 10942 10943 10944 10945 10946 10947 10948 10949 10950 10951 10952 10953 10954 10955 10956 10957 10958 10959 10960 10961 10962 10963 10964 10965 10966 10967 10968 10969 10970 10971 10972 10973 10974 10975 10976 10977 10978 10979 10980 10981 10982 10983 10984 10985 10986 10987 10988 10989 10990 10991 10992 10993 10994 10995 10996 10997 10998 10999 11000 11001 11002 11003 11004 11005 11006 11007 11008 11009 11010 11011 11012 11013 11014 11015 11016 11017 11018 11019 11020 11021 11022 11023 11024 11025 11026 11027 11028 11029 11030 11031 11032 11033 11034 11035 11036 11037 11038 11039 11040 11041 11042 11043 11044 11045 11046 11047 11048 11049 11050 11051 11052 11053 11054 11055 11056 11057 11058 11059 11060 11061 11062 11063 11064 11065 11066 11067 11068 11069 11070 11071 11072 11073 11074 11075 11076 11077 11078 11079 11080 11081 11082 11083 11084 11085 11086 11087 11088 11089 11090 11091 11092 11093 11094 11095 11096 11097 11098 11099 11100 11101 11102 11103 11104 11105 11106 11107 11108 11109 11110 11111 11112 11113 11114 11115 11116 11117 11118 11119 11120 11121 11122 11123 11124 11125 11126 11127 11128 11129 11130 11131 11132 11133 11134 11135 11136 11137 11138 11139 11140 11141 11142 11143 11144 11145 11146 11147 11148 11149 11150 11151 11152 11153 11154 11155 11156 11157 11158 11159 11160 11161 11162 11163 11164 11165 11166 11167 11168 11169 11170 11171 11172 11173 11174 11175 11176 11177 11178 11179 11180 11181 11182 11183 11184 11185 11186 11187 11188 11189 11190 11191 11192 11193 11194 11195 11196 11197 11198 11199 11200 11201 11202 11203 11204 11205 11206 11207 11208 11209 11210 11211 11212 11213 11214 11215 11216 11217 11218 11219 11220 11221 11222 11223 11224 11225 11226 11227 11228 11229 11230 11231 11232 11233 11234 11235 11236 11237 11238 11239 11240 11241 11242 11243 11244 11245 11246 11247 11248 11249 11250 11251 11252 11253 11254 11255 11256 11257 11258 11259 11260 11261 11262 11263 11264 11265 11266 11267 11268 11269 11270 11271 11272 11273 11274 11275 11276 11277 11278 11279 11280 11281 11282 11283 11284 11285 11286 11287 11288 11289 11290 11291 11292 11293 11294 11295 11296 11297 11298 11299 11300 11301 11302 11303 11304 11305 11306 11307 11308 11309 11310 11311 11312 11313 11314 11315 11316 11317 11318 11319 11320 11321 11322 11323 11324 11325 11326 11327 11328 11329 11330 11331 11332 11333 11334 11335 11336 11337 11338 11339 11340 11341 11342 11343 11344 11345 11346 11347 11348 11349 11350 11351 11352 11353 11354 11355 11356 11357 11358 11359 11360 11361 11362 11363 11364 11365 11366 11367 11368 11369 11370 11371 11372 11373 11374 11375 11376 11377 11378 11379 11380 11381 11382 11383 11384 11385 11386 11387 11388 11389 11390 11391 11392 11393 11394 11395 11396 11397 11398 11399 11400 11401 11402 11403 11404 11405 11406 11407 11408 11409 11410 11411 11412 11413 11414 11415 11416 11417 11418 11419 11420 11421 11422 11423 11424 11425 11426 11427 11428 11429 11430 11431 11432 11433 11434 11435 11436 11437 11438 11439 11440 11441 11442 11443 11444 11445 11446 11447 11448 11449 11450 11451 11452 11453 11454 11455 11456 11457 11458 11459 11460 11461 11462 11463 11464 11465 11466 11467 11468 11469 11470 11471 11472 11473 11474 11475 11476 11477 11478 11479 11480 11481 11482 11483 11484 11485 11486 11487 11488 11489 11490 11491 11492 11493 11494 11495 11496 11497 11498 11499 11500 11501 11502 11503 11504 11505 11506 11507 11508 11509 11510 11511 11512 11513 11514 11515 11516 11517 11518 11519 11520 11521 11522 11523 11524 11525 11526 11527 11528 11529 11530 11531 11532 11533 11534 11535 11536 11537 11538 11539 11540 11541 11542 11543 11544 11545 11546 11547 11548 11549 11550 11551 11552 11553 11554 11555 11556 11557 11558 11559 11560 11561 11562 11563 11564 11565 11566 11567 11568 11569 11570 11571 11572 11573 11574 11575 11576 11577 11578 11579 11580 11581 11582 11583 11584 11585 11586 11587 11588 11589 11590 11591 11592 11593 11594 11595 11596 11597 11598 11599 11600 11601 11602 11603 11604 11605 11606 11607 11608 11609 11610 11611 11612 11613 11614 11615 11616 11617 11618 11619 11620 11621 11622 11623 11624 11625 11626 11627 11628 11629 11630 11631 11632 11633 11634 11635 11636 11637 11638 11639 11640 11641 11642 11643 11644 11645 11646 11647 11648 11649 11650 11651 11652 11653 11654 11655 11656 11657 11658 11659 11660 11661 11662 11663 11664 11665 11666 11667 11668 11669 11670 11671 11672 11673 11674 11675 11676 11677 11678 11679 11680 11681 11682 11683 11684 11685 11686 11687 11688 11689 11690 11691 11692 11693 11694 11695 11696 11697 11698 11699 11700 11701 11702 11703 11704 11705 11706 11707 11708 11709 11710 11711 11712 11713 11714 11715 11716 11717 11718 11719 11720 11721 11722 11723 11724 11725 11726 11727 11728 11729 11730 11731 11732 11733 11734 11735 11736 11737 11738 11739 11740 11741 11742 11743 11744 11745 11746 11747 11748 11749 11750 11751 11752 11753 11754 11755 11756 11757 11758 11759 11760 11761 11762 11763 11764 11765 11766 11767 11768 11769 11770 11771 11772 11773 11774 11775 11776 11777 11778 11779 11780 11781 11782 11783 11784 11785 11786 11787 11788 11789 11790 11791 11792 11793 11794 11795 11796 11797 11798 11799 11800 11801 11802 11803 11804 11805 11806 11807 11808 11809 11810 11811 11812 11813 11814 11815 11816 11817 11818 11819 11820 11821 11822 11823 11824 11825 11826 11827 11828 11829 11830 11831 11832 11833 11834 11835 11836 11837 11838 11839 11840 11841 11842 11843 11844 11845 11846 11847 11848 11849 11850 11851 11852 11853 11854 11855 11856 11857 11858 11859 11860 11861 11862 11863 11864 11865 11866 11867 11868 11869 11870 11871 11872 11873 11874 11875 11876 11877 11878 11879 11880 11881 11882 11883 11884 11885 11886 11887 11888 11889 11890 11891 11892 11893 11894 11895 11896 11897 11898 11899 11900 11901 11902 11903 11904 11905 11906 11907 11908 11909 11910 11911 11912 11913 11914 11915 11916 11917 11918 11919 11920 11921 11922 11923 11924 11925 11926 11927 11928 11929 11930 11931 11932 11933 11934 11935 11936 11937 11938 11939 11940 11941 11942 11943 11944 11945 11946 11947 11948 11949 11950 11951 11952 11953 11954 11955 11956 11957 11958 11959 11960 11961 11962 11963 11964 11965 11966 11967 11968 11969 11970 11971 11972 11973 11974 11975 11976 11977 11978 11979 11980 11981 11982 11983 11984 11985 11986 11987 11988 11989 11990 11991 11992 11993 11994 11995 11996 11997 11998 11999 12000 12001 12002 12003 12004 12005 12006 12007 12008 12009 12010 12011 12012 12013 12014 12015 12016 12017 12018 12019 12020 12021 12022 12023 12024 12025 12026 12027 12028 12029 12030 12031 12032 12033 12034 12035 12036 12037 12038 12039 12040 12041 12042 12043 12044 12045 12046 12047 12048 12049 12050 12051 12052 12053 12054 12055 12056 12057 12058 12059 12060 12061 12062 12063 12064 12065 12066 12067 12068 12069 12070 12071 12072 12073 12074 12075 12076 12077 12078 12079 12080 12081 12082 12083 12084 12085 12086 12087 12088 12089 12090 12091 12092 12093 12094 12095 12096 12097 12098 12099 12100 12101 12102 12103 12104 12105 12106 12107 12108 12109 12110 12111 12112 12113 12114 12115 12116 12117 12118 12119 12120 12121 12122 12123 12124 12125 12126 12127 12128 12129 12130 12131 12132 12133 12134 12135 12136 12137 12138 12139 12140 12141 12142 12143 12144 12145 12146 12147 12148 12149 12150 12151 12152 12153 12154 12155 12156 12157 12158 12159 12160 12161 12162 12163 12164 12165 12166 12167 12168 12169 12170 12171 12172 12173 12174 12175 12176 12177 12178 12179 12180 12181 12182 12183 12184 12185 12186 12187 12188 12189 12190 12191 12192 12193 12194 12195 12196 12197 12198 12199 12200 12201 12202 12203 12204 12205 12206 12207 12208 12209 12210 12211 12212 12213 12214 12215 12216 12217 12218 12219 12220 12221 12222 12223 12224 12225 12226 12227 12228 12229 12230 12231 12232 12233 12234 12235 12236 12237 12238 12239 12240 12241 12242 12243 12244 12245 12246 12247 12248 12249 12250 12251 12252 12253 12254 12255 12256 12257 12258 12259 12260 12261 12262 12263 12264 12265 12266 12267 12268 12269 12270 12271 12272 12273 12274 12275 12276 12277 12278 12279 12280 12281 12282 12283 12284 12285 12286 12287 12288 12289 12290 12291 12292 12293 12294 12295 12296 12297 12298 12299 12300 12301 12302 12303 12304 12305 12306 12307 12308 12309 12310 12311 12312 12313 12314 12315 12316 12317 12318 12319 12320 12321 12322 12323 12324 12325 12326 12327 12328 12329 12330 12331 12332 12333 12334 12335 12336 12337 12338 12339 12340 12341 12342 12343 12344 12345 12346 12347 12348 12349 12350 12351 12352 12353 12354 12355 12356 12357 12358 12359 12360 12361 12362 12363 12364 12365 12366 12367 12368 12369 12370 12371 12372 12373 12374 12375 12376 12377 12378 12379 12380 12381 12382 12383 12384 12385 12386 12387 12388 12389 12390 12391 12392 12393 12394 12395 12396 12397 12398 12399 12400 12401 12402 12403 12404 12405 12406 12407 12408 12409 12410 12411 12412 12413 12414 12415 12416 12417 12418 12419 12420 12421 12422 12423 12424 12425 12426 12427 12428 12429 12430 12431 12432 12433 12434 12435 12436 12437 12438 12439 12440 12441 12442 12443 12444 12445 12446 12447 12448 12449 12450 12451 12452 12453 12454 12455 12456 12457 12458 12459 12460 12461 12462 12463 12464 12465 12466 12467 12468 12469 12470 12471 12472 12473 12474 12475 12476 12477 12478 12479 12480 12481 12482 12483 12484 12485 12486 12487 12488 12489 12490 12491 12492 12493 12494 12495 12496 12497 12498 12499 12500 12501 12502 12503 12504 12505 12506 12507 12508 12509 12510 12511 12512 12513 12514 12515 12516 12517 12518 12519 12520 12521 12522 12523 12524 12525 12526 12527 12528 12529 12530 12531 12532 12533 12534 12535 12536 12537 12538 12539 12540 12541 12542 12543 12544 12545 12546 12547 12548 12549 12550 12551 12552 12553 12554 12555 12556 12557 12558 12559 12560 12561 12562 12563 12564 12565 12566 12567 12568 12569 12570 12571 12572 12573 12574 12575 12576 12577 12578 12579 12580 12581 12582 12583 12584 12585 12586 12587 12588 12589 12590 12591 12592 12593 12594 12595 12596 12597 12598 12599 12600 12601 12602 12603 12604 12605 12606 12607 12608 12609 12610 12611 12612 12613 12614 12615 12616 12617 12618 12619 12620 12621 12622 12623 12624 12625 12626 12627 12628 12629 12630 12631 12632 12633 12634 12635 12636 12637 12638 12639 12640 12641 12642 12643 12644 12645 12646 12647 12648 12649 12650 12651 12652 12653 12654 12655 12656 12657 12658 12659 12660 12661 12662 12663 12664 12665 12666 12667 12668 12669 12670 12671 12672 12673 12674 12675 12676 12677 12678 12679 12680 12681 12682 12683 12684 12685 12686 12687 12688 12689 12690 12691 12692 12693 12694 12695 12696 12697 12698 12699 12700 12701 12702 12703 12704 12705 12706 12707 12708 12709 12710 12711 12712 12713 12714 12715 12716 12717 12718 12719 12720 12721 12722 12723 12724 12725 12726 12727 12728 12729 12730 12731 12732 12733 12734 12735 12736 12737 12738 12739 12740 12741 12742 12743 12744 12745 12746 12747 12748 12749 12750 12751 12752 12753 12754 12755 12756 12757 12758 12759 12760 12761 12762 12763 12764 12765 12766 12767 12768 12769 12770 12771 12772 12773 12774 12775 12776 12777 12778 12779 12780 12781 12782 12783 12784 12785 12786 12787 12788 12789 12790 12791 12792 12793 12794 12795 12796 12797 12798 12799 12800 12801 12802 12803 12804 12805 12806 12807 12808 12809 12810 12811 12812 12813 12814 12815 12816 12817 12818 12819 12820 12821 12822 12823 12824 12825 12826 12827 12828 12829 12830 12831 12832 12833 12834 12835 12836 12837 12838 12839 12840 12841 12842 12843 12844 12845 12846 12847 12848 12849 12850 12851 12852 12853 12854 12855 12856 12857 12858 12859 12860 12861 12862 12863 12864 12865 12866 12867 12868 12869 12870 12871 12872 12873 12874 12875 12876 12877 12878 12879 12880 12881 12882 12883 12884 12885 12886 12887 12888 12889 12890 12891 12892 12893 12894 12895 12896 12897 12898 12899 12900 12901 12902 12903 12904 12905 12906 12907 12908 12909 12910 12911 12912 12913 12914 12915 12916 12917 12918 12919 12920 12921 12922 12923 12924 12925 12926 12927 12928 12929 12930 12931 12932 12933 12934 12935 12936 12937 12938 12939 12940 12941 12942 12943 12944 12945 12946 12947 12948 12949 12950 12951 12952 12953 12954 12955 12956 12957 12958 12959 12960 12961 12962 12963 12964 12965 12966 12967 12968 12969 12970 12971 12972 12973 12974 12975 12976 12977 12978 12979 12980 12981 12982 12983 12984 12985 12986 12987 12988 12989 12990 12991 12992 12993 12994 12995 12996 12997 12998 12999 13000 13001 13002 13003 13004 13005 13006 13007 13008 13009 13010 13011 13012 13013 13014 13015 13016 13017 13018 13019 13020 13021 13022 13023 13024 13025 13026 13027 13028 13029 13030 13031 13032 13033 13034 13035 13036 13037 13038 13039 13040 13041 13042 13043 13044 13045 13046 13047 13048 13049 13050 13051 13052 13053 13054 13055 13056 13057 13058 13059 13060 13061 13062 13063 13064 13065 13066 13067 13068 13069 13070 13071 13072 13073 13074 13075 13076 13077 13078 13079 13080 13081 13082 13083 13084 13085 13086 13087 13088 13089 13090 13091 13092 13093 13094 13095 13096 13097 13098 13099 13100 13101 13102 13103 13104 13105 13106 13107 13108 13109 13110 13111 13112 13113 13114 13115 13116 13117 13118 13119 13120 13121 13122 13123 13124 13125 13126 13127 13128 13129 13130 13131 13132 13133 13134 13135 13136 13137 13138 13139 13140 13141 13142 13143 13144 13145 13146 13147 13148 13149 13150 13151 13152 13153 13154 13155 13156 13157 13158 13159 13160 13161 13162 13163 13164 13165 13166 13167 13168 13169 13170 13171 13172 13173 13174 13175 13176 13177 13178 13179 13180 13181 13182 13183 13184 13185 13186 13187 13188 13189 13190 13191 13192 13193 13194 13195 13196 13197 13198 13199 13200 13201 13202 13203 13204 13205 13206 13207 13208 13209 13210 13211 13212 13213 13214 13215 13216 13217 13218 13219 13220 13221 13222 13223 13224 13225 13226 13227 13228 13229 13230 13231 13232 13233 13234 13235 13236 13237 13238 13239 13240 13241 13242 13243 13244 13245 13246 13247 13248 13249 13250 13251 13252 13253 13254 13255 13256 13257 13258 13259 13260 13261 13262 13263 13264 13265 13266 13267 13268 13269 13270 13271 13272 13273 13274 13275 13276 13277 13278 13279 13280 13281 13282 13283 13284 13285 13286 13287 13288 13289 13290 13291 13292 13293 13294 13295 13296 13297 13298 13299 13300 13301 13302 13303 13304 13305 13306 13307 13308 13309 13310 13311 13312 13313 13314 13315 13316 13317 13318 13319 13320 13321 13322 13323 13324 13325 13326 13327 13328 13329 13330 13331 13332 13333 13334 13335 13336 13337 13338 13339 13340 13341 13342 13343 13344 13345 13346 13347 13348 13349 13350 13351 13352 13353 13354 13355 13356 13357 13358 13359 13360 13361 13362 13363 13364 13365 13366 13367 13368 13369 13370 13371 13372 13373 13374 13375 13376 13377 13378 13379 13380 13381 13382 13383 13384 13385 13386 13387 13388 13389 13390 13391 13392 13393 13394 13395 13396 13397 13398 13399 13400 13401 13402 13403 13404 13405 13406 13407 13408 13409 13410 13411 13412 13413 13414 13415 13416 13417 13418 13419 13420 13421 13422 13423 13424 13425 13426 13427 13428 13429 13430 13431 13432 13433 13434 13435 13436 13437 13438 13439 13440 13441 13442 13443 13444 13445 13446 13447 13448 13449 13450 13451 13452 13453 13454 13455 13456 13457 13458 13459 13460 13461 13462 13463 13464 13465 13466 13467 13468 13469 13470 13471 13472 13473 13474 13475 13476 13477 13478 13479 13480 13481 13482 13483 13484 13485 13486 13487 13488 13489 13490 13491 13492 13493 13494 13495 13496 13497 13498 13499 13500 13501 13502 13503 13504 13505 13506 13507 13508 13509 13510 13511 13512 13513 13514 13515 13516 13517 13518 13519 13520 13521 13522 13523 13524 13525 13526 13527 13528 13529 13530 13531 13532 13533 13534 13535 13536 13537 13538 13539 13540 13541 13542 13543 13544 13545 13546 13547 13548 13549 13550 13551 13552 13553 13554 13555 13556 13557 13558 13559 13560 13561 13562 13563 13564 13565 13566 13567 13568 13569 13570 13571 13572 13573 13574 13575 13576 13577 13578 13579 13580 13581 13582 13583 13584 13585 13586 13587 13588 13589 13590 13591 13592 13593 13594 13595 13596 13597 13598 13599 13600 13601 13602 13603 13604 13605 13606 13607 13608 13609 13610 13611 13612 13613 13614 13615 13616 13617 13618 13619 13620 13621 13622 13623 13624 13625 13626 13627 13628 13629 13630 13631 13632 13633 13634 13635 13636 13637 13638 13639 13640 13641 13642 13643 13644 13645 13646 13647 13648 13649 13650 13651 13652 13653 13654 13655 13656 13657 13658 13659 13660 13661 13662 13663 13664 13665 13666 13667 13668 13669 13670 13671 13672 13673 13674 13675 13676 13677 13678 13679 13680 13681 13682 13683 13684 13685 13686 13687 13688 13689 13690 13691 13692 13693 13694 13695 13696 13697 13698 13699 13700 13701 13702 13703 13704 13705 13706 13707 13708 13709 13710 13711 13712 13713 13714 13715 13716 13717 13718 13719 13720 13721 13722 13723 13724 13725 13726 13727 13728 13729 13730 13731 13732 13733 13734 13735 13736 13737 13738 13739 13740 13741 13742 13743 13744 13745 13746 13747 13748 13749 13750 13751 13752 13753 13754 13755 13756 13757 13758 13759 13760 13761 13762 13763 13764 13765 13766 13767 13768 13769 13770 13771 13772 13773 13774 13775 13776 13777 13778 13779 13780 13781 13782 13783 13784 13785 13786 13787 13788 13789 13790 13791 13792 13793 13794 13795 13796 13797 13798 13799 13800 13801 13802 13803 13804 13805 13806 13807 13808 13809 13810 13811 13812 13813 13814 13815 13816 13817 13818 13819 13820 13821 13822 13823 13824 13825 13826 13827 13828 13829 13830 13831 13832 13833 13834 13835 13836 13837 13838 13839 13840 13841 13842 13843 13844 13845 13846 13847 13848 13849 13850 13851 13852 13853 13854 13855 13856 13857 13858 13859 13860 13861 13862 13863 13864 13865 13866 13867 13868 13869 13870 13871 13872 13873 13874 13875 13876 13877 13878 13879 13880 13881 13882 13883 13884 13885 13886 13887 13888 13889 13890 13891 13892 13893 13894 13895 13896 13897 13898 13899 13900 13901 13902 13903 13904 13905 13906 13907 13908 13909 13910 13911 13912 13913 13914 13915 13916 13917 13918 13919 13920 13921 13922 13923 13924 13925 13926 13927 13928 13929 13930 13931 13932 13933 13934 13935 13936 13937 13938 13939 13940 13941 13942 13943 13944 13945 13946 13947 13948 13949 13950 13951 13952 13953 13954 13955 13956 13957 13958 13959 13960 13961 13962 13963 13964 13965 13966 13967 13968 13969 13970 13971 13972 13973 13974 13975 13976 13977 13978 13979 13980 13981 13982 13983 13984 13985 13986 13987 13988 13989 13990 13991 13992 13993 13994 13995 13996 13997 13998 13999 14000 14001 14002 14003 14004 14005 14006 14007 14008 14009 14010 14011 14012 14013 14014 14015 14016 14017 14018 14019 14020 14021 14022 14023 14024 14025 14026 14027 14028 14029 14030 14031 14032 14033 14034 14035 14036 14037 14038 14039 14040 14041 14042 14043 14044 14045 14046 14047 14048 14049 14050 14051 14052 14053 14054 14055 14056 14057 14058 14059 14060 14061 14062 14063 14064 14065 14066 14067 14068 14069 14070 14071 14072 14073 14074 14075 14076 14077 14078 14079 14080 14081 14082 14083 14084 14085 14086 14087 14088 14089 14090 14091 14092 14093 14094 14095 14096 14097 14098 14099 14100 14101 14102 14103 14104 14105 14106 14107 14108 14109 14110 14111 14112 14113 14114 14115 14116 14117 14118 14119 14120 14121 14122 14123 14124 14125 14126 14127 14128 14129 14130 14131 14132 14133 14134 14135 14136 14137 14138 14139 14140 14141 14142 14143 14144 14145 14146 14147 14148 14149 14150 14151 14152 14153 14154 14155 14156 14157 14158 14159 14160 14161 14162 14163 14164 14165 14166 14167 14168 14169 14170 14171 14172 14173 14174 14175 14176 14177 14178 14179 14180 14181 14182 14183 14184 14185 14186 14187 14188 14189 14190 14191 14192 14193 14194 14195 14196 14197 14198 14199 14200 14201 14202 14203 14204 14205 14206 14207 14208 14209 14210 14211 14212 14213 14214 14215 14216 14217 14218 14219 14220 14221 14222 14223 14224 14225 14226 14227 14228 14229 14230 14231 14232 14233 14234 14235 14236 14237 14238 14239 14240 14241 14242 14243 14244 14245 14246 14247 14248 14249 14250 14251 14252 14253 14254 14255 14256 14257 14258 14259 14260 14261 14262 14263 14264 14265 14266 14267 14268 14269 14270 14271 14272 14273 14274 14275 14276 14277 14278 14279 14280 14281 14282 14283 14284 14285 14286 14287 14288 14289 14290 14291 14292 14293 14294 14295 14296 14297 14298 14299 14300 14301 14302 14303 14304 14305 14306 14307 14308 14309 14310 14311 14312 14313 14314 14315 14316 14317 14318 14319 14320 14321 14322 14323 14324 14325 14326 14327 14328 14329 14330 14331 14332 14333 14334 14335 14336 14337 14338 14339 14340 14341 14342 14343 14344 14345 14346 14347 14348 14349 14350 14351 14352 14353 14354 14355 14356 14357 14358 14359 14360 14361 14362 14363 14364 14365 14366 14367 14368 14369 14370 14371 14372 14373 14374 14375 14376 14377 14378 14379 14380 14381 14382 14383 14384 14385 14386 14387 14388 14389 14390 14391 14392 14393 14394 14395 14396 14397 14398 14399 14400 14401 14402 14403 14404 14405 14406 14407 14408 14409 14410 14411 14412 14413 14414 14415 14416 14417 14418 14419 14420 14421 14422 14423 14424 14425 14426 14427 14428 14429 14430 14431 14432 14433 14434 14435 14436 14437 14438 14439 14440 14441 14442 14443 14444 14445 14446 14447 14448 14449 14450 14451 14452 14453 14454 14455 14456 14457 14458 14459 14460 14461 14462 14463 14464 14465 14466 14467 14468 14469 14470 14471 14472 14473 14474 14475 14476 14477 14478 14479 14480 14481 14482 14483 14484 14485 14486 14487 14488 14489 14490 14491 14492 14493 14494 14495 14496 14497 14498 14499 14500 14501 14502 14503 14504 14505 14506 14507 14508 14509 14510 14511 14512 14513 14514 14515 14516 14517 14518 14519 14520 14521 14522 14523 14524 14525 14526 14527 14528 14529 14530 14531 14532 14533 14534 14535 14536 14537 14538 14539 14540 14541 14542 14543 14544 14545 14546 14547 14548 14549 14550 14551 14552 14553 14554 14555 14556 14557 14558 14559 14560 14561 14562 14563 14564 14565 14566 14567 14568 14569 14570 14571 14572 14573 14574 14575 14576 14577 14578 14579 14580 14581 14582 14583 14584 14585 14586 14587 14588 14589 14590 14591 14592 14593 14594 14595 14596 14597 14598 14599 14600 14601 14602 14603 14604 14605 14606 14607 14608 14609 14610 14611 14612 14613 14614 14615 14616 14617 14618 14619 14620 14621 14622 14623 14624 14625 14626 14627 14628 14629 14630 14631 14632 14633 14634 14635 14636 14637 14638 14639 14640 14641 14642 14643 14644 14645 14646 14647 14648 14649 14650 14651 14652 14653 14654 14655 14656 14657 14658 14659 14660 14661 14662 14663 14664 14665 14666 14667 14668 14669 14670 14671 14672 14673 14674 14675 14676 14677 14678 14679 14680 14681 14682 14683 14684 14685 14686 14687 14688 14689 14690 14691 14692 14693 14694 14695 14696 14697 14698 14699 14700 14701 14702 14703 14704 14705 14706 14707 14708 14709 14710 14711 14712 14713 14714 14715 14716 14717 14718 14719 14720 14721 14722 14723 14724 14725 14726 14727 14728 14729 14730 14731 14732 14733 14734 14735 14736 14737 14738 14739 14740 14741 14742 14743 14744 14745 14746 14747 14748 14749 14750 14751 14752 14753 14754 14755 14756 14757 14758 14759 14760 14761 14762 14763 14764 14765 14766 14767 14768 14769 14770 14771 14772 14773 14774 14775 14776 14777 14778 14779 14780 14781 14782 14783 14784 14785 14786 14787 14788 14789 14790 14791 14792 14793 14794 14795 14796 14797 14798 14799 14800 14801 14802 14803 14804 14805 14806 14807 14808 14809 14810 14811 14812 14813 14814 14815 14816 14817 14818 14819 14820 14821 14822 14823 14824 14825 14826 14827 14828 14829 14830 14831 14832 14833 14834 14835 14836 14837 14838 14839 14840 14841 14842 14843 14844 14845 14846 14847 14848 14849 14850 14851 14852 14853 14854 14855 14856 14857 14858 14859 14860 14861 14862 14863 14864 14865 14866 14867 14868 14869 14870 14871 14872 14873 14874 14875 14876 14877 14878 14879 14880 14881 14882 14883 14884 14885 14886 14887 14888 14889 14890 14891 14892 14893 14894 14895 14896 14897 14898 14899 14900 14901 14902 14903 14904 14905 14906 14907 14908 14909 14910 14911 14912 14913 14914 14915 14916 14917 14918 14919 14920 14921 14922 14923 14924 14925 14926 14927 14928 14929 14930 14931 14932 14933 14934 14935 14936 14937 14938 14939 14940 14941 14942 14943 14944 14945 14946 14947 14948 14949 14950 14951 14952 14953 14954 14955 14956 14957 14958 14959 14960 14961 14962 14963 14964 14965 14966 14967 14968 14969 14970 14971 14972 14973 14974 14975 14976 14977 14978 14979 14980 14981 14982 14983 14984 14985 14986 14987 14988 14989 14990 14991 14992 14993 14994 14995 14996 14997 14998 14999 15000 15001 15002 15003 15004 15005 15006 15007 15008 15009 15010 15011 15012 15013 15014 15015 15016 15017 15018 15019 15020 15021 15022 15023 15024 15025 15026 15027 15028 15029 15030 15031 15032 15033 15034 15035 15036 15037 15038 15039 15040 15041 15042 15043 15044 15045 15046 15047 15048 15049 15050 15051 15052 15053 15054 15055 15056 15057 15058 15059 15060 15061 15062 15063 15064 15065 15066 15067 15068 15069 15070 15071 15072 15073 15074 15075 15076 15077 15078 15079 15080 15081 15082 15083 15084 15085 15086 15087 15088 15089 15090 15091 15092 15093 15094 15095 15096 15097 15098 15099 15100 15101 15102 15103 15104 15105 15106 15107 15108 15109 15110 15111 15112 15113 15114 15115 15116 15117 15118 15119 15120 15121 15122 15123 15124 15125 15126 15127 15128 15129 15130 15131 15132 15133 15134 15135 15136 15137 15138 15139 15140 15141 15142 15143 15144 15145 15146 15147 15148 15149 15150 15151 15152 15153 15154 15155 15156 15157 15158 15159 15160 15161 15162 15163 15164 15165 15166 15167 15168 15169 15170 15171 15172 15173 15174 15175 15176 15177 15178 15179 15180 15181 15182 15183 15184 15185 15186 15187 15188 15189 15190 15191 15192 15193 15194 15195 15196 15197 15198 15199 15200 15201 15202 15203 15204 15205 15206 15207 15208 15209 15210 15211 15212 15213 15214 15215 15216 15217 15218 15219 15220 15221 15222 15223 15224 15225 15226 15227 15228 15229 15230 15231 15232 15233 15234 15235 15236 15237 15238 15239 15240 15241 15242 15243 15244 15245 15246 15247 15248 15249 15250 15251 15252 15253 15254 15255 15256 15257 15258 15259 15260 15261 15262 15263 15264 15265 15266 15267 15268 15269 15270 15271 15272 15273 15274 15275 15276 15277 15278 15279 15280 15281 15282 15283 15284 15285 15286 15287 15288 15289 15290 15291 15292 15293 15294 15295 15296 15297 15298 15299 15300 15301 15302 15303 15304 15305 15306 15307 15308 15309 15310 15311 15312 15313 15314 15315 15316 15317 15318 15319 15320 15321 15322 15323 15324 15325 15326 15327 15328 15329 15330 15331 15332 15333 15334 15335 15336 15337 15338 15339 15340 15341 15342 15343 15344 15345 15346 15347 15348 15349 15350 15351 15352 15353 15354 15355 15356 15357 15358 15359 15360 15361 15362 15363 15364 15365 15366 15367 15368 15369 15370 15371 15372 15373 15374 15375 15376 15377 15378 15379 15380 15381 15382 15383 15384 15385 15386 15387 15388 15389 15390 15391 15392 15393 15394 15395 15396 15397 15398 15399 15400 15401 15402 15403 15404 15405 15406 15407 15408 15409 15410 15411 15412 15413 15414 15415 15416 15417 15418 15419 15420 15421 15422 15423 15424 15425 15426 15427 15428 15429 15430 15431 15432 15433 15434 15435 15436 15437 15438 15439 15440 15441 15442 15443 15444 15445 15446 15447 15448 15449 15450 15451 15452 15453 15454 15455 15456 15457 15458 15459 15460 15461 15462 15463 15464 15465 15466 15467 15468 15469 15470 15471 15472 15473 15474 15475 15476 15477 15478 15479 15480 15481 15482 15483 15484 15485 15486 15487 15488 15489 15490 15491 15492 15493 15494 15495 15496 15497 15498 15499 15500 15501 15502 15503 15504 15505 15506 15507 15508 15509 15510 15511 15512 15513 15514 15515 15516 15517 15518 15519 15520 15521 15522 15523 15524 15525 15526 15527 15528 15529 15530 15531 15532 15533 15534 15535 15536 15537 15538 15539 15540 15541 15542 15543 15544 15545 15546 15547 15548 15549 15550 15551 15552 15553 15554 15555 15556 15557 15558 15559 15560 15561 15562 15563 15564 15565 15566 15567 15568 15569 15570 15571 15572 15573 15574 15575 15576 15577 15578 15579 15580 15581 15582 15583 15584 15585 15586 15587 15588 15589 15590 15591 15592 15593 15594 15595 15596 15597 15598 15599 15600 15601 15602 15603 15604 15605 15606 15607 15608 15609 15610 15611 15612 15613 15614 15615 15616 15617 15618 15619 15620 15621 15622 15623 15624 15625 15626 15627 15628 15629 15630 15631 15632 15633 15634 15635 15636 15637 15638 15639 15640 15641 15642 15643 15644 15645 15646 15647 15648 15649 15650 15651 15652 15653 15654 15655 15656 15657 15658 15659 15660 15661 15662 15663 15664 15665 15666 15667 15668 15669 15670 15671 15672 15673 15674 15675 15676 15677 15678 15679 15680 15681 15682 15683 15684 15685 15686 15687 15688 15689 15690 15691 15692 15693 15694 15695 15696 15697 15698 15699 15700 15701 15702 15703 15704 15705 15706 15707 15708 15709 15710 15711 15712 15713 15714 15715 15716 15717 15718 15719 15720 15721 15722 15723 15724 15725 15726 15727 15728 15729 15730 15731 15732 15733 15734 15735 15736 15737 15738 15739 15740 15741 15742 15743 15744 15745 15746 15747 15748 15749 15750 15751 15752 15753 15754 15755 15756 15757 15758 15759 15760 15761 15762 15763 15764 15765 15766 15767 15768 15769 15770 15771 15772 15773 15774 15775 15776 15777 15778 15779 15780 15781 15782 15783 15784 15785 15786 15787 15788 15789 15790 15791 15792 15793 15794 15795 15796 15797 15798 15799 15800 15801 15802 15803 15804 15805 15806 15807 15808 15809 15810 15811 15812 15813 15814 15815 15816 15817 15818 15819 15820 15821 15822 15823 15824 15825 15826 15827 15828 15829 15830 15831 15832 15833 15834 15835 15836 15837 15838 15839 15840 15841 15842 15843 15844 15845 15846 15847 15848 15849 15850 15851 15852 15853 15854 15855 15856 15857 15858 15859 15860 15861 15862 15863 15864 15865 15866 15867 15868 15869 15870 15871 15872 15873 15874 15875 15876 15877 15878 15879 15880 15881 15882 15883 15884 15885 15886 15887 15888 15889 15890 15891 15892 15893 15894 15895 15896 15897 15898 15899 15900 15901 15902 15903 15904 15905 15906 15907 15908 15909 15910 15911 15912 15913 15914 15915 15916 15917 15918 15919 15920 15921 15922 15923 15924 15925 15926 15927 15928 15929 15930 15931 15932 15933 15934 15935 15936 15937 15938 15939 15940 15941 15942 15943 15944 15945 15946 15947 15948 15949 15950 15951 15952 15953 15954 15955 15956 15957 15958 15959 15960 15961 15962 15963 15964 15965 15966 15967 15968 15969 15970 15971 15972 15973 15974 15975 15976 15977 15978 15979 15980 15981 15982 15983 15984 15985 15986 15987 15988 15989 15990 15991 15992 15993 15994 15995 15996 15997 15998 15999 16000 16001 16002 16003 16004 16005 16006 16007 16008 16009 16010 16011 16012 16013 16014 16015 16016 16017 16018 16019 16020 16021 16022 16023 16024 16025 16026 16027 16028 16029 16030 16031 16032 16033 16034 16035 16036 16037 16038 16039 16040 16041 16042 16043 16044 16045 16046 16047 16048 16049 16050 16051 16052 16053 16054 16055 16056 16057 16058 16059 16060 16061 16062 16063 16064 16065 16066 16067 16068 16069 16070 16071 16072 16073 16074 16075 16076 16077 16078 16079 16080 16081 16082 16083 16084 16085 16086 16087 16088 16089 16090 16091 16092 16093 16094 16095 16096 16097 16098 16099 16100 16101 16102 16103 16104 16105 16106 16107 16108 16109 16110 16111 16112 16113 16114 16115 16116 16117 16118 16119 16120 16121 16122 16123 16124 16125 16126 16127 16128 16129 16130 16131 16132 16133 16134 16135 16136 16137 16138 16139 16140 16141 16142 16143 16144 16145 16146 16147 16148 16149 16150 16151 16152 16153 16154 16155 16156 16157 16158 16159 16160 16161 16162 16163 16164 16165 16166 16167 16168 16169 16170 16171 16172 16173 16174 16175 16176 16177 16178 16179 16180 16181 16182 16183 16184 16185 16186 16187 16188 16189 16190 16191 16192 16193 16194 16195 16196 16197 16198 16199 16200 16201 16202 16203 16204 16205 16206 16207 16208 16209 16210 16211 16212 16213 16214 16215 16216 16217 16218 16219 16220 16221 16222 16223 16224 16225 16226 16227 16228 16229 16230 16231 16232 16233 16234 16235 16236 16237 16238 16239 16240 16241 16242 16243 16244 16245 16246 16247 16248 16249 16250 16251 16252 16253 16254 16255 16256 16257 16258 16259 16260 16261 16262 16263 16264 16265 16266 16267 16268 16269 16270 16271 16272 16273 16274 16275 16276 16277 16278 16279 16280 16281 16282 16283 16284 16285 16286 16287 16288 16289 16290 16291 16292 16293 16294 16295 16296 16297 16298 16299 16300 16301 16302 16303 16304 16305 16306 16307 16308 16309 16310 16311 16312 16313 16314 16315 16316 16317 16318 16319 16320 16321 16322 16323 16324 16325 16326 16327 16328 16329 16330 16331 16332 16333 16334 16335 16336 16337 16338 16339 16340 16341 16342 16343 16344 16345 16346 16347 16348 16349 16350 16351 16352 16353 16354 16355 16356 16357 16358 16359 16360 16361 16362 16363 16364 16365 16366 16367 16368 16369 16370 16371 16372 16373 16374 16375 16376 16377 16378 16379 16380 16381 16382 16383 16384 16385 16386 16387 16388 16389 16390 16391 16392 16393 16394 16395 16396 16397 16398 16399 16400 16401 16402 16403 16404 16405 16406 16407 16408 16409 16410 16411 16412 16413 16414 16415 16416 16417 16418 16419 16420 16421 16422 16423 16424 16425 16426 16427 16428 16429 16430 16431 16432 16433 16434 16435 16436 16437 16438 16439 16440 16441 16442 16443 16444 16445 16446 16447 16448 16449 16450 16451 16452 16453 16454 16455 16456 16457 16458 16459 16460 16461 16462 16463 16464 16465 16466 16467 16468 16469 16470 16471 16472 16473 16474 16475 16476 16477 16478 16479 16480 16481 16482 16483 16484 16485 16486 16487 16488 16489 16490 16491 16492 16493 16494 16495 16496 16497 16498 16499 16500 16501 16502 16503 16504 16505 16506 16507 16508 16509 16510 16511 16512 16513 16514 16515 16516 16517 16518 16519 16520 16521 16522 16523 16524 16525 16526 16527 16528 16529 16530 16531 16532 16533 16534 16535 16536 16537 16538 16539 16540 16541 16542 16543 16544 16545 16546 16547 16548 16549 16550 16551 16552 16553 16554 16555 16556 16557 16558 16559 16560 16561 16562 16563 16564 16565 16566 16567 16568 16569 16570 16571 16572 16573 16574 16575 16576 16577 16578 16579 16580 16581 16582 16583 16584 16585 16586 16587 16588 16589 16590 16591 16592 16593 16594 16595 16596 16597 16598 16599 16600 16601 16602 16603 16604 16605 16606 16607 16608 16609 16610 16611 16612 16613 16614 16615 16616 16617 16618 16619 16620 16621 16622 16623 16624 16625 16626 16627 16628 16629 16630 16631 16632 16633 16634 16635 16636 16637 16638 16639 16640 16641 16642 16643 16644 16645 16646 16647 16648 16649 16650 16651 16652 16653 16654 16655 16656 16657 16658 16659 16660 16661 16662 16663 16664 16665 16666 16667 16668 16669 16670 16671 16672 16673 16674 16675 16676 16677 16678 16679 16680 16681 16682 16683 16684 16685 16686 16687 16688 16689 16690 16691 16692 16693 16694 16695 16696 16697 16698 16699 16700 16701 16702 16703 16704 16705 16706 16707 16708 16709 16710 16711 16712 16713 16714 16715 16716 16717 16718 16719 16720 16721 16722 16723 16724 16725 16726 16727 16728 16729 16730 16731 16732 16733 16734 16735 16736 16737 16738 16739 16740 16741 16742 16743 16744 16745 16746 16747 16748 16749 16750 16751 16752 16753 16754 16755 16756 16757 16758 16759 16760 16761 16762 16763 16764 16765 16766 16767 16768 16769 16770 16771 16772 16773 16774 16775 16776 16777 16778 16779 16780 16781 16782 16783 16784 16785 16786 16787 16788 16789 16790 16791 16792 16793 16794 16795 16796 16797 16798 16799 16800 16801 16802 16803 16804 16805 16806 16807 16808 16809 16810 16811 16812 16813 16814 16815 16816 16817 16818 16819 16820 16821 16822 16823 16824 16825 16826 16827 16828 16829 16830 16831 16832 16833 16834 16835 16836 16837 16838 16839 16840 16841 16842 16843 16844 16845 16846 16847 16848 16849 16850 16851 16852 16853 16854 16855 16856 16857 16858 16859 16860 16861 16862 16863 16864 16865 16866 16867 16868 16869 16870 16871 16872 16873 16874 16875 16876 16877 16878 16879 16880 16881 16882 16883 16884 16885 16886 16887 16888 16889 16890 16891 16892 16893 16894 16895 16896 16897 16898 16899 16900 16901 16902 16903 16904 16905 16906 16907 16908 16909 16910 16911 16912 16913 16914 16915 16916 16917 16918 16919 16920 16921 16922 16923 16924 16925 16926 16927 16928 16929 16930 16931 16932 16933 16934 16935 16936 16937 16938 16939 16940 16941 16942 16943 16944 16945 16946 16947 16948 16949 16950 16951 16952 16953 16954 16955 16956 16957 16958 16959 16960 16961 16962 16963 16964 16965 16966 16967 16968 16969 16970 16971 16972 16973 16974 16975 16976 16977 16978 16979 16980 16981 16982 16983 16984 16985 16986 16987 16988 16989 16990 16991 16992 16993 16994 16995 16996 16997 16998 16999 17000 17001 17002 17003 17004 17005 17006 17007 17008 17009 17010 17011 17012 17013 17014 17015 17016 17017 17018 17019 17020 17021 17022 17023 17024 17025 17026 17027 17028 17029 17030 17031 17032 17033 17034 17035 17036 17037 17038 17039 17040 17041 17042 17043 17044 17045 17046 17047 17048 17049 17050 17051 17052 17053 17054 17055 17056 17057 17058 17059 17060 17061 17062 17063 17064 17065 17066 17067 17068 17069 17070 17071 17072 17073 17074 17075 17076 17077 17078 17079 17080 17081 17082 17083 17084 17085 17086 17087 17088 17089 17090 17091 17092 17093 17094 17095 17096 17097 17098 17099 17100 17101 17102 17103 17104 17105 17106 17107 17108 17109 17110 17111 17112 17113 17114 17115 17116 17117 17118 17119 17120 17121 17122 17123 17124 17125 17126 17127 17128 17129 17130 17131 17132 17133 17134 17135 17136 17137 17138 17139 17140 17141 17142 17143 17144 17145 17146 17147 17148 17149 17150 17151 17152 17153 17154 17155 17156 17157 17158 17159 17160 17161 17162 17163 17164 17165 17166 17167 17168 17169 17170 17171 17172 17173 17174 17175 17176 17177 17178 17179 17180 17181 17182 17183 17184 17185 17186 17187 17188 17189 17190 17191 17192 17193 17194 17195 17196 17197 17198 17199 17200 17201 17202 17203 17204 17205 17206 17207 17208 17209 17210 17211 17212 17213 17214 17215 17216 17217 17218 17219 17220 17221 17222 17223 17224 17225 17226 17227 17228 17229 17230 17231 17232 17233 17234 17235 17236 17237 17238 17239 17240 17241 17242 17243 17244 17245 17246 17247 17248 17249 17250 17251 17252 17253 17254 17255 17256 17257 17258 17259 17260 17261 17262 17263 17264 17265 17266 17267 17268 17269 17270 17271 17272 17273 17274 17275 17276 17277 17278 17279 17280 17281 17282 17283 17284 17285 17286 17287 17288 17289 17290 17291 17292 17293 17294 17295 17296 17297 17298 17299 17300 17301 17302 17303 17304 17305 17306 17307 17308 17309 17310 17311 17312 17313 17314 17315 17316 17317 17318 17319 17320 17321 17322 17323 17324 17325 17326 17327 17328 17329 17330 17331 17332 17333 17334 17335 17336 17337 17338 17339 17340 17341 17342 17343 17344 17345 17346 17347 17348 17349 17350 17351 17352 17353 17354 17355 17356 17357 17358 17359 17360 17361 17362 17363 17364 17365 17366 17367 17368 17369 17370 17371 17372 17373 17374 17375 17376 17377 17378 17379 17380 17381 17382 17383 17384 17385 17386 17387 17388 17389 17390 17391 17392 17393 17394 17395 17396 17397 17398 17399 17400 17401 17402 17403 17404 17405 17406 17407 17408 17409 17410 17411 17412 17413 17414 17415 17416 17417 17418 17419 17420 17421 17422 17423 17424 17425 17426 17427 17428 17429 17430 17431 17432 17433 17434 17435 17436 17437 17438 17439 17440 17441 17442 17443 17444 17445 17446 17447 17448 17449 17450 17451 17452 17453 17454 17455 17456 17457 17458 17459 17460 17461 17462 17463 17464 17465 17466 17467 17468 17469 17470 17471 17472 17473 17474 17475 17476 17477 17478 17479 17480 17481 17482 17483 17484 17485 17486 17487 17488 17489 17490 17491 17492 17493 17494 17495 17496 17497 17498 17499 17500 17501 17502 17503 17504 17505 17506 17507 17508 17509 17510 17511 17512 17513 17514 17515 17516 17517 17518 17519 17520 17521 17522 17523 17524 17525 17526 17527 17528 17529 17530 17531 17532 17533 17534 17535 17536 17537 17538 17539 17540 17541 17542 17543 17544 17545 17546 17547 17548 17549 17550 17551 17552 17553 17554 17555 17556 17557 17558 17559 17560 17561 17562 17563 17564 17565 17566 17567 17568 17569 17570 17571 17572 17573 17574 17575 17576 17577 17578 17579 17580 17581 17582 17583 17584 17585 17586 17587 17588 17589 17590 17591 17592 17593 17594 17595 17596 17597 17598 17599 17600 17601 17602 17603 17604 17605 17606 17607 17608 17609 17610 17611 17612 17613 17614 17615 17616 17617 17618 17619 17620 17621 17622 17623 17624 17625 17626 17627 17628 17629 17630 17631 17632 17633 17634 17635 17636 17637 17638 17639 17640 17641 17642 17643 17644 17645 17646 17647 17648 17649 17650 17651 17652 17653 17654 17655 17656 17657 17658 17659 17660 17661 17662 17663 17664 17665 17666 17667 17668 17669 17670 17671 17672 17673 17674 17675 17676 17677 17678 17679 17680 17681 17682 17683 17684 17685 17686 17687 17688 17689 17690 17691 17692 17693 17694 17695 17696 17697 17698 17699 17700 17701 17702 17703 17704 17705 17706 17707 17708 17709 17710 17711 17712 17713 17714 17715 17716 17717 17718 17719 17720 17721 17722 17723 17724 17725 17726 17727 17728 17729 17730 17731 17732 17733 17734 17735 17736 17737 17738 17739 17740 17741 17742 17743 17744 17745 17746 17747 17748 17749 17750 17751 17752 17753 17754 17755 17756 17757 17758 17759 17760 17761 17762 17763 17764 17765 17766 17767 17768 17769 17770 17771 17772 17773 17774 17775 17776 17777 17778 17779 17780 17781 17782 17783 17784 17785 17786 17787 17788 17789 17790 17791 17792 17793 17794 17795 17796 17797 17798 17799 17800 17801 17802 17803 17804 17805 17806 17807 17808 17809 17810 17811 17812 17813 17814 17815 17816 17817 17818 17819 17820 17821 17822 17823 17824 17825 17826 17827 17828 17829 17830 17831 17832 17833 17834 17835 17836 17837 17838 17839 17840 17841 17842 17843 17844 17845 17846 17847 17848 17849 17850 17851 17852 17853 17854 17855 17856 17857 17858 17859 17860 17861 17862 17863 17864 17865 17866 17867 17868 17869 17870 17871 17872 17873 17874 17875 17876 17877 17878 17879 17880 17881 17882 17883 17884 17885 17886 17887 17888 17889 17890 17891 17892 17893 17894 17895 17896 17897 17898 17899 17900 17901 17902 17903 17904 17905 17906 17907 17908 17909 17910 17911 17912 17913 17914 17915 17916 17917 17918 17919 17920 17921 17922 17923 17924 17925 17926 17927 17928 17929 17930 17931 17932 17933 17934 17935 17936 17937 17938 17939 17940 17941 17942 17943 17944 17945 17946 17947 17948 17949 17950 17951 17952 17953 17954 17955 17956 17957 17958 17959 17960 17961 17962 17963 17964 17965 17966 17967 17968 17969 17970 17971 17972 17973 17974 17975 17976 17977 17978 17979 17980 17981 17982 17983 17984 17985 17986 17987 17988 17989 17990 17991 17992 17993 17994 17995 17996 17997 17998 17999 18000 18001 18002 18003 18004 18005 18006 18007 18008 18009 18010 18011 18012 18013 18014 18015 18016 18017 18018 18019 18020 18021 18022 18023 18024 18025 18026 18027 18028 18029 18030 18031 18032 18033 18034 18035 18036 18037 18038 18039 18040 18041 18042 18043 18044 18045 18046 18047 18048 18049 18050 18051 18052 18053 18054 18055 18056 18057 18058 18059 18060 18061 18062 18063 18064 18065 18066 18067 18068 18069 18070 18071 18072 18073 18074 18075 18076 18077 18078 18079 18080 18081 18082 18083 18084 18085 18086 18087 18088 18089 18090 18091 18092 18093 18094 18095 18096 18097 18098 18099 18100 18101 18102 18103 18104 18105 18106 18107 18108 18109 18110 18111 18112 18113 18114 18115 18116 18117 18118 18119 18120 18121 18122 18123 18124 18125 18126 18127 18128 18129 18130 18131 18132 18133 18134 18135 18136 18137 18138 18139 18140 18141 18142 18143 18144 18145 18146 18147 18148 18149 18150 18151 18152 18153 18154 18155 18156 18157 18158 18159 18160 18161 18162 18163 18164 18165 18166 18167 18168 18169 18170 18171 18172 18173 18174 18175 18176 18177 18178 18179 18180 18181 18182 18183 18184 18185 18186 18187 18188 18189 18190 18191 18192 18193 18194 18195 18196 18197 18198 18199 18200 18201 18202 18203 18204 18205 18206 18207 18208 18209 18210 18211 18212 18213 18214 18215 18216 18217 18218 18219 18220 18221 18222 18223 18224 18225 18226 18227 18228 18229 18230 18231 18232 18233 18234 18235 18236 18237 18238 18239 18240 18241 18242 18243 18244 18245 18246 18247 18248 18249 18250 18251 18252 18253 18254 18255 18256 18257 18258 18259 18260 18261 18262 18263 18264 18265 18266 18267 18268 18269 18270 18271 18272 18273 18274 18275 18276 18277 18278 18279 18280 18281 18282 18283 18284 18285 18286 18287 18288 18289 18290 18291 18292 18293 18294 18295 18296 18297 18298 18299 18300 18301 18302 18303 18304 18305 18306 18307 18308 18309 18310 18311 18312 18313 18314 18315 18316 18317 18318 18319 18320 18321 18322 18323 18324 18325 18326 18327 18328 18329 18330 18331 18332 18333 18334 18335 18336 18337 18338 18339 18340 18341 18342 18343 18344 18345 18346 18347 18348 18349 18350 18351 18352 18353 18354 18355 18356 18357 18358 18359 18360 18361 18362 18363 18364 18365 18366 18367 18368 18369 18370 18371 18372 18373 18374 18375 18376 18377 18378 18379 18380 18381 18382 18383 18384 18385 18386 18387 18388 18389 18390 18391 18392 18393 18394 18395 18396 18397 18398 18399 18400 18401 18402 18403 18404 18405 18406 18407 18408 18409 18410 18411 18412 18413 18414 18415 18416 18417 18418 18419 18420 18421 18422 18423 18424 18425 18426 18427 18428 18429 18430 18431 18432 18433 18434 18435 18436 18437 18438 18439 18440 18441 18442 18443 18444 18445 18446 18447 18448 18449 18450 18451 18452 18453 18454 18455 18456 18457 18458 18459 18460 18461 18462 18463 18464 18465 18466 18467 18468 18469 18470 18471 18472 18473 18474 18475 18476 18477 18478 18479 18480 18481 18482 18483 18484 18485 18486 18487 18488 18489 18490 18491 18492 18493 18494 18495 18496 18497 18498 18499 18500 18501 18502 18503 18504 18505 18506 18507 18508 18509 18510 18511 18512 18513 18514 18515 18516 18517 18518 18519 18520 18521 18522 18523 18524 18525 18526 18527 18528 18529 18530 18531 18532 18533 18534 18535 18536 18537 18538 18539 18540 18541 18542 18543 18544 18545 18546 18547 18548 18549 18550 18551 18552 18553 18554 18555 18556 18557 18558 18559 18560 18561 18562 18563 18564 18565 18566 18567 18568 18569 18570 18571 18572 18573 18574 18575 18576 18577 18578 18579 18580 18581 18582 18583 18584 18585 18586 18587 18588 18589 18590 18591 18592 18593 18594 18595 18596 18597 18598 18599 18600 18601 18602 18603 18604 18605 18606 18607 18608 18609 18610 18611 18612 18613 18614 18615 18616 18617 18618 18619 18620 18621 18622 18623 18624 18625 18626 18627 18628 18629 18630 18631 18632 18633 18634 18635 18636 18637 18638 18639 18640 18641 18642 18643 18644 18645 18646 18647 18648 18649 18650 18651 18652 18653 18654 18655 18656 18657 18658 18659 18660 18661 18662 18663 18664 18665 18666 18667 18668 18669 18670 18671 18672 18673 18674 18675 18676 18677 18678 18679 18680 18681 18682 18683 18684 18685 18686 18687 18688 18689 18690 18691 18692 18693 18694 18695 18696 18697 18698 18699 18700 18701 18702 18703 18704 18705 18706 18707 18708 18709 18710 18711 18712 18713 18714 18715 18716 18717 18718 18719 18720 18721 18722 18723 18724 18725 18726 18727 18728 18729 18730 18731 18732 18733 18734 18735 18736 18737 18738 18739 18740 18741 18742 18743 18744 18745 18746 18747 18748 18749 18750 18751 18752 18753 18754 18755 18756 18757 18758 18759 18760 18761 18762 18763 18764 18765 18766 18767 18768 18769 18770 18771 18772 18773 18774 18775 18776 18777 18778 18779 18780 18781 18782 18783 18784 18785 18786 18787 18788 18789 18790 18791 18792 18793 18794 18795 18796 18797 18798 18799 18800 18801 18802 18803 18804 18805 18806 18807 18808 18809 18810 18811 18812 18813 18814 18815 18816 18817 18818 18819 18820 18821 18822 18823 18824 18825 18826 18827 18828 18829 18830 18831 18832 18833 18834 18835 18836 18837 18838 18839 18840 18841 18842 18843 18844 18845 18846 18847 18848 18849 18850 18851 18852 18853 18854 18855 18856 18857 18858 18859 18860 18861 18862 18863 18864 18865 18866 18867 18868 18869 18870 18871 18872 18873 18874 18875 18876 18877 18878 18879 18880 18881 18882 18883 18884 18885 18886 18887 18888 18889 18890 18891 18892 18893 18894 18895 18896 18897 18898 18899 18900 18901 18902 18903 18904 18905 18906 18907 18908 18909 18910 18911 18912 18913 18914 18915 18916 18917 18918 18919 18920 18921 18922 18923 18924 18925 18926 18927 18928 18929 18930 18931 18932 18933 18934 18935 18936 18937 18938 18939 18940 18941 18942 18943 18944 18945 18946 18947 18948 18949 18950 18951 18952 18953 18954 18955 18956 18957 18958 18959 18960 18961 18962 18963 18964 18965 18966 18967 18968 18969 18970 18971 18972 18973 18974 18975 18976 18977 18978 18979 18980 18981 18982 18983 18984 18985 18986 18987 18988 18989 18990 18991 18992 18993 18994 18995 18996 18997 18998 18999 19000 19001 19002 19003 19004 19005 19006 19007 19008 19009 19010 19011 19012 19013 19014 19015 19016 19017 19018 19019 19020 19021 19022 19023 19024 19025 19026 19027 19028 19029 19030 19031 19032 19033 19034 19035 19036 19037 19038 19039 19040 19041 19042 19043 19044 19045 19046 19047 19048 19049 19050 19051 19052 19053 19054 19055 19056 19057 19058 19059 19060 19061 19062 19063 19064 19065 19066 19067 19068 19069 19070 19071 19072 19073 19074 19075 19076 19077 19078 19079 19080 19081 19082 19083 19084 19085 19086 19087 19088 19089 19090 19091 19092 19093 19094 19095 19096 19097 19098 19099 19100 19101 19102 19103 19104 19105 19106 19107 19108 19109 19110 19111 19112 19113 19114 19115 19116 19117 19118 19119 19120 19121 19122 19123 19124 19125 19126 19127 19128 19129 19130 19131 19132 19133 19134 19135 19136 19137 19138 19139 19140 19141 19142 19143 19144 19145 19146 19147 19148 19149 19150 19151 19152 19153 19154 19155 19156 19157 19158 19159 19160 19161 19162 19163 19164 19165 19166 19167 19168 19169 19170 19171 19172 19173 19174 19175 19176 19177 19178 19179 19180 19181 19182 19183 19184 19185 19186 19187 19188 19189 19190 19191 19192 19193 19194 19195 19196 19197 19198 19199 19200 19201 19202 19203 19204 19205 19206 19207 19208 19209 19210 19211 19212 19213 19214 19215 19216 19217 19218 19219 19220 19221 19222 19223 19224 19225 19226 19227 19228 19229 19230 19231 19232 19233 19234 19235 19236 19237 19238 19239 19240 19241 19242 19243 19244 19245 19246 19247 19248 19249 19250 19251 19252 19253 19254 19255 19256 19257 19258 19259 19260 19261 19262 19263 19264 19265 19266 19267 19268 19269 19270 19271 19272 19273 19274 19275 19276 19277 19278 19279 19280 19281 19282 19283 19284 19285 19286 19287 19288 19289 19290 19291 19292 19293 19294 19295 19296 19297 19298 19299 19300 19301 19302 19303 19304 19305 19306 19307 19308 19309 19310 19311 19312 19313 19314 19315 19316 19317 19318 19319 19320 19321 19322 19323 19324 19325 19326 19327 19328 19329 19330 19331 19332 19333 19334 19335 19336 19337 19338 19339 19340 19341 19342 19343 19344 19345 19346 19347 19348 19349 19350 19351 19352 19353 19354 19355 19356 19357 19358 19359 19360 19361 19362 19363 19364 19365 19366 19367 19368 19369 19370 19371 19372 19373 19374 19375 19376 19377 19378 19379 19380 19381 19382 19383 19384 19385 19386 19387 19388 19389 19390 19391 19392 19393 19394 19395 19396 19397 19398 19399 19400 19401 19402 19403 19404 19405 19406 19407 19408 19409 19410 19411 19412 19413 19414 19415 19416 19417 19418 19419 19420 19421 19422 19423 19424 19425 19426 19427 19428 19429 19430 19431 19432 19433 19434 19435 19436 19437 19438 19439 19440 19441 19442 19443 19444 19445 19446 19447 19448 19449 19450 19451 19452 19453 19454 19455 19456 19457 19458 19459 19460 19461 19462 19463 19464 19465 19466 19467 19468 19469 19470 19471 19472 19473 19474 19475 19476 19477 19478 19479 19480 19481 19482 19483 19484 19485 19486 19487 19488 19489 19490 19491 19492 19493 19494 19495 19496 19497 19498 19499 19500 19501 19502 19503 19504 19505 19506 19507 19508 19509 19510 19511 19512 19513 19514 19515 19516 19517 19518 19519 19520 19521 19522 19523 19524 19525 19526 19527 19528 19529 19530 19531 19532 19533 19534 19535 19536 19537 19538 19539 19540 19541 19542 19543 19544 19545 19546 19547 19548 19549 19550 19551 19552 19553 19554 19555 19556 19557 19558 19559 19560 19561 19562 19563 19564 19565 19566 19567 19568 19569 19570 19571 19572 19573 19574 19575 19576 19577 19578 19579 19580 19581 19582 19583 19584 19585 19586 19587 19588 19589 19590 19591 19592 19593 19594 19595 19596 19597 19598 19599 19600 19601 19602 19603 19604 19605 19606 19607 19608 19609 19610 19611 19612 19613 19614 19615 19616 19617 19618 19619 19620 19621 19622 19623 19624 19625 19626 19627 19628 19629 19630 19631 19632 19633 19634 19635 19636 19637 19638 19639 19640 19641 19642 19643 19644 19645 19646 19647 19648 19649 19650 19651 19652 19653 19654 19655 19656 19657 19658 19659 19660 19661 19662 19663 19664 19665 19666 19667 19668 19669 19670 19671 19672 19673 19674 19675 19676 19677 19678 19679 19680 19681 19682 19683 19684 19685 19686 19687 19688 19689 19690 19691 19692 19693 19694 19695 19696 19697 19698 19699 19700 19701 19702 19703 19704 19705 19706 19707 19708 19709 19710 19711 19712 19713 19714 19715 19716 19717 19718 19719 19720 19721 19722 19723 19724 19725 19726 19727 19728 19729 19730 19731 19732 19733 19734 19735 19736 19737 19738 19739 19740 19741 19742 19743 19744 19745 19746 19747 19748 19749 19750 19751 19752 19753 19754 19755 19756 19757 19758 19759 19760 19761 19762 19763 19764 19765 19766 19767 19768 19769 19770 19771 19772 19773 19774 19775 19776 19777 19778 19779 19780 19781 19782 19783 19784 19785 19786 19787 19788 19789 19790 19791 19792 19793 19794 19795 19796 19797 19798 19799 19800 19801 19802 19803 19804 19805 19806 19807 19808 19809 19810 19811 19812 19813 19814 19815 19816 19817 19818 19819 19820 19821 19822 19823 19824 19825 19826 19827 19828 19829 19830 19831 19832 19833 19834 19835 19836 19837 19838 19839 19840 19841 19842 19843 19844 19845 19846 19847 19848 19849 19850 19851 19852 19853 19854 19855 19856 19857 19858 19859 19860 19861 19862 19863 19864 19865 19866 19867 19868 19869 19870 19871 19872 19873 19874 19875 19876 19877 19878 19879 19880 19881 19882 19883 19884 19885 19886 19887 19888 19889 19890 19891 19892 19893 19894 19895 19896 19897 19898 19899 19900 19901 19902 19903 19904 19905 19906 19907 19908 19909 19910 19911 19912 19913 19914 19915 19916 19917 19918 19919 19920 19921 19922 19923 19924 19925 19926 19927 19928 19929 19930 19931 19932 19933 19934 19935 19936 19937 19938 19939 19940 19941 19942 19943 19944 19945 19946 19947 19948 19949 19950 19951 19952 19953 19954 19955 19956 19957 19958 19959 19960 19961 19962 19963 19964 19965 19966 19967 19968 19969 19970 19971 19972 19973 19974 19975 19976 19977 19978 19979 19980 19981 19982 19983 19984 19985 19986 19987 19988 19989 19990 19991 19992 19993 19994 19995 19996 19997 19998 19999 20000 20001 20002 20003 20004 20005 20006 20007 20008 20009 20010 20011 20012 20013 20014 20015 20016 20017 20018 20019 20020 20021 20022 20023 20024 20025 20026 20027 20028 20029 20030 20031 20032 20033 20034 20035 20036 20037 20038 20039 20040 20041 20042 20043 20044 20045 20046 20047 20048 20049 20050 20051 20052 20053 20054 20055 20056 20057 20058 20059 20060 20061 20062 20063 20064 20065 20066 20067 20068 20069 20070 20071 20072 20073 20074 20075 20076 20077 20078 20079 20080 20081 20082 20083 20084 20085 20086 20087 20088 20089 20090 20091 20092 20093 20094 20095 20096 20097 20098 20099 20100 20101 20102 20103 20104 20105 20106 20107 20108 20109 20110 20111 20112 20113 20114 20115 20116 20117 20118 20119 20120 20121 20122 20123 20124 20125 20126 20127 20128 20129 20130 20131 20132 20133 20134 20135 20136 20137 20138 20139 20140 20141 20142 20143 20144 20145 20146 20147 20148 20149 20150 20151 20152 20153 20154 20155 20156 20157 20158 20159 20160 20161 20162 20163 20164 20165 20166 20167 20168 20169 20170 20171 20172 20173 20174 20175 20176 20177 20178 20179 20180 20181 20182 20183 20184 20185 20186 20187 20188 20189 20190 20191 20192 20193 20194 20195 20196 20197 20198 20199 20200 20201 20202 20203 20204 20205 20206 20207 20208 20209 20210 20211 20212 20213 20214 20215 20216 20217 20218 20219 20220 20221 20222 20223 20224 20225 20226 20227 20228 20229 20230 20231 20232 20233 20234 20235 20236 20237 20238 20239 20240 20241 20242 20243 20244 20245 20246 20247 20248 20249 20250 20251 20252 20253 20254 20255 20256 20257 20258 20259 20260 20261 20262 20263 20264 20265 20266 20267 20268 20269 20270 20271 20272 20273 20274 20275 20276 20277 20278 20279 20280 20281 20282 20283 20284 20285 20286 20287 20288 20289 20290 20291 20292 20293 20294 20295 20296 20297 20298 20299 20300 20301 20302 20303 20304 20305 20306 20307 20308 20309 20310 20311 20312 20313 20314 20315 20316 20317 20318 20319 20320 20321 20322 20323 20324 20325 20326 20327 20328 20329 20330 20331 20332 20333 20334 20335 20336 20337 20338 20339 20340 20341 20342 20343 20344 20345 20346 20347 20348 20349 20350 20351 20352 20353 20354 20355 20356 20357 20358 20359 20360 20361 20362 20363 20364 20365 20366 20367 20368 20369 20370 20371 20372 20373 20374 20375 20376 20377 20378 20379 20380 20381 20382 20383 20384 20385 20386 20387 20388 20389 20390 20391 20392 20393 20394 20395 20396 20397 20398 20399 20400 20401 20402 20403 20404 20405 20406 20407 20408 20409 20410 20411 20412 20413 20414 20415 20416 20417 20418 20419 20420 20421 20422 20423 20424 20425 20426 20427 20428 20429 20430 20431 20432 20433 20434 20435 20436 20437 20438 20439 20440 20441 20442 20443 20444 20445 20446 20447 20448 20449 20450 20451 20452 20453 20454 20455 20456 20457 20458 20459 20460 20461 20462 20463 20464 20465 20466 20467 20468 20469 20470 20471 20472 20473 20474 20475 20476 20477 20478 20479 20480 20481 20482 20483 20484 20485 20486 20487 20488 20489 20490 20491 20492 20493 20494 20495 20496 20497 20498 20499 20500 20501 20502 20503 20504 20505 20506 20507 20508 20509 20510 20511 20512 20513 20514 20515 20516 20517 20518 20519 20520 20521 20522 20523 20524 20525 20526 20527 20528 20529 20530 20531 20532 20533 20534 20535 20536 20537 20538 20539 20540 20541 20542 20543 20544 20545 20546 20547 20548 20549 20550 20551 20552 20553 20554 20555 20556 20557 20558 20559 20560 20561 20562 20563 20564 20565 20566 20567 20568 20569 20570 20571 20572 20573 20574 20575 20576 20577 20578 20579 20580 20581 20582 20583 20584 20585 20586 20587 20588 20589 20590 20591 20592 20593 20594 20595 20596 20597 20598 20599 20600 20601 20602 20603 20604 20605 20606 20607 20608 20609 20610 20611 20612 20613 20614 20615 20616 20617 20618 20619 20620 20621 20622 20623 20624 20625 20626 20627 20628 20629 20630 20631 20632 20633 20634 20635 20636 20637 20638 20639 20640 20641 20642 20643 20644 20645 20646 20647 20648 20649 20650 20651 20652 20653 20654 20655 20656 20657 20658 20659 20660 20661 20662 20663 20664 20665 20666 20667 20668 20669 20670 20671 20672 20673 20674 20675 20676 20677 20678 20679 20680 20681 20682 20683 20684 20685 20686 20687 20688 20689 20690 20691 20692 20693 20694 20695 20696 20697 20698 20699 20700 20701 20702 20703 20704 20705 20706 20707 20708 20709 20710 20711 20712 20713 20714 20715 20716 20717 20718 20719 20720 20721 20722 20723 20724 20725 20726 20727 20728 20729 20730 20731 20732 20733 20734 20735 20736 20737 20738 20739 20740 20741 20742 20743 20744 20745 20746 20747 20748 20749 20750 20751 20752 20753 20754 20755 20756 20757 20758 20759 20760 20761 20762 20763 20764 20765 20766 20767 20768 20769 20770 20771 20772 20773 20774 20775 20776 20777 20778 20779 20780 20781 20782 20783 20784 20785 20786 20787 20788 20789 20790 20791 20792 20793 20794 20795 20796 20797 20798 20799 20800 20801 20802 20803 20804 20805 20806 20807 20808 20809 20810 20811 20812 20813 20814 20815 20816 20817 20818 20819 20820 20821 20822 20823 20824 20825 20826 20827 20828 20829 20830 20831 20832 20833 20834 20835 20836 20837 20838 20839 20840 20841 20842 20843 20844 20845 20846 20847 20848 20849 20850 20851 20852 20853 20854 20855 20856 20857 20858 20859 20860 20861 20862 20863 20864 20865 20866 20867 20868 20869 20870 20871 20872 20873 20874 20875 20876 20877 20878 20879 20880 20881 20882 20883 20884 20885 20886 20887 20888 20889 20890 20891 20892 20893 20894 20895 20896 20897 20898 20899 20900 20901 20902 20903 20904 20905 20906 20907 20908 20909 20910 20911 20912 20913 20914 20915 20916 20917 20918 20919 20920 20921 20922 20923 20924 20925 20926 20927 20928 20929 20930 20931 20932 20933 20934 20935 20936 20937 20938 20939 20940 20941 20942 20943 20944 20945 20946 20947 20948 20949 20950 20951 20952 20953 20954 20955 20956 20957 20958 20959 20960 20961 20962 20963 20964 20965 20966 20967 20968 20969 20970 20971 20972 20973 20974 20975 20976 20977 20978 20979 20980 20981 20982 20983 20984 20985 20986 20987 20988 20989 20990 20991 20992 20993 20994 20995 20996 20997 20998 20999 21000 21001 21002 21003 21004 21005 21006 21007 21008 21009 21010 21011 21012 21013 21014 21015 21016 21017 21018 21019 21020 21021 21022 21023 21024 21025 21026 21027 21028 21029 21030 21031 21032 21033 21034 21035 21036 21037 21038 21039 21040 21041 21042 21043 21044 21045 21046 21047 21048 21049 21050 21051 21052 21053 21054 21055 21056 21057 21058 21059 21060 21061 21062 21063 21064 21065 21066 21067 21068 21069 21070 21071 21072 21073 21074 21075 21076 21077 21078 21079 21080 21081 21082 21083 21084 21085 21086 21087 21088 21089 21090 21091 21092 21093 21094 21095 21096 21097 21098 21099 21100 21101 21102 21103 21104 21105 21106 21107 21108 21109 21110 21111 21112 21113 21114 21115 21116 21117 21118 21119 21120 21121 21122 21123 21124 21125 21126 21127 21128 21129 21130 21131 21132 21133 21134 21135 21136 21137 21138 21139 21140 21141 21142 21143 21144 21145 21146 21147 21148 21149 21150 21151 21152 21153 21154 21155 21156 21157 21158 21159 21160 21161 21162 21163 21164 21165 21166 21167 21168 21169 21170 21171 21172 21173 21174 21175 21176 21177 21178 21179 21180 21181 21182 21183 21184 21185 21186 21187 21188 21189 21190 21191 21192 21193 21194 21195 21196 21197 21198 21199 21200 21201 21202 21203 21204 21205 21206 21207 21208 21209 21210 21211 21212 21213 21214 21215 21216 21217 21218 21219 21220 21221 21222 21223 21224 21225 21226 21227 21228 21229 21230 21231 21232 21233 21234 21235 21236 21237 21238 21239 21240 21241 21242 21243 21244 21245 21246 21247 21248 21249 21250 21251 21252 21253 21254 21255 21256 21257 21258 21259 21260 21261 21262 21263 21264 21265 21266 21267 21268 21269 21270 21271 21272 21273 21274 21275 21276 21277 21278 21279 21280 21281 21282 21283 21284 21285 21286 21287 21288 21289 21290 21291 21292 21293 21294 21295 21296 21297 21298 21299 21300 21301 21302 21303 21304 21305 21306 21307 21308 21309 21310 21311 21312 21313 21314 21315 21316 21317 21318 21319 21320 21321 21322 21323 21324 21325 21326 21327 21328 21329 21330 21331 21332 21333 21334 21335 21336 21337 21338 21339 21340 21341 21342 21343 21344 21345 21346 21347 21348 21349 21350 21351 21352 21353 21354 21355 21356 21357 21358 21359 21360 21361 21362 21363 21364 21365 21366 21367 21368 21369 21370 21371 21372 21373 21374 21375 21376 21377 21378 21379 21380 21381 21382 21383 21384 21385 21386 21387 21388 21389 21390 21391 21392 21393 21394 21395 21396 21397 21398 21399 21400 21401 21402 21403 21404 21405 21406 21407 21408 21409 21410 21411 21412 21413 21414 21415 21416 21417 21418 21419 21420 21421 21422 21423 21424 21425 21426 21427 21428 21429 21430 21431 21432 21433 21434 21435 21436 21437 21438 21439 21440 21441 21442 21443 21444 21445 21446 21447 21448 21449 21450 21451 21452 21453 21454 21455 21456 21457 21458 21459 21460 21461 21462 21463 21464 21465 21466 21467 21468 21469 21470 21471 21472 21473 21474 21475 21476 21477 21478 21479 21480 21481 21482 21483 21484 21485 21486 21487 21488 21489 21490 21491 21492 21493 21494 21495 21496 21497 21498 21499 21500 21501 21502 21503 21504 21505 21506 21507 21508 21509 21510 21511 21512 21513 21514 21515 21516 21517 21518 21519 21520 21521 21522 21523 21524 21525 21526 21527 21528 21529 21530 21531 21532 21533 21534 21535 21536 21537 21538 21539 21540 21541 21542 21543 21544 21545 21546 21547 21548 21549 21550 21551 21552 21553 21554 21555 21556 21557 21558 21559 21560 21561 21562 21563 21564 21565 21566 21567 21568 21569 21570 21571 21572 21573 21574 21575 21576 21577 21578 21579 21580 21581 21582 21583 21584 21585 21586 21587 21588 21589 21590 21591 21592 21593 21594 21595 21596 21597 21598 21599 21600 21601 21602 21603 21604 21605 21606 21607 21608 21609 21610 21611 21612 21613 21614 21615 21616 21617 21618 21619 21620 21621 21622 21623 21624 21625 21626 21627 21628 21629 21630 21631 21632 21633 21634 21635 21636 21637 21638 21639 21640 21641 21642 21643 21644 21645 21646 21647 21648 21649 21650 21651 21652 21653 21654 21655 21656 21657 21658 21659 21660 21661 21662 21663 21664 21665 21666 21667 21668 21669 21670 21671 21672 21673 21674 21675 21676 21677 21678 21679 21680 21681 21682 21683 21684 21685 21686 21687 21688 21689 21690 21691 21692 21693 21694 21695 21696 21697 21698 21699 21700 21701 21702 21703 21704 21705 21706 21707 21708 21709 21710 21711 21712 21713 21714 21715 21716 21717 21718 21719 21720 21721 21722 21723 21724 21725 21726 21727 21728 21729 21730 21731 21732 21733 21734 21735 21736 21737 21738 21739 21740 21741 21742 21743 21744 21745 21746 21747 21748 21749 21750 21751 21752 21753 21754 21755 21756 21757 21758 21759 21760 21761 21762 21763 21764 21765 21766 21767 21768 21769 21770 21771 21772 21773 21774 21775 21776 21777 21778 21779 21780 21781 21782 21783 21784 21785 21786 21787 21788 21789 21790 21791 21792 21793 21794 21795 21796 21797 21798 21799 21800 21801 21802 21803 21804 21805 21806 21807 21808 21809 21810 21811 21812 21813 21814 21815 21816 21817 21818 21819 21820 21821 21822 21823 21824 21825 21826 21827 21828 21829 21830 21831 21832 21833 21834 21835 21836 21837 21838 21839 21840 21841 21842 21843 21844 21845 21846 21847 21848 21849 21850 21851 21852 21853 21854 21855 21856 21857 21858 21859 21860 21861 21862 21863 21864 21865 21866 21867 21868 21869 21870 21871 21872 21873 21874 21875 21876 21877 21878 21879 21880 21881 21882 21883 21884 21885 21886 21887 21888 21889 21890 21891 21892 21893 21894 21895 21896 21897 21898 21899 21900 21901 21902 21903 21904 21905 21906 21907 21908 21909 21910 21911 21912 21913 21914 21915 21916 21917 21918 21919 21920 21921 21922 21923 21924 21925 21926 21927 21928 21929 21930 21931 21932 21933 21934 21935 21936 21937 21938 21939 21940 21941 21942 21943 21944 21945 21946 21947 21948 21949 21950 21951 21952 21953 21954 21955 21956 21957 21958 21959 21960 21961 21962 21963 21964 21965 21966 21967 21968 21969 21970 21971 21972 21973 21974 21975 21976 21977 21978 21979 21980 21981 21982 21983 21984 21985 21986 21987 21988 21989 21990 21991 21992 21993 21994 21995 21996 21997 21998 21999 22000 22001 22002 22003 22004 22005 22006 22007 22008 22009 22010 22011 22012 22013 22014 22015 22016 22017 22018 22019 22020 22021 22022 22023 22024 22025 22026 22027 22028 22029 22030 22031 22032 22033 22034 22035 22036 22037 22038 22039 22040 22041 22042 22043 22044 22045 22046 22047 22048 22049 22050 22051 22052 22053 22054 22055 22056 22057 22058 22059 22060 22061 22062 22063 22064 22065 22066 22067 22068 22069 22070 22071 22072 22073 22074 22075 22076 22077 22078 22079 22080 22081 22082 22083 22084 22085 22086 22087 22088 22089 22090 22091 22092 22093 22094 22095 22096 22097 22098 22099 22100 22101 22102 22103 22104 22105 22106 22107 22108 22109 22110 22111 22112 22113 22114 22115 22116 22117 22118 22119 22120 22121 22122 22123 22124 22125 22126 22127 22128 22129 22130 22131 22132 22133 22134 22135 22136 22137 22138 22139 22140 22141 22142 22143 22144 22145 22146 22147 22148 22149 22150 22151 22152 22153 22154 22155 22156 22157 22158 22159 22160 22161 22162 22163 22164 22165 22166 22167 22168 22169 22170 22171 22172 22173 22174 22175 22176 22177 22178 22179 22180 22181 22182 22183 22184 22185 22186 22187 22188 22189 22190 22191 22192 22193 22194 22195 22196 22197 22198 22199 22200 22201 22202 22203 22204 22205 22206 22207 22208 22209 22210 22211 22212 22213 22214 22215 22216 22217 22218 22219 22220 22221 22222 22223 22224 22225 22226 22227 22228 22229 22230 22231 22232 22233 22234 22235 22236 22237 22238 22239 22240 22241 22242 22243 22244 22245 22246 22247 22248 22249 22250 22251 22252 22253 22254 22255 22256 22257 22258 22259 22260 22261 22262 22263 22264 22265 22266 22267 22268 22269 22270 22271 22272 22273 22274 22275 22276 22277 22278 22279 22280 22281 22282 22283 22284 22285 22286 22287 22288 22289 22290 22291 22292 22293 22294 22295 22296 22297 22298 22299 22300 22301 22302 22303 22304 22305 22306 22307 22308 22309 22310 22311 22312 22313 22314 22315 22316 22317 22318 22319 22320 22321 22322 22323 22324 22325 22326 22327 22328 22329 22330 22331 22332 22333 22334 22335 22336 22337 22338 22339 22340 22341 22342 22343 22344 22345 22346 22347 22348 22349 22350 22351 22352 22353 22354 22355 22356 22357 22358 22359 22360 22361 22362 22363 22364 22365 22366 22367 22368 22369 22370 22371 22372 22373 22374 22375 22376 22377 22378 22379 22380 22381 22382 22383 22384 22385 22386 22387 22388 22389 22390 22391 22392 22393 22394 22395 22396 22397 22398 22399 22400 22401 22402 22403 22404 22405 22406 22407 22408 22409 22410 22411 22412 22413 22414 22415 22416 22417 22418 22419 22420 22421 22422 22423 22424 22425 22426 22427 22428 22429 22430 22431 22432 22433 22434 22435 22436 22437 22438 22439 22440 22441 22442 22443 22444 22445 22446 22447 22448 22449 22450 22451 22452 22453 22454 22455 22456 22457 22458 22459 22460 22461 22462 22463 22464 22465 22466 22467 22468 22469 22470 22471 22472 22473 22474 22475 22476 22477 22478 22479 22480 22481 22482 22483 22484 22485 22486 22487 22488 22489 22490 22491 22492 22493 22494 22495 22496 22497 22498 22499 22500 22501 22502 22503 22504 22505 22506 22507 22508 22509 22510 22511 22512 22513 22514 22515 22516 22517 22518 22519 22520 22521 22522 22523 22524 22525 22526 22527 22528 22529 22530 22531 22532 22533 22534 22535 22536 22537 22538 22539 22540 22541 22542 22543 22544 22545 22546 22547 22548 22549 22550 22551 22552 22553 22554 22555 22556 22557 22558 22559 22560 22561 22562 22563 22564 22565 22566 22567 22568 22569 22570 22571 22572 22573 22574 22575 22576 22577 22578 22579 22580 22581 22582 22583 22584 22585 22586 22587 22588 22589 22590 22591 22592 22593 22594 22595 22596 22597 22598 22599 22600 22601 22602 22603 22604 22605 22606 22607 22608 22609 22610 22611 22612 22613 22614 22615 22616 22617 22618 22619 22620 22621 22622 22623 22624 22625 22626 22627 22628 22629 22630 22631 22632 22633 22634 22635 22636 22637 22638 22639 22640 22641 22642 22643 22644 22645 22646 22647 22648 22649 22650 22651 22652 22653 22654 22655 22656 22657 22658 22659 22660 22661 22662 22663 22664 22665 22666 22667 22668 22669 22670 22671 22672 22673 22674 22675 22676 22677 22678 22679 22680 22681 22682 22683 22684 22685 22686 22687 22688 22689 22690 22691 22692 22693 22694 22695 22696 22697 22698 22699 22700 22701 22702 22703 22704 22705 22706 22707 22708 22709 22710 22711 22712 22713 22714 22715 22716 22717 22718 22719 22720 22721 22722 22723 22724 22725 22726 22727 22728 22729 22730 22731 22732 22733 22734 22735 22736 22737 22738 22739 22740 22741 22742 22743 22744 22745 22746 22747 22748 22749 22750 22751 22752 22753 22754 22755 22756 22757 22758 22759 22760 22761 22762 22763 22764 22765 22766 22767 22768 22769 22770 22771 22772 22773 22774 22775 22776 22777 22778 22779 22780 22781 22782 22783 22784 22785 22786 22787 22788 22789 22790 22791 22792 22793 22794 22795 22796 22797 22798 22799 22800 22801 22802 22803 22804 22805 22806 22807 22808 22809 22810 22811 22812 22813 22814 22815 22816 22817 22818 22819 22820 22821 22822 22823 22824 22825 22826 22827 22828 22829 22830 22831 22832 22833 22834 22835 22836 22837 22838 22839 22840 22841 22842 22843 22844 22845 22846 22847 22848 22849 22850 22851 22852 22853 22854 22855 22856 22857 22858 22859 22860 22861 22862 22863 22864 22865 22866 22867 22868 22869 22870 22871 22872 22873 22874 22875 22876 22877 22878 22879 22880 22881 22882 22883 22884 22885 22886 22887 22888 22889 22890 22891 22892 22893 22894 22895 22896 22897 22898 22899 22900 22901 22902 22903 22904 22905 22906 22907 22908 22909 22910 22911 22912 22913 22914 22915 22916 22917 22918 22919 22920 22921 22922 22923 22924 22925 22926 22927 22928 22929 22930 22931 22932 22933 22934 22935 22936 22937 22938 22939 22940 22941 22942 22943 22944 22945 22946 22947 22948 22949 22950 22951 22952 22953 22954 22955 22956 22957 22958 22959 22960 22961 22962 22963 22964 22965 22966 22967 22968 22969 22970 22971 22972 22973 22974 22975 22976 22977 22978 22979 22980 22981 22982 22983 22984 22985 22986 22987 22988 22989 22990 22991 22992 22993 22994 22995 22996 22997 22998 22999 23000 23001 23002 23003 23004 23005 23006 23007 23008 23009 23010 23011 23012 23013 23014 23015 23016 23017 23018 23019 23020 23021 23022 23023 23024 23025 23026 23027 23028 23029 23030 23031 23032 23033 23034 23035 23036 23037 23038 23039 23040 23041 23042 23043 23044 23045 23046 23047 23048 23049 23050 23051 23052 23053 23054 23055 23056 23057 23058 23059 23060 23061 23062 23063 23064 23065 23066 23067 23068 23069 23070 23071 23072 23073 23074 23075 23076 23077 23078 23079 23080 23081 23082 23083 23084 23085 23086 23087 23088 23089 23090 23091 23092 23093 23094 23095 23096 23097 23098 23099 23100 23101 23102 23103 23104 23105 23106 23107 23108 23109 23110 23111 23112 23113 23114 23115 23116 23117 23118 23119 23120 23121 23122 23123 23124 23125 23126 23127 23128 23129 23130 23131 23132 23133 23134 23135 23136 23137 23138 23139 23140 23141 23142 23143 23144 23145 23146 23147 23148 23149 23150 23151 23152 23153 23154 23155 23156 23157 23158 23159 23160 23161 23162 23163 23164 23165 23166 23167 23168 23169 23170 23171 23172 23173 23174 23175 23176 23177 23178 23179 23180 23181 23182 23183 23184 23185 23186 23187 23188 23189 23190 23191 23192 23193 23194 23195 23196 23197 23198 23199 23200 23201 23202 23203 23204 23205 23206 23207 23208 23209 23210 23211 23212 23213 23214 23215 23216 23217 23218 23219 23220 23221 23222 23223 23224 23225 23226 23227 23228 23229 23230 23231 23232 23233 23234 23235 23236 23237 23238 23239 23240 23241 23242 23243 23244 23245 23246 23247 23248 23249 23250 23251 23252 23253 23254 23255 23256 23257 23258 23259 23260 23261 23262 23263 23264 23265 23266 23267 23268 23269 23270 23271 23272 23273 23274 23275 23276 23277 23278 23279 23280 23281 23282 23283 23284 23285 23286 23287 23288 23289 23290 23291 23292 23293 23294 23295 23296 23297 23298 23299 23300 23301 23302 23303 23304 23305 23306 23307 23308 23309 23310 23311 23312 23313 23314 23315 23316 23317 23318 23319 23320 23321 23322 23323 23324 23325 23326 23327 23328 23329 23330 23331 23332 23333 23334 23335 23336 23337 23338 23339 23340 23341 23342 23343 23344 23345 23346 23347 23348 23349 23350 23351 23352 23353 23354 23355 23356 23357 23358 23359 23360 23361 23362 23363 23364 23365 23366 23367 23368 23369 23370 23371 23372 23373 23374 23375 23376 23377 23378 23379 23380 23381 23382 23383 23384 23385 23386 23387 23388 23389 23390 23391 23392 23393 23394 23395 23396 23397 23398 23399 23400 23401 23402 23403 23404 23405 23406 23407 23408 23409 23410 23411 23412 23413 23414 23415 23416 23417 23418 23419 23420 23421 23422 23423 23424 23425 23426 23427 23428 23429 23430 23431 23432 23433 23434 23435 23436 23437 23438 23439 23440 23441 23442 23443 23444 23445 23446 23447 23448 23449 23450 23451 23452 23453 23454 23455 23456 23457 23458 23459 23460 23461 23462 23463 23464 23465 23466 23467 23468 23469 23470 23471 23472 23473 23474 23475 23476 23477 23478 23479 23480 23481 23482 23483 23484 23485 23486 23487 23488 23489 23490 23491 23492 23493 23494 23495 23496 23497 23498 23499 23500 23501 23502 23503 23504 23505 23506 23507 23508 23509 23510 23511 23512 23513 23514 23515 23516 23517 23518 23519 23520 23521 23522 23523 23524 23525 23526 23527 23528 23529 23530 23531 23532 23533 23534 23535 23536 23537 23538 23539 23540 23541 23542 23543 23544 23545 23546 23547 23548 23549 23550 23551 23552 23553 23554 23555 23556 23557 23558 23559 23560 23561 23562 23563 23564 23565 23566 23567 23568 23569 23570 23571 23572 23573 23574 23575 23576 23577 23578 23579 23580 23581 23582 23583 23584 23585 23586 23587 23588 23589 23590 23591 23592 23593 23594 23595 23596 23597 23598 23599 23600 23601 23602 23603 23604 23605 23606 23607 23608 23609 23610 23611 23612 23613 23614 23615 23616 23617 23618 23619 23620 23621 23622 23623 23624 23625 23626 23627 23628 23629 23630 23631 23632 23633 23634 23635 23636 23637 23638 23639 23640 23641 23642 23643 23644 23645 23646 23647 23648 23649 23650 23651 23652 23653 23654 23655 23656 23657 23658 23659 23660 23661 23662 23663 23664 23665 23666 23667 23668 23669 23670 23671 23672 23673 23674 23675 23676 23677 23678 23679 23680 23681 23682 23683 23684 23685 23686 23687 23688 23689 23690 23691 23692 23693 23694 23695 23696 23697 23698 23699 23700 23701 23702 23703 23704 23705 23706 23707 23708 23709 23710 23711 23712 23713 23714 23715 23716 23717 23718 23719 23720 23721 23722 23723 23724 23725 23726 23727 23728 23729 23730 23731 23732 23733 23734 23735 23736 23737 23738 23739 23740 23741 23742 23743 23744 23745 23746 23747 23748 23749 23750 23751 23752 23753 23754 23755 23756 23757 23758 23759 23760 23761 23762 23763 23764 23765 23766 23767 23768 23769 23770 23771 23772 23773 23774 23775 23776 23777 23778 23779 23780 23781 23782 23783 23784 23785 23786 23787 23788 23789 23790 23791 23792 23793 23794 23795 23796 23797 23798 23799 23800 23801 23802 23803 23804 23805 23806 23807 23808 23809 23810 23811 23812 23813 23814 23815 23816 23817 23818 23819 23820 23821 23822 23823 23824 23825 23826 23827 23828 23829 23830 23831 23832 23833 23834 23835 23836 23837 23838 23839 23840 23841 23842 23843 23844 23845 23846 23847 23848 23849 23850 23851 23852 23853 23854 23855 23856 23857 23858 23859 23860 23861 23862 23863 23864 23865 23866 23867 23868 23869 23870 23871 23872 23873 23874 23875 23876 23877 23878 23879 23880 23881 23882 23883 23884 23885 23886 23887 23888 23889 23890 23891 23892 23893 23894 23895 23896 23897 23898 23899 23900 23901 23902 23903 23904 23905 23906 23907 23908 23909 23910 23911 23912 23913 23914 23915 23916 23917 23918 23919 23920 23921 23922 23923 23924 23925 23926 23927 23928 23929 23930 23931 23932 23933 23934 23935 23936 23937 23938 23939 23940 23941 23942 23943 23944 23945 23946 23947 23948 23949 23950 23951 23952 23953 23954 23955 23956 23957 23958 23959 23960 23961 23962 23963 23964 23965 23966 23967 23968 23969 23970 23971 23972 23973 23974 23975 23976 23977 23978 23979 23980 23981 23982 23983 23984 23985 23986 23987 23988 23989 23990 23991 23992 23993 23994 23995 23996 23997 23998 23999 24000 24001 24002 24003 24004 24005 24006 24007 24008 24009 24010 24011 24012 24013 24014 24015 24016 24017 24018 24019 24020 24021 24022 24023 24024 24025 24026 24027 24028 24029 24030 24031 24032 24033 24034 24035 24036 24037 24038 24039 24040 24041 24042 24043 24044 24045 24046 24047 24048 24049 24050 24051 24052 24053 24054 24055 24056 24057 24058 24059 24060 24061 24062 24063 24064 24065 24066 24067 24068 24069 24070 24071 24072 24073 24074 24075 24076 24077 24078 24079 24080 24081 24082 24083 24084 24085 24086 24087 24088 24089 24090 24091 24092 24093 24094 24095 24096 24097 24098 24099 24100 24101 24102 24103 24104 24105 24106 24107 24108 24109 24110 24111 24112 24113 24114 24115 24116 24117 24118 24119 24120 24121 24122 24123 24124 24125 24126 24127 24128 24129 24130 24131 24132 24133 24134 24135 24136 24137 24138 24139 24140 24141 24142 24143 24144 24145 24146 24147 24148 24149 24150 24151 24152 24153 24154 24155 24156 24157 24158 24159 24160 24161 24162 24163 24164 24165 24166 24167 24168 24169 24170 24171 24172 24173 24174 24175 24176 24177 24178 24179 24180 24181 24182 24183 24184 24185 24186 24187 24188 24189 24190 24191 24192 24193 24194 24195 24196 24197 24198 24199 24200 24201 24202 24203 24204 24205 24206 24207 24208 24209 24210 24211 24212 24213 24214 24215 24216 24217 24218 24219 24220 24221 24222 24223 24224 24225 24226 24227 24228 24229 24230 24231 24232 24233 24234 24235 24236 24237 24238 24239 24240 24241 24242 24243 24244 24245 24246 24247 24248 24249 24250 24251 24252 24253 24254 24255 24256 24257 24258 24259 24260 24261 24262 24263 24264 24265 24266 24267 24268 24269 24270 24271 24272 24273 24274 24275 24276 24277 24278 24279 24280 24281 24282 24283 24284 24285 24286 24287 24288 24289 24290 24291 24292 24293 24294 24295 24296 24297 24298 24299 24300 24301 24302 24303 24304 24305 24306 24307 24308 24309 24310 24311 24312 24313 24314 24315 24316 24317 24318 24319 24320 24321 24322 24323 24324 24325 24326 24327 24328 24329 24330 24331 24332 24333 24334 24335 24336 24337 24338 24339 24340 24341 24342 24343 24344 24345 24346 24347 24348 24349 24350 24351 24352 24353 24354 24355 24356 24357 24358 24359 24360 24361 24362 24363 24364 24365 24366 24367 24368 24369 24370 24371 24372 24373 24374 24375 24376 24377 24378 24379 24380 24381 24382 24383 24384 24385 24386 24387 24388 24389 24390 24391 24392 24393 24394 24395 24396 24397 24398 24399 24400 24401 24402 24403 24404 24405 24406 24407 24408 24409 24410 24411 24412 24413 24414 24415 24416 24417 24418 24419 24420 24421 24422 24423 24424 24425 24426 24427 24428 24429 24430 24431 24432 24433 24434 24435 24436 24437 24438 24439 24440 24441 24442 24443 24444 24445 24446 24447 24448 24449 24450 24451 24452 24453 24454 24455 24456 24457 24458 24459 24460 24461 24462 24463 24464 24465 24466 24467 24468 24469 24470 24471 24472 24473 24474 24475 24476 24477 24478 24479 24480 24481 24482 24483 24484 24485 24486 24487 24488 24489 24490 24491 24492 24493 24494 24495 24496 24497 24498 24499 24500 24501 24502 24503 24504 24505 24506 24507 24508 24509 24510 24511 24512 24513 24514 24515 24516 24517 24518 24519 24520 24521 24522 24523 24524 24525 24526 24527 24528 24529 24530 24531 24532 24533 24534 24535 24536 24537 24538 24539 24540 24541 24542 24543 24544 24545 24546 24547 24548 24549 24550 24551 24552 24553 24554 24555 24556 24557 24558 24559 24560 24561 24562 24563 24564 24565 24566 24567 24568 24569 24570 24571 24572 24573 24574 24575 24576 24577 24578 24579 24580 24581 24582 24583 24584 24585 24586 24587 24588 24589 24590 24591 24592 24593 24594 24595 24596 24597 24598 24599 24600 24601 24602 24603 24604 24605 24606 24607 24608 24609 24610 24611 24612 24613 24614 24615 24616 24617 24618 24619 24620 24621 24622 24623 24624 24625 24626 24627 24628 24629 24630 24631 24632 24633 24634 24635 24636 24637 24638 24639 24640 24641 24642 24643 24644 24645 24646 24647 24648 24649 24650 24651 24652 24653 24654 24655 24656 24657 24658 24659 24660 24661 24662 24663 24664 24665 24666 24667 24668 24669 24670 24671 24672 24673 24674 24675 24676 24677 24678 24679 24680 24681 24682 24683 24684 24685 24686 24687 24688 24689 24690 24691 24692 24693 24694 24695 24696 24697 24698 24699 24700 24701 24702 24703 24704 24705 24706 24707 24708 24709 24710 24711 24712 24713 24714 24715 24716 24717 24718 24719 24720 24721 24722 24723 24724 24725 24726 24727 24728 24729 24730 24731 24732 24733 24734 24735 24736 24737 24738 24739 24740 24741 24742 24743 24744 24745 24746 24747 24748 24749 24750 24751 24752 24753 24754 24755 24756 24757 24758 24759 24760 24761 24762 24763 24764 24765 24766 24767 24768 24769 24770 24771 24772 24773 24774 24775 24776 24777 24778 24779 24780 24781 24782 24783 24784 24785 24786 24787 24788 24789 24790 24791 24792 24793 24794 24795 24796 24797 24798 24799 24800 24801 24802 24803 24804 24805 24806 24807 24808 24809 24810 24811 24812 24813 24814 24815 24816 24817 24818 24819 24820 24821 24822 24823 24824 24825 24826 24827 24828 24829 24830 24831 24832 24833 24834 24835 24836 24837 24838 24839 24840 24841 24842 24843 24844 24845 24846 24847 24848 24849 24850 24851 24852 24853 24854 24855 24856 24857 24858 24859 24860 24861 24862 24863 24864 24865 24866 24867 24868 24869 24870 24871 24872 24873 24874 24875 24876 24877 24878 24879 24880 24881 24882 24883 24884 24885 24886 24887 24888 24889 24890 24891 24892 24893 24894 24895 24896 24897 24898 24899 24900 24901 24902 24903 24904 24905 24906 24907 24908 24909 24910 24911 24912 24913 24914 24915 24916 24917 24918 24919 24920 24921 24922 24923 24924 24925 24926 24927 24928 24929 24930 24931 24932 24933 24934 24935 24936 24937 24938 24939 24940 24941 24942 24943 24944 24945 24946 24947 24948 24949 24950 24951 24952 24953 24954 24955 24956 24957 24958 24959 24960 24961 24962 24963 24964 24965 24966 24967 24968 24969 24970 24971 24972 24973 24974 24975 24976 24977 24978 24979 24980 24981 24982 24983 24984 24985 24986 24987 24988 24989 24990 24991 24992 24993 24994 24995 24996 24997 24998 24999 25000 25001 25002 25003 25004 25005 25006 25007 25008 25009 25010 25011 25012 25013 25014 25015 25016 25017 25018 25019 25020 25021 25022 25023 25024 25025 25026 25027 25028 25029 25030 25031 25032 25033 25034 25035 25036 25037 25038 25039 25040 25041 25042 25043 25044 25045 25046 25047 25048 25049 25050 25051 25052 25053 25054 25055 25056 25057 25058 25059 25060 25061 25062 25063 25064 25065 25066 25067 25068 25069 25070 25071 25072 25073 25074 25075 25076 25077 25078 25079 25080 25081 25082 25083 25084 25085 25086 25087 25088 25089 25090 25091 25092 25093 25094 25095 25096 25097 25098 25099 25100 25101 25102 25103 25104 25105 25106 25107 25108 25109 25110 25111 25112 25113 25114 25115 25116 25117 25118 25119 25120 25121 25122 25123 25124 25125 25126 25127 25128 25129 25130 25131 25132 25133 25134 25135 25136 25137 25138 25139 25140 25141 25142 25143 25144 25145 25146 25147 25148 25149 25150 25151 25152 25153 25154 25155 25156 25157 25158 25159 25160 25161 25162 25163 25164 25165 25166 25167 25168 25169 25170 25171 25172 25173 25174 25175 25176 25177 25178 25179 25180 25181 25182 25183 25184 25185 25186 25187 25188 25189 25190 25191 25192 25193 25194 25195 25196 25197 25198 25199 25200 25201 25202 25203 25204 25205 25206 25207 25208 25209 25210 25211 25212 25213 25214 25215 25216 25217 25218 25219 25220 25221 25222 25223 25224 25225 25226 25227 25228 25229 25230 25231 25232 25233 25234 25235 25236 25237 25238 25239 25240 25241 25242 25243 25244 25245 25246 25247 25248 25249 25250 25251 25252 25253 25254 25255 25256 25257 25258 25259 25260 25261 25262 25263 25264 25265 25266 25267 25268 25269 25270 25271 25272 25273 25274 25275 25276 25277 25278 25279 25280 25281 25282 25283 25284 25285 25286 25287 25288 25289 25290 25291 25292 25293 25294 25295 25296 25297 25298 25299 25300 25301 25302 25303 25304 25305 25306 25307 25308 25309 25310 25311 25312 25313 25314 25315 25316 25317 25318 25319 25320 25321 25322 25323 25324 25325 25326 25327 25328 25329 25330 25331 25332 25333 25334 25335 25336 25337 25338 25339 25340 25341 25342 25343 25344 25345 25346 25347 25348 25349 25350 25351 25352 25353 25354 25355 25356 25357 25358 25359 25360 25361 25362 25363 25364 25365 25366 25367 25368 25369 25370 25371 25372 25373 25374 25375 25376 25377 25378 25379 25380 25381 25382 25383 25384 25385 25386 25387 25388 25389 25390 25391 25392 25393 25394 25395 25396 25397 25398 25399 25400 25401 25402 25403 25404 25405 25406 25407 25408 25409 25410 25411 25412 25413 25414 25415 25416 25417 25418 25419 25420 25421 25422 25423 25424 25425 25426 25427 25428 25429 25430 25431 25432 25433 25434 25435 25436 25437 25438 25439 25440 25441 25442 25443 25444 25445 25446 25447 25448 25449 25450 25451 25452 25453 25454 25455 25456 25457 25458 25459 25460 25461 25462 25463 25464 25465 25466 25467 25468 25469 25470 25471 25472 25473 25474 25475 25476 25477 25478 25479 25480 25481 25482 25483 25484 25485 25486 25487 25488 25489 25490 25491 25492 25493 25494 25495 25496 25497 25498 25499 25500 25501 25502 25503 25504 25505 25506 25507 25508 25509 25510 25511 25512 25513 25514 25515 25516 25517 25518 25519 25520 25521 25522 25523 25524 25525 25526 25527 25528 25529 25530 25531 25532 25533 25534 25535 25536 25537 25538 25539 25540 25541 25542 25543 25544 25545 25546 25547 25548 25549 25550 25551 25552 25553 25554 25555 25556 25557 25558 25559 25560 25561 25562 25563 25564 25565 25566 25567 25568 25569 25570 25571 25572 25573 25574 25575 25576 25577 25578 25579 25580 25581 25582 25583 25584 25585 25586 25587 25588 25589 25590 25591 25592 25593 25594 25595 25596 25597 25598 25599 25600 25601 25602 25603 25604 25605 25606 25607 25608 25609 25610 25611 25612 25613 25614 25615 25616 25617 25618 25619 25620 25621 25622 25623 25624 25625 25626 25627 25628 25629 25630 25631 25632 25633 25634 25635 25636 25637 25638 25639 25640 25641 25642 25643 25644 25645 25646 25647 25648 25649 25650 25651 25652 25653 25654 25655 25656 25657 25658 25659 25660 25661 25662 25663 25664 25665 25666 25667 25668 25669 25670 25671 25672 25673 25674 25675 25676 25677 25678 25679 25680 25681 25682 25683 25684 25685 25686 25687 25688 25689 25690 25691 25692 25693 25694 25695 25696 25697 25698 25699 25700 25701 25702 25703 25704 25705 25706 25707 25708 25709 25710 25711 25712 25713 25714 25715 25716 25717 25718 25719 25720 25721 25722 25723 25724 25725 25726 25727 25728 25729 25730 25731 25732 25733 25734 25735 25736 25737 25738 25739 25740 25741 25742 25743 25744 25745 25746 25747 25748 25749 25750 25751 25752 25753 25754 25755 25756 25757 25758 25759 25760 25761 25762 25763 25764 25765 25766 25767 25768 25769 25770 25771 25772 25773 25774 25775 25776 25777 25778 25779 25780 25781 25782 25783 25784 25785 25786 25787 25788 25789 25790 25791 25792 25793 25794 25795 25796 25797 25798 25799 25800 25801 25802 25803 25804 25805 25806 25807 25808 25809 25810 25811 25812 25813 25814 25815 25816 25817 25818 25819 25820 25821 25822 25823 25824 25825 25826 25827 25828 25829 25830 25831 25832 25833 25834 25835 25836 25837 25838 25839 25840 25841 25842 25843 25844 25845 25846 25847 25848 25849 25850 25851 25852 25853 25854 25855 25856 25857 25858 25859 25860 25861 25862 25863 25864 25865 25866 25867 25868 25869 25870 25871 25872 25873 25874 25875 25876 25877 25878 25879 25880 25881 25882 25883 25884 25885 25886 25887 25888 25889 25890 25891 25892 25893 25894 25895 25896 25897 25898 25899 25900 25901 25902 25903 25904 25905 25906 25907 25908 25909 25910 25911 25912 25913 25914 25915 25916 25917 25918 25919 25920 25921 25922 25923 25924 25925 25926 25927 25928 25929 25930 25931 25932 25933 25934 25935 25936 25937 25938 25939 25940 25941 25942 25943 25944 25945 25946 25947 25948 25949 25950 25951 25952 25953 25954 25955 25956 25957 25958 25959 25960 25961 25962 25963 25964 25965 25966 25967 25968 25969 25970 25971 25972 25973 25974 25975 25976 25977 25978 25979 25980 25981 25982 25983 25984 25985 25986 25987 25988 25989 25990 25991 25992 25993 25994 25995 25996 25997 25998 25999 26000 26001 26002 26003 26004 26005 26006 26007 26008 26009 26010 26011 26012 26013 26014 26015 26016 26017 26018 26019 26020 26021 26022 26023 26024 26025 26026 26027 26028 26029 26030 26031 26032 26033 26034 26035 26036 26037 26038 26039 26040 26041 26042 26043 26044 26045 26046 26047 26048 26049 26050 26051 26052 26053 26054 26055 26056 26057 26058 26059 26060 26061 26062 26063 26064 26065 26066 26067 26068 26069 26070 26071 26072 26073 26074 26075 26076 26077 26078 26079 26080 26081 26082 26083 26084 26085 26086 26087 26088 26089 26090 26091 26092 26093 26094 26095 26096 26097 26098 26099 26100 26101 26102 26103 26104 26105 26106 26107 26108 26109 26110 26111 26112 26113 26114 26115 26116 26117 26118 26119 26120 26121 26122 26123 26124 26125 26126 26127 26128 26129 26130 26131 26132 26133 26134 26135 26136 26137 26138 26139 26140 26141 26142 26143 26144 26145 26146 26147 26148 26149 26150 26151 26152 26153 26154 26155 26156 26157 26158 26159 26160 26161 26162 26163 26164 26165 26166 26167 26168 26169 26170 26171 26172 26173 26174 26175 26176 26177 26178 26179 26180 26181 26182 26183 26184 26185 26186 26187 26188 26189 26190 26191 26192 26193 26194 26195 26196 26197 26198 26199 26200 26201 26202 26203 26204 26205 26206 26207 26208 26209 26210 26211 26212 26213 26214 26215 26216 26217 26218 26219 26220 26221 26222 26223 26224 26225 26226 26227 26228 26229 26230 26231 26232 26233 26234 26235 26236 26237 26238 26239 26240 26241 26242 26243 26244 26245 26246 26247 26248 26249 26250 26251 26252 26253 26254 26255 26256 26257 26258 26259 26260 26261 26262 26263 26264 26265 26266 26267 26268 26269 26270 26271 26272 26273 26274 26275 26276 26277 26278 26279 26280 26281 26282 26283 26284 26285 26286 26287 26288 26289 26290 26291 26292 26293 26294 26295 26296 26297 26298 26299 26300 26301 26302 26303 26304 26305 26306 26307 26308 26309 26310 26311 26312 26313 26314 26315 26316 26317 26318 26319 26320 26321 26322 26323 26324 26325 26326 26327 26328 26329 26330 26331 26332 26333 26334 26335 26336 26337 26338 26339 26340 26341 26342 26343 26344 26345 26346 26347 26348 26349 26350 26351 26352 26353 26354 26355 26356 26357 26358 26359 26360 26361 26362 26363 26364 26365 26366 26367 26368 26369 26370 26371 26372 26373 26374 26375 26376 26377 26378 26379 26380 26381 26382 26383 26384 26385 26386 26387 26388 26389 26390 26391 26392 26393 26394 26395 26396 26397 26398 26399 26400 26401 26402 26403 26404 26405 26406 26407 26408 26409 26410 26411 26412 26413 26414 26415 26416 26417 26418 26419 26420 26421 26422 26423 26424 26425 26426 26427 26428 26429 26430 26431 26432 26433 26434 26435 26436 26437 26438 26439 26440 26441 26442 26443 26444 26445 26446 26447 26448 26449 26450 26451 26452 26453 26454 26455 26456 26457 26458 26459 26460 26461 26462 26463 26464 26465 26466 26467 26468 26469 26470 26471 26472 26473 26474 26475 26476 26477 26478 26479 26480 26481 26482 26483 26484 26485 26486 26487 26488 26489 26490 26491 26492 26493 26494 26495 26496 26497 26498 26499 26500 26501 26502 26503 26504 26505 26506 26507 26508 26509 26510 26511 26512 26513 26514 26515 26516 26517 26518 26519 26520 26521 26522 26523 26524 26525 26526 26527 26528 26529 26530 26531 26532 26533 26534 26535 26536 26537 26538 26539 26540 26541 26542 26543 26544 26545 26546 26547 26548 26549 26550 26551 26552 26553 26554 26555 26556 26557 26558 26559 26560 26561 26562 26563 26564 26565 26566 26567 26568 26569 26570 26571 26572 26573 26574 26575 26576 26577 26578 26579 26580 26581 26582 26583 26584 26585 26586 26587 26588 26589 26590 26591 26592 26593 26594 26595 26596 26597 26598 26599 26600 26601 26602 26603 26604 26605 26606 26607 26608 26609 26610 26611 26612 26613 26614 26615 26616 26617 26618 26619 26620 26621 26622 26623 26624 26625 26626 26627 26628 26629 26630 26631 26632 26633 26634 26635 26636 26637 26638 26639 26640 26641 26642 26643 26644 26645 26646 26647 26648 26649 26650 26651 26652 26653 26654 26655 26656 26657 26658 26659 26660 26661 26662 26663 26664 26665 26666 26667 26668 26669 26670 26671 26672 26673 26674 26675 26676 26677 26678 26679 26680 26681 26682 26683 26684 26685 26686 26687 26688 26689 26690 26691 26692 26693 26694 26695 26696 26697 26698 26699 26700 26701 26702 26703 26704 26705 26706 26707 26708 26709 26710 26711 26712 26713 26714 26715 26716 26717 26718 26719 26720 26721 26722 26723 26724 26725 26726 26727 26728 26729 26730 26731 26732 26733 26734 26735 26736 26737 26738 26739 26740 26741 26742 26743 26744 26745 26746 26747 26748 26749 26750 26751 26752 26753 26754 26755 26756 26757 26758 26759 26760 26761 26762 26763 26764 26765 26766 26767 26768 26769 26770 26771 26772 26773 26774 26775 26776 26777 26778 26779 26780 26781 26782 26783 26784 26785 26786 26787 26788 26789 26790 26791 26792 26793 26794 26795 26796 26797 26798 26799 26800 26801 26802 26803 26804 26805 26806 26807 26808 26809 26810 26811 26812 26813 26814 26815 26816 26817 26818 26819 26820 26821 26822 26823 26824 26825 26826 26827 26828 26829 26830 26831 26832 26833 26834 26835 26836 26837 26838 26839 26840 26841 26842 26843 26844 26845 26846 26847 26848 26849 26850 26851 26852 26853 26854 26855 26856 26857 26858 26859 26860 26861 26862 26863 26864 26865 26866 26867 26868 26869 26870 26871 26872 26873 26874 26875 26876 26877 26878 26879 26880 26881 26882 26883 26884 26885 26886 26887 26888 26889 26890 26891 26892 26893 26894 26895 26896 26897 26898 26899 26900 26901 26902 26903 26904 26905 26906 26907 26908 26909 26910 26911 26912 26913 26914 26915 26916 26917 26918 26919 26920 26921 26922 26923 26924 26925 26926 26927 26928 26929 26930 26931 26932 26933 26934 26935 26936 26937 26938 26939 26940 26941 26942 26943 26944 26945 26946 26947 26948 26949 26950 26951 26952 26953 26954 26955 26956 26957 26958 26959 26960 26961 26962 26963 26964 26965 26966 26967 26968 26969 26970 26971 26972 26973 26974 26975 26976 26977 26978 26979 26980 26981 26982 26983 26984 26985 26986 26987 26988 26989 26990 26991 26992 26993 26994 26995 26996 26997 26998 26999 27000 27001 27002 27003 27004 27005 27006 27007 27008 27009 27010 27011 27012 27013 27014 27015 27016 27017 27018 27019 27020 27021 27022 27023 27024 27025 27026 27027 27028 27029 27030 27031 27032 27033 27034 27035 27036 27037 27038 27039 27040 27041 27042 27043 27044 27045 27046 27047 27048 27049 27050 27051 27052 27053 27054 27055 27056 27057 27058 27059 27060 27061 27062 27063 27064 27065 27066 27067 27068 27069 27070 27071 27072 27073 27074 27075 27076 27077 27078 27079 27080 27081 27082 27083 27084 27085 27086 27087 27088 27089 27090 27091 27092 27093 27094 27095 27096 27097 27098 27099 27100 27101 27102 27103 27104 27105 27106 27107 27108 27109 27110 27111 27112 27113 27114 27115 27116 27117 27118 27119 27120 27121 27122 27123 27124 27125 27126 27127 27128 27129 27130 27131 27132 27133 27134 27135 27136 27137 27138 27139 27140 27141 27142 27143 27144 27145 27146 27147 27148 27149 27150 27151 27152 27153 27154 27155 27156 27157 27158 27159 27160 27161 27162 27163 27164 27165 27166 27167 27168 27169 27170 27171 27172 27173 27174 27175 27176 27177 27178 27179 27180 27181 27182 27183 27184 27185 27186 27187 27188 27189 27190 27191 27192 27193 27194 27195 27196 27197 27198 27199 27200 27201 27202 27203 27204 27205 27206 27207 27208 27209 27210 27211 27212 27213 27214 27215 27216 27217 27218 27219 27220 27221 27222 27223 27224 27225 27226 27227 27228 27229 27230 27231 27232 27233 27234 27235 27236 27237 27238 27239 27240 27241 27242 27243 27244 27245 27246 27247 27248 27249 27250 27251 27252 27253 27254 27255 27256 27257 27258 27259 27260 27261 27262 27263 27264 27265 27266 27267 27268 27269 27270 27271 27272 27273 27274 27275 27276 27277 27278 27279 27280 27281 27282 27283 27284 27285 27286 27287 27288 27289 27290 27291 27292 27293 27294 27295 27296 27297 27298 27299 27300 27301 27302 27303 27304 27305 27306 27307 27308 27309 27310 27311 27312 27313 27314 27315 27316 27317 27318 27319 27320 27321 27322 27323 27324 27325 27326 27327 27328 27329 27330 27331 27332 27333 27334 27335 27336 27337 27338 27339 27340 27341 27342 27343 27344 27345 27346 27347 27348 27349 27350 27351 27352 27353 27354 27355 27356 27357 27358 27359 27360 27361 27362 27363 27364 27365 27366 27367 27368 27369 27370 27371 27372 27373 27374 27375 27376 27377 27378 27379 27380 27381 27382 27383 27384 27385 27386 27387 27388 27389 27390 27391 27392 27393 27394 27395 27396 27397 27398 27399 27400 27401 27402 27403 27404 27405 27406 27407 27408 27409 27410 27411 27412 27413 27414 27415 27416 27417 27418 27419 27420 27421 27422 27423 27424 27425 27426 27427 27428 27429 27430 27431 27432 27433 27434 27435 27436 27437 27438 27439 27440 27441 27442 27443 27444 27445 27446 27447 27448 27449 27450 27451 27452 27453 27454 27455 27456 27457 27458 27459 27460 27461 27462 27463 27464 27465 27466 27467 27468 27469 27470 27471 27472 27473 27474 27475 27476 27477 27478 27479 27480 27481 27482 27483 27484 27485 27486 27487 27488 27489 27490 27491 27492 27493 27494 27495 27496 27497 27498 27499 27500 27501 27502 27503 27504 27505 27506 27507 27508 27509 27510 27511 27512 27513 27514 27515 27516 27517 27518 27519 27520 27521 27522 27523 27524 27525 27526 27527 27528 27529 27530 27531 27532 27533 27534 27535 27536 27537 27538 27539 27540 27541 27542 27543 27544 27545 27546 27547 27548 27549 27550 27551 27552 27553 27554 27555 27556 27557 27558 27559 27560 27561 27562 27563 27564 27565 27566 27567 27568 27569 27570 27571 27572 27573 27574 27575 27576 27577 27578 27579 27580 27581 27582 27583 27584 27585 27586 27587 27588 27589 27590 27591 27592 27593 27594 27595 27596 27597 27598 27599 27600 27601 27602 27603 27604 27605 27606 27607 27608 27609 27610 27611 27612 27613 27614 27615 27616 27617 27618 27619 27620 27621 27622 27623 27624 27625 27626 27627 27628 27629 27630 27631 27632 27633 27634 27635 27636 27637 27638 27639 27640 27641 27642 27643 27644 27645 27646 27647 27648 27649 27650 27651 27652 27653 27654 27655 27656 27657 27658 27659 27660 27661 27662 27663 27664 27665 27666 27667 27668 27669 27670 27671 27672 27673 27674 27675 27676 27677 27678 27679 27680 27681 27682 27683 27684 27685 27686 27687 27688 27689 27690 27691 27692 27693 27694 27695 27696 27697 27698 27699 27700 27701 27702 27703 27704 27705 27706 27707 27708 27709 27710 27711 27712 27713 27714 27715 27716 27717 27718 27719 27720 27721 27722 27723 27724 27725 27726 27727 27728 27729 27730 27731 27732 27733 27734 27735 27736 27737 27738 27739 27740 27741 27742 27743 27744 27745 27746 27747 27748 27749 27750 27751 27752 27753 27754 27755 27756 27757 27758 27759 27760 27761 27762 27763 27764 27765 27766 27767 27768 27769 27770 27771 27772 27773 27774 27775 27776 27777 27778 27779 27780 27781 27782 27783 27784 27785 27786 27787 27788 27789 27790 27791 27792 27793 27794 27795 27796 27797 27798 27799 27800 27801 27802 27803 27804 27805 27806 27807 27808 27809 27810 27811 27812 27813 27814 27815 27816 27817 27818 27819 27820 27821 27822 27823 27824 27825 27826 27827 27828 27829 27830 27831 27832 27833 27834 27835 27836 27837 27838 27839 27840 27841 27842 27843 27844 27845 27846 27847 27848 27849 27850 27851 27852 27853 27854 27855 27856 27857 27858 27859 27860 27861 27862 27863 27864 27865 27866 27867 27868 27869 27870 27871 27872 27873 27874 27875 27876 27877 27878 27879 27880 27881 27882 27883 27884 27885 27886 27887 27888 27889 27890 27891 27892 27893 27894 27895 27896 27897 27898 27899 27900 27901 27902 27903 27904 27905 27906 27907 27908 27909 27910 27911 27912 27913 27914 27915 27916 27917 27918 27919 27920 27921 27922 27923 27924 27925 27926 27927 27928 27929 27930 27931 27932 27933 27934 27935 27936 27937 27938 27939 27940 27941 27942 27943 27944 27945 27946 27947 27948 27949 27950 27951 27952 27953 27954 27955 27956 27957 27958 27959 27960 27961 27962 27963 27964 27965 27966 27967 27968 27969 27970 27971 27972 27973 27974 27975 27976 27977 27978 27979 27980 27981 27982 27983 27984 27985 27986 27987 27988 27989 27990 27991 27992 27993 27994 27995 27996 27997 27998 27999 28000 28001 28002 28003 28004 28005 28006 28007 28008 28009 28010 28011 28012 28013 28014 28015 28016 28017 28018 28019 28020 28021 28022 28023 28024 28025 28026 28027 28028 28029 28030 28031 28032 28033 28034 28035 28036 28037 28038 28039 28040 28041 28042 28043 28044 28045 28046 28047 28048 28049 28050 28051 28052 28053 28054 28055 28056 28057 28058 28059 28060 28061 28062 28063 28064 28065 28066 28067 28068 28069 28070 28071 28072 28073 28074 28075 28076 28077 28078 28079 28080 28081 28082 28083 28084 28085 28086 28087 28088 28089 28090 28091 28092 28093 28094 28095 28096 28097 28098 28099 28100 28101 28102 28103 28104 28105 28106 28107 28108 28109 28110 28111 28112 28113 28114 28115 28116 28117 28118 28119 28120 28121 28122 28123 28124 28125 28126 28127 28128 28129 28130 28131 28132 28133 28134 28135 28136 28137 28138 28139 28140 28141 28142 28143 28144 28145 28146 28147 28148 28149 28150 28151 28152 28153 28154 28155 28156 28157 28158 28159 28160 28161 28162 28163 28164 28165 28166 28167 28168 28169 28170 28171 28172 28173 28174 28175 28176 28177 28178 28179 28180 28181 28182 28183 28184 28185 28186 28187 28188 28189 28190 28191 28192 28193 28194 28195 28196 28197 28198 28199 28200 28201 28202 28203 28204 28205 28206 28207 28208 28209 28210 28211 28212 28213 28214 28215 28216 28217 28218 28219 28220 28221 28222 28223 28224 28225 28226 28227 28228 28229 28230 28231 28232 28233 28234 28235 28236 28237 28238 28239 28240 28241 28242 28243 28244 28245 28246 28247 28248 28249 28250 28251 28252 28253 28254 28255 28256 28257 28258 28259 28260 28261 28262 28263 28264 28265 28266 28267 28268 28269 28270 28271 28272 28273 28274 28275 28276 28277 28278 28279 28280 28281 28282 28283 28284 28285 28286 28287 28288 28289 28290 28291 28292 28293 28294 28295 28296 28297 28298 28299 28300 28301 28302 28303 28304 28305 28306 28307 28308 28309 28310 28311 28312 28313 28314 28315 28316 28317 28318 28319 28320 28321 28322 28323 28324 28325 28326 28327 28328 28329 28330 28331 28332 28333 28334 28335 28336 28337 28338 28339 28340 28341 28342 28343 28344 28345 28346 28347 28348 28349 28350 28351 28352 28353 28354 28355 28356 28357 28358 28359 28360 28361 28362 28363 28364 28365 28366 28367 28368 28369 28370 28371 28372 28373 28374 28375 28376 28377 28378 28379 28380 28381 28382 28383 28384 28385 28386 28387 28388 28389 28390 28391 28392 28393 28394 28395 28396 28397 28398 28399 28400 28401 28402 28403 28404 28405 28406 28407 28408 28409 28410 28411 28412 28413 28414 28415 28416 28417 28418 28419 28420 28421 28422 28423 28424 28425 28426 28427 28428 28429 28430 28431 28432 28433 28434 28435 28436 28437 28438 28439 28440 28441 28442 28443 28444 28445 28446 28447 28448 28449 28450 28451 28452 28453 28454 28455 28456 28457 28458 28459 28460 28461 28462 28463 28464 28465 28466 28467 28468 28469 28470 28471 28472 28473 28474 28475 28476 28477 28478 28479 28480 28481 28482 28483 28484 28485 28486 28487 28488 28489 28490 28491 28492 28493 28494 28495 28496 28497 28498 28499 28500 28501 28502 28503 28504 28505 28506 28507 28508 28509 28510 28511 28512 28513 28514 28515 28516 28517 28518 28519 28520 28521 28522 28523 28524 28525 28526 28527 28528 28529 28530 28531 28532 28533 28534 28535 28536 28537 28538 28539 28540 28541 28542 28543 28544 28545 28546 28547 28548 28549 28550 28551 28552 28553 28554 28555 28556 28557 28558 28559 28560 28561 28562 28563 28564 28565 28566 28567 28568 28569 28570 28571 28572 28573 28574 28575 28576 28577 28578 28579 28580 28581 28582 28583 28584 28585 28586 28587 28588 28589 28590 28591 28592 28593 28594 28595 28596 28597 28598 28599 28600 28601 28602 28603 28604 28605 28606 28607 28608 28609 28610 28611 28612 28613 28614 28615 28616 28617 28618 28619 28620 28621 28622 28623 28624 28625 28626 28627 28628 28629 28630 28631 28632 28633 28634 28635 28636 28637 28638 28639 28640 28641 28642 28643 28644 28645 28646 28647 28648 28649 28650 28651 28652 28653 28654 28655 28656 28657 28658 28659 28660 28661 28662 28663 28664 28665 28666 28667 28668 28669 28670 28671 28672 28673 28674 28675 28676 28677 28678 28679 28680 28681 28682 28683 28684 28685 28686 28687 28688 28689 28690 28691 28692 28693 28694 28695 28696 28697 28698 28699 28700 28701 28702 28703 28704 28705 28706 28707 28708 28709 28710 28711 28712 28713 28714 28715 28716 28717 28718 28719 28720 28721 28722 28723 28724 28725 28726 28727 28728 28729 28730 28731 28732 28733 28734 28735 28736 28737 28738 28739 28740 28741 28742 28743 28744 28745 28746 28747 28748 28749 28750 28751 28752 28753 28754 28755 28756 28757 28758 28759 28760 28761 28762 28763 28764 28765 28766 28767 28768 28769 28770 28771 28772 28773 28774 28775 28776 28777 28778 28779 28780 28781 28782 28783 28784 28785 28786 28787 28788 28789 28790 28791 28792 28793 28794 28795 28796 28797 28798 28799 28800 28801 28802 28803 28804 28805 28806 28807 28808 28809 28810 28811 28812 28813 28814 28815 28816 28817 28818 28819 28820 28821 28822 28823 28824 28825 28826 28827 28828 28829 28830 28831 28832 28833 28834 28835 28836 28837 28838 28839 28840 28841 28842 28843 28844 28845 28846 28847 28848 28849 28850 28851 28852 28853 28854 28855 28856 28857 28858 28859 28860 28861 28862 28863 28864 28865 28866 28867 28868 28869 28870 28871 28872 28873 28874 28875 28876 28877 28878 28879 28880 28881 28882 28883 28884 28885 28886 28887 28888 28889 28890 28891 28892 28893 28894 28895 28896 28897 28898 28899 28900 28901 28902 28903 28904 28905 28906 28907 28908 28909 28910 28911 28912 28913 28914 28915 28916 28917 28918 28919 28920 28921 28922 28923 28924 28925 28926 28927 28928 28929 28930 28931 28932 28933 28934 28935 28936 28937 28938 28939 28940 28941 28942 28943 28944 28945 28946 28947 28948 28949 28950 28951 28952 28953 28954 28955 28956 28957 28958 28959 28960 28961 28962 28963 28964 28965 28966 28967 28968 28969 28970 28971 28972 28973 28974 28975 28976 28977 28978 28979 28980 28981 28982 28983 28984 28985 28986 28987 28988 28989 28990 28991 28992 28993 28994 28995 28996 28997 28998 28999 29000 29001 29002 29003 29004 29005 29006 29007 29008 29009 29010 29011 29012 29013 29014 29015 29016 29017 29018 29019 29020 29021 29022 29023 29024 29025 29026 29027 29028 29029 29030 29031 29032 29033 29034 29035 29036 29037 29038 29039 29040 29041 29042 29043 29044 29045 29046 29047 29048 29049 29050 29051 29052 29053 29054 29055 29056 29057 29058 29059 29060 29061 29062 29063 29064 29065 29066 29067 29068 29069 29070 29071 29072 29073 29074 29075 29076 29077 29078 29079 29080 29081 29082 29083 29084 29085 29086 29087 29088 29089 29090 29091 29092 29093 29094 29095 29096 29097 29098 29099 29100 29101 29102 29103 29104 29105 29106 29107 29108 29109 29110 29111 29112 29113 29114 29115 29116 29117 29118 29119 29120 29121 29122 29123 29124 29125 29126 29127 29128 29129 29130 29131 29132 29133 29134 29135 29136 29137 29138 29139 29140 29141 29142 29143 29144 29145 29146 29147 29148 29149 29150 29151 29152 29153 29154 29155 29156 29157 29158 29159 29160 29161 29162 29163 29164 29165 29166 29167 29168 29169 29170 29171 29172 29173 29174 29175 29176 29177 29178 29179 29180 29181 29182 29183 29184 29185 29186 29187 29188 29189 29190 29191 29192 29193 29194 29195 29196 29197 29198 29199 29200 29201 29202 29203 29204 29205 29206 29207 29208 29209 29210 29211 29212 29213 29214 29215 29216 29217 29218 29219 29220 29221 29222 29223 29224 29225 29226 29227 29228 29229 29230 29231 29232 29233 29234 29235 29236 29237 29238 29239 29240 29241 29242 29243 29244 29245 29246 29247 29248 29249 29250 29251 29252 29253 29254 29255 29256 29257 29258 29259 29260 29261 29262 29263 29264 29265 29266 29267 29268 29269 29270 29271 29272 29273 29274 29275 29276 29277 29278 29279 29280 29281 29282 29283 29284 29285 29286 29287 29288 29289 29290 29291 29292 29293 29294 29295 29296 29297 29298 29299 29300 29301 29302 29303 29304 29305 29306 29307 29308 29309 29310 29311 29312 29313 29314 29315 29316 29317 29318 29319 29320 29321 29322 29323 29324 29325 29326 29327 29328 29329 29330 29331 29332 29333 29334 29335 29336 29337 29338 29339 29340 29341 29342 29343 29344 29345 29346 29347 29348 29349 29350 29351 29352 29353 29354 29355 29356 29357 29358 29359 29360 29361 29362 29363 29364 29365 29366 29367 29368 29369 29370 29371 29372 29373 29374 29375 29376 29377 29378 29379 29380 29381 29382 29383 29384 29385 29386 29387 29388 29389 29390 29391 29392 29393 29394 29395 29396 29397 29398 29399 29400 29401 29402 29403 29404 29405 29406 29407 29408 29409 29410 29411 29412 29413 29414 29415 29416 29417 29418 29419 29420 29421 29422 29423 29424 29425 29426 29427 29428 29429 29430 29431 29432 29433 29434 29435 29436 29437 29438 29439 29440 29441 29442 29443 29444 29445 29446 29447 29448 29449 29450 29451 29452 29453 29454 29455 29456 29457 29458 29459 29460 29461 29462 29463 29464 29465 29466 29467 29468 29469 29470 29471 29472 29473 29474 29475 29476 29477 29478 29479 29480 29481 29482 29483 29484 29485 29486 29487 29488 29489 29490 29491 29492 29493 29494 29495 29496 29497 29498 29499 29500 29501 29502 29503 29504 29505 29506 29507 29508 29509 29510 29511 29512 29513 29514 29515 29516 29517 29518 29519 29520 29521 29522 29523 29524 29525 29526 29527 29528 29529 29530 29531 29532 29533 29534 29535 29536 29537 29538 29539 29540 29541 29542 29543 29544 29545 29546 29547 29548 29549 29550 29551 29552 29553 29554 29555 29556 29557 29558 29559 29560 29561 29562 29563 29564 29565 29566 29567 29568 29569 29570 29571 29572 29573 29574 29575 29576 29577 29578 29579 29580 29581 29582 29583 29584 29585 29586 29587 29588 29589 29590 29591 29592 29593 29594 29595 29596 29597 29598 29599 29600 29601 29602 29603 29604 29605 29606 29607 29608 29609 29610 29611 29612 29613 29614 29615 29616 29617 29618 29619 29620 29621 29622 29623 29624 29625 29626 29627 29628 29629 29630 29631 29632 29633 29634 29635 29636 29637 29638 29639 29640 29641 29642 29643 29644 29645 29646 29647 29648 29649 29650 29651 29652 29653 29654 29655 29656 29657 29658 29659 29660 29661 29662 29663 29664 29665 29666 29667 29668 29669 29670 29671 29672 29673 29674 29675 29676 29677 29678 29679 29680 29681 29682 29683 29684 29685 29686 29687 29688 29689 29690 29691 29692 29693 29694 29695 29696 29697 29698 29699 29700 29701 29702 29703 29704 29705 29706 29707 29708 29709 29710 29711 29712 29713 29714 29715 29716 29717 29718 29719 29720 29721 29722 29723 29724 29725 29726 29727 29728 29729 29730 29731 29732 29733 29734 29735 29736 29737 29738 29739 29740 29741 29742 29743 29744 29745 29746 29747 29748 29749 29750 29751 29752 29753 29754 29755 29756 29757 29758 29759 29760 29761 29762 29763 29764 29765 29766 29767 29768 29769 29770 29771 29772 29773 29774 29775 29776 29777 29778 29779 29780 29781 29782 29783 29784 29785 29786 29787 29788 29789 29790 29791 29792 29793 29794 29795 29796 29797 29798 29799 29800 29801 29802 29803 29804 29805 29806 29807 29808 29809 29810 29811 29812 29813 29814 29815 29816 29817 29818 29819 29820 29821 29822 29823 29824 29825 29826 29827 29828 29829 29830 29831 29832 29833 29834 29835 29836 29837 29838 29839 29840 29841 29842 29843 29844 29845 29846 29847 29848 29849 29850 29851 29852 29853 29854 29855 29856 29857 29858 29859 29860 29861 29862 29863 29864 29865 29866 29867 29868 29869 29870 29871 29872 29873 29874 29875 29876 29877 29878 29879 29880 29881 29882 29883 29884 29885 29886 29887 29888 29889 29890 29891 29892 29893 29894 29895 29896 29897 29898 29899 29900 29901 29902 29903 29904 29905 29906 29907 29908 29909 29910 29911 29912 29913 29914 29915 29916 29917 29918 29919 29920 29921 29922 29923 29924 29925 29926 29927 29928 29929 29930 29931 29932 29933 29934 29935 29936 29937 29938 29939 29940 29941 29942 29943 29944 29945 29946 29947 29948 29949 29950 29951 29952 29953 29954 29955 29956 29957 29958 29959 29960 29961 29962 29963 29964 29965 29966 29967 29968 29969 29970 29971 29972 29973 29974 29975 29976 29977 29978 29979 29980 29981 29982 29983 29984 29985 29986 29987 29988 29989 29990 29991 29992 29993 29994 29995 29996 29997 29998 29999 30000 30001 30002 30003 30004 30005 30006 30007 30008 30009 30010 30011 30012 30013 30014 30015 30016 30017 30018 30019 30020 30021 30022 30023 30024 30025 30026 30027 30028 30029 30030 30031 30032 30033 30034 30035 30036 30037 30038 30039 30040 30041 30042 30043 30044 30045 30046 30047 30048 30049 30050 30051 30052 30053 30054 30055 30056 30057 30058 30059 30060 30061 30062 30063 30064 30065 30066 30067 30068 30069 30070 30071 30072 30073 30074 30075 30076 30077 30078 30079 30080 30081 30082 30083 30084 30085 30086 30087 30088 30089 30090 30091 30092 30093 30094 30095 30096 30097 30098 30099 30100 30101 30102 30103 30104 30105 30106 30107 30108 30109 30110 30111 30112 30113 30114 30115 30116 30117 30118 30119 30120 30121 30122 30123 30124 30125 30126 30127 30128 30129 30130 30131 30132 30133 30134 30135 30136 30137 30138 30139 30140 30141 30142 30143 30144 30145 30146 30147 30148 30149 30150 30151 30152 30153 30154 30155 30156 30157 30158 30159 30160 30161 30162 30163 30164 30165 30166 30167 30168 30169 30170 30171 30172 30173 30174 30175 30176 30177 30178 30179 30180 30181 30182 30183 30184 30185 30186 30187 30188 30189 30190 30191 30192 30193 30194 30195 30196 30197 30198 30199 30200 30201 30202 30203 30204 30205 30206 30207 30208 30209 30210 30211 30212 30213 30214 30215 30216 30217 30218 30219 30220 30221 30222 30223 30224 30225 30226 30227 30228 30229 30230 30231 30232 30233 30234 30235 30236 30237 30238 30239 30240 30241 30242 30243 30244 30245 30246 30247 30248 30249 30250 30251 30252 30253 30254 30255 30256 30257 30258 30259 30260 30261 30262 30263 30264 30265 30266 30267 30268 30269 30270 30271 30272 30273 30274 30275 30276 30277 30278 30279 30280 30281 30282 30283 30284 30285 30286 30287 30288 30289 30290 30291 30292 30293 30294 30295 30296 30297 30298 30299 30300 30301 30302 30303 30304 30305 30306 30307 30308 30309 30310 30311 30312 30313 30314 30315 30316 30317 30318 30319 30320 30321 30322 30323 30324 30325 30326 30327 30328 30329 30330 30331 30332 30333 30334 30335 30336 30337 30338 30339 30340 30341 30342 30343 30344 30345 30346 30347 30348 30349 30350 30351 30352 30353 30354 30355 30356 30357 30358 30359 30360 30361 30362 30363 30364 30365 30366 30367 30368 30369 30370 30371 30372 30373 30374 30375 30376 30377 30378 30379 30380 30381 30382 30383 30384 30385 30386 30387 30388 30389 30390 30391 30392 30393 30394 30395 30396 30397 30398 30399 30400 30401 30402 30403 30404 30405 30406 30407 30408 30409 30410 30411 30412 30413 30414 30415 30416 30417 30418 30419 30420 30421 30422 30423 30424 30425 30426 30427 30428 30429 30430 30431 30432 30433 30434 30435 30436 30437 30438 30439 30440 30441 30442 30443 30444 30445 30446 30447 30448 30449 30450 30451 30452 30453 30454 30455 30456 30457 30458 30459 30460 30461 30462 30463 30464 30465 30466 30467 30468 30469 30470 30471 30472 30473 30474 30475 30476 30477 30478 30479 30480 30481 30482 30483 30484 30485 30486 30487 30488 30489 30490 30491 30492 30493 30494 30495 30496 30497 30498 30499 30500 30501 30502 30503 30504 30505 30506 30507 30508 30509 30510 30511 30512 30513 30514 30515 30516 30517 30518 30519 30520 30521 30522 30523 30524 30525 30526 30527 30528 30529 30530 30531 30532 30533 30534 30535 30536 30537 30538 30539 30540 30541 30542 30543 30544 30545 30546 30547 30548 30549 30550 30551 30552 30553 30554 30555 30556 30557 30558 30559 30560 30561 30562 30563 30564 30565 30566 30567 30568 30569 30570 30571 30572 30573 30574 30575 30576 30577 
</DataArray>
<DataArray type="UInt32" Name="offsets" format="ascii">
3 6 9 12 15 18 20 23 26 29 31 34 37 40 42 45 48 51 54 57 60 62 64 67 70 73 76 78 80 83 85 87 90 92 95 98 101 103 106 109 111 114 117 120 123 126 129 132 134 137 140 143 146 149 152 155 158 160 163 166 168 171 173 176 178 181 183 186 189 192 195 198 201 204 207 210 213 216 219 222 225 228 231 233 236 239 242 245 248 251 254 257 259 262 265 267 269 272 275 278 281 284 287 290 293 296 299 302 305 307 310 313 316 319 322 324 327 330 332 335 338 341 344 347 350 353 356 359 362 365 368 371 374 377 380 383 386 389 391 394 397 400 403 406 408 411 414 417 420 423 426 429 432 435 438 441 444 447 450 453 456 459 462 465 468 471 474 477 480 482 485 487 490 493 496 498 501 504 507 509 512 515 518 520 522 525 528 530 533 536 539 542 544 547 550 553 556 559 561 564 567 570 573 575 578 580 583 586 588 591 594 597 599 602 605 607 610 613 616 619 622 625 628 631 634 637 639 642 645 647 650 653 656 659 662 665 668 670 673 676 679 682 685 688 691 694 697 700 703 706 709 712 715 718 721 724 727 730 733 735 738 740 743 746 749 752 755 757 760 763 766 769 772 775 778 781 783 786 789 792 794 797 800 802 805 808 811 814 816 819 822 824 827 830 833 836 839 841 844 846 849 852 855 858 861 864 867 870 873 876 879 882 885 888 891 894 897 900 902 905 908 911 914 917 919 921 924 927 930 933 936 939 942 945 948 951 953 956 959 962 965 968 971 974 977 980 982 985 988 990 992 995 998 1001 1003 1006 1009 1011 1014 1017 1020 1023 1026 1029 1032 1035 1038 1041 1044 1047 1050 1053 1056 1058 1061 1064 1067 1070 1073 1076 1079 1082 1084 1087 1090 1092 1095 1098 1101 1104 1106 1109 1112 1115 1118 1121 1124 1127 1130 1133 1136 1139 1142 1145 1148 1150 1152 1155 1158 1160 1162 1165 1167 1170 1172 1175 1177 1180 1183 1185 1188 1191 1194 1197 1200 1203 1206 1209 1212 1214 1216 1219 1222 1224 1227 1230 1233 1236 1239 1241 1244 1247 1249 1252 1255 1258 1261 1263 1266 1269 1272 1274 1277 1280 1283 1285 1288 1290 1293 1296 1298 1301 1304 1307 1310 1313 1316 1319 1322 1325 1328 1331 1333 1336 1339 1342 1345 1348 1351 1353 1356 1359 1362 1364 1367 1370 1373 1376 1379 1382 1385 1387 1390 1393 1396 1399 1402 1404 1407 1409 1412 1415 1418 1421 1424 1426 1428 1431 1434 1437 1439 1441 1444 1446 1449 1452 1455 1458 1461 1464 1467 1469 1472 1475 1478 1481 1484 1487 1490 1493 1496 1499 1502 1505 1508 1511 1513 1516 1519 1521 1524 1526 1529 1532 1535 1538 1541 1544 1547 1550 1553 1556 1559 1562 1565 1568 1570 1573 1576 1579 1582 1585 1588 1591 1594 1597 1600 1603 1606 1609 1612 1615 1618 1620 1623 1626 1629 1632 1635 1638 1641 1644 1647 1650 1653 1655 1657 1660 1663 1666 1669 1672 1675 1678 1681 1684 1687 1690 1693 1696 1699 1702 1705 1707 1710 1713 1716 1719 1722 1725 1728 1730 1733 1736 1739 1742 1745 1748 1751 1754 1756 1759 1762 1765 1767 1770 1773 1776 1779 1782 1785 1788 1791 1794 1797 1800 1803 1806 1809 1812 1815 1818 1821 1824 1827 1830 1833 1836 1839 1842 1845 1848 1851 1853 1856 1858 1861 1864 1867 1870 1873 1876 1879 1882 1885 1888 1891 1894 1897 1899 1902 1905 1908 1910 1913 1916 1919 1922 1925 1928 1931 1934 1937 1940 1943 1946 1949 1951 1953 1956 1959 1962 1965 1968 1971 1974 1976 1979 1982 1985 1988 1991 1994 1997 2000 2003 2006 2009 2011 2014 2017 2020 2023 2026 2029 2032 2034 2037 2040 2043 2046 2049 2052 2055 2058 2061 2064 2067 2070 2073 2076 2079 2082 2085 2087 2090 2093 2096 2099 2102 2105 2108 2111 2114 2117 2119 2122 2125 2128 2131 2134 2136 2139 2142 2145 2147 2150 2153 2156 2159 2161 2164 2167 2170 2173 2176 2179 2182 2184 2187 2189 2192 2195 2197 2200 2202 2205 2208 2211 2214 2217 2220 2223 2226 2229 2232 2235 2238 2241 2244 2247 2250 2253 2256 2259 2262 2265 2268 2271 2274 2277 2280 2283 2286 2289 2292 2295 2298 2301 2304 2307 2309 2312 2314 2316 2319 2322 2325 2328 2331 2334 2337 2340 2343 2346 2349 2351 2354 2357 2360 2363 2366 2369 2372 2374 2377 2379 2382 2384 2387 2390 2393 2396 2399 2402 2404 2407 2409 2411 2414 2417 2420 2423 2426 2429 2432 2435 2438 2441 2444 2447 2450 2453 2456 2459 2462 2464 2467 2470 2473 2476 2479 2482 2485 2488 2491 2494 2497 2500 2503 2506 2508 2511 2514 2517 2520 2523 2526 2529 2532 2535 2538 2541 2544 2547 2549 2552 2555 2558 2561 2564 2567 2570 2573 2576 2578 2581 2584 2587 2590 2593 2595 2597 2600 2603 2606 2609 2611 2613 2616 2619 2622 2625 2628 2631 2634 2637 2640 2643 2646 2648 2651 2654 2657 2660 2662 2665 2668 2671 2674 2677 2680 2682 2685 2688 2690 2693 2695 2698 2701 2704 2706 2709 2712 2715 2718 2721 2724 2727 2729 2732 2735 2738 2741 2743 2745 2748 2751 2753 2756 2759 2762 2764 2766 2768 2770 2773 2776 2778 2781 2784 2787 2790 2793 2796 2799 2802 2804 2806 2809 2812 2815 2818 2821 2824 2826 2829 2831 2834 2837 2840 2842 2845 2848 2851 2854 2857 2860 2863 2866 2869 2872 2875 2878 2881 2884 2887 2890 2893 2896 2899 2902 2905 2908 2911 2914 2917 2920 2923 2926 2928 2931 2934 2937 2940 2943 2946 2949 2952 2955 2958 2961 2964 2967 2970 2973 2976 2979 2982 2985 2988 2991 2993 2996 2999 3002 3005 3008 3011 3014 3017 3020 3022 3025 3028 3031 3034 3037 3040 3042 3045 3048 3051 3054 3057 3059 3062 3065 3068 3071 3074 3076 3079 3082 3085 3088 3091 3094 3097 3100 3103 3106 3108 3111 3114 3117 3120 3122 3124 3127 3130 3132 3135 3138 3141 3144 3146 3149 3152 3154 3157 3160 3163 3166 3169 3171 3173 3176 3179 3182 3185 3188 3191 3193 3196 3199 3202 3205 3208 3211 3214 3216 3218 3221 3224 3227 3229 3232 3235 3238 3240 3243 3246 3248 3251 3253 3256 3259 3262 3264 3267 3270 3272 3274 3277 3280 3283 3286 3289 3292 3294 3297 3299 3302 3304 3307 3310 3313 3315 3317 3320 3322 3325 3328 3331 3334 3337 3340 3343 3346 3349 3352 3355 3358 3361 3364 3367 3370 3372 3375 3378 3381 3384 3387 3390 3393 3395 3398 3401 3404 3407 3410 3412 3415 3418 3421 3423 3426 3429 3432 3435 3437 3440 3442 3445 3447 3450 3453 3456 3459 3461 3464 3467 3469 3472 3475 3478 3481 3484 3487 3490 3493 3496 3499 3502 3504 3507 3510 3513 3516 3518 3521 3524 3527 3530 3532 3535 3538 3541 3544 3547 3550 3552 3555 3558 3561 3563 3566 3568 3570 3573 3576 3579 3582 3585 3588 3591 3594 3597 3600 3603 3606 3609 3612 3615 3618 3621 3624 3627 3630 3633 3636 3639 3642 3645 3648 3651 3654 3656 3659 3662 3664 3666 3669 3671 3674 3677 3680 3683 3685 3688 3691 3693 3696 3699 3702 3705 3708 3711 3714 3717 3720 3723 3726 3729 3732 3735 3738 3741 3744 3747 3750 3753 3756 3759 3762 3765 3768 3771 3774 3777 3779 3782 3785 3788 3791 3794 3797 3800 3803 3805 3808 3811 3814 3817 3820 3823 3826 3828 3831 3833 3836 3839 3842 3844 3847 3850 3853 3856 3859 3862 3865 3867 3870 3872 3875 3878 3881 3884 3887 3889 3892 3895 3898 3901 3904 3907 3910 3913 3916 3919 3922 3925 3928 3931 3934 3937 3940 3943 3946 3949 3952 3955 3958 3961 3964 3967 3970 3973 3976 3979 3982 3985 3988 3991 3994 3997 4000 4003 4006 4008 4010 4013 4016 4018 4021 4024 4027 4029 4032 4035 4038 4040 4042 4045 4048 4050 4053 4056 4059 4062 4065 4068 4071 4074 4077 4080 4083 4086 4089 4092 4095 4098 4101 4104 4107 4110 4113 4115 4118 4120 4123 4126 4129 4132 4135 4138 4141 4144 4147 4150 4153 4156 4159 4162 4165 4168 4171 4174 4177 4180 4183 4186 4189 4192 4195 4198 4201 4204 4207 4210 4213 4216 4219 4222 4225 4228 4231 4234 4237 4240 4243 4246 4249 4252 4255 4257 4260 4262 4265 4267 4270 4273 4275 4278 4281 4284 4287 4290 4293 4296 4299 4302 4305 4308 4311 4314 4317 4320 4323 4326 4329 4332 4335 4338 4341 4344 4347 4350 4353 4356 4358 4361 4364 4367 4370 4373 4376 4379 4382 4385 4388 4391 4394 4397 4400 4403 4406 4409 4412 4415 4418 4421 4424 4427 4430 4433 4436 4439 4442 4445 4448 4451 4454 4457 4460 4463 4466 4469 4472 4475 4478 4481 4484 4487 4490 4493 4496 4499 4502 4505 4507 4510 4513 4516 4519 4521 4524 4527 4530 4533 4536 4539 4542 4545 4547 4550 4553 4556 4559 4562 4564 4566 4568 4571 4574 4577 4580 4582 4584 4587 4590 4592 4595 4598 4601 4604 4607 4610 4613 4616 4619 4622 4625 4628 4631 4634 4636 4638 4641 4643 4646 4649 4652 4655 4658 4661 4664 4667 4670 4673 4676 4679 4682 4685 4688 4691 4694 4697 4699 4702 4705 4708 4711 4714 4717 4719 4722 4725 4728 4731 4734 4737 4740 4743 4746 4749 4752 4755 4758 4761 4764 4767 4770 4773 4775 4778 4781 4784 4787 4790 4793 4796 4799 4802 4804 4807 4810 4812 4815 4818 4821 4824 4827 4830 4833 4836 4839 4842 4845 4848 4851 4854 4857 4860 4862 4865 4867 4870 4873 4876 4879 4881 4884 4886 4889 4892 4894 4896 4899 4902 4904 4907 4910 4913 4915 4918 4921 4924 4927 4930 4933 4935 4938 4941 4944 4946 4949 4952 4955 4958 4960 4963 4966 4969 4972 4975 4978 4981 4983 4986 4989 4992 4995 4998 5000 5003 5006 5008 5011 5014 5017 5020 5023 5026 5029 5031 5034 5037 5040 5042 5044 5047 5050 5053 5055 5058 5061 5064 5067 5070 5072 5074 5076 5079 5082 5085 5088 5091 5094 5097 5100 5103 5105 5107 5110 5112 5115 5118 5121 5124 5127 5129 5132 5135 5137 5140 5142 5145 5148 5151 5153 5156 5159 5161 5164 5167 5170 5173 5176 5179 5182 5184 5187 5190 5192 5194 5197 5200 5202 5205 5207 5210 5213 5215 5218 5221 5223 5226 5228 5231 5234 5237 5239 5242 5245 5247 5250 5252 5255 5258 5260 5263 5265 5268 5271 5274 5277 5279 5281 5284 5287 5290 5293 5296 5299 5302 5305 5308 5310 5313 5316 5319 5322 5325 5328 5331 5334 5337 5340 5343 5346 5349 5352 5355 5358 5361 5364 5366 5368 5371 5374 5377 5379 5382 5385 5388 5391 5393 5396 5399 5401 5404 5407 5410 5412 5415 5418 5420 5423 5426 5429 5432 5434 5437 5440 5443 5446 5449 5451 5454 5457 5460 5462 5464 5467 5470 5472 5475 5478 5481 5484 5487 5489 5491 5494 5497 5500 5503 5505 5508 5511 5514 5517 5519 5522 5525 5528 5531 5534 5537 5540 5543 5546 5549 5552 5555 5558 5561 5564 5567 5570 5573 5576 5579 5582 5585 5588 5591 5594 5597 5600 5603 5605 5608 5611 5614 5617 5620 5623 5626 5629 5632 5635 5638 5640 5643 5646 5649 5652 5654 5657 5660 5663 5665 5668 5671 5673 5676 5679 5682 5685 5688 5690 5693 5696 5699 5702 5705 5708 5711 5714 5717 5720 5723 5726 5729 5732 5735 5738 5741 5744 5747 5750 5752 5755 5758 5761 5764 5767 5769 5772 5775 5778 5781 5784 5787 5790 5792 5795 5798 5801 5804 5807 5810 5813 5816 5819 5822 5825 5828 5831 5833 5836 5839 5842 5845 5848 5850 5852 5855 5858 5861 5864 5866 5869 5871 5874 5877 5880 5882 5884 5887 5890 5892 5895 5898 5901 5903 5906 5909 5912 5915 5917 5920 5923 5925 5927 5930 5933 5936 5939 5942 5945 5947 5950 5953 5955 5958 5961 5964 5967 5969 5972 5975 5978 5981 5984 5987 5990 5993 5996 5999 6002 6005 6008 6011 6014 6017 6020 6023 6026 6028 6031 6033 6036 6039 6042 6044 6047 6049 6052 6054 6057 6060 6062 6065 6068 6070 6072 6074 6077 6080 6083 6085 6088 6091 6094 6097 6100 6103 6105 6108 6111 6114 6117 6120 6123 6126 6128 6131 6133 6136 6139 6142 6145 6148 6151 6154 6156 6159 6162 6165 6168 6171 6174 6177 6180 6183 6186 6189 6191 6194 6197 6199 6202 6205 6208 6211 6214 6217 6220 6223 6226 6229 6232 6235 6238 6241 6244 6247 6249 6252 6255 6258 6261 6264 6267 6270 6273 6276 6279 6282 6285 6288 6291 6294 6297 6300 6303 6306 6309 6312 6314 6317 6320 6323 6325 6328 6331 6334 6337 6340 6343 6346 6349 6352 6355 6357 6360 6363 6366 6369 6372 6375 6378 6381 6384 6387 6389 6392 6395 6398 6401 6404 6407 6409 6412 6415 6418 6420 6423 6426 6429 6432 6435 6438 6441 6444 6447 6450 6453 6456 6459 6462 6465 6468 6471 6474 6477 6480 6483 6485 6488 6491 6494 6497 6500 6502 6505 6508 6510 6513 6516 6519 6522 6525 6528 6530 6533 6536 6539 6542 6544 6547 6550 6553 6556 6559 6562 6565 6568 6571 6574 6577 6580 6583 6586 6589 6592 6595 6598 6600 6603 6606 6609 6612 6615 6617 6620 6623 6626 6628 6631 6633 6636 6639 6642 6645 6648 6651 6654 6656 6659 6662 6665 6667 6669 6672 6675 6678 6681 6684 6686 6689 6692 6695 6697 6700 6703 6706 6709 6712 6715 6718 6721 6724 6727 6730 6733 6736 6739 6742 6744 6747 6750 6753 6756 6759 6762 6764 6767 6770 6773 6776 6779 6782 6785 6788 6791 6794 6797 6799 6802 6805 6808 6811 6814 6817 6820 6823 6826 6828 6831 6834 6837 6840 6842 6844 6847 6850 6853 6856 6859 6862 6865 6868 6870 6872 6875 6877 6880 6883 6886 6889 6892 6894 6897 6900 6903 6906 6909 6912 6914 6917 6919 6922 6925 6928 6931 6934 6937 6940 6943 6946 6949 6951 6954 6957 6960 6963 6966 6969 6971 6974 6977 6980 6983 6986 6989 6992 6995 6997 7000 7003 7006 7009 7012 7014 7017 7020 7022 7025 7028 7031 7034 7037 7040 7042 7045 7048 7051 7054 7057 7060 7063 7066 7068 7071 7074 7077 7080 7082 7085 7088 7091 7094 7097 7100 7103 7106 7109 7112 7114 7117 7120 7123 7126 7129 7132 7135 7138 7141 7143 7146 7149 7152 7155 7157 7160 7163 7166 7169 7172 7175 7178 7181 7183 7186 7188 7191 7194 7197 7199 7202 7205 7208 7211 7214 7217 7220 7223 7225 7228 7231 7234 7236 7239 7242 7245 7247 7250 7253 7255 7258 7261 7264 7267 7270 7273 7276 7279 7282 7285 7288 7291 7294 7297 7300 7303 7306 7309 7312 7315 7318 7321 7324 7327 7330 7333 7336 7339 7342 7345 7348 7351 7354 7357 7360 7363 7366 7369 7372 7375 7378 7381 7384 7387 7390 7393 7396 7399 7402 7405 7408 7411 7414 7416 7419 7422 7425 7427 7430 7433 7436 7439 7442 7445 7447 7450 7452 7455 7458 7461 7464 7466 7468 7471 7474 7477 7480 7483 7486 7489 7492 7495 7498 7501 7504 7507 7510 7513 7516 7519 7522 7525 7528 7531 7534 7536 7539 7542 7544 7547 7550 7553 7555 7558 7561 7564 7567 7570 7573 7576 7579 7582 7585 7588 7591 7594 7597 7599 7602 7604 7607 7609 7612 7615 7618 7621 7624 7627 7630 7633 7636 7639 7642 7645 7648 7651 7654 7657 7660 7662 7665 7668 7671 7674 7677 7680 7683 7686 7689 7692 7695 7698 7701 7704 7707 7710 7713 7716 7719 7722 7725 7728 7731 7734 7737 7740 7743 7746 7749 7752 7755 7758 7761 7763 7766 7769 7772 7775 7778 7781 7783 7786 7789 7791 7794 7796 7799 7802 7804 7807 7810 7813 7815 7818 7821 7824 7827 7830 7833 7836 7839 7842 7845 7848 7851 7854 7857 7860 7863 7866 7869 7872 7875 7878 7881 7884 7887 7890 7892 7895 7898 7901 7904 7906 7909 7912 7914 7917 7920 7923 7926 7929 7932 7935 7938 7941 7944 7947 7950 7953 7956 7959 7962 7965 7968 7971 7974 7977 7980 7983 7986 7989 7992 7995 7998 8001 8004 8006 8009 8012 8015 8017 8020 8023 8026 8029 8031 8034 8037 8040 8043 8046 8048 8051 8054 8057 8060 8062 8065 8068 8071 8074 8077 8080 8083 8086 8089 8092 8095 8098 8101 8104 8106 8108 8111 8113 8116 8118 8121 8124 8127 8130 8133 8136 8139 8142 8145 8148 8151 8154 8157 8160 8163 8166 8169 8172 8175 8178 8181 8184 8187 8190 8193 8195 8197 8200 8203 8205 8208 8211 8213 8216 8219 8222 8225 8228 8231 8234 8237 8240 8243 8246 8248 8251 8254 8256 8259 8262 8265 8268 8271 8274 8277 8280 8283 8286 8289 8292 8295 8298 8300 8302 8305 8307 8309 8312 8315 8318 8321 8323 8326 8329 8332 8334 8336 8339 8342 8345 8348 8351 8354 8357 8359 8362 8365 8368 8371 8374 8377 8380 8383 8386 8389 8392 8395 8398 8401 8404 8407 8409 8412 8415 8418 8421 8423 8426 8429 8432 8435 8438 8441 8444 8446 8449 8452 8455 8458 8461 8464 8467 8469 8472 8475 8477 8480 8483 8486 8489 8492 8495 8498 8501 8504 8507 8510 8513 8516 8519 8522 8524 8527 8530 8533 8536 8539 8542 8545 8548 8550 8553 8556 8559 8562 8565 8568 8571 8573 8576 8579 8582 8585 8588 8590 8593 8596 8599 8602 8604 8607 8610 8613 8616 8619 8622 8625 8628 8631 8634 8637 8640 8642 8645 8648 8651 8654 8657 8660 8663 8666 8669 8672 8675 8678 8681 8684 8686 8689 8692 8695 8698 8701 8704 8707 8710 8713 8716 8719 8722 8725 8727 8729 8732 8735 8737 8740 8743 8746 8749 8751 8754 8757 8760 8762 8765 8768 8770 8773 8776 8779 8782 8784 8787 8790 8793 8796 8799 8802 8805 8808 8811 8814 8817 8820 8823 8826 8829 8832 8835 8838 8841 8844 8847 8850 8853 8856 8859 8862 8865 8868 8871 8874 8877 8880 8883 8886 8888 8891 8894 8897 8899 8902 8904 8907 8910 8913 8916 8919 8922 8925 8928 8931 8934 8937 8940 8943 8946 8948 8951 8954 8957 8960 8963 8966 8969 8972 8974 8977 8980 8983 8985 8988 8991 8994 8997 9000 9003 9006 9008 9011 9013 9016 9019 9022 9025 9028 9031 9034 9037 9040 9043 9046 9049 9052 9055 9057 9060 9063 9065 9068 9071 9074 9077 9080 9083 9086 9088 9091 9094 9097 9100 9103 9106 9109 9112 9115 9118 9121 9124 9127 9130 9133 9136 9139 9142 9145 9148 9151 9154 9157 9160 9163 9166 9169 9171 9174 9177 9179 9182 9185 9188 9190 9193 9196 9198 9201 9204 9207 9210 9213 9216 9219 9222 9225 9228 9231 9234 9237 9240 9243 9246 9249 9252 9255 9257 9260 9263 9266 9269 9272 9275 9278 9281 9284 9287 9290 9293 9296 9298 9301 9304 9307 9310 9313 9316 9319 9322 9325 9328 9331 9334 9337 9340 9343 9346 9349 9352 9355 9357 9360 9363 9366 9369 9372 9375 9378 9381 9384 9387 9390 9393 9396 9399 9402 9405 9407 9410 9413 9415 9418 9421 9424 9426 9429 9432 9434 9437 9440 9443 9446 9449 9452 9455 9458 9461 9464 9467 9470 9473 9476 9478 9481 9484 9486 9489 9492 9495 9498 9501 9504 9507 9510 9513 9516 9519 9522 9525 9528 9531 9534 9537 9540 9543 9546 9549 9552 9555 9558 9561 9564 9567 9570 9573 9576 9579 9582 9585 9588 9591 9594 9596 9599 9602 9605 9608 9610 9613 9616 9619 9622 9625 9628 9631 9634 9637 9640 9643 9646 9649 9652 9655 9657 9660 9662 9664 9667 9670 9672 9675 9677 9680 9683 9686 9689 9692 9695 9698 9701 9703 9706 9709 9711 9714 9717 9720 9723 9725 9727 9730 9732 9735 9738 9741 9744 9747 9750 9753 9756 9759 9762 9765 9768 9771 9774 9777 9780 9783 9786 9789 9792 9795 9797 9800 9803 9806 9809 9812 9815 9818 9821 9824 9827 9830 9833 9836 9839 9842 9845 9848 9851 9854 9857 9860 9863 9866 9869 9872 9874 9877 9880 9883 9886 9889 9891 9894 9897 9900 9903 9906 9909 9912 9915 9918 9920 9923 9926 9929 9932 9935 9938 9941 9944 9947 9950 9953 9956 9959 9962 9965 9968 9971 9973 9975 9978 9981 9983 9986 9989 9992 9994 9997 10000 10003 10006 10009 10012 10015 10018 10021 10024 10026 10029 10032 10034 10037 10039 10042 10045 10048 10051 10053 10056 10059 10062 10064 10067 10070 10073 10076 10079 10082 10084 10087 10090 10093 10096 10099 10102 10104 10107 10110 10113 10116 10119 10122 10125 10128 10131 10134 10137 10140 10143 10146 10148 10151 10154 10156 10159 10162 10165 10167 10169 10172 10175 10178 10181 10184 10187 10190 10193 10196 10199 10201 10204 10207 10210 10212 10215 10218 10221 10224 10226 10229 10232 10235 10238 10241 10244 10247 10250 10252 10255 10258 10261 10264 10267 10269 10271 10274 10277 10280 10282 10285 10287 10289 10292 10295 10298 10301 10304 10306 10309 10312 10315 10318 10321 10324 10326 10329 10332 10335 10338 10341 10344 10347 10349 10352 10355 10357 10360 10363 10365 10368 10371 10374 10377 10380 10383 10386 10389 10392 10395 10398 10401 10404 10407 10409 10412 10415 10418 10420 10423 10426 10428 10431 10434 10437 10440 10442 10445 10448 10451 10454 10457 10460 10463 10466 10468 10471 10474 10477 10480 10482 10485 10488 10491 10494 10497 10500 10503 10506 10508 10511 10514 10517 10520 10523 10526 10529 10532 10535 10537 10540 10543 10546 10548 10551 10554 10556 10559 10562 10564 10567 10570 10573 10576 10579 10582 10585 10588 10591 10593 10596 10599 10602 10605 10608 10611 10614 10617 10620 10623 10626 10629 10632 10635 10638 10641 10643 10646 10649 10652 10655 10658 10661 10664 10667 10670 10673 10676 10679 10682 10685 10688 10691 10694 10697 10700 10703 10706 10709 10712 10715 10718 10721 10723 10726 10728 10731 10734 10737 10740 10743 10746 10749 10752 10755 10758 10760 10763 10766 10768 10771 10774 10777 10780 10783 10786 10789 10792 10795 10798 10801 10804 10807 10810 10813 10816 10819 10822 10825 10828 10831 10833 10836 10839 10842 10845 10848 10851 10854 10857 10860 10862 10865 10867 10870 10873 10876 10879 10882 10885 10888 10890 10893 10895 10898 10901 10904 10907 10910 10913 10916 10919 10922 10925 10928 10930 10933 10936 10939 10942 10944 10947 10949 10952 10955 10958 10961 10964 10967 10969 10972 10975 10977 10980 10983 10985 10988 10991 10994 10996 10998 11000 11003 11006 11009 11012 11015 11018 11021 11024 11027 11030 11033 11036 11039 11041 11044 11047 11050 11053 11056 11059 11062 11064 11067 11069 11072 11074 11077 11080 11082 11084 11087 11090 11093 11096 11099 11102 11104 11107 11110 11113 11116 11118 11121 11123 11126 11128 11131 11133 11136 11139 11142 11145 11147 11150 11153 11156 11159 11162 11164 11167 11170 11173 11176 11179 11182 11185 11188 11191 11194 11197 11200 11203 11206 11208 11211 11214 11217 11220 11223 11225 11228 11231 11234 11236 11239 11242 11245 11248 11251 11254 11257 11260 11263 11266 11269 11272 11275 11278 11281 11284 11287 11289 11292 11295 11298 11301 11303 11306 11309 11312 11315 11318 11321 11323 11326 11329 11332 11335 11338 11341 11344 11347 11350 11353 11355 11358 11361 11363 11366 11368 11371 11374 11377 11380 11383 11386 11389 11392 11395 11398 11401 11403 11406 11409 11412 11415 11418 11421 11423 11426 11428 11430 11433 11435 11438 11441 11444 11447 11450 11453 11456 11458 11461 11464 11467 11470 11473 11476 11479 11482 11485 11488 11491 11494 11497 11500 11503 11506 11508 11511 11514 11517 11520 11523 11526 11529 11532 11535 11538 11540 11543 11546 11549 11552 11555 11558 11561 11564 11567 11570 11572 11575 11578 11581 11584 11586 11589 11592 11595 11598 11601 11603 11606 11609 11612 11615 11617 11620 11623 11626 11629 11632 11635 11638 11641 11644 11647 11650 11653 11656 11659 11662 11665 11668 11671 11673 11676 11679 11682 11685 11688 11691 11694 11697 11699 11702 11704 11706 11709 11712 11715 11718 11721 11723 11726 11729 11732 11735 11738 11741 11744 11747 11750 11753 11756 11759 11762 11765 11767 11770 11773 11775 11778 11780 11782 11785 11788 11791 11794 11797 11800 11802 11805 11808 11811 11814 11816 11819 11821 11824 11827 11829 11832 11835 11838 11841 11844 11847 11849 11851 11854 11857 11860 11863 11866 11869 11872 11875 11878 11881 11884 11887 11890 11893 11896 11898 11901 11904 11907 11910 11913 11916 11919 11921 11924 11926 11929 11932 11935 11937 11940 11942 11945 11948 11951 11954 11957 11960 11963 11966 11968 11971 11974 11977 11980 11983 11985 11988 11990 11993 11996 11999 12002 12004 12007 12010 12013 12016 12019 12021 12024 12027 12030 12033 12036 12039 12042 12045 12048 12051 12054 12057 12060 12063 12066 12069 12072 12075 12078 12081 12084 12087 12090 12093 12095 12098 12101 12104 12106 12109 12111 12114 12117 12120 12122 12125 12128 12131 12134 12137 12140 12143 12146 12149 12152 12155 12158 12161 12164 12167 12170 12173 12175 12177 12179 12181 12184 12187 12190 12193 12196 12199 12201 12204 12207 12210 12212 12215 12218 12221 12224 12227 12230 12233 12236 12239 12242 12244 12246 12248 12251 12254 12256 12258 12261 12264 12267 12270 12273 12276 12279 12282 12285 12287 12290 12293 12296 12299 12302 12305 12308 12311 12313 12315 12318 12321 12324 12326 12329 12332 12335 12338 12341 12344 12347 12350 12353 12356 12359 12361 12364 12366 12369 12372 12375 12378 12381 12383 12385 12388 12391 12393 12395 12398 12401 12404 12407 12410 12413 12416 12419 12422 12425 12428 12431 12434 12437 12440 12443 12446 12449 12452 12455 12458 12461 12464 12467 12470 12473 12476 12479 12482 12485 12488 12491 12494 12497 12500 12503 12506 12509 12512 12515 12518 12521 12523 12525 12528 12531 12534 12537 12540 12543 12546 12549 12552 12555 12558 12561 12564 12567 12570 12573 12576 12579 12582 12585 12587 12590 12593 12596 12599 12602 12605 12608 12611 12614 12617 12620 12623 12626 12629 12632 12635 12637 12640 12642 12645 12648 12651 12654 12657 12660 12663 12666 12668 12671 12674 12677 12680 12683 12686 12689 12692 12695 12698 12701 12703 12706 12709 12711 12714 12717 12719 12722 12725 12728 12731 12733 12736 12739 12742 12745 12747 12750 12753 12755 12758 12760 12763 12766 12769 12772 12775 12777 12780 12783 12786 12789 12792 12795 12798 12800 12803 12806 12809 12812 12815 12818 12821 12824 12827 12830 12833 12836 12839 12842 12845 12848 12851 12854 12857 12860 12863 12866 12869 12872 12874 12877 12880 12883 12885 12888 12891 12893 12896 12899 12902 12904 12907 12910 12913 12916 12918 12921 12923 12926 12929 12932 12935 12938 12941 12944 12947 12949 12952 12955 12958 12961 12964 12967 12970 12973 12976 12979 12981 12984 12987 12989 12992 12995 12997 13000 13003 13005 13007 13010 13013 13016 13019 13022 13025 13028 13030 13032 13035 13038 13041 13043 13046 13049 13051 13053 13056 13059 13062 13064 13066 13069 13071 13074 13077 13079 13082 13085 13088 13091 13093 13096 13098 13100 13103 13106 13109 13111 13114 13116 13118 13121 13123 13125 13127 13129 13132 13134 13137 13139 13142 13144 13147 13150 13153 13155 13158 13161 13163 13166 13168 13170 13173 13176 13179 13182 13184 13187 13189 13191 13194 13197 13200 13202 13204 13207 13210 13212 13214 13217 13220 13223 13226 13228 13231 13234 13237 13240 13242 13245 13248 13251 13254 13256 13259 13261 13264 13266 13269 13271 13274 13276 13279 13281 13284 13287 13290 13293 13296 13298 13301 13304 13306 13308 13310 13313 13316 13318 13320 13323 13325 13328 13331 13333 13336 13339 13342 13345 13348 13351 13353 13356 13359 13361 13364 13366 13369 13372 13375 13378 13380 13383 13385 13388 13390 13393 13396 13399 13401 13404 13407 13409 13412 13414 13417 13419 13422 13425 13428 13431 13434 13436 13439 13442 13445 13448 13451 13454 13457 13460 13463 13466 13468 13471 13474 13477 13480 13482 13485 13488 13490 13493 13496 13499 13502 13505 13507 13510 13513 13515 13518 13521 13524 13526 13529 13531 13534 13537 13540 13542 13545 13548 13551 13554 13556 13559 13562 13565 13568 13570 13572 13575 13578 13581 13584 13587 13590 13592 13595 13598 13600 13603 13606 13609 13612 13615 13618 13621 13624 13627 13630 13633 13636 13639 13642 13645 13648 13651 13654 13657 13660 13663 13666 13669 13672 13675 13678 13681 13684 13687 13690 13693 13696 13699 13702 13705 13708 13711 13714 13717 13720 13723 13726 13729 13732 13735 13738 13741 13744 13747 13750 13753 13756 13759 13762 13765 13768 13771 13774 13776 13779 13782 13785 13788 13791 13794 13797 13800 13803 13806 13809 13812 13814 13817 13820 13822 13825 13828 13831 13833 13836 13839 13842 13845 13848 13851 13854 13857 13860 13863 13866 13869 13872 13875 13878 13880 13883 13886 13889 13892 13895 13898 13901 13904 13907 13910 13913 13916 13919 13922 13925 13928 13930 13933 13936 13939 13942 13945 13948 13951 13954 13957 13960 13963 13966 13969 13971 13974 13977 13979 13982 13985 13987 13990 13992 13995 13998 14001 14004 14007 14010 14013 14015 14018 14021 14024 14027 14030 14033 14036 14039 14042 14045 14048 14051 14053 14056 14059 14062 14064 14067 14070 14073 14076 14079 14082 14085 14088 14091 14093 14096 14099 14102 14105 14108 14111 14113 14116 14119 14122 14125 14128 14131 14133 14136 14139 14142 14144 14147 14150 14153 14156 14159 14162 14165 14167 14170 14173 14176 14179 14182 14185 14188 14191 14194 14197 14199 14202 14205 14208 14211 14214 14217 14220 14223 14226 14229 14232 14235 14238 14241 14244 14247 14249 14252 14254 14257 14260 14263 14266 14269 14272 14275 14278 14281 14284 14286 14289 14291 14294 14297 14300 14303 14306 14309 14312 14315 14318 14321 14324 14326 14329 14332 14335 14338 14341 14344 14347 14350 14353 14356 14359 14361 14364 14367 14370 14373 14376 14379 14382 14384 14387 14390 14393 14396 14399 14402 14405 14407 14410 14413 14416 14419 14422 14425 14428 14431 14434 14437 14440 14442 14445 14448 14451 14454 14457 14460 14463 14466 14468 14471 14473 14476 14479 14482 14485 14488 14491 14494 14497 14500 14503 14505 14508 14511 14514 14516 14519 14522 14525 14528 14531 14534 14537 14540 14543 14545 14548 14551 14554 14557 14560 14563 14566 14569 14572 14575 14578 14581 14584 14587 14590 14593 14595 14598 14601 14604 14607 14610 14613 14616 14619 14622 14625 14628 14631 14634 14637 14640 14643 14646 14649 14651 14654 14657 14659 14662 14665 14667 14670 14673 14676 14679 14682 14684 14687 14690 14693 14696 14699 14702 14705 14708 14711 14714 14717 14720 14723 14726 14729 14732 14735 14738 14741 14744 14747 14750 14753 14756 14759 14762 14765 14768 14771 14774 14777 14780 14783 14786 14789 14792 14795 14798 14801 14804 14807 14810 14813 14816 14819 14822 14825 14828 14831 14834 14837 14840 14843 14846 14849 14852 14855 14858 14861 14863 14866 14869 14871 14874 14877 14880 14883 14886 14889 14892 14895 14898 14901 14904 14907 14910 14913 14916 14919 14922 14925 14928 14931 14934 14937 14940 14943 14945 14947 14950 14953 14956 14959 14962 14965 14968 14971 14974 14977 14980 14983 14986 14989 14992 14995 14997 14999 15002 15005 15008 15011 15014 15017 15020 15022 15025 15027 15030 15033 15035 15037 15040 15043 15046 15049 15052 15055 15058 15061 15064 15067 15070 15072 15075 15077 15080 15083 15086 15088 15091 15094 15097 15099 15102 15104 15107 15110 15113 15116 15119 15121 15123 15126 15129 15132 15135 15138 15141 15144 15147 15150 15153 15156 15159 15162 15165 15168 15171 15174 15177 15180 15183 15186 15189 15192 15195 15198 15201 15204 15207 15210 15213 15216 15219 15222 15225 15228 15231 15234 15237 15240 15243 15246 15249 15252 15255 15258 15261 15264 15267 15270 15273 15276 15279 15282 15285 15288 15291 15294 15297 15300 15303 15306 15309 15312 15315 15318 15321 15324 15327 15330 15333 15336 15339 15342 15345 15348 15351 15354 15357 15360 15363 15366 15369 15372 15375 15378 15381 15384 15387 15390 15393 15396 15399 15402 15405 15408 15411 15414 15417 15420 15423 15426 15429 15432 15435 15437 15439 15442 15444 15447 15449 15452 15455 15457 15460 15463 15466 15469 15471 15474 15477 15480 15483 15486 15489 15492 15494 15496 15498 15501 15504 15507 15510 15513 15515 15517 15520 15523 15526 15529 15532 15535 15538 15541 15544 15547 15550 15553 15556 15559 15562 15565 15568 15571 15574 15577 15580 15583 15586 15589 15592 15595 15598 15601 15604 15607 15610 15613 15616 15619 15621 15624 15627 15629 15632 15635 15638 15641 15644 15647 15650 15653 15656 15659 15662 15664 15667 15670 15673 15676 15679 15682 15685 15687 15690 15693 15696 15699 15702 15705 15708 15711 15714 15717 15720 15723 15726 15729 15732 15735 15737 15740 15743 15745 15748 15751 15754 15757 15760 15763 15766 15769 15772 15775 15778 15781 15784 15787 15790 15793 15796 15799 15802 15805 15808 15811 15814 15816 15819 15822 15824 15827 15830 15832 15835 15838 15841 15844 15847 15850 15853 15855 15858 15861 15864 15867 15870 15873 15875 15878 15881 15883 15886 15889 15892 15895 15897 15900 15902 15905 15908 15910 15913 15916 15919 15922 15924 15927 15929 15932 15935 15937 15940 15943 15946 15949 15952 15955 15958 15961 15964 15967 15970 15973 15975 15978 15981 15984 15986 15989 15992 15994 15997 16000 16003 16006 16008 16011 16014 16017 16020 16023 16026 16029 16032 16035 16038 16040 16043 16046 16049 16052 16055 16058 16061 16064 16067 16070 16072 16075 16078 16081 16084 16087 16090 16093 16096 16099 16102 16105 16108 16110 16113 16116 16118 16121 16124 16127 16130 16133 16136 16139 16142 16145 16148 16150 16153 16156 16159 16162 16165 16167 16170 16172 16174 16177 16180 16182 16185 16188 16191 16194 16197 16200 16203 16206 16209 16211 16213 16216 16219 16222 16225 16228 16231 16233 16236 16239 16242 16245 16248 16251 16254 16257 16260 16263 16266 16269 16272 16275 16278 16281 16284 16287 16290 16293 16296 16299 16302 16305 16308 16310 16313 16316 16319 16322 16325 16328 16331 16334 16337 16340 16343 16346 16349 16352 16355 16358 16361 16364 16367 16370 16373 16376 16379 16382 16385 16388 16391 16394 16397 16400 16403 16406 16409 16412 16415 16418 16421 16424 16427 16430 16432 16435 16438 16441 16444 16447 16450 16453 16456 16459 16462 16464 16467 16470 16473 16475 16478 16480 16483 16486 16489 16491 16494 16497 16500 16502 16505 16507 16510 16512 16515 16517 16519 16522 16525 16527 16530 16533 16536 16538 16541 16544 16547 16550 16553 16555 16558 16561 16564 16567 16569 16572 16575 16578 16580 16583 16586 16589 16592 16594 16597 16599 16602 16605 16608 16611 16614 16617 16620 16623 16626 16629 16632 16635 16638 16641 16643 16646 16649 16652 16655 16657 16660 16663 16665 16668 16671 16673 16675 16678 16681 16683 16686 16688 16691 16694 16697 16699 16701 16703 16705 16708 16711 16713 16716 16719 16722 16725 16727 16730 16732 16735 16738 16740 16742 16744 16747 16749 16752 16755 16757 16759 16761 16764 16767 16770 16773 16776 16779 16782 16785 16788 16790 16792 16795 16798 16801 16804 16806 16808 16811 16814 16817 16819 16822 16824 16827 16830 16833 16836 16839 16842 16845 16848 16851 16854 16857 16859 16862 16865 16868 16871 16874 16877 16880 16883 16886 16889 16892 16895 16898 16901 16904 16907 16910 16913 16916 16919 16922 16925 16928 16930 16933 16936 16939 16942 16945 16948 16951 16954 16957 16960 16963 16966 16969 16972 16975 16978 16980 16983 16986 16988 16991 16994 16997 17000 17003 17006 17009 17012 17015 17017 17020 17023 17026 17028 17030 17033 17036 17038 17041 17044 17047 17050 17053 17055 17058 17060 17063 17066 17069 17071 17074 17077 17080 17083 17086 17089 17092 17094 17097 17100 17102 17105 17108 17111 17114 17116 17119 17122 17125 17127 17129 17132 17135 17137 17140 17143 17146 17148 17151 17154 17157 17160 17163 17166 17169 17171 17174 17177 17179 17182 17184 17186 17188 17191 17193 17196 17198 17200 17203 17206 17209 17212 17215 17218 17220 17223 17226 17228 17231 17234 17237 17240 17243 17246 17249 17252 17255 17258 17261 17264 17267 17270 17273 17276 17279 17282 17285 17288 17291 17294 17297 17300 17303 17306 17309 17312 17315 17318 17321 17324 17327 17330 17333 17335 17337 17340 17343 17346 17349 17352 17355 17358 17361 17363 17365 17367 17369 17372 17375 17377 17380 17383 17386 17389 17392 17395 17398 17401 17403 17406 17409 17411 17414 17417 17420 17422 17425 17428 17431 17434 17436 17439 17442 17445 17448 17451 17454 17457 17460 17463 17466 17469 17472 17475 17478 17480 17483 17486 17489 17492 17495 17497 17500 17503 17506 17509 17512 17515 17518 17521 17523 17526 17529 17532 17534 17536 17539 17542 17544 17546 17549 17552 17555 17558 17561 17563 17566 17569 17572 17575 17578 17581 17583 17586 17588 17591 17594 17597 17600 17603 17606 17609 17612 17614 17616 17619 17621 17623 17625 17628 17630 17633 17636 17639 17642 17645 17648 17650 17653 17656 17659 17662 17665 17668 17671 17673 17676 17679 17682 17685 17688 17691 17694 17697 17700 17703 17706 17709 17712 17715 17718 17721 17724 17727 17730 17733 17736 17739 17742 17745 17748 17751 17754 17757 17760 17763 17766 17769 17772 17775 17778 17781 17784 17787 17790 17793 17796 17799 17802 17805 17808 17811 17814 17817 17820 17823 17826 17829 17832 17835 17838 17841 17844 17846 17849 17852 17855 17858 17861 17864 17867 17869 17872 17875 17877 17880 17883 17886 17888 17891 17893 17896 17899 17901 17904 17907 17910 17913 17916 17919 17922 17924 17927 17930 17933 17935 17938 17941 17944 17947 17950 17953 17956 17958 17961 17963 17966 17969 17972 17975 17978 17981 17984 17987 17990 17993 17996 17999 18002 18005 18008 18011 18014 18017 18020 18023 18026 18029 18032 18035 18038 18040 18042 18045 18047 18050 18053 18056 18059 18062 18065 18068 18070 18073 18075 18078 18080 18082 18084 18087 18090 18092 18095 18098 18100 18103 18106 18109 18111 18114 18117 18120 18123 18126 18129 18132 18134 18136 18139 18142 18144 18147 18150 18153 18155 18158 18161 18164 18167 18169 18172 18174 18177 18180 18183 18186 18189 18192 18194 18197 18199 18202 18205 18208 18211 18214 18216 18219 18222 18224 18227 18230 18233 18236 18239 18242 18245 18248 18251 18254 18257 18260 18263 18266 18269 18272 18274 18277 18280 18282 18284 18287 18289 18292 18295 18298 18301 18304 18307 18310 18313 18315 18318 18321 18324 18327 18330 18333 18336 18339 18342 18345 18348 18351 18354 18357 18360 18363 18365 18368 18371 18374 18376 18379 18382 18384 18387 18390 18393 18396 18399 18402 18404 18407 18410 18413 18416 18419 18422 18425 18428 18431 18434 18437 18440 18443 18446 18449 18452 18455 18458 18461 18463 18465 18468 18471 18474 18477 18480 18483 18486 18488 18491 18494 18497 18499 18502 18505 18507 18510 18512 18515 18518 18520 18523 18525 18527 18530 18532 18535 18537 18540 18542 18545 18548 18551 18554 18557 18560 18563 18566 18569 18572 18575 18578 18581 18584 18587 18589 18591 18594 18597 18600 18603 18606 18609 18612 18614 18617 18620 18623 18626 18629 18632 18635 18638 18641 18644 18647 18650 18653 18656 18659 18661 18664 18666 18669 18672 18675 18678 18681 18684 18686 18689 18692 18695 18697 18700 18703 18706 18708 18711 18714 18717 18720 18723 18726 18729 18732 18735 18738 18741 18744 18747 18750 18753 18756 18759 18762 18765 18768 18771 18773 18776 18779 18782 18785 18787 18790 18793 18796 18799 18802 18804 18807 18810 18813 18815 18818 18821 18824 18827 18830 18833 18836 18839 18842 18845 18848 18851 18853 18856 18859 18862 18865 18867 18870 18873 18876 18879 18882 18885 18888 18891 18893 18896 18899 18902 18905 18908 18911 18914 18916 18919 18922 18925 18928 18930 18933 18936 18939 18942 18945 18948 18951 18954 18956 18959 18962 18965 18968 18971 18974 18977 18980 18983 18985 18988 18991 18994 18997 19000 19003 19006 19009 19012 19015 19018 19021 19024 19027 19030 19033 19036 19039 19042 19045 19048 19051 19054 19057 19060 19063 19066 19069 19071 19074 19077 19080 19083 19086 19089 19092 19094 19097 19100 19103 19106 19109 19112 19115 19118 19121 19124 19127 19130 19133 19136 19139 19142 19145 19148 19151 19154 19157 19160 19163 19166 19169 19172 19175 19178 19181 19183 19186 19189 19192 19195 19198 19201 19204 19207 19210 19213 19216 19219 19222 19225 19228 19231 19234 19237 19240 19243 19246 19249 19252 19255 19258 19261 19264 19267 19270 19273 19276 19279 19281 19284 19287 19289 19292 19295 19298 19301 19303 19306 19309 19311 19314 19317 19320 19323 19325 19328 19331 19334 19336 19339 19342 19345 19347 19350 19353 19356 19359 19362 19365 19368 19371 19374 19377 19379 19382 19385 19387 19390 19393 19396 19399 19402 19405 19407 19410 19413 19416 19419 19422 19424 19427 19430 19433 19436 19438 19441 19444 19447 19450 19453 19456 19459 19462 19465 19468 19470 19473 19476 19479 19482 19485 19488 19491 19494 19497 19499 19502 19505 19508 19511 19514 19517 19520 19523 19526 19529 19532 19535 19538 19540 19543 19546 19549 19552 19555 19558 19561 19563 19566 19569 19572 19575 19578 19580 19583 19586 19589 19592 19595 19598 19601 19604 19607 19610 19613 19616 19619 19622 19624 19627 19630 19633 19636 19639 19642 19645 19648 19650 19653 19656 19659 19662 19665 19668 19671 19674 19677 19680 19683 19686 19689 19692 19695 19698 19701 19704 19707 19710 19713 19716 19719 19722 19725 19728 19731 19734 19737 19740 19743 19746 19749 19751 19754 19757 19760 19763 19765 19767 19770 19773 19775 19778 19781 19783 19786 19789 19791 19794 19797 19800 19803 19806 19809 19812 19815 19818 19821 19824 19827 19830 19833 19836 19839 19842 19845 19848 19850 19853 19856 19859 19862 19864 19867 19870 19873 19876 19879 19882 19885 19888 19891 19894 19897 19900 19903 19906 19909 19912 19915 19918 19921 19924 19927 19930 19933 19936 19939 19942 19945 19948 19951 19954 19957 19960 19963 19966 19969 19972 19975 19978 19981 19984 19987 19990 19993 19996 19999 20002 20005 20008 20011 20014 20017 20020 20023 20026 20029 20032 20035 20038 20041 20044 20047 20050 20053 20056 20059 20062 20065 20068 20071 20074 20077 20079 20082 20085 20088 20091 20093 20096 20098 20101 20104 20106 20109 20112 20115 20118 20120 20123 20126 20128 20131 20134 20137 20140 20143 20146 20149 20152 20155 20158 20161 20164 20167 20170 20173 20176 20179 20182 20185 20188 20191 20194 20197 20200 20203 20206 20209 20212 20215 20218 20221 20224 20227 20230 20233 20236 20239 20242 20245 20248 20251 20254 20257 20260 20263 20266 20269 20272 20275 20278 20281 20284 20287 20290 20293 20296 20299 20302 20305 20308 20310 20313 20316 20319 20322 20325 20328 20331 20334 20337 20339 20342 20345 20348 20351 20354 20357 20360 20362 20365 20368 20371 20374 20377 20380 20383 20386 20389 20392 20395 20398 20401 20404 20407 20410 20413 20416 20419 20421 20423 20426 20429 20431 20434 20436 20439 20442 20445 20448 20451 20454 20457 20460 20463 20466 20469 20472 20475 20478 20481 20484 20487 20490 20493 20496 20499 20502 20505 20508 20511 20514 20517 20520 20523 20526 20529 20532 20535 20538 20541 20544 20547 20550 20553 20556 20559 20562 20565 20568 20571 20574 20577 20580 20583 20586 20589 20592 20595 20598 20601 20603 20605 20608 20611 20614 20617 20620 20623 20626 20629 20632 20635 20638 20641 20644 20647 20650 20653 20656 20659 20662 20665 20667 20670 20673 20676 20679 20682 20685 20688 20691 20694 20697 20699 20702 20705 20708 20710 20713 20716 20719 20722 20725 20728 20730 20733 20736 20739 20742 20745 20748 20751 20754 20757 20760 20763 20766 20769 20771 20774 20777 20780 20783 20786 20789 20791 20793 20796 20798 20801 20804 20806 20809 20812 20815 20817 20820 20823 20826 20828 20831 20834 20837 20840 20843 20845 20848 20850 20853 20856 20859 20862 20864 20867 20870 20873 20876 20878 20881 20883 20886 20889 20891 20893 20896 20899 20902 20905 20908 20910 20913 20916 20919 20922 20925 20927 20929 20931 20934 20936 20939 20941 20944 20947 20950 20953 20956 20958 20961 20964 20967 20970 20973 20976 20979 20982 20984 20986 20989 20992 20994 20997 21000 21003 21006 21008 21011 21014 21016 21019 21022 21024 21027 21030 21033 21036 21039 21042 21045 21048 21051 21053 21056 21059 21062 21065 21068 21071 21074 21077 21079 21082 21085 21088 21091 21094 21097 21100 21103 21106 21108 21110 21113 21116 21119 21122 21125 21128 21131 21134 21137 21140 21143 21146 21149 21152 21155 21158 21161 21164 21167 21170 21173 21176 21179 21182 21185 21188 21191 21194 21197 21200 21203 21206 21209 21212 21215 21217 21220 21223 21226 21229 21231 21234 21237 21240 21243 21246 21249 21252 21255 21258 21261 21264 21267 21270 21273 21276 21279 21281 21283 21286 21289 21292 21295 21298 21301 21304 21307 21310 21312 21315 21318 21321 21324 21326 21329 21332 21334 21337 21340 21343 21346 21349 21352 21355 21358 21361 21364 21367 21370 21373 21375 21378 21381 21384 21387 21390 21393 21396 21399 21402 21405 21408 21411 21414 21417 21420 21423 21426 21429 21432 21435 21438 21441 21444 21447 21450 21452 21455 21458 21461 21464 21467 21469 21472 21475 21478 21480 21483 21486 21489 21491 21493 21496 21499 21502 21505 21508 21511 21514 21517 21520 21523 21526 21529 21532 21535 21537 21540 21543 21546 21548 21551 21554 21557 21560 21562 21564 21567 21570 21573 21576 21579 21582 21585 21588 21591 21594 21597 21600 21603 21606 21609 21612 21615 21618 21621 21624 21627 21630 21633 21635 21638 21641 21644 21647 21650 21653 21656 21659 21662 21664 21667 21670 21673 21676 21678 21681 21683 21686 21689 21692 21695 21697 21700 21703 21706 21709 21712 21715 21718 21721 21724 21727 21730 21733 21736 21739 21742 21744 21747 21750 21752 21755 21758 21761 21764 21767 21770 21773 21776 21779 21782 21784 21786 21789 21792 21795 21798 21800 21803 21806 21809 21811 21814 21817 21820 21823 21825 21827 21830 21832 21835 21837 21840 21842 21845 21848 21850 21853 21856 21858 21861 21864 21866 21869 21872 21875 21877 21880 21883 21885 21888 21890 21893 21895 21898 21901 21903 21906 21909 21912 21915 21918 21921 21924 21927 21930 21933 21936 21939 21942 21944 21947 21950 21953 21956 21959 21962 21965 21968 21971 21974 21977 21980 21983 21986 21989 21992 21994 21996 21999 22002 22005 22008 22011 22013 22016 22019 22022 22025 22027 22030 22033 22035 22038 22041 22044 22047 22049 22052 22055 22058 22061 22064 22067 22070 22073 22076 22079 22082 22085 22088 22091 22094 22097 22100 22103 22106 22109 22112 22115 22118 22121 22124 22127 22130 22133 22136 22139 22142 22145 22148 22151 22154 22157 22160 22163 22165 22168 22171 22174 22177 22180 22183 22186 22189 22192 22195 22198 22201 22204 22206 22209 22211 22214 22217 22220 22223 22225 22228 22231 22234 22237 22240 22243 22246 22249 22252 22255 22258 22261 22264 22267 22270 22273 22276 22279 22281 22284 22286 22289 22292 22294 22297 22300 22303 22305 22308 22311 22314 22317 22320 22323 22326 22329 22332 22335 22338 22341 22344 22347 22350 22353 22356 22359 22362 22365 22368 22371 22374 22377 22380 22383 22386 22388 22391 22394 22396 22399 22402 22405 22408 22411 22414 22417 22420 22423 22426 22429 22432 22435 22438 22441 22444 22447 22450 22453 22456 22459 22462 22465 22468 22471 22474 22477 22480 22483 22486 22489 22492 22495 22498 22501 22503 22506 22508 22511 22514 22517 22520 22523 22526 22529 22532 22535 22538 22541 22544 22547 22550 22553 22556 22559 22561 22563 22566 22569 22572 22575 22578 22580 22583 22586 22589 22592 22594 22597 22600 22603 22606 22608 22611 22614 22617 22620 22623 22626 22629 22632 22635 22638 22641 22644 22647 22650 22653 22656 22659 22662 22664 22667 22670 22673 22676 22679 22682 22684 22687 22690 22692 22695 22698 22701 22704 22707 22710 22713 22716 22719 22722 22725 22728 22730 22733 22736 22738 22741 22744 22747 22750 22753 22756 22759 22762 22764 22767 22770 22773 22776 22779 22782 22784 22787 22790 22792 22795 22798 22801 22804 22807 22810 22813 22816 22819 22822 22825 22828 22831 22834 22837 22840 22843 22846 22849 22852 22855 22858 22861 22864 22867 22870 22873 22876 22879 22882 22885 22888 22891 22894 22897 22900 22902 22905 22908 22911 22913 22916 22919 22921 22924 22927 22930 22933 22936 22939 22941 22944 22947 22950 22953 22956 22958 22961 22964 22967 22970 22973 22976 22978 22981 22984 22987 22990 22992 22995 22997 23000 23003 23005 23008 23011 23014 23016 23019 23022 23025 23028 23031 23034 23037 23040 23043 23046 23049 23052 23055 23057 23060 23063 23066 23069 23072 23075 23078 23081 23084 23087 23090 23093 23096 23099 23102 23105 23108 23111 23114 23117 23120 23123 23126 23129 23131 23134 23136 23139 23141 23144 23146 23149 23152 23155 23158 23160 23163 23166 23169 23172 23174 23177 23180 23183 23186 23189 23192 23195 23198 23201 23204 23207 23210 23213 23216 23218 23221 23224 23227 23229 23232 23235 23238 23240 23243 23246 23248 23251 23254 23257 23259 23262 23265 23268 23271 23273 23276 23279 23282 23285 23287 23290 23293 23296 23299 23302 23305 23308 23311 23314 23317 23319 23322 23325 23328 23331 23334 23336 23339 23341 23344 23347 23350 23353 23356 23358 23360 23363 23366 23368 23371 23373 23376 23379 23381 23384 23387 23390 23393 23396 23399 23402 23405 23408 23411 23414 23417 23420 23422 23425 23428 23431 23434 23437 23439 23442 23445 23448 23451 23454 23457 23460 23463 23466 23469 23471 23474 23476 23479 23482 23484 23487 23490 23492 23495 23497 23500 23502 23505 23508 23511 23514 23517 23519 23521 23524 23527 23530 23533 23536 23539 23542 23545 23548 23551 23554 23556 23559 23562 23565 23568 23571 23573 23576 23579 23582 23584 23587 23589 23592 23595 23598 23601 23604 23607 23610 23613 23616 23619 23622 23625 23628 23631 23634 23636 23639 23642 23645 23648 23650 23653 23656 23659 23662 23665 23668 23671 23674 23677 23680 23683 23686 23689 23692 23695 23698 23701 23704 23707 23710 23713 23716 23719 23721 23724 23727 23729 23732 23735 23738 23741 23744 23747 23750 23752 23755 23758 23760 23763 23765 23768 23771 23774 23777 23780 23783 23786 23789 23792 23794 23797 23800 23802 23805 23808 23811 23813 23816 23819 23822 23825 23828 23831 23834 23836 23839 23842 23845 23848 23850 23852 23855 23858 23861 23864 23867 23870 23873 23876 23879 23881 23884 23887 23890 23893 23896 23899 23902 23905 23908 23911 23914 23917 23920 23923 23926 23929 23931 23934 23936 23939 23942 23945 23947 23950 23953 23956 23959 23962 23965 23968 23971 23974 23977 23980 23983 23986 23988 23991 23994 23997 24000 24003 24005 24008 24011 24014 24016 24018 24021 24024 24027 24029 24032 24035 24037 24040 24043 24046 24049 24051 24053 24056 24059 24062 24064 24067 24070 24072 24075 24078 24081 24084 24086 24089 24091 24094 24097 24100 24102 24105 24108 24111 24114 24117 24120 24123 24126 24129 24132 24135 24138 24141 24144 24147 24150 24153 24156 24159 24162 24165 24167 24170 24173 24176 24179 24182 24185 24188 24191 24194 24196 24199 24202 24205 24207 24210 24212 24215 24218 24221 24224 24227 24230 24233 24236 24239 24242 24245 24247 24250 24253 24256 24259 24262 24264 24267 24270 24273 24276 24279 24281 24284 24287 24290 24293 24296 24299 24302 24305 24308 24311 24314 24317 24320 24323 24326 24329 24331 24334 24337 24340 24343 24346 24349 24352 24355 24358 24360 24363 24366 24369 24372 24375 24378 24381 24384 24387 24390 24393 24396 24399 24402 24405 24407 24410 24413 24416 24419 24422 24425 24428 24431 24434 24437 24440 24443 24446 24449 24452 24455 24458 24461 24464 24467 24470 24473 24476 24479 24482 24485 24488 24491 24494 24496 24499 24502 24505 24508 24510 24513 24515 24517 24520 24523 24526 24529 24532 24535 24537 24540 24542 24545 24548 24551 24553 24556 24559 24561 24564 24567 24570 24573 24576 24579 24581 24584 24587 24590 24593 24596 24599 24602 24604 24607 24610 24613 24616 24618 24621 24624 24627 24630 24633 24636 24638 24641 24644 24647 24650 24653 24656 24659 24662 24665 24668 24671 24674 24676 24679 24681 24684 24687 24690 24693 24696 24699 24702 24704 24706 24709 24712 24715 24718 24721 24724 24727 24730 24732 24735 24738 24741 24743 24746 24749 24751 24754 24757 24760 24763 24766 24769 24772 24775 24778 24781 24784 24787 24790 24793 24796 24799 24802 24805 24808 24811 24814 24817 24820 24823 24826 24828 24831 24834 24836 24839 24842 24845 24848 24851 24853 24856 24859 24861 24864 24866 24869 24872 24875 24877 24880 24883 24886 24889 24891 24894 24897 24899 24901 24904 24907 24910 24913 24916 24918 24921 24924 24926 24929 24932 24935 24938 24941 24943 24946 24949 24952 24955 24958 24961 24964 24967 24970 24972 24975 24978 24981 24984 24986 24989 24992 24995 24998 25001 25004 25006 25009 25011 25014 25017 25020 25022 25025 25027 25030 25033 25035 25038 25040 25043 25046 25049 25051 25054 25057 25060 25063 25066 25069 25072 25075 25078 25081 25084 25087 25090 25092 25095 25098 25101 25104 25106 25109 25112 25115 25118 25121 25124 25126 25129 25132 25135 25138 25141 25144 25147 25149 25152 25155 25158 25161 25164 25167 25169 25172 25175 25178 25181 25184 25187 25190 25192 25195 25198 25200 25203 25206 25209 25212 25215 25218 25221 25224 25227 25229 25231 25234 25237 25240 25243 25246 25249 25252 25255 25258 25261 25264 25267 25269 25272 25275 25278 25281 25284 25287 25290 25292 25295 25298 25301 25303 25306 25308 25311 25314 25316 25319 25322 25325 25328 25331 25333 25336 25339 25342 25344 25347 25350 25353 25356 25358 25361 25364 25367 25369 25372 25375 25378 25381 25384 25387 25390 25392 25395 25398 25400 25403 25406 25409 25411 25414 25417 25420 25422 25425 25428 25431 25434 25436 25439 25442 25445 25447 25450 25453 25456 25459 25462 25465 25468 25471 25474 25476 25479 25482 25485 25488 25491 25494 25497 25500 25503 25505 25508 25511 25514 25517 25519 25522 25525 25527 25530 25533 25536 25539 25542 25545 25548 25551 25554 25557 25560 25563 25566 25569 25572 25575 25578 25581 25584 25587 25590 25593 25596 25599 25602 25605 25607 25610 25613 25616 25619 25622 25625 25628 25631 25634 25637 25640 25642 25645 25648 25651 25653 25656 25659 25662 25665 25668 25671 25673 25676 25679 25682 25685 25688 25691 25694 25697 25700 25703 25706 25709 25712 25715 25718 25721 25724 25727 25730 25733 25736 25739 25742 25745 25748 25751 25753 25756 25758 25761 25764 25766 25768 25771 25774 25777 25780 25783 25786 25789 25792 25795 25798 25801 25804 25807 25810 25813 25816 25819 25821 25824 25827 25830 25833 25836 25839 25842 25845 25848 25851 25854 25857 25860 25863 25866 25869 25872 25875 25878 25881 25884 25887 25890 25893 25896 25899 25902 25905 25908 25911 25914 25917 25920 25923 25926 25929 25932 25935 25938 25941 25944 25947 25950 25953 25956 25959 25962 25965 25968 25971 25974 25977 25980 25983 25986 25989 25992 25995 25998 26001 26004 26006 26009 26012 26014 26017 26020 26023 26026 26028 26031 26034 26037 26040 26043 26046 26049 26052 26055 26058 26060 26063 26065 26068 26071 26074 26076 26079 26082 26085 26087 26090 26092 26095 26098 26101 26103 26106 26108 26111 26113 26116 26119 26122 26124 26127 26130 26133 26136 26138 26141 26143 26146 26149 26152 26155 26158 26160 26163 26165 26167 26170 26173 26176 26179 26182 26185 26187 26190 26193 26196 26198 26201 26204 26207 26210 26213 26216 26219 26222 26225 26228 26231 26234 26237 26240 26243 26246 26249 26252 26255 26257 26260 26263 26266 26268 26270 26273 26276 26279 26282 26285 26287 26290 26293 26296 26299 26302 26305 26308 26311 26314 26317 26320 26323 26326 26329 26331 26334 26337 26339 26342 26344 26347 26350 26353 26355 26358 26360 26363 26366 26368 26371 26374 26377 26380 26383 26386 26389 26392 26395 26398 26401 26403 26406 26409 26412 26415 26418 26421 26424 26427 26430 26433 26435 26437 26440 26443 26446 26449 26452 26455 26458 26460 26463 26466 26469 26472 26475 26478 26481 26484 26487 26490 26493 26496 26499 26502 26504 26507 26510 26513 26516 26519 26522 26525 26528 26531 26534 26536 26539 26542 26545 26547 26550 26552 26554 26557 26560 26563 26566 26569 26572 26575 26578 26580 26583 26586 26589 26592 26595 26598 26601 26604 26607 26609 26612 26614 26617 26619 26622 26625 26628 26631 26634 26637 26640 26643 26645 26648 26650 26653 26656 26659 26662 26665 26668 26670 26673 26676 26678 26681 26683 26686 26689 26692 26695 26698 26701 26704 26707 26710 26713 26716 26719 26722 26725 26727 26730 26733 26736 26739 26742 26745 26748 26751 26754 26757 26759 26762 26765 26768 26771 26774 26777 26779 26782 26785 26788 26791 26794 26797 26800 26803 26806 26809 26812 26815 26818 26821 26824 26827 26830 26833 26836 26839 26842 26845 26848 26851 26854 26856 26859 26862 26865 26868 26871 26873 26876 26879 26882 26885 26888 26891 26894 26897 26900 26903 26906 26908 26911 26914 26917 26920 26922 26925 26928 26931 26934 26937 26939 26942 26945 26948 26951 26954 26956 26959 26962 26964 26967 26970 26973 26976 26979 26982 26985 26988 26991 26994 26997 27000 27003 27006 27009 27012 27015 27018 27021 27024 27027 27030 27033 27036 27039 27042 27044 27047 27050 27052 27055 27058 27061 27064 27067 27070 27073 27076 27079 27082 27085 27088 27091 27094 27097 27099 27102 27105 27108 27111 27114 27117 27120 27123 27126 27128 27131 27134 27137 27140 27143 27146 27149 27151 27154 27157 27160 27163 27166 27168 27171 27174 27177 27180 27183 27186 27188 27191 27194 27197 27200 27202 27205 27208 27211 27214 27217 27220 27223 27225 27228 27231 27233 27236 27239 27241 27244 27247 27250 27253 27255 27258 27261 27264 27267 27270 27273 27276 27279 27281 27284 27287 27289 27292 27295 27298 27301 27304 27307 27310 27313 27316 27318 27321 27324 27327 27330 27333 27335 27338 27341 27344 27347 27349 27352 27355 27358 27360 27363 27366 27369 27372 27375 27378 27381 27384 27387 27390 27393 27395 27397 27400 27403 27406 27409 27412 27415 27418 27421 27424 27427 27430 27432 27435 27438 27441 27444 27447 27449 27452 27454 27456 27459 27461 27463 27466 27469 27471 27474 27477 27480 27483 27486 27489 27491 27494 27496 27498 27501 27504 27507 27510 27513 27515 27518 27521 27524 27527 27530 27533 27536 27539 27541 27544 27547 27550 27553 27555 27558 27561 27564 27567 27570 27572 27575 27578 27580 27583 27586 27589 27592 27595 27598 27601 27603 27606 27608 27611 27614 27617 27620 27623 27626 27629 27631 27633 27636 27639 27642 27645 27648 27651 27654 27656 27659 27662 27665 27668 27671 27674 27676 27679 27682 27685 27688 27691 27694 27697 27700 27703 27706 27709 27712 27715 27718 27720 27723 27726 27728 27731 27734 27737 27740 27742 27745 27748 27751 27754 27756 27759 27762 27765 27768 27771 27774 27776 27779 27782 27785 27788 27791 27794 27797 27799 27802 27805 27808 27810 27813 27816 27819 27822 27824 27827 27830 27832 27835 27838 27841 27844 27847 27850 27853 27855 27858 27861 27864 27867 27869 27872 27874 27877 27880 27883 27886 27889 27892 27895 27898 27901 27904 27907 27910 27913 27916 27918 27921 27924 27927 27930 27933 27936 27939 27941 27944 27947 27949 27952 27955 27957 27960 27963 27966 27969 27972 27975 27978 27981 27984 27986 27989 27992 27995 27997 28000 28003 28006 28009 28012 28015 28018 28021 28024 28026 28029 28032 28035 28038 28041 28044 28047 28050 28053 28056 28059 28061 28064 28067 28070 28072 28075 28078 28081 28084 28087 28090 28093 28096 28099 28102 28105 28107 28110 28113 28116 28119 28122 28125 28128 28131 28134 28137 28139 28142 28145 28148 28151 28154 28156 28159 28162 28165 28168 28171 28174 28177 28180 28182 28185 28188 28190 28193 28196 28198 28201 28204 28207 28210 28212 28214 28217 28220 28223 28226 28228 28231 28234 28237 28240 28242 28245 28248 28250 28253 28256 28259 28262 28264 28267 28270 28272 28275 28278 28281 28284 28287 28289 28292 28295 28298 28301 28304 28307 28310 28313 28315 28318 28320 28323 28326 28329 28332 28335 28338 28341 28344 28347 28349 28351 28354 28357 28360 28363 28366 28369 28371 28374 28377 28379 28382 28385 28387 28390 28392 28395 28398 28401 28403 28406 28409 28411 28414 28417 28420 28423 28426 28429 28432 28435 28437 28439 28442 28445 28447 28449 28452 28455 28458 28461 28463 28466 28469 28472 28474 28477 28479 28482 28484 28486 28488 28491 28493 28496 28499 28502 28504 28507 28510 28513 28516 28519 28522 28525 28528 28531 28533 28536 28539 28541 28544 28547 28550 28553 28556 28559 28561 28564 28567 28570 28573 28576 28579 28581 28583 28585 28588 28591 28594 28597 28600 28603 28606 28609 28612 28615 28618 28620 28623 28626 28629 28632 28634 28637 28640 28643 28646 28649 28652 28655 28658 28660 28663 28666 28668 28671 28674 28677 28679 28682 28685 28688 28691 28694 28697 28700 28703 28706 28708 28711 28714 28717 28720 28723 28726 28729 28732 28734 28737 28740 28743 28745 28748 28751 28753 28756 28759 28762 28764 28767 28769 28772 28775 28777 28780 28782 28785 28788 28790 28793 28796 28799 28802 28805 28808 28810 28813 28816 28818 28821 28824 28827 28830 28833 28836 28839 28842 28845 28848 28851 28854 28857 28860 28863 28866 28869 28872 28875 28878 28881 28884 28887 28890 28893 28896 28899 28902 28905 28908 28911 28914 28917 28920 28923 28926 28929 28932 28935 28938 28941 28944 28947 28950 28953 28956 28959 28962 28965 28968 28971 28974 28977 28980 28983 28986 28989 28992 28995 28998 29001 29004 29007 29010 29013 29016 29019 29022 29025 29028 29031 29034 29037 29040 29043 29046 29049 29052 29055 29058 29061 29064 29067 29070 29073 29076 29079 29082 29085 29088 29091 29094 29097 29100 29103 29106 29108 29111 29114 29117 29120 29122 29125 29128 29131 29134 29137 29140 29143 29146 29149 29152 29155 29158 29160 29162 29165 29168 29171 29174 29177 29180 29183 29186 29189 29192 29195 29198 29201 29204 29207 29209 29212 29215 29218 29220 29223 29226 29229 29232 29235 29238 29241 29244 29247 29250 29252 29255 29257 29260 29263 29266 29269 29272 29275 29278 29281 29284 29287 29290 29293 29296 29299 29302 29305 29308 29311 29314 29317 29320 29323 29326 29329 29331 29334 29337 29340 29343 29345 29348 29351 29354 29357 29360 29363 29366 29369 29371 29374 29377 29380 29383 29386 29389 29392 29395 29398 29401 29404 29407 29410 29413 29416 29419 29422 29425 29428 29431 29434 29437 29440 29443 29446 29449 29452 29455 29458 29461 29464 29467 29470 29473 29476 29479 29482 29485 29488 29491 29494 29497 29500 29503 29506 29509 29512 29515 29518 29520 29523 29526 29529 29532 29535 29538 29541 29544 29547 29550 29553 29556 29559 29562 29565 29568 29571 29574 29577 29580 29583 29586 29589 29592 29595 29598 29601 29604 29607 29610 29613 29616 29618 29621 29624 29627 29630 29633 29636 29638 29641 29644 29647 29650 29653 29656 29658 29661 29664 29666 29669 29671 29674 29676 29679 29682 29685 29688 29690 29693 29696 29699 29702 29705 29707 29710 29713 29716 29718 29720 29723 29726 29729 29731 29734 29737 29740 29743 29745 29747 29750 29753 29756 29759 29762 29765 29768 29771 29774 29777 29780 29783 29786 29789 29791 29794 29797 29799 29802 29805 29807 29809 29812 29815 29818 29821 29824 29827 29830 29833 29836 29839 29841 29844 29846 29849 29852 29855 29858 29861 29864 29867 29870 29873 29876 29879 29881 29884 29887 29890 29893 29896 29899 29902 29904 29907 29910 29913 29916 29919 29922 29925 29928 29931 29934 29937 29940 29943 29946 29949 29952 29955 29958 29960 29962 29965 29968 29971 29974 29977 29980 29983 29986 29989 29992 29995 29998 30001 30004 30007 30010 30013 30015 30018 30021 30024 30027 30030 30033 30036 30039 30042 30044 30047 30050 30053 30056 30059 30062 30065 30068 30071 30074 30077 30080 30082 30085 30088 30091 30094 30096 30099 30101 30104 30107 30110 30113 30116 30119 30122 30125 30128 30130 30133 30136 30139 30142 30144 30147 30150 30153 30156 30158 30161 30163 30166 30169 30172 30175 30178 30181 30184 30187 30190 30193 30196 30199 30201 30204 30207 30210 30213 30216 30219 30222 30225 30228 30231 30234 30237 30240 30243 30246 30248 30251 30253 30256 30259 30261 30264 30267 30270 30272 30275 30277 30280 30283 30285 30288 30291 30293 30296 30298 30301 30304 30307 30310 30313 30316 30319 30321 30323 30326 30329 30332 30335 30337 30339 30342 30345 30347 30349 30352 30354 30357 30360 30362 30364 30367 30370 30372 30375 30378 30380 30383 30386 30389 30392 30395 30398 30401 30404 30406 30409 30412 30414 30417 30419 30422 30425 30428 30430 30433 30436 30439 30442 30445 30448 30451 30454 30456 30459 30462 30465 30468 30471 30474 30477 30480 30483 30486 30489 30492 30495 30498 30501 30504 30507 30510 30513 30516 30519 30522 30524 30527 30530 30533 30536 30539 30542 30545 30548 30551 30554 30557 30560 30563 30566 30569 30572 30575 30578 
</DataArray>
<DataArray type="UInt32" Name="types" format="ascii">
5 5 5 5 5 5 3 5 5 5 3 5 5 5 3 5 5 5 5 5 5 3 3 5 5 5 5 3 3 5 3 3 5 3 5 5 5 3 5 5 3 5 5 5 5 5 5 5 3 5 5 5 5 5 5 5 5 3 5 5 3 5 3 5 3 5 3 5 5 5 5 5 5 5 5 5 5 5 5 5 5 5 5 3 5 5 5 5 5 5 5 5 3 5 5 3 3 5 5 5 5 5 5 5 5 5 5 5 5 3 5 5 5 5 5 3 5 5 3 5 5 5 5 5 5 5 5 5 5 5 5 5 5 5 5 5 5 5 3 5 5 5 5 5 3 5 5 5 5 5 5 5 5 5 5 5 5 5 5 5 5 5 5 5 5 5 5 5 5 3 5 3 5 5 5 3 5 5 5 3 5 5 5 3 3 5 5 3 5 5 5 5 3 5 5 5 5 5 3 5 5 5 5 3 5 3 5 5 3 5 5 5 3 5 5 3 5 5 5 5 5 5 5 5 5 5 3 5 5 3 5 5 5 5 5 5 5 3 5 5 5 5 5 5 5 5 5 5 5 5 5 5 5 5 5 5 5 5 5 3 5 3 5 5 5 5 5 3 5 5 5 5 5 5 5 5 3 5 5 5 3 5 5 3 5 5 5 5 3 5 5 3 5 5 5 5 5 3 5 3 5 5 5 5 5 5 5 5 5 5 5 5 5 5 5 5 5 5 3 5 5 5 5 5 3 3 5 5 5 5 5 5 5 5 5 5 3 5 5 5 5 5 5 5 5 5 3 5 5 3 3 5 5 5 3 5 5 3 5 5 5 5 5 5 5 5 5 5 5 5 5 5 5 3 5 5 5 5 5 5 5 5 3 5 5 3 5 5 5 5 3 5 5 5 5 5 5 5 5 5 5 5 5 5 5 3 3 5 5 3 3 5 3 5 3 5 3 5 5 3 5 5 5 5 5 5 5 5 5 3 3 5 5 3 5 5 5 5 5 3 5 5 3 5 5 5 5 3 5 5 5 3 5 5 5 3 5 3 5 5 3 5 5 5 5 5 5 5 5 5 5 5 3 5 5 5 5 5 5 3 5 5 5 3 5 5 5 5 5 5 5 3 5 5 5 5 5 3 5 3 5 5 5 5 5 3 3 5 5 5 3 3 5 3 5 5 5 5 5 5 5 3 5 5 5 5 5 5 5 5 5 5 5 5 5 5 3 5 5 3 5 3 5 5 5 5 5 5 5 5 5 5 5 5 5 5 3 5 5 5 5 5 5 5 5 5 5 5 5 5 5 5 5 3 5 5 5 5 5 5 5 5 5 5 5 3 3 5 5 5 5 5 5 5 5 5 5 5 5 5 5 5 5 3 5 5 5 5 5 5 5 3 5 5 5 5 5 5 5 5 3 5 5 5 3 5 5 5 5 5 5 5 5 5 5 5 5 5 5 5 5 5 5 5 5 5 5 5 5 5 5 5 5 3 5 3 5 5 5 5 5 5 5 5 5 5 5 5 5 3 5 5 5 3 5 5 5 5 5 5 5 5 5 5 5 5 5 3 3 5 5 5 5 5 5 5 3 5 5 5 5 5 5 5 5 5 5 5 3 5 5 5 5 5 5 5 3 5 5 5 5 5 5 5 5 5 5 5 5 5 5 5 5 5 3 5 5 5 5 5 5 5 5 5 5 3 5 5 5 5 5 3 5 5 5 3 5 5 5 5 3 5 5 5 5 5 5 5 3 5 3 5 5 3 5 3 5 5 5 5 5 5 5 5 5 5 5 5 5 5 5 5 5 5 5 5 5 5 5 5 5 5 5 5 5 5 5 5 5 5 5 3 5 3 3 5 5 5 5 5 5 5 5 5 5 5 3 5 5 5 5 5 5 5 3 5 3 5 3 5 5 5 5 5 5 3 5 3 3 5 5 5 5 5 5 5 5 5 5 5 5 5 5 5 5 5 3 5 5 5 5 5 5 5 5 5 5 5 5 5 5 3 5 5 5 5 5 5 5 5 5 5 5 5 5 3 5 5 5 5 5 5 5 5 5 3 5 5 5 5 5 3 3 5 5 5 5 3 3 5 5 5 5 5 5 5 5 5 5 5 3 5 5 5 5 3 5 5 5 5 5 5 3 5 5 3 5 3 5 5 5 3 5 5 5 5 5 5 5 3 5 5 5 5 3 3 5 5 3 5 5 5 3 3 3 3 5 5 3 5 5 5 5 5 5 5 5 3 3 5 5 5 5 5 5 3 5 3 5 5 5 3 5 5 5 5 5 5 5 5 5 5 5 5 5 5 5 5 5 5 5 5 5 5 5 5 5 5 5 5 3 5 5 5 5 5 5 5 5 5 5 5 5 5 5 5 5 5 5 5 5 5 3 5 5 5 5 5 5 5 5 5 3 5 5 5 5 5 5 3 5 5 5 5 5 3 5 5 5 5 5 3 5 5 5 5 5 5 5 5 5 5 3 5 5 5 5 3 3 5 5 3 5 5 5 5 3 5 5 3 5 5 5 5 5 3 3 5 5 5 5 5 5 3 5 5 5 5 5 5 5 3 3 5 5 5 3 5 5 5 3 5 5 3 5 3 5 5 5 3 5 5 3 3 5 5 5 5 5 5 3 5 3 5 3 5 5 5 3 3 5 3 5 5 5 5 5 5 5 5 5 5 5 5 5 5 5 5 3 5 5 5 5 5 5 5 3 5 5 5 5 5 3 5 5 5 3 5 5 5 5 3 5 3 5 3 5 5 5 5 3 5 5 3 5 5 5 5 5 5 5 5 5 5 5 3 5 5 5 5 3 5 5 5 5 3 5 5 5 5 5 5 3 5 5 5 3 5 3 3 5 5 5 5 5 5 5 5 5 5 5 5 5 5 5 5 5 5 5 5 5 5 5 5 5 5 5 5 3 5 5 3 3 5 3 5 5 5 5 3 5 5 3 5 5 5 5 5 5 5 5 5 5 5 5 5 5 5 5 5 5 5 5 5 5 5 5 5 5 5 5 3 5 5 5 5 5 5 5 5 3 5 5 5 5 5 5 5 3 5 3 5 5 5 3 5 5 5 5 5 5 5 3 5 3 5 5 5 5 5 3 5 5 5 5 5 5 5 5 5 5 5 5 5 5 5 5 5 5 5 5 5 5 5 5 5 5 5 5 5 5 5 5 5 5 5 5 5 5 5 3 3 5 5 3 5 5 5 3 5 5 5 3 3 5 5 3 5 5 5 5 5 5 5 5 5 5 5 5 5 5 5 5 5 5 5 5 5 3 5 3 5 5 5 5 5 5 5 5 5 5 5 5 5 5 5 5 5 5 5 5 5 5 5 5 5 5 5 5 5 5 5 5 5 5 5 5 5 5 5 5 5 5 5 5 5 3 5 3 5 3 5 5 3 5 5 5 5 5 5 5 5 5 5 5 5 5 5 5 5 5 5 5 5 5 5 5 5 5 5 5 3 5 5 5 5 5 5 5 5 5 5 5 5 5 5 5 5 5 5 5 5 5 5 5 5 5 5 5 5 5 5 5 5 5 5 5 5 5 5 5 5 5 5 5 5 5 5 5 5 5 3 5 5 5 5 3 5 5 5 5 5 5 5 5 3 5 5 5 5 5 3 3 3 5 5 5 5 3 3 5 5 3 5 5 5 5 5 5 5 5 5 5 5 5 5 5 3 3 5 3 5 5 5 5 5 5 5 5 5 5 5 5 5 5 5 5 5 5 3 5 5 5 5 5 5 3 5 5 5 5 5 5 5 5 5 5 5 5 5 5 5 5 5 5 3 5 5 5 5 5 5 5 5 5 3 5 5 3 5 5 5 5 5 5 5 5 5 5 5 5 5 5 5 5 3 5 3 5 5 5 5 3 5 3 5 5 3 3 5 5 3 5 5 5 3 5 5 5 5 5 5 3 5 5 5 3 5 5 5 5 3 5 5 5 5 5 5 5 3 5 5 5 5 5 3 5 5 3 5 5 5 5 5 5 5 3 5 5 5 3 3 5 5 5 3 5 5 5 5 5 3 3 3 5 5 5 5 5 5 5 5 5 3 3 5 3 5 5 5 5 5 3 5 5 3 5 3 5 5 5 3 5 5 3 5 5 5 5 5 5 5 3 5 5 3 3 5 5 3 5 3 5 5 3 5 5 3 5 3 5 5 5 3 5 5 3 5 3 5 5 3 5 3 5 5 5 5 3 3 5 5 5 5 5 5 5 5 5 3 5 5 5 5 5 5 5 5 5 5 5 5 5 5 5 5 5 5 3 3 5 5 5 3 5 5 5 5 3 5 5 3 5 5 5 3 5 5 3 5 5 5 5 3 5 5 5 5 5 3 5 5 5 3 3 5 5 3 5 5 5 5 5 3 3 5 5 5 5 3 5 5 5 5 3 5 5 5 5 5 5 5 5 5 5 5 5 5 5 5 5 5 5 5 5 5 5 5 5 5 5 5 5 3 5 5 5 5 5 5 5 5 5 5 5 3 5 5 5 5 3 5 5 5 3 5 5 3 5 5 5 5 5 3 5 5 5 5 5 5 5 5 5 5 5 5 5 5 5 5 5 5 5 5 3 5 5 5 5 5 3 5 5 5 5 5 5 5 3 5 5 5 5 5 5 5 5 5 5 5 5 5 3 5 5 5 5 5 3 3 5 5 5 5 3 5 3 5 5 5 3 3 5 5 3 5 5 5 3 5 5 5 5 3 5 5 3 3 5 5 5 5 5 5 3 5 5 3 5 5 5 5 3 5 5 5 5 5 5 5 5 5 5 5 5 5 5 5 5 5 5 5 3 5 3 5 5 5 3 5 3 5 3 5 5 3 5 5 3 3 3 5 5 5 3 5 5 5 5 5 5 3 5 5 5 5 5 5 5 3 5 3 5 5 5 5 5 5 5 3 5 5 5 5 5 5 5 5 5 5 5 3 5 5 3 5 5 5 5 5 5 5 5 5 5 5 5 5 5 5 5 3 5 5 5 5 5 5 5 5 5 5 5 5 5 5 5 5 5 5 5 5 5 3 5 5 5 3 5 5 5 5 5 5 5 5 5 5 3 5 5 5 5 5 5 5 5 5 5 3 5 5 5 5 5 5 3 5 5 5 3 5 5 5 5 5 5 5 5 5 5 5 5 5 5 5 5 5 5 5 5 5 3 5 5 5 5 5 3 5 5 3 5 5 5 5 5 5 3 5 5 5 5 3 5 5 5 5 5 5 5 5 5 5 5 5 5 5 5 5 5 5 3 5 5 5 5 5 3 5 5 5 3 5 3 5 5 5 5 5 5 5 3 5 5 5 3 3 5 5 5 5 5 3 5 5 5 3 5 5 5 5 5 5 5 5 5 5 5 5 5 5 5 3 5 5 5 5 5 5 3 5 5 5 5 5 5 5 5 5 5 5 3 5 5 5 5 5 5 5 5 5 3 5 5 5 5 3 3 5 5 5 5 5 5 5 5 3 3 5 3 5 5 5 5 5 3 5 5 5 5 5 5 3 5 3 5 5 5 5 5 5 5 5 5 5 3 5 5 5 5 5 5 3 5 5 5 5 5 5 5 5 3 5 5 5 5 5 3 5 5 3 5 5 5 5 5 5 3 5 5 5 5 5 5 5 5 3 5 5 5 5 3 5 5 5 5 5 5 5 5 5 5 3 5 5 5 5 5 5 5 5 5 3 5 5 5 5 3 5 5 5 5 5 5 5 5 3 5 3 5 5 5 3 5 5 5 5 5 5 5 5 3 5 5 5 3 5 5 5 3 5 5 3 5 5 5 5 5 5 5 5 5 5 5 5 5 5 5 5 5 5 5 5 5 5 5 5 5 5 5 5 5 5 5 5 5 5 5 5 5 5 5 5 5 5 5 5 5 5 5 5 5 5 5 5 5 3 5 5 5 3 5 5 5 5 5 5 3 5 3 5 5 5 5 3 3 5 5 5 5 5 5 5 5 5 5 5 5 5 5 5 5 5 5 5 5 5 5 3 5 5 3 5 5 5 3 5 5 5 5 5 5 5 5 5 5 5 5 5 5 3 5 3 5 3 5 5 5 5 5 5 5 5 5 5 5 5 5 5 5 5 5 3 5 5 5 5 5 5 5 5 5 5 5 5 5 5 5 5 5 5 5 5 5 5 5 5 5 5 5 5 5 5 5 5 5 3 5 5 5 5 5 5 3 5 5 3 5 3 5 5 3 5 5 5 3 5 5 5 5 5 5 5 5 5 5 5 5 5 5 5 5 5 5 5 5 5 5 5 5 5 3 5 5 5 5 3 5 5 3 5 5 5 5 5 5 5 5 5 5 5 5 5 5 5 5 5 5 5 5 5 5 5 5 5 5 5 5 5 5 3 5 5 5 3 5 5 5 5 3 5 5 5 5 5 3 5 5 5 5 3 5 5 5 5 5 5 5 5 5 5 5 5 5 5 3 3 5 3 5 3 5 5 5 5 5 5 5 5 5 5 5 5 5 5 5 5 5 5 5 5 5 5 5 5 5 3 3 5 5 3 5 5 3 5 5 5 5 5 5 5 5 5 5 5 3 5 5 3 5 5 5 5 5 5 5 5 5 5 5 5 5 5 3 3 5 3 3 5 5 5 5 3 5 5 5 3 3 5 5 5 5 5 5 5 3 5 5 5 5 5 5 5 5 5 5 5 5 5 5 5 5 3 5 5 5 5 3 5 5 5 5 5 5 5 3 5 5 5 5 5 5 5 3 5 5 3 5 5 5 5 5 5 5 5 5 5 5 5 5 5 5 3 5 5 5 5 5 5 5 5 3 5 5 5 5 5 5 5 3 5 5 5 5 5 3 5 5 5 5 3 5 5 5 5 5 5 5 5 5 5 5 5 3 5 5 5 5 5 5 5 5 5 5 5 5 5 5 3 5 5 5 5 5 5 5 5 5 5 5 5 5 3 3 5 5 3 5 5 5 5 3 5 5 5 3 5 5 3 5 5 5 5 3 5 5 5 5 5 5 5 5 5 5 5 5 5 5 5 5 5 5 5 5 5 5 5 5 5 5 5 5 5 5 5 5 5 5 3 5 5 5 3 5 3 5 5 5 5 5 5 5 5 5 5 5 5 5 5 3 5 5 5 5 5 5 5 5 3 5 5 5 3 5 5 5 5 5 5 5 3 5 3 5 5 5 5 5 5 5 5 5 5 5 5 5 5 3 5 5 3 5 5 5 5 5 5 5 3 5 5 5 5 5 5 5 5 5 5 5 5 5 5 5 5 5 5 5 5 5 5 5 5 5 5 5 3 5 5 3 5 5 5 3 5 5 3 5 5 5 5 5 5 5 5 5 5 5 5 5 5 5 5 5 5 5 3 5 5 5 5 5 5 5 5 5 5 5 5 5 3 5 5 5 5 5 5 5 5 5 5 5 5 5 5 5 5 5 5 5 3 5 5 5 5 5 5 5 5 5 5 5 5 5 5 5 5 3 5 5 3 5 5 5 3 5 5 3 5 5 5 5 5 5 5 5 5 5 5 5 5 5 3 5 5 3 5 5 5 5 5 5 5 5 5 5 5 5 5 5 5 5 5 5 5 5 5 5 5 5 5 5 5 5 5 5 5 5 5 5 5 5 3 5 5 5 5 3 5 5 5 5 5 5 5 5 5 5 5 5 5 5 5 3 5 3 3 5 5 3 5 3 5 5 5 5 5 5 5 5 3 5 5 3 5 5 5 5 3 3 5 3 5 5 5 5 5 5 5 5 5 5 5 5 5 5 5 5 5 5 5 5 5 3 5 5 5 5 5 5 5 5 5 5 5 5 5 5 5 5 5 5 5 5 5 5 5 5 5 3 5 5 5 5 5 3 5 5 5 5 5 5 5 5 5 3 5 5 5 5 5 5 5 5 5 5 5 5 5 5 5 5 5 3 3 5 5 3 5 5 5 3 5 5 5 5 5 5 5 5 5 5 3 5 5 3 5 3 5 5 5 5 3 5 5 5 3 5 5 5 5 5 5 3 5 5 5 5 5 5 3 5 5 5 5 5 5 5 5 5 5 5 5 5 5 3 5 5 3 5 5 5 3 3 5 5 5 5 5 5 5 5 5 5 3 5 5 5 3 5 5 5 5 3 5 5 5 5 5 5 5 5 3 5 5 5 5 5 3 3 5 5 5 3 5 3 3 5 5 5 5 5 3 5 5 5 5 5 5 3 5 5 5 5 5 5 5 3 5 5 3 5 5 3 5 5 5 5 5 5 5 5 5 5 5 5 5 5 3 5 5 5 3 5 5 3 5 5 5 5 3 5 5 5 5 5 5 5 5 3 5 5 5 5 3 5 5 5 5 5 5 5 5 3 5 5 5 5 5 5 5 5 5 3 5 5 5 3 5 5 3 5 5 3 5 5 5 5 5 5 5 5 5 3 5 5 5 5 5 5 5 5 5 5 5 5 5 5 5 5 3 5 5 5 5 5 5 5 5 5 5 5 5 5 5 5 5 5 5 5 5 5 5 5 5 5 5 3 5 3 5 5 5 5 5 5 5 5 5 5 3 5 5 3 5 5 5 5 5 5 5 5 5 5 5 5 5 5 5 5 5 5 5 5 5 3 5 5 5 5 5 5 5 5 5 3 5 3 5 5 5 5 5 5 5 3 5 3 5 5 5 5 5 5 5 5 5 5 5 3 5 5 5 5 3 5 3 5 5 5 5 5 5 3 5 5 3 5 5 3 5 5 5 3 3 3 5 5 5 5 5 5 5 5 5 5 5 5 5 3 5 5 5 5 5 5 5 3 5 3 5 3 5 5 3 3 5 5 5 5 5 5 3 5 5 5 5 3 5 3 5 3 5 3 5 5 5 5 3 5 5 5 5 5 3 5 5 5 5 5 5 5 5 5 5 5 5 5 5 3 5 5 5 5 5 3 5 5 5 3 5 5 5 5 5 5 5 5 5 5 5 5 5 5 5 5 5 3 5 5 5 5 3 5 5 5 5 5 5 3 5 5 5 5 5 5 5 5 5 5 3 5 5 3 5 3 5 5 5 5 5 5 5 5 5 5 5 3 5 5 5 5 5 5 3 5 3 3 5 3 5 5 5 5 5 5 5 3 5 5 5 5 5 5 5 5 5 5 5 5 5 5 5 5 3 5 5 5 5 5 5 5 5 5 5 3 5 5 5 5 5 5 5 5 5 5 3 5 5 5 5 3 5 5 5 5 5 3 5 5 5 5 3 5 5 5 5 5 5 5 5 5 5 5 5 5 5 5 5 5 5 3 5 5 5 5 5 5 5 5 3 5 3 3 5 5 5 5 5 3 5 5 5 5 5 5 5 5 5 5 5 5 5 5 3 5 5 3 5 3 3 5 5 5 5 5 5 3 5 5 5 5 3 5 3 5 5 3 5 5 5 5 5 5 3 3 5 5 5 5 5 5 5 5 5 5 5 5 5 5 5 3 5 5 5 5 5 5 5 3 5 3 5 5 5 3 5 3 5 5 5 5 5 5 5 5 3 5 5 5 5 5 3 5 3 5 5 5 5 3 5 5 5 5 5 3 5 5 5 5 5 5 5 5 5 5 5 5 5 5 5 5 5 5 5 5 5 5 5 5 3 5 5 5 3 5 3 5 5 5 3 5 5 5 5 5 5 5 5 5 5 5 5 5 5 5 5 5 3 3 3 3 5 5 5 5 5 5 3 5 5 5 3 5 5 5 5 5 5 5 5 5 5 3 3 3 5 5 3 3 5 5 5 5 5 5 5 5 5 3 5 5 5 5 5 5 5 5 3 3 5 5 5 3 5 5 5 5 5 5 5 5 5 5 5 3 5 3 5 5 5 5 5 3 3 5 5 3 3 5 5 5 5 5 5 5 5 5 5 5 5 5 5 5 5 5 5 5 5 5 5 5 5 5 5 5 5 5 5 5 5 5 5 5 5 5 5 5 5 5 5 3 3 5 5 5 5 5 5 5 5 5 5 5 5 5 5 5 5 5 5 5 5 3 5 5 5 5 5 5 5 5 5 5 5 5 5 5 5 5 3 5 3 5 5 5 5 5 5 5 5 3 5 5 5 5 5 5 5 5 5 5 5 3 5 5 3 5 5 3 5 5 5 5 3 5 5 5 5 3 5 5 3 5 3 5 5 5 5 5 3 5 5 5 5 5 5 5 3 5 5 5 5 5 5 5 5 5 5 5 5 5 5 5 5 5 5 5 5 5 5 5 5 3 5 5 5 3 5 5 3 5 5 5 3 5 5 5 5 3 5 3 5 5 5 5 5 5 5 5 3 5 5 5 5 5 5 5 5 5 5 3 5 5 3 5 5 3 5 5 3 3 5 5 5 5 5 5 5 3 3 5 5 5 3 5 5 3 3 5 5 5 3 3 5 3 5 5 3 5 5 5 5 3 5 3 3 5 5 5 3 5 3 3 5 3 3 3 3 5 3 5 3 5 3 5 5 5 3 5 5 3 5 3 3 5 5 5 5 3 5 3 3 5 5 5 3 3 5 5 3 3 5 5 5 5 3 5 5 5 5 3 5 5 5 5 3 5 3 5 3 5 3 5 3 5 3 5 5 5 5 5 3 5 5 3 3 3 5 5 3 3 5 3 5 5 3 5 5 5 5 5 5 3 5 5 3 5 3 5 5 5 5 3 5 3 5 3 5 5 5 3 5 5 3 5 3 5 3 5 5 5 5 5 3 5 5 5 5 5 5 5 5 5 5 3 5 5 5 5 3 5 5 3 5 5 5 5 5 3 5 5 3 5 5 5 3 5 3 5 5 5 3 5 5 5 5 3 5 5 5 5 3 3 5 5 5 5 5 5 3 5 5 3 5 5 5 5 5 5 5 5 5 5 5 5 5 5 5 5 5 5 5 5 5 5 5 5 5 5 5 5 5 5 5 5 5 5 5 5 5 5 5 5 5 5 5 5 5 5 5 5 5 5 5 5 5 5 5 5 5 5 3 5 5 5 5 5 5 5 5 5 5 5 5 3 5 5 3 5 5 5 3 5 5 5 5 5 5 5 5 5 5 5 5 5 5 5 3 5 5 5 5 5 5 5 5 5 5 5 5 5 5 5 5 3 5 5 5 5 5 5 5 5 5 5 5 5 5 3 5 5 3 5 5 3 5 3 5 5 5 5 5 5 5 3 5 5 5 5 5 5 5 5 5 5 5 5 3 5 5 5 3 5 5 5 5 5 5 5 5 5 3 5 5 5 5 5 5 3 5 5 5 5 5 5 3 5 5 5 3 5 5 5 5 5 5 5 3 5 5 5 5 5 5 5 5 5 5 3 5 5 5 5 5 5 5 5 5 5 5 5 5 5 5 5 3 5 3 5 5 5 5 5 5 5 5 5 5 3 5 3 5 5 5 5 5 5 5 5 5 5 5 3 5 5 5 5 5 5 5 5 5 5 5 3 5 5 5 5 5 5 5 3 5 5 5 5 5 5 5 3 5 5 5 5 5 5 5 5 5 5 5 3 5 5 5 5 5 5 5 5 3 5 3 5 5 5 5 5 5 5 5 5 5 3 5 5 5 3 5 5 5 5 5 5 5 5 5 3 5 5 5 5 5 5 5 5 5 5 5 5 5 5 5 5 3 5 5 5 5 5 5 5 5 5 5 5 5 5 5 5 5 5 5 3 5 5 3 5 5 3 5 5 5 5 5 3 5 5 5 5 5 5 5 5 5 5 5 5 5 5 5 5 5 5 5 5 5 5 5 5 5 5 5 5 5 5 5 5 5 5 5 5 5 5 5 5 5 5 5 5 5 5 5 5 5 5 5 5 5 5 5 5 5 5 5 3 5 5 3 5 5 5 5 5 5 5 5 5 5 5 5 5 5 5 5 5 5 5 5 5 5 5 5 3 3 5 5 5 5 5 5 5 5 5 5 5 5 5 5 5 5 3 3 5 5 5 5 5 5 5 3 5 3 5 5 3 3 5 5 5 5 5 5 5 5 5 5 5 3 5 3 5 5 5 3 5 5 5 3 5 3 5 5 5 5 5 3 3 5 5 5 5 5 5 5 5 5 5 5 5 5 5 5 5 5 5 5 5 5 5 5 5 5 5 5 5 5 5 5 5 5 5 5 5 5 5 5 5 5 5 5 5 5 5 5 5 5 5 5 5 5 5 5 5 5 5 5 5 5 5 5 5 5 5 5 5 5 5 5 5 5 5 5 5 5 5 5 5 5 5 5 5 5 5 5 5 5 5 5 5 5 5 5 5 5 5 5 5 5 5 5 5 3 3 5 3 5 3 5 5 3 5 5 5 5 3 5 5 5 5 5 5 5 3 3 3 5 5 5 5 5 3 3 5 5 5 5 5 5 5 5 5 5 5 5 5 5 5 5 5 5 5 5 5 5 5 5 5 5 5 5 5 5 5 5 5 5 3 5 5 3 5 5 5 5 5 5 5 5 5 5 5 3 5 5 5 5 5 5 5 3 5 5 5 5 5 5 5 5 5 5 5 5 5 5 5 5 3 5 5 3 5 5 5 5 5 5 5 5 5 5 5 5 5 5 5 5 5 5 5 5 5 5 5 3 5 5 3 5 5 3 5 5 5 5 5 5 5 3 5 5 5 5 5 5 3 5 5 3 5 5 5 5 3 5 3 5 5 3 5 5 5 5 3 5 3 5 5 3 5 5 5 5 5 5 5 5 5 5 5 5 3 5 5 5 3 5 5 3 5 5 5 5 3 5 5 5 5 5 5 5 5 5 5 3 5 5 5 5 5 5 5 5 5 5 3 5 5 5 5 5 5 5 5 5 5 5 5 3 5 5 3 5 5 5 5 5 5 5 5 5 5 3 5 5 5 5 5 3 5 3 3 5 5 3 5 5 5 5 5 5 5 5 5 3 3 5 5 5 5 5 5 3 5 5 5 5 5 5 5 5 5 5 5 5 5 5 5 5 5 5 5 5 5 5 5 5 5 3 5 5 5 5 5 5 5 5 5 5 5 5 5 5 5 5 5 5 5 5 5 5 5 5 5 5 5 5 5 5 5 5 5 5 5 5 5 5 5 5 3 5 5 5 5 5 5 5 5 5 5 3 5 5 5 3 5 3 5 5 5 3 5 5 5 3 5 3 5 3 5 3 3 5 5 3 5 5 5 3 5 5 5 5 5 3 5 5 5 5 3 5 5 5 3 5 5 5 5 3 5 3 5 5 5 5 5 5 5 5 5 5 5 5 5 5 3 5 5 5 5 3 5 5 3 5 5 3 3 5 5 3 5 3 5 5 5 3 3 3 3 5 5 3 5 5 5 5 3 5 3 5 5 3 3 3 5 3 5 5 3 3 3 5 5 5 5 5 5 5 5 5 3 3 5 5 5 5 3 3 5 5 5 3 5 3 5 5 5 5 5 5 5 5 5 5 5 3 5 5 5 5 5 5 5 5 5 5 5 5 5 5 5 5 5 5 5 5 5 5 5 3 5 5 5 5 5 5 5 5 5 5 5 5 5 5 5 5 3 5 5 3 5 5 5 5 5 5 5 5 5 3 5 5 5 3 3 5 5 3 5 5 5 5 5 3 5 3 5 5 5 3 5 5 5 5 5 5 5 3 5 5 3 5 5 5 5 3 5 5 5 3 3 5 5 3 5 5 5 3 5 5 5 5 5 5 5 3 5 5 3 5 3 3 3 5 3 5 3 3 5 5 5 5 5 5 3 5 5 3 5 5 5 5 5 5 5 5 5 5 5 5 5 5 5 5 5 5 5 5 5 5 5 5 5 5 5 5 5 5 5 5 5 5 5 3 3 5 5 5 5 5 5 5 5 3 3 3 3 5 5 3 5 5 5 5 5 5 5 5 3 5 5 3 5 5 5 3 5 5 5 5 3 5 5 5 5 5 5 5 5 5 5 5 5 5 5 3 5 5 5 5 5 3 5 5 5 5 5 5 5 5 3 5 5 5 3 3 5 5 3 3 5 5 5 5 5 3 5 5 5 5 5 5 3 5 3 5 5 5 5 5 5 5 5 3 3 5 3 3 3 5 3 5 5 5 5 5 5 3 5 5 5 5 5 5 5 3 5 5 5 5 5 5 5 5 5 5 5 5 5 5 5 5 5 5 5 5 5 5 5 5 5 5 5 5 5 5 5 5 5 5 5 5 5 5 5 5 5 5 5 5 5 5 5 5 5 5 5 5 5 5 5 5 5 3 5 5 5 5 5 5 5 3 5 5 3 5 5 5 3 5 3 5 5 3 5 5 5 5 5 5 5 3 5 5 5 3 5 5 5 5 5 5 5 3 5 3 5 5 5 5 5 5 5 5 5 5 5 5 5 5 5 5 5 5 5 5 5 5 5 5 5 3 3 5 3 5 5 5 5 5 5 5 3 5 3 5 3 3 3 5 5 3 5 5 3 5 5 5 3 5 5 5 5 5 5 5 3 3 5 5 3 5 5 5 3 5 5 5 5 3 5 3 5 5 5 5 5 5 3 5 3 5 5 5 5 5 3 5 5 3 5 5 5 5 5 5 5 5 5 5 5 5 5 5 5 5 3 5 5 3 3 5 3 5 5 5 5 5 5 5 5 3 5 5 5 5 5 5 5 5 5 5 5 5 5 5 5 5 3 5 5 5 3 5 5 3 5 5 5 5 5 5 3 5 5 5 5 5 5 5 5 5 5 5 5 5 5 5 5 5 5 5 3 3 5 5 5 5 5 5 5 3 5 5 5 3 5 5 3 5 3 5 5 3 5 3 3 5 3 5 3 5 3 5 5 5 5 5 5 5 5 5 5 5 5 5 5 5 3 3 5 5 5 5 5 5 5 3 5 5 5 5 5 5 5 5 5 5 5 5 5 5 5 3 5 3 5 5 5 5 5 5 3 5 5 5 3 5 5 5 3 5 5 5 5 5 5 5 5 5 5 5 5 5 5 5 5 5 5 5 5 5 3 5 5 5 5 3 5 5 5 5 5 3 5 5 5 3 5 5 5 5 5 5 5 5 5 5 5 5 3 5 5 5 5 3 5 5 5 5 5 5 5 5 3 5 5 5 5 5 5 5 3 5 5 5 5 3 5 5 5 5 5 5 5 5 3 5 5 5 5 5 5 5 5 5 3 5 5 5 5 5 5 5 5 5 5 5 5 5 5 5 5 5 5 5 5 5 5 5 5 5 5 5 5 3 5 5 5 5 5 5 5 3 5 5 5 5 5 5 5 5 5 5 5 5 5 5 5 5 5 5 5 5 5 5 5 5 5 5 5 5 5 3 5 5 5 5 5 5 5 5 5 5 5 5 5 5 5 5 5 5 5 5 5 5 5 5 5 5 5 5 5 5 5 5 3 5 5 3 5 5 5 5 3 5 5 3 5 5 5 5 3 5 5 5 3 5 5 5 3 5 5 5 5 5 5 5 5 5 5 3 5 5 3 5 5 5 5 5 5 3 5 5 5 5 5 3 5 5 5 5 3 5 5 5 5 5 5 5 5 5 5 3 5 5 5 5 5 5 5 5 5 3 5 5 5 5 5 5 5 5 5 5 5 5 5 3 5 5 5 5 5 5 5 3 5 5 5 5 5 3 5 5 5 5 5 5 5 5 5 5 5 5 5 5 3 5 5 5 5 5 5 5 5 3 5 5 5 5 5 5 5 5 5 5 5 5 5 5 5 5 5 5 5 5 5 5 5 5 5 5 5 5 5 5 5 5 5 3 5 5 5 5 3 3 5 5 3 5 5 3 5 5 3 5 5 5 5 5 5 5 5 5 5 5 5 5 5 5 5 5 5 5 3 5 5 5 5 3 5 5 5 5 5 5 5 5 5 5 5 5 5 5 5 5 5 5 5 5 5 5 5 5 5 5 5 5 5 5 5 5 5 5 5 5 5 5 5 5 5 5 5 5 5 5 5 5 5 5 5 5 5 5 5 5 5 5 5 5 5 5 5 5 5 5 5 5 5 5 5 3 5 5 5 5 3 5 3 5 5 3 5 5 5 5 3 5 5 3 5 5 5 5 5 5 5 5 5 5 5 5 5 5 5 5 5 5 5 5 5 5 5 5 5 5 5 5 5 5 5 5 5 5 5 5 5 5 5 5 5 5 5 5 5 5 5 5 5 5 5 5 5 5 5 5 5 5 5 5 3 5 5 5 5 5 5 5 5 5 3 5 5 5 5 5 5 5 3 5 5 5 5 5 5 5 5 5 5 5 5 5 5 5 5 5 5 5 3 3 5 5 3 5 3 5 5 5 5 5 5 5 5 5 5 5 5 5 5 5 5 5 5 5 5 5 5 5 5 5 5 5 5 5 5 5 5 5 5 5 5 5 5 5 5 5 5 5 5 5 5 5 5 5 5 5 5 5 5 5 3 3 5 5 5 5 5 5 5 5 5 5 5 5 5 5 5 5 5 5 5 5 3 5 5 5 5 5 5 5 5 5 5 3 5 5 5 3 5 5 5 5 5 5 3 5 5 5 5 5 5 5 5 5 5 5 5 5 3 5 5 5 5 5 5 3 3 5 3 5 5 3 5 5 5 3 5 5 5 3 5 5 5 5 5 3 5 3 5 5 5 5 3 5 5 5 5 3 5 3 5 5 3 3 5 5 5 5 5 3 5 5 5 5 5 3 3 3 5 3 5 3 5 5 5 5 5 3 5 5 5 5 5 5 5 5 3 3 5 5 3 5 5 5 5 3 5 5 3 5 5 3 5 5 5 5 5 5 5 5 5 3 5 5 5 5 5 5 5 5 3 5 5 5 5 5 5 5 5 5 3 3 5 5 5 5 5 5 5 5 5 5 5 5 5 5 5 5 5 5 5 5 5 5 5 5 5 5 5 5 5 5 5 5 5 5 5 3 5 5 5 5 3 5 5 5 5 5 5 5 5 5 5 5 5 5 5 5 5 3 3 5 5 5 5 5 5 5 5 5 3 5 5 5 5 3 5 5 3 5 5 5 5 5 5 5 5 5 5 5 5 5 3 5 5 5 5 5 5 5 5 5 5 5 5 5 5 5 5 5 5 5 5 5 5 5 5 5 3 5 5 5 5 5 3 5 5 5 3 5 5 5 3 3 5 5 5 5 5 5 5 5 5 5 5 5 5 5 3 5 5 5 3 5 5 5 5 3 3 5 5 5 5 5 5 5 5 5 5 5 5 5 5 5 5 5 5 5 5 5 5 5 3 5 5 5 5 5 5 5 5 5 3 5 5 5 5 3 5 3 5 5 5 5 3 5 5 5 5 5 5 5 5 5 5 5 5 5 5 5 3 5 5 3 5 5 5 5 5 5 5 5 5 5 3 3 5 5 5 5 3 5 5 5 3 5 5 5 5 3 3 5 3 5 3 5 3 5 5 3 5 5 3 5 5 3 5 5 5 3 5 5 3 5 3 5 3 5 5 3 5 5 5 5 5 5 5 5 5 5 5 5 5 3 5 5 5 5 5 5 5 5 5 5 5 5 5 5 5 5 3 3 5 5 5 5 5 3 5 5 5 5 3 5 5 3 5 5 5 5 3 5 5 5 5 5 5 5 5 5 5 5 5 5 5 5 5 5 5 5 5 5 5 5 5 5 5 5 5 5 5 5 5 5 5 5 5 5 5 3 5 5 5 5 5 5 5 5 5 5 5 5 5 3 5 3 5 5 5 5 3 5 5 5 5 5 5 5 5 5 5 5 5 5 5 5 5 5 5 3 5 3 5 5 3 5 5 5 3 5 5 5 5 5 5 5 5 5 5 5 5 5 5 5 5 5 5 5 5 5 5 5 5 5 5 5 3 5 5 3 5 5 5 5 5 5 5 5 5 5 5 5 5 5 5 5 5 5 5 5 5 5 5 5 5 5 5 5 5 5 5 5 5 5 5 3 5 3 5 5 5 5 5 5 5 5 5 5 5 5 5 5 5 5 5 3 3 5 5 5 5 5 3 5 5 5 5 3 5 5 5 5 3 5 5 5 5 5 5 5 5 5 5 5 5 5 5 5 5 5 5 3 5 5 5 5 5 5 3 5 5 3 5 5 5 5 5 5 5 5 5 5 5 5 3 5 5 3 5 5 5 5 5 5 5 5 3 5 5 5 5 5 5 3 5 5 3 5 5 5 5 5 5 5 5 5 5 5 5 5 5 5 5 5 5 5 5 5 5 5 5 5 5 5 5 5 5 5 5 5 5 5 5 3 5 5 5 3 5 5 3 5 5 5 5 5 5 3 5 5 5 5 5 3 5 5 5 5 5 5 3 5 5 5 5 3 5 3 5 5 3 5 5 5 3 5 5 5 5 5 5 5 5 5 5 5 5 5 3 5 5 5 5 5 5 5 5 5 5 5 5 5 5 5 5 5 5 5 5 5 5 5 5 3 5 3 5 3 5 3 5 5 5 5 3 5 5 5 5 3 5 5 5 5 5 5 5 5 5 5 5 5 5 5 3 5 5 5 3 5 5 5 3 5 5 3 5 5 5 3 5 5 5 5 3 5 5 5 5 3 5 5 5 5 5 5 5 5 5 5 3 5 5 5 5 5 3 5 3 5 5 5 5 5 3 3 5 5 3 5 3 5 5 3 5 5 5 5 5 5 5 5 5 5 5 5 5 3 5 5 5 5 5 3 5 5 5 5 5 5 5 5 5 5 3 5 3 5 5 3 5 5 3 5 3 5 3 5 5 5 5 5 3 3 5 5 5 5 5 5 5 5 5 5 5 3 5 5 5 5 5 3 5 5 5 3 5 3 5 5 5 5 5 5 5 5 5 5 5 5 5 5 5 3 5 5 5 5 3 5 5 5 5 5 5 5 5 5 5 5 5 5 5 5 5 5 5 5 5 5 5 5 3 5 5 3 5 5 5 5 5 5 5 3 5 5 3 5 3 5 5 5 5 5 5 5 5 5 3 5 5 3 5 5 5 3 5 5 5 5 5 5 5 3 5 5 5 5 3 3 5 5 5 5 5 5 5 5 5 3 5 5 5 5 5 5 5 5 5 5 5 5 5 5 5 5 3 5 3 5 5 5 3 5 5 5 5 5 5 5 5 5 5 5 5 5 3 5 5 5 5 5 3 5 5 5 3 3 5 5 5 3 5 5 3 5 5 5 5 3 3 5 5 5 3 5 5 3 5 5 5 5 3 5 3 5 5 5 3 5 5 5 5 5 5 5 5 5 5 5 5 5 5 5 5 5 5 5 5 5 3 5 5 5 5 5 5 5 5 5 3 5 5 5 3 5 3 5 5 5 5 5 5 5 5 5 5 5 3 5 5 5 5 5 3 5 5 5 5 5 3 5 5 5 5 5 5 5 5 5 5 5 5 5 5 5 5 3 5 5 5 5 5 5 5 5 5 3 5 5 5 5 5 5 5 5 5 5 5 5 5 5 5 3 5 5 5 5 5 5 5 5 5 5 5 5 5 5 5 5 5 5 5 5 5 5 5 5 5 5 5 5 5 3 5 5 5 5 3 5 3 3 5 5 5 5 5 5 3 5 3 5 5 5 3 5 5 3 5 5 5 5 5 5 3 5 5 5 5 5 5 5 3 5 5 5 5 3 5 5 5 5 5 5 3 5 5 5 5 5 5 5 5 5 5 5 5 3 5 3 5 5 5 5 5 5 5 3 3 5 5 5 5 5 5 5 5 3 5 5 5 3 5 5 3 5 5 5 5 5 5 5 5 5 5 5 5 5 5 5 5 5 5 5 5 5 5 5 5 5 3 5 5 3 5 5 5 5 5 3 5 5 3 5 3 5 5 5 3 5 5 5 5 3 5 5 3 3 5 5 5 5 5 3 5 5 3 5 5 5 5 5 3 5 5 5 5 5 5 5 5 5 3 5 5 5 5 3 5 5 5 5 5 5 3 5 3 5 5 5 3 5 3 5 5 3 5 3 5 5 5 3 5 5 5 5 5 5 5 5 5 5 5 5 5 3 5 5 5 5 3 5 5 5 5 5 5 3 5 5 5 5 5 5 5 3 5 5 5 5 5 5 3 5 5 5 5 5 5 5 3 5 5 3 5 5 5 5 5 5 5 5 5 3 3 5 5 5 5 5 5 5 5 5 5 5 5 3 5 5 5 5 5 5 5 3 5 5 5 3 5 3 5 5 3 5 5 5 5 5 3 5 5 5 3 5 5 5 5 3 5 5 5 3 5 5 5 5 5 5 5 3 5 5 3 5 5 5 3 5 5 5 3 5 5 5 5 3 5 5 5 3 5 5 5 5 5 5 5 5 5 3 5 5 5 5 5 5 5 5 5 3 5 5 5 5 3 5 5 3 5 5 5 5 5 5 5 5 5 5 5 5 5 5 5 5 5 5 5 5 5 5 5 5 5 5 3 5 5 5 5 5 5 5 5 5 5 5 3 5 5 5 3 5 5 5 5 5 5 3 5 5 5 5 5 5 5 5 5 5 5 5 5 5 5 5 5 5 5 5 5 5 5 5 5 5 3 5 3 5 5 3 3 5 5 5 5 5 5 5 5 5 5 5 5 5 5 5 5 5 3 5 5 5 5 5 5 5 5 5 5 5 5 5 5 5 5 5 5 5 5 5 5 5 5 5 5 5 5 5 5 5 5 5 5 5 5 5 5 5 5 5 5 5 5 5 5 5 5 5 5 5 5 5 5 5 5 5 5 5 5 5 3 5 5 3 5 5 5 5 3 5 5 5 5 5 5 5 5 5 5 3 5 3 5 5 5 3 5 5 5 3 5 3 5 5 5 3 5 3 5 3 5 5 5 3 5 5 5 5 3 5 3 5 5 5 5 5 3 5 3 3 5 5 5 5 5 5 3 5 5 5 3 5 5 5 5 5 5 5 5 5 5 5 5 5 5 5 5 5 5 5 3 5 5 5 3 3 5 5 5 5 5 3 5 5 5 5 5 5 5 5 5 5 5 5 5 5 3 5 5 3 5 3 5 5 5 3 5 3 5 5 3 5 5 5 5 5 5 5 5 5 5 5 3 5 5 5 5 5 5 5 5 5 5 3 3 5 5 5 5 5 5 5 3 5 5 5 5 5 5 5 5 5 5 5 5 5 5 3 5 5 5 5 5 5 5 5 5 5 3 5 5 5 3 5 3 3 5 5 5 5 5 5 5 5 3 5 5 5 5 5 5 5 5 5 3 5 3 5 3 5 5 5 5 5 5 5 5 3 5 3 5 5 5 5 5 5 3 5 5 3 5 3 5 5 5 5 5 5 5 5 5 5 5 5 5 5 3 5 5 5 5 5 5 5 5 5 5 3 5 5 5 5 5 5 3 5 5 5 5 5 5 5 5 5 5 5 5 5 5 5 5 5 5 5 5 5 5 5 5 5 3 5 5 5 5 5 3 5 5 5 5 5 5 5 5 5 5 5 3 5 5 5 5 3 5 5 5 5 5 3 5 5 5 5 5 3 5 5 3 5 5 5 5 5 5 5 5 5 5 5 5 5 5 5 5 5 5 5 5 5 5 5 5 5 5 3 5 5 3 5 5 5 5 5 5 5 5 5 5 5 5 5 5 5 3 5 5 5 5 5 5 5 5 5 3 5 5 5 5 5 5 5 3 5 5 5 5 5 3 5 5 5 5 5 5 3 5 5 5 5 3 5 5 5 5 5 5 5 3 5 5 3 5 5 3 5 5 5 5 3 5 5 5 5 5 5 5 5 3 5 5 3 5 5 5 5 5 5 5 5 5 3 5 5 5 5 5 3 5 5 5 5 3 5 5 5 3 5 5 5 5 5 5 5 5 5 5 5 3 3 5 5 5 5 5 5 5 5 5 5 5 3 5 5 5 5 5 3 5 3 3 5 3 3 5 5 3 5 5 5 5 5 5 3 5 3 3 5 5 5 5 5 3 5 5 5 5 5 5 5 5 3 5 5 5 5 3 5 5 5 5 5 3 5 5 3 5 5 5 5 5 5 5 3 5 3 5 5 5 5 5 5 5 3 3 5 5 5 5 5 5 5 3 5 5 5 5 5 5 3 5 5 5 5 5 5 5 5 5 5 5 5 5 5 3 5 5 3 5 5 5 5 3 5 5 5 5 3 5 5 5 5 5 5 3 5 5 5 5 5 5 5 3 5 5 5 3 5 5 5 5 3 5 5 3 5 5 5 5 5 5 5 3 5 5 5 5 3 5 3 5 5 5 5 5 5 5 5 5 5 5 5 5 5 3 5 5 5 5 5 5 5 3 5 5 3 5 5 3 5 5 5 5 5 5 5 5 5 3 5 5 5 3 5 5 5 5 5 5 5 5 5 3 5 5 5 5 5 5 5 5 5 5 5 3 5 5 5 3 5 5 5 5 5 5 5 5 5 5 5 3 5 5 5 5 5 5 5 5 5 5 3 5 5 5 5 5 3 5 5 5 5 5 5 5 5 3 5 5 3 5 5 3 5 5 5 5 3 3 5 5 5 5 3 5 5 5 5 3 5 5 3 5 5 5 5 3 5 5 3 5 5 5 5 5 3 5 5 5 5 5 5 5 5 3 5 3 5 5 5 5 5 5 5 5 5 3 3 5 5 5 5 5 5 3 5 5 3 5 5 3 5 3 5 5 5 3 5 5 3 5 5 5 5 5 5 5 5 3 3 5 5 3 3 5 5 5 5 3 5 5 5 3 5 3 5 3 3 3 5 3 5 5 5 3 5 5 5 5 5 5 5 5 5 3 5 5 3 5 5 5 5 5 5 3 5 5 5 5 5 5 3 3 3 5 5 5 5 5 5 5 5 5 5 5 3 5 5 5 5 3 5 5 5 5 5 5 5 5 3 5 5 3 5 5 5 3 5 5 5 5 5 5 5 5 5 3 5 5 5 5 5 5 5 5 3 5 5 5 3 5 5 3 5 5 5 3 5 3 5 5 3 5 3 5 5 3 5 5 5 5 5 5 3 5 5 3 5 5 5 5 5 5 5 5 5 5 5 5 5 5 5 5 5 5 5 5 5 5 5 5 5 5 5 5 5 5 5 5 5 5 5 5 5 5 5 5 5 5 5 5 5 5 5 5 5 5 5 5 5 5 5 5 5 5 5 5 5 5 5 5 5 5 5 5 5 5 5 5 5 5 5 5 5 5 5 5 5 5 5 5 5 5 5 5 5 5 5 5 5 5 5 5 3 5 5 5 5 3 5 5 5 5 5 5 5 5 5 5 5 5 3 3 5 5 5 5 5 5 5 5 5 5 5 5 5 5 5 3 5 5 5 3 5 5 5 5 5 5 5 5 5 5 3 5 3 5 5 5 5 5 5 5 5 5 5 5 5 5 5 5 5 5 5 5 5 5 5 5 5 3 5 5 5 5 3 5 5 5 5 5 5 5 5 3 5 5 5 5 5 5 5 5 5 5 5 5 5 5 5 5 5 5 5 5 5 5 5 5 5 5 5 5 5 5 5 5 5 5 5 5 5 5 5 5 5 5 5 5 5 5 5 5 5 3 5 5 5 5 5 5 5 5 5 5 5 5 5 5 5 5 5 5 5 5 5 5 5 5 5 5 5 5 5 5 5 5 3 5 5 5 5 5 5 3 5 5 5 5 5 5 3 5 5 3 5 3 5 3 5 5 5 5 3 5 5 5 5 5 3 5 5 5 3 3 5 5 5 3 5 5 5 5 3 3 5 5 5 5 5 5 5 5 5 5 5 5 5 5 3 5 5 3 5 5 3 3 5 5 5 5 5 5 5 5 5 5 3 5 3 5 5 5 5 5 5 5 5 5 5 5 3 5 5 5 5 5 5 5 3 5 5 5 5 5 5 5 5 5 5 5 5 5 5 5 5 5 5 3 3 5 5 5 5 5 5 5 5 5 5 5 5 5 5 5 5 5 3 5 5 5 5 5 5 5 5 5 3 5 5 5 5 5 5 5 5 5 5 5 5 3 5 5 5 5 3 5 3 5 5 5 5 5 5 5 5 5 3 5 5 5 5 3 5 5 5 5 3 5 3 5 5 5 5 5 5 5 5 5 5 5 5 3 5 5 5 5 5 5 5 5 5 5 5 5 5 5 5 3 5 3 5 5 3 5 5 5 3 5 3 5 5 3 5 5 3 5 3 5 5 5 5 5 5 5 3 3 5 5 5 5 3 3 5 5 3 3 5 3 5 5 3 3 5 5 3 5 5 3 5 5 5 5 5 5 5 5 3 5 5 3 5 3 5 5 5 3 5 5 5 5 5 5 5 5 3 5 5 5 5 5 5 5 5 5 5 5 5 5 5 5 5 5 5 5 5 5 5 3 5 5 5 5 5 5 5 5 5 5 5 5 5 5 5 5 5 5 
</DataArray>
</Cells>
<PointData Scalars="" Vectors="displacement," Tensors="">
<DataArray type="Float64" Name="displacement" NumberOfComponents="3" format="ascii">
7.195684128784398e-07 0.044997256049470087 0 0.00028026834859681951 0.044029268584803022 0 -2.4274866444278758e-07 0.040291246269054455 0 7.195684128784398e-07 0.044997256049470087 0 0.00028026834859681951 0.044029268584803022 0 4.0929910879332453e-07 0.044997983170998339 0 0.00028026834859681951 0.044029268584803022 0 0.00018894810310728032 0.044186880230533056 0 4.0929910879332453e-07 0.044997983170998339 0 0.00028026834859681951 0.044029268584803022 0 0.00018894810310728032 0.044186880230533056 0 2.768383513005434e-05 0.043544978897090816 0 0.00018894810310728032 0.044186880230533056 0 0.00017932879579380661 0.044242099160649286 0 2.768383513005434e-05 0.043544978897090816 0 0.00018894810310728032 0.044186880230533056 0 0.00017932879579380661 0.044242099160649286 0 4.0929910879332453e-07 0.044997983170998339 0 -5.3578330075609185e-06 0.044330600153742072 0 8.6342294121255004e-08 0.044999777105956401 0 -0.00069082140340389134 0.043801584200855129 0 -0.0008882186835452784 0.044179959586713786 0 -0.00047299051966487879 0.044371984026267491 0 0.00017932879579380661 0.044242099160649286 0 -0.00052335427379724428 0.043645889738360519 0 2.768383513005434e-05 0.043544978897090816 0 -0.00017997685981273196 0.044389862344224491 0 -0.00069082140340389134 0.043801584200855129 0 -0.00047299051966487879 0.044371984026267491 0 -5.3578330075609185e-06 0.044330600153742072 0 -0.00062822767841500112 0.043726089808373239 0 2.768383513005434e-05 0.043544978897090816 0 -0.0001546010359036453 0.042216582646016659 0 -0.00074304251277329352 0.04296753340514313 0 -0.00052335427379724428 0.043645889738360519 0 2.768383513005434e-05 0.043544978897090816 0 -0.00074304251277329352 0.04296753340514313 0 -0.0001546010359036453 0.042216582646016659 0 -0.0010661182737230948 0.042453266938058953 0 -0.00074304251277329352 0.04296753340514313 0 3.0397217594293851e-05 0.042039725839203623 0 -0.0006813255873772099 0.041659955481934297 0 0.00028026834859681951 0.044029268584803022 0 -0.0001546010359036453 0.042216582646016659 0 -2.4274866444278758e-07 0.040291246269054455 0 0.00028026834859681951 0.044029268584803022 0 2.768383513005434e-05 0.043544978897090816 0 -0.0001546010359036453 0.042216582646016659 0 -0.0001546010359036453 0.042216582646016659 0 -2.4274866444278758e-07 0.040291246269054455 0 -0.00010578559461275883 0.040441952677383895 0 -2.4274866444278758e-07 0.040291246269054455 0 -8.1945681695456529e-05 0.038083123179635837 0 -0.00010578559461275883 0.040441952677383895 0 -2.4274866444278758e-07 0.040291246269054455 0 -8.1945681695456529e-05 0.038083123179635837 0 -1.1711815099809241e-06 0.034117073790957797 0 -8.1945681695456529e-05 0.038083123179635837 0 -0.0021113337684336409 0.039944253652210285 0 -0.00010578559461275883 0.040441952677383895 0 -5.397832743478281e-05 0.037756586444442422 0 -0.0010908033174150688 0.039100015114547623 0 -0.0010908033174150688 0.039100015114547623 0 -0.0006813255873772099 0.041659955481934297 0 -0.001723885502279814 0.042395451946867821 0 -0.0010661182737230948 0.042453266938058953 0 -0.0015091664041216426 0.043259790420887331 0 -8.1945681695456529e-05 0.038083123179635837 0 6.3323532321633418e-05 0.036566825625610762 0 -1.1711815099809241e-06 0.034117073790957797 0 -3.0924375884063321e-06 0.03411022128188991 0 -0.0011207188004562359 0.032118297480652473 0 -3.6039057964964919e-05 0.031859561381907375 0 6.3323532321633418e-05 0.036566825625610762 0 -1.1711815099809241e-06 0.034117073790957797 0 -0.00020237077849306345 0.035426081103577624 0 -0.00096490895330917194 0.033627334166878659 0 -0.00024780344775137352 0.031924128259408047 0 -2.635101840447589e-07 0.034114400391536168 0 -0.00096490895330917194 0.033627334166878659 0 -0.00062316288804079262 0.036922256634351537 0 -0.0017297965083684851 0.036732950614001447 0 -0.0013725646336183862 0.037696019896158096 0 -0.0010908033174150688 0.039100015114547623 0 -0.00096490895330917194 0.033627334166878659 0 -0.0010908033174150688 0.039100015114547623 0 -0.0014855158048194569 0.03860668883138544 0 -0.0010628150372167869 0.03164237671374355 0 -0.00077107569770428928 0.030897069551611624 0 -0.001336023912022778 0.030679457105674081 0 -0.00096490895330917194 0.033627334166878659 0 -0.0014855158048194569 0.03860668883138544 0 -0.0010628150372167869 0.03164237671374355 0 -0.00077107569770428928 0.030897069551611624 0 -3.6039057964964919e-05 0.031859561381907375 0 -0.001621973960047347 0.043998771800280584 0 -0.001612529066448587 0.043713750196944144 0 -0.0012009057125371514 0.043751837381390948 0 -0.00077107569770428928 0.030897069551611624 0 -0.001336023912022778 0.030679457105674081 0 -0.00061808606582229326 0.03012854223457918 0 -0.0014855158048194569 0.03860668883138544 0 -0.00091309584317628405 0.036910572101775209 0 -0.001723885502279814 0.042395451946867821 0 -0.0021650988032527879 0.042938575869003161 0 -0.0015091664041216426 0.043259790420887331 0 -0.0021650988032527879 0.042938575869003161 0 -0.0018061950135698638 0.043649573060084539 0 -0.0015091664041216426 0.043259790420887331 0 -0.0014855158048194569 0.03860668883138544 0 -0.0015757545752910422 0.045487115525884331 0 -0.001621973960047347 0.043998771800280584 0 -0.0018061950135698638 0.043649573060084539 0 -0.001612529066448587 0.043713750196944144 0 -0.0018061950135698638 0.043649573060084539 0 -0.0018382049885715349 0.043613266148806638 0 -0.001612529066448587 0.043713750196944144 0 -0.0013996616946209033 0.043495652024196682 0 -0.0012009057125371514 0.043751837381390948 0 -0.00058246647202033028 0.043152617558190137 0 -0.001612529066448587 0.043713750196944144 0 -0.0013996616946209033 0.043495652024196682 0 -0.0012009057125371514 0.043751837381390948 0 -0.0018382049885715349 0.043613266148806638 0 -0.0013996616946209033 0.043495652024196682 0 -0.0015685109139412694 0.043046166420943284 0 -0.0018382049885715349 0.043613266148806638 0 -0.001612529066448587 0.043713750196944144 0 -0.0013996616946209033 0.043495652024196682 0 -0.0010661182737230948 0.042453266938058953 0 -0.00074304251277329352 0.04296753340514313 0 -0.0015091664041216426 0.043259790420887331 0 -0.00062822767841500112 0.043726089808373239 0 -0.0014803234123071205 0.043301232988073528 0 -0.00052335427379724428 0.043645889738360519 0 -0.00074304251277329352 0.04296753340514313 0 -0.0015091664041216426 0.043259790420887331 0 -0.0018061950135698638 0.043649573060084539 0 -0.0015091664041216426 0.043259790420887331 0 -0.0012637848149559792 0.04384150902908282 0 -0.00069082140340389134 0.043801584200855129 0 -0.0015091664041216426 0.043259790420887331 0 -0.0012637848149559792 0.04384150902908282 0 -0.00069082140340389134 0.043801584200855129 0 -0.0012637848149559792 0.04384150902908282 0 -0.0008882186835452784 0.044179959586713786 0 -0.0008882186835452784 0.044179959586713786 0 -0.0014220033880056146 0.04429860909133522 0 -0.00072447055104388821 0.044659956603009608 0 -0.0012637848149559792 0.04384150902908282 0 -0.0008882186835452784 0.044179959586713786 0 -0.0014220033880056146 0.04429860909133522 0 -0.0018061950135698638 0.043649573060084539 0 -0.0012637848149559792 0.04384150902908282 0 -0.0014220033880056146 0.04429860909133522 0 0.00093962492765972379 0.04222059075464716 0 0.00095779088504216827 0.042211882172433247 0 0.00094284809256358466 0.042234068594446207 0 -0.00011627695985832673 0.04354450782330882 0 0.00014849939033069844 0.043322158557867939 0 0.00093962492765972379 0.04222059075464716 0 0.00094284809256358466 0.042234068594446207 0 0.00098317646585313568 0.042221474873662769 0 -0.0013996616946209033 0.043495652024196682 0 -0.0015685109139412694 0.043046166420943284 0 -0.00058246647202033028 0.043152617558190137 0 -0.00087014114220132738 0.0410532936741188 0 -0.00015536768306829301 0.03570237634745943 0 -0.0018382049885715349 0.043613266148806638 0 -0.0014220033880056146 0.04429860909133522 0 -0.0020501441156642098 0.043909267269302082 0 -0.00011627695985832673 0.04354450782330882 0 -0.00087014114220132738 0.0410532936741188 0 -0.0018061950135698638 0.043649573060084539 0 -0.0018382049885715349 0.043613266148806638 0 -0.0014220033880056146 0.04429860909133522 0 -0.0022676308841578369 0.04391788294594437 0 -0.00087014114220132738 0.0410532936741188 0 0.00093962492765972379 0.04222059075464716 0 0.00095832303352931178 0.042225308630825485 0 0.00095779088504216827 0.042211882172433247 0 -0.00087014114220132738 0.0410532936741188 0 0.00017982990387978656 0.038827394115505585 0 0.00095832303352931178 0.042225308630825485 0 0.00095779088504216827 0.042211882172433247 0 0.0010155967411391055 0.042179767554734349 0 0.00095779088504216827 0.042211882172433247 0 0.0010095278065239183 0.042162383488213141 0 0.0010155967411391055 0.042179767554734349 0 0.00095779088504216827 0.042211882172433247 0 0.0010095278065239183 0.042162383488213141 0 0.00096436005810423826 0.042206984065172086 0 0.00095779088504216827 0.042211882172433247 0 0.00096436005810423826 0.042206984065172086 0 0.00094284809256358466 0.042234068594446207 0 0.00096436005810423826 0.042206984065172086 0 0.0009450506916652971 0.042227868759560229 0 0.0010259714799028079 0.042092598213498457 0 0.0010095278065239183 0.042162383488213141 0 0.0010327384686884672 0.042113228722070441 0 0.0010259714799028079 0.042092598213498457 0 0.0010095278065239183 0.042162383488213141 0 0.00096436005810423826 0.042206984065172086 0 0.0010259714799028079 0.042092598213498457 0 0.00094284809256358466 0.042234068594446207 0 0.00098124109120950142 0.042261764387339085 0 0.00098317646585313568 0.042221474873662769 0 0.00094284809256358466 0.042234068594446207 0 0.00093677856001293715 0.042285677077729032 0 0.00098124109120950142 0.042261764387339085 0 0.00096436005810423826 0.042206984065172086 0 0.00094284809256358466 0.042234068594446207 0 0.0009450506916652971 0.042227868759560229 0 0.00094284809256358466 0.042234068594446207 0 0.0009450506916652971 0.042227868759560229 0 0.00093677856001293715 0.042285677077729032 0 0.0009450506916652971 0.042227868759560229 0 0.00093677856001293715 0.042285677077729032 0 0.0009406039731889702 0.042256866934376074 0 0.00093677856001293715 0.042285677077729032 0 0.00098124109120950142 0.042261764387339085 0 0.00096515931407727856 0.042381945137147492 0 0.00098124109120950142 0.042261764387339085 0 0.0010830260206706704 0.04231186929962396 0 0.00096515931407727856 0.042381945137147492 0 0.0010252494602844909 0.042255133033802683 0 0.00098124109120950142 0.042261764387339085 0 0.0010830260206706704 0.04231186929962396 0 0.0010252494602844909 0.042255133033802683 0 0.00098124109120950142 0.042261764387339085 0 0.00098317646585313568 0.042221474873662769 0 0.00098355032518841843 0.043317630217538948 0 0.000121675580569001 0.044161509387448603 0 0.0007289400106646472 0.044579563490294266 0 0.00012668840761854817 0.044930338485099704 0 0.00027659940553143226 0.045298099652040513 0 0.0010252494602844909 0.042255133033802683 0 0.0010830260206706704 0.04231186929962396 0 0.0010585564714474525 0.042244480500950213 0 0.0007289400106646472 0.044579563490294266 0 6.6560864380472688e-05 0.044691879956608387 0 0.00012668840761854817 0.044930338485099704 0 6.6560864380472688e-05 0.044691879956608387 0 1.1928292725842272e-05 0.044904499543517953 0 5.7766575422283778e-05 0.044929167991272598 0 6.6560864380472688e-05 0.044691879956608387 0 1.1928292725842272e-05 0.044904499543517953 0 0.00012668840761854817 0.044930338485099704 0 9.6231222972574673e-08 0.044999780802792211 0 1.1928292725842272e-05 0.044904499543517953 0 -1.5429472976097272e-07 0.04500002214158378 0 9.6231222972574673e-08 0.044999780802792211 0 1.1928292725842272e-05 0.044904499543517953 0 5.7766575422283778e-05 0.044929167991272598 0 1.1928292725842272e-05 0.044904499543517953 0 -1.5429472976097272e-07 0.04500002214158378 0 1.8663754355696778e-05 0.045081216769136734 0 -2.4391429923841625e-08 0.045000019586853422 0 1.6731284491392991e-05 0.045045149730618635 0 1.8663754355696778e-05 0.045081216769136734 0 0.00012668840761854817 0.044930338485099704 0 0.00027659940553143226 0.045298099652040513 0 1.1928292725842272e-05 0.044904499543517953 0 1.8663754355696778e-05 0.045081216769136734 0 0.00012668840761854817 0.044930338485099704 0 1.6731284491392991e-05 0.045045149730618635 0 0.000121675580569001 0.044161509387448603 0 -0.00027073408081827429 0.044964814173463027 0 0.000121675580569001 0.044161509387448603 0 -5.3348171965850385e-05 0.044890619915869075 0 -0.00016419917885637561 0.044674913823705129 0 -0.00023386226149728969 0.044957239587890559 0 -5.9867199637975965e-05 0.044995702494648085 0 -5.3348171965850385e-05 0.044890619915869075 0 -0.00023386226149728969 0.044957239587890559 0 -5.9867199637975965e-05 0.044995702494648085 0 -5.3348171965850385e-05 0.044890619915869075 0 -4.429301989168517e-08 0.044999957158243183 0 -1.4917431408398159e-08 0.045000060984825306 0 -5.9867199637975965e-05 0.044995702494648085 0 -4.429301989168517e-08 0.044999957158243183 0 -5.3348171965850385e-05 0.044890619915869075 0 -4.429301989168517e-08 0.044999957158243183 0 1.74071008600118e-07 0.044999391183836057 0 -5.3348171965850385e-05 0.044890619915869075 0 1.74071008600118e-07 0.044999391183836057 0 -0.00016419917885637561 0.044674913823705129 0 -0.00017997685981273196 0.044389862344224491 0 1.74071008600118e-07 0.044999391183836057 0 -0.00016419917885637561 0.044674913823705129 0 -0.00016419917885637561 0.044674913823705129 0 -0.00038429454718019919 0.044628284626519292 0 -0.00047299051966487879 0.044371984026267491 0 -0.00017997685981273196 0.044389862344224491 0 -0.00016419917885637561 0.044674913823705129 0 -0.00047299051966487879 0.044371984026267491 0 -0.0008882186835452784 0.044179959586713786 0 -0.00047299051966487879 0.044371984026267491 0 -0.00072447055104388821 0.044659956603009608 0 -0.00038429454718019919 0.044628284626519292 0 -0.00047299051966487879 0.044371984026267491 0 -0.00072447055104388821 0.044659956603009608 0 -0.00038429454718019919 0.044628284626519292 0 -0.00072447055104388821 0.044659956603009608 0 -0.00024519751569123451 0.044825724013936155 0 0.00014849939033069844 0.043322158557867939 0 0.000121675580569001 0.044161509387448603 0 0.0010252494602844909 0.042255133033802683 0 0.00098317646585313568 0.042221474873662769 0 0.0010585564714474525 0.042244480500950213 0 -0.00016419917885637561 0.044674913823705129 0 -0.00038429454718019919 0.044628284626519292 0 -0.00024519751569123451 0.044825724013936155 0 -0.00019259608240192327 0.021492901002780961 0 -0.00020477626105751658 0.021393994020788842 0 -0.00014726387950415149 0.021477787243441786 0 -0.00028875736645966909 0.02143090621916062 0 -0.00019259608240192327 0.021492901002780961 0 -0.00020477626105751658 0.021393994020788842 0 0.00030726865390948242 0.026301574982330211 0 0.00030884275408790592 0.026320301616167191 0 -6.0323541664266864e-05 0.026080079353288575 0 1.4482130657559077e-05 0.023725324791789966 0 -0.00010899589919291819 0.023785497724500171 0 0.00030884275408790592 0.026320301616167191 0 0.00023256803811050575 0.02525344540602285 0 0.00030867836211312573 0.026470409908339567 0 0.00030884275408790592 0.026320301616167191 0 -6.0323541664266864e-05 0.026080079353288575 0 0.00023256803811050575 0.02525344540602285 0 -0.00010899589919291819 0.023785497724500171 0 -0.00019477534988490152 0.022911543249200601 0 -6.0323541664266864e-05 0.026080079353288575 0 0.00023256803811050575 0.02525344540602285 0 -0.00055024412618203831 0.024520244447903086 0 2.6498948712997443e-05 0.023959374234063597 0 0.00023256803811050575 0.02525344540602285 0 -0.00055024412618203831 0.024520244447903086 0 2.6498948712997443e-05 0.023959374234063597 0 -1.9092822154362525e-07 0.022506111282029975 0 6.6094334634700727e-07 0.024827972797722322 0 2.6498948712997443e-05 0.023959374234063597 0 -1.9092822154362525e-07 0.022506111282029975 0 -0.00016196906525303334 0.022910727732521192 0 2.6498948712997443e-05 0.023959374234063597 0 6.6094334634700727e-07 0.024827972797722322 0 0.00023256803811050575 0.02525344540602285 0 6.6094334634700727e-07 0.024827972797722322 0 0.00023256803811050575 0.02525344540602285 0 0.00019751998340515874 0.026231495161873567 0 0.00023256803811050575 0.02525344540602285 0 0.00030867836211312573 0.026470409908339567 0 0.00019751998340515874 0.026231495161873567 0 0.00030867836211312573 0.026470409908339567 0 0.00019751998340515874 0.026231495161873567 0 0.00010113266800481012 0.027459646612203716 0 6.6094334634700727e-07 0.024827972797722322 0 0.00019751998340515874 0.026231495161873567 0 3.3741338331778568e-07 0.027149376892232718 0 0.00019751998340515874 0.026231495161873567 0 3.3741338331778568e-07 0.027149376892232718 0 0.00010113266800481012 0.027459646612203716 0 3.3741338331778568e-07 0.027149376892232718 0 0.00010113266800481012 0.027459646612203716 0 -2.3961931106534373e-07 0.029470285935946746 0 0.00030867836211312573 0.026470409908339567 0 0.00010113266800481012 0.027459646612203716 0 0.00011284853804673472 0.02678626682396058 0 0.00010113266800481012 0.027459646612203716 0 0.00011284853804673472 0.02678626682396058 0 -0.00022666950990236321 0.02861652670692396 0 0.00030884275408790592 0.026320301616167191 0 0.00030867836211312573 0.026470409908339567 0 0.00011284853804673472 0.02678626682396058 0 0.00030884275408790592 0.026320301616167191 0 0.00011284853804673472 0.02678626682396058 0 4.0780172591038628e-05 0.026297392865227382 0 0.00030726865390948242 0.026301574982330211 0 0.00030884275408790592 0.026320301616167191 0 4.0780172591038628e-05 0.026297392865227382 0 0.00011284853804673472 0.02678626682396058 0 4.0780172591038628e-05 0.026297392865227382 0 -0.00041996112048870918 0.026265366415814135 0 -0.00041996112048870918 0.026265366415814135 0 -0.00074857108210739007 0.026662227160710008 0 -0.00070285896046800797 0.025942627040548387 0 0.00011284853804673472 0.02678626682396058 0 -0.00041996112048870918 0.026265366415814135 0 -0.00074857108210739007 0.026662227160710008 0 -0.00046065883459233325 0.028326334949694484 0 -0.00043049597397758178 0.028100468971990866 0 -0.00025991520248261498 0.030030412205504876 0 -3.5165031344046715e-05 0.030098962993643449 0 0.00012860244124167602 0.029857422166498147 0 -3.5165031344046715e-05 0.030098962993643449 0 0.00012860244124167602 0.029857422166498147 0 7.0459190504236217e-05 0.030048098173535567 0 -0.00025991520248261498 0.030030412205504876 0 -3.5165031344046715e-05 0.030098962993643449 0 -0.00013775484934689004 0.030155763475721634 0 0.00011284853804673472 0.02678626682396058 0 -0.00074857108210739007 0.026662227160710008 0 -0.00022666950990236321 0.02861652670692396 0 -0.00025991520248261498 0.030030412205504876 0 0.00012860244124167602 0.029857422166498147 0 -0.00022666950990236321 0.02861652670692396 0 -0.00046065883459233325 0.028326334949694484 0 -0.00029115985003030426 0.028583029301176777 0 0.00010113266800481012 0.027459646612203716 0 -0.00022666950990236321 0.02861652670692396 0 -2.3961931106534373e-07 0.029470285935946746 0 -0.00022666950990236321 0.02861652670692396 0 -2.3961931106534373e-07 0.029470285935946746 0 0.00012837633204704286 0.029986848012295089 0 -2.3961931106534373e-07 0.029470285935946746 0 0.00012837633204704286 0.029986848012295089 0 1.2789307364891305e-06 0.031792321661589025 0 0.00012860244124167602 0.029857422166498147 0 0.00012837633204704286 0.029986848012295089 0 0.0001040253733246803 0.030230282558406738 0 0.00012860244124167602 0.029857422166498147 0 -0.00022666950990236321 0.02861652670692396 0 0.00012837633204704286 0.029986848012295089 0 0.00012837633204704286 0.029986848012295089 0 6.4151533045778703e-05 0.030847349968423265 0 0.0001040253733246803 0.030230282558406738 0 6.4151533045778703e-05 0.030847349968423265 0 -0.00020110424605322439 0.030553998289745896 0 0.0001040253733246803 0.030230282558406738 0 6.4151533045778703e-05 0.030847349968423265 0 1.2789307364891305e-06 0.031792321661589025 0 -3.6039057964964919e-05 0.031859561381907375 0 0.00012837633204704286 0.029986848012295089 0 6.4151533045778703e-05 0.030847349968423265 0 1.2789307364891305e-06 0.031792321661589025 0 -3.0924375884063321e-06 0.03411022128188991 0 1.2789307364891305e-06 0.031792321661589025 0 -3.6039057964964919e-05 0.031859561381907375 0 -0.00077107569770428928 0.030897069551611624 0 -3.6039057964964919e-05 0.031859561381907375 0 -0.00020110424605322439 0.030553998289745896 0 6.4151533045778703e-05 0.030847349968423265 0 -3.6039057964964919e-05 0.031859561381907375 0 -0.00020110424605322439 0.030553998289745896 0 -0.00061808606582229326 0.03012854223457918 0 -0.00020110424605322439 0.030553998289745896 0 -0.00013069261714155841 0.030145806187306948 0 -0.00077107569770428928 0.030897069551611624 0 -0.00061808606582229326 0.03012854223457918 0 -0.00020110424605322439 0.030553998289745896 0 -0.00020110424605322439 0.030553998289745896 0 0.0001040253733246803 0.030230282558406738 0 -0.00013069261714155841 0.030145806187306948 0 0.00012860244124167602 0.029857422166498147 0 0.0001040253733246803 0.030230282558406738 0 7.0459190504236217e-05 0.030048098173535567 0 0.0001040253733246803 0.030230282558406738 0 7.0459190504236217e-05 0.030048098173535567 0 -0.00013069261714155841 0.030145806187306948 0 -1.6926427136222571e-05 0.030071025670999906 0 7.0459190504236217e-05 0.030048098173535567 0 -0.00013069261714155841 0.030145806187306948 0 -1.6926427136222571e-05 0.030071025670999906 0 7.0459190504236217e-05 0.030048098173535567 0 8.7317671761868287e-06 0.030071951142941377 0 -3.5165031344046715e-05 0.030098962993643449 0 8.7317671761868287e-06 0.030071951142941377 0 -2.7280923993926998e-05 0.030103178664692164 0 8.7317671761868287e-06 0.030071951142941377 0 -2.4842182628842727e-05 0.030040012243733247 0 -2.7280923993926998e-05 0.030103178664692164 0 -3.5165031344046715e-05 0.030098962993643449 0 7.0459190504236217e-05 0.030048098173535567 0 8.7317671761868287e-06 0.030071951142941377 0 -1.6926427136222571e-05 0.030071025670999906 0 8.7317671761868287e-06 0.030071951142941377 0 -2.4842182628842727e-05 0.030040012243733247 0 -1.6926427136222571e-05 0.030071025670999906 0 -2.4842182628842727e-05 0.030040012243733247 0 -0.00016066535576389173 0.029964266563257406 0 -0.00073908699388425291 0.033242789356460412 0 -0.00015536768306829301 0.03570237634745943 0 -1.6926427136222571e-05 0.030071025670999906 0 -0.00013069261714155841 0.030145806187306948 0 -0.00016066535576389173 0.029964266563257406 0 -0.00091309584317628405 0.036910572101775209 0 -0.00015536768306829301 0.03570237634745943 0 -0.00061808606582229326 0.03012854223457918 0 -0.00013069261714155841 0.030145806187306948 0 -0.00016066535576389173 0.029964266563257406 0 -0.0016411053521754367 0.036612050214222314 0 -0.00043845187008452989 0.036883421442620218 0 -0.00085939057815501835 0.035469103135979049 0 -2.4842182628842727e-05 0.030040012243733247 0 1.7552202777824118e-05 0.030066819739124569 0 -3.2596559398546762e-05 0.030193157640992736 0 -0.00015536768306829301 0.03570237634745943 0 0.0002426460579007753 0.033073482852925488 0 -2.4842182628842727e-05 0.030040012243733247 0 -2.7280923993926998e-05 0.030103178664692164 0 -3.2596559398546762e-05 0.030193157640992736 0 0.0003942896816192589 0.035975586234805845 0 -0.00085939057815501835 0.035469103135979049 0 -2.9587858321975411e-05 0.035131894934995647 0 -0.00043845187008452989 0.036883421442620218 0 0.0003942896816192589 0.035975586234805845 0 -0.00085939057815501835 0.035469103135979049 0 0.00017982990387978656 0.038827394115505585 0 0.00031704589135911175 0.036405280553606569 0 -0.00085939057815501835 0.035469103135979049 0 -8.1144672422988676e-05 0.034348281516629497 0 -2.9587858321975411e-05 0.035131894934995647 0 0.0010095278065239183 0.042162383488213141 0 0.0010155967411391055 0.042179767554734349 0 0.00106091809874027 0.042100279933034751 0 0.0010095278065239183 0.042162383488213141 0 0.0010327384686884672 0.042113228722070441 0 0.00106091809874027 0.042100279933034751 0 0.001536976419499626 0.042415184134776844 0 0.00031704589135911175 0.036405280553606569 0 0.00031704589135911175 0.036405280553606569 0 0.00025624946690020617 0.03505582209093136 0 -0.00052854763537518485 0.028017522037004649 0 -0.00065398928927127859 0.027740000132656716 0 -0.00076010591183228054 0.027876651910654603 0 -0.00052854763537518485 0.028017522037004649 0 -0.00076010591183228054 0.027876651910654603 0 -0.00063241971422720467 0.028220702646633351 0 0.00031704589135911175 0.036405280553606569 0 -0.0004492590316291808 0.031153254931680977 0 0.0003942896816192589 0.035975586234805845 0 -2.9587858321975411e-05 0.035131894934995647 0 0.00056274816403578784 0.034711702030885437 0 -8.1144672422988676e-05 0.034348281516629497 0 -2.9587858321975411e-05 0.035131894934995647 0 0.00056274816403578784 0.034711702030885437 0 0.0003942896816192589 0.035975586234805845 0 0.0012092184259624411 0.035072833242745211 0 0.00056274816403578784 0.034711702030885437 0 -0.00078685840864774681 0.027590472370928563 0 -0.00079422487850503668 0.027644439381362445 0 -0.00065398928927127859 0.027740000132656716 0 2.3328101374941635e-05 0.030343225128226469 0 -0.0004492590316291808 0.031153254931680977 0 -0.00079422487850503668 0.027644439381362445 0 -0.00065398928927127859 0.027740000132656716 0 -0.00076010591183228054 0.027876651910654603 0 -0.00076010591183228054 0.027876651910654603 0 -0.0009085416329816775 0.027456102637214402 0 -0.00095057949914544872 0.028021039349058374 0 -0.0009085416329816775 0.027456102637214402 0 -0.0015312103973524221 0.027470319083033812 0 -0.00095057949914544872 0.028021039349058374 0 -0.00079422487850503668 0.027644439381362445 0 -0.00076010591183228054 0.027876651910654603 0 -0.0009085416329816775 0.027456102637214402 0 -0.0009085416329816775 0.027456102637214402 0 -0.00075514539380808329 0.026707703886143123 0 -0.0012055690885524001 0.02701716734645784 0 2.3328101374941635e-05 0.030343225128226469 0 -0.00033609160091980399 0.027043152435206146 0 -5.1340218482930911e-05 0.026734066959892312 0 -0.0009085416329816775 0.027456102637214402 0 -0.00035452156788050543 0.02682966417476031 0 -0.0009085416329816775 0.027456102637214402 0 -0.00035452156788050543 0.02682966417476031 0 -0.00075514539380808329 0.026707703886143123 0 -0.00078685840864774681 0.027590472370928563 0 -0.00079422487850503668 0.027644439381362445 0 -0.0009085416329816775 0.027456102637214402 0 -5.1340218482930911e-05 0.026734066959892312 0 -0.00035452156788050543 0.02682966417476031 0 -0.00036143767140940083 0.02654935839364168 0 -0.00036752815083767226 0.027457653068067519 0 -0.00034851487509410646 0.028168095967219069 0 -0.00035452156788050543 0.02682966417476031 0 -0.00036201236133995794 0.026581726018684318 0 -0.00075514539380808329 0.026707703886143123 0 2.3328101374941635e-05 0.030343225128226469 0 -0.00034851487509410646 0.028168095967219069 0 -0.00075514539380808329 0.026707703886143123 0 -0.00076811951124587522 0.026296016493486004 0 -0.0011343544211318396 0.026499024990675631 0 -0.00036201236133995794 0.026581726018684318 0 -0.00075514539380808329 0.026707703886143123 0 -0.00076811951124587522 0.026296016493486004 0 -0.00034851487509410646 0.028168095967219069 0 -0.00043049597397758178 0.028100468971990866 0 -0.00076811951124587522 0.026296016493486004 0 -0.00070285896046800797 0.025942627040548387 0 -0.00085150849146902992 0.026106173106652752 0 -0.00061485905550478441 0.02639329715355947 0 -0.00076811951124587522 0.026296016493486004 0 -0.00070285896046800797 0.025942627040548387 0 -0.00012144142934736813 0.030234924649607611 0 -9.4704958433309815e-05 0.030197850115509 0 -0.00013775484934689004 0.030155763475721634 0 -0.00034851487509410646 0.028168095967219069 0 -0.0010516170764895939 0.026825640906370008 0 -0.00010641476524857927 0.030248469869392444 0 -0.00012144142934736813 0.030234924649607611 0 -9.4704958433309815e-05 0.030197850115509 0 -3.2596559398546762e-05 0.030193157640992736 0 -0.00010641476524857927 0.030248469869392444 0 -9.4704958433309815e-05 0.030197850115509 0 0.0002426460579007753 0.033073482852925488 0 2.3328101374941635e-05 0.030343225128226469 0 -3.2596559398546762e-05 0.030193157640992736 0 -9.4704958433309815e-05 0.030197850115509 0 -6.6207996014498008e-05 0.030146172368703639 0 -9.4704958433309815e-05 0.030197850115509 0 -6.6207996014498008e-05 0.030146172368703639 0 -0.00013775484934689004 0.030155763475721634 0 -2.7280923993926998e-05 0.030103178664692164 0 -3.2596559398546762e-05 0.030193157640992736 0 -6.6207996014498008e-05 0.030146172368703639 0 -3.5165031344046715e-05 0.030098962993643449 0 -2.7280923993926998e-05 0.030103178664692164 0 -6.6207996014498008e-05 0.030146172368703639 0 -3.5165031344046715e-05 0.030098962993643449 0 -6.6207996014498008e-05 0.030146172368703639 0 -0.00013775484934689004 0.030155763475721634 0 -0.00041996112048870918 0.026265366415814135 0 -0.00070285896046800797 0.025942627040548387 0 -0.00069410011798724444 0.025890409715759233 0 -0.00070285896046800797 0.025942627040548387 0 -0.00069410011798724444 0.025890409715759233 0 -0.00085150849146902992 0.026106173106652752 0 4.0780172591038628e-05 0.026297392865227382 0 -0.00069410011798724444 0.025890409715759233 0 9.5306840249246604e-05 0.025773519307652728 0 4.0780172591038628e-05 0.026297392865227382 0 -0.00041996112048870918 0.026265366415814135 0 -0.00069410011798724444 0.025890409715759233 0 0.00030726865390948242 0.026301574982330211 0 4.0780172591038628e-05 0.026297392865227382 0 9.5306840249246604e-05 0.025773519307652728 0 1.4482130657559077e-05 0.023725324791789966 0 -0.00060463143745027078 0.024425700243653363 0 -0.0019110741002099608 0.025917971115692051 0 -0.002045935341053671 0.02597797770496213 0 -0.001958043004386666 0.026160343630538471 0 -0.0020296650382476832 0.025783750421328272 0 -0.0019110741002099608 0.025917971115692051 0 -0.002045935341053671 0.02597797770496213 0 -0.00060463143745027078 0.024425700243653363 0 -0.00068264112938460275 0.024620094988929933 0 -0.0020296650382476832 0.025783750421328272 0 -0.002045935341053671 0.02597797770496213 0 -0.0022788167233853077 0.026045218398900623 0 -0.0022788167233853077 0.026045218398900623 0 -0.0021705514037827184 0.026371401767992721 0 -0.0025755363398683936 0.026405093532557235 0 -0.002045935341053671 0.02597797770496213 0 -0.0022788167233853077 0.026045218398900623 0 -0.001958043004386666 0.026160343630538471 0 -0.0022788167233853077 0.026045218398900623 0 -0.0021705514037827184 0.026371401767992721 0 -0.001958043004386666 0.026160343630538471 0 -0.0019110741002099608 0.025917971115692051 0 -0.001958043004386666 0.026160343630538471 0 -0.0015137115199313459 0.026155359553333004 0 -0.0021705514037827184 0.026371401767992721 0 -0.001958043004386666 0.026160343630538471 0 -0.0018470749880946052 0.026464310735971327 0 -0.001958043004386666 0.026160343630538471 0 -0.0015137115199313459 0.026155359553333004 0 -0.0018470749880946052 0.026464310735971327 0 -0.00096987370900539845 0.026045679234165568 0 -0.00060463143745027078 0.024425700243653363 0 -0.00069410011798724444 0.025890409715759233 0 -0.0019110741002099608 0.025917971115692051 0 -0.0015137115199313459 0.026155359553333004 0 -0.00069410011798724444 0.025890409715759233 0 -0.0020268490246128472 0.025753788526810619 0 -0.0019110741002099608 0.025917971115692051 0 -0.0014693516075410865 0.02641300136276787 0 -0.0015137115199313459 0.026155359553333004 0 -0.0018470749880946052 0.026464310735971327 0 -0.0014693516075410865 0.02641300136276787 0 -0.0015137115199313459 0.026155359553333004 0 -0.001158807722802295 0.026196902346437258 0 -0.00069410011798724444 0.025890409715759233 0 -0.0015137115199313459 0.026155359553333004 0 -0.001158807722802295 0.026196902346437258 0 -0.00069410011798724444 0.025890409715759233 0 -0.00085150849146902992 0.026106173106652752 0 -0.001158807722802295 0.026196902346437258 0 -0.00076811951124587522 0.026296016493486004 0 -0.00085150849146902992 0.026106173106652752 0 -0.0011343544211318396 0.026499024990675631 0 -0.00085150849146902992 0.026106173106652752 0 -0.001158807722802295 0.026196902346437258 0 -0.0011343544211318396 0.026499024990675631 0 -0.0014693516075410865 0.02641300136276787 0 -0.001158807722802295 0.026196902346437258 0 -0.0011343544211318396 0.026499024990675631 0 -0.00075514539380808329 0.026707703886143123 0 -0.0011343544211318396 0.026499024990675631 0 -0.0012055690885524001 0.02701716734645784 0 -0.0011343544211318396 0.026499024990675631 0 -0.0015946384840237252 0.026826803060396375 0 -0.0012055690885524001 0.02701716734645784 0 -0.0014693516075410865 0.02641300136276787 0 -0.0011343544211318396 0.026499024990675631 0 -0.0015946384840237252 0.026826803060396375 0 -0.0014693516075410865 0.02641300136276787 0 -0.0015946384840237252 0.026826803060396375 0 -0.0018470749880946052 0.026464310735971327 0 -0.0015946384840237252 0.026826803060396375 0 -0.0012055690885524001 0.02701716734645784 0 -0.0015312103973524221 0.027470319083033812 0 -0.0009085416329816775 0.027456102637214402 0 -0.0012055690885524001 0.02701716734645784 0 -0.0015312103973524221 0.027470319083033812 0 -0.0015312103973524221 0.027470319083033812 0 -0.0021629673382079942 0.026862785309645473 0 -0.0025095883537173506 0.027650809267251504 0 -0.0015946384840237252 0.026826803060396375 0 -0.0015312103973524221 0.027470319083033812 0 -0.0021629673382079942 0.026862785309645473 0 -0.0015946384840237252 0.026826803060396375 0 -0.0021629673382079942 0.026862785309645473 0 -0.0018470749880946052 0.026464310735971327 0 -0.0021705514037827184 0.026371401767992721 0 -0.0021629673382079942 0.026862785309645473 0 -0.0018470749880946052 0.026464310735971327 0 -0.0021705514037827184 0.026371401767992721 0 -0.0021629673382079942 0.026862785309645473 0 -0.0025755363398683936 0.026405093532557235 0 -0.0025755363398683936 0.026405093532557235 0 -0.0028922595678617042 0.026788894223374559 0 -0.0032460106309579228 0.025987701036907219 0 -0.0054332701599333405 0.023422659407685602 0 -0.0032997585318390813 0.020511331046084453 0 -0.0021629673382079942 0.026862785309645473 0 -0.0025755363398683936 0.026405093532557235 0 -0.0028922595678617042 0.026788894223374559 0 -0.0054332701599333405 0.023422659407685602 0 -0.0061375633188792689 0.02282890953707915 0 -0.0021629673382079942 0.026862785309645473 0 -0.0028922595678617042 0.026788894223374559 0 -0.0025095883537173506 0.027650809267251504 0 -0.0079949151411655307 0.019272452502952574 0 -0.008268766516324003 0.018288735633059869 0 -0.0084547611786961272 0.018218500858758049 0 -0.0079949151411655307 0.019272452502952574 0 -0.0077808080159375674 0.01818755377592024 0 -0.0074311332581278606 0.0186109205018587 0 -0.0079949151411655307 0.019272452502952574 0 -0.0077808080159375674 0.01818755377592024 0 -0.008268766516324003 0.018288735633059869 0 -0.0077808080159375674 0.01818755377592024 0 -0.008268766516324003 0.018288735633059869 0 -0.008115275722838362 0.01800652739585188 0 -0.0077586205005020729 0.021337650170366745 0 -0.0061375633188792689 0.02282890953707915 0 -0.0074311332581278606 0.0186109205018587 0 -0.0071525828324473266 0.017991649070025373 0 -0.006850237915754117 0.018496409888400574 0 -0.0077808080159375674 0.01818755377592024 0 -0.0074311332581278606 0.0186109205018587 0 -0.0071525828324473266 0.017991649070025373 0 -0.0074311332581278606 0.0186109205018587 0 -0.0072818789822453956 0.019245532428143398 0 -0.006850237915754117 0.018496409888400574 0 -0.0072818789822453956 0.019245532428143398 0 -0.0065619961217588335 0.01913846928110121 0 -0.006850237915754117 0.018496409888400574 0 -0.0079949151411655307 0.019272452502952574 0 -0.0072818789822453956 0.019245532428143398 0 -0.0075340788598779237 0.020237095511953764 0 -0.0072818789822453956 0.019245532428143398 0 -0.0075340788598779237 0.020237095511953764 0 -0.0064259794323484444 0.020001432040219633 0 -0.0079949151411655307 0.019272452502952574 0 -0.0074311332581278606 0.0186109205018587 0 -0.0072818789822453956 0.019245532428143398 0 -0.002148508227512004 0.015014522817923271 0 -0.0022511769797577443 0.014839116180596879 0 -0.0023574827031686402 0.015098373764190327 0 -0.0032997585318390813 0.020511331046084453 0 -0.004595858363841466 0.017373778098225306 0 -0.0020296650382476832 0.025783750421328272 0 -0.0022788167233853077 0.026045218398900623 0 -0.0032460106309579228 0.025987701036907219 0 -0.0022788167233853077 0.026045218398900623 0 -0.0025755363398683936 0.026405093532557235 0 -0.0032460106309579228 0.025987701036907219 0 -0.00035511983146786275 0.021380318223383279 0 -0.00027054820322714004 0.021326434973302996 0 -0.00028770247600181628 0.021380284245326626 0 -0.00060463143745027078 0.024425700243653363 0 -0.0032997585318390813 0.020511331046084453 0 -0.00028875736645966909 0.02143090621916062 0 -0.00028770247600181628 0.021380284245326626 0 -0.00020477626105751658 0.021393994020788842 0 -0.00028875736645966909 0.02143090621916062 0 -0.00035511983146786275 0.021380318223383279 0 -0.00028770247600181628 0.021380284245326626 0 -0.0032997585318390813 0.020511331046084453 0 -0.0011112157909848506 0.017813524602751724 0 -0.00027054820322714004 0.021326434973302996 0 -0.00028770247600181628 0.021380284245326626 0 -0.00020477626105751658 0.021393994020788842 0 -0.002148508227512004 0.015014522817923271 0 -0.002301010072250368 0.014893205778881933 0 -0.0022511769797577443 0.014839116180596879 0 -0.0079587615727275372 0.015780773863925197 0 -0.008242500247952967 0.015943003871630244 0 -0.0080411947615980119 0.015427127542255064 0 -0.0079587615727275372 0.015780773863925197 0 -0.008242500247952967 0.015943003871630244 0 -0.0077988525839523624 0.016003921000019596 0 -0.0084652116776338347 0.016837619513277082 0 -0.0085629324720300336 0.015958031198560374 0 -0.0079587615727275372 0.015780773863925197 0 -0.0077988525839523624 0.016003921000019596 0 -0.0076984408346987311 0.015745401217891305 0 -0.0079587615727275372 0.015780773863925197 0 -0.0080411947615980119 0.015427127542255064 0 -0.0076984408346987311 0.015745401217891305 0 -0.0085629324720300336 0.015958031198560374 0 -0.0075684145150417591 0.014817130398894401 0 -0.0073037163541710155 0.013663835638952 0 -0.0077354212314983233 0.013581191638742614 0 -0.0072770213985696467 0.014016258754865769 0 -0.0089072306992089168 0.01779744266534727 0 -0.0088672091265081816 0.017872991751295159 0 -0.0088276857168075665 0.01776325324028467 0 -0.0089072306992089168 0.01779744266534727 0 -0.0088672091265081816 0.017872991751295159 0 -0.0090119718966129719 0.017867047711153976 0 -0.0079186020497897004 0.015430369297061968 0 -0.007541352005526929 0.015938105379046861 0 -0.0082580112391868812 0.016360371081543219 0 -0.008818816644747051 0.017877938806759183 0 -0.008646778869690239 0.017582692629324027 0 -0.0085688165393490133 0.017820233942316691 0 -0.0084652116776338347 0.016837619513277082 0 -0.0084227642318143829 0.016969698617640656 0 -0.008646778869690239 0.017582692629324027 0 -0.0085330143797958356 0.017571197526757017 0 -0.0085688165393490133 0.017820233942316691 0 -0.0084652116776338347 0.016837619513277082 0 -0.0073829843797415147 0.015798152032947682 0 -0.0079186020497897004 0.015430369297061968 0 -0.007541352005526929 0.015938105379046861 0 -0.0070549756515794412 0.015552223235245558 0 -0.007541352005526929 0.015938105379046861 0 -0.0074052258424218802 0.016543495151132494 0 -0.0068174655543333526 0.016053391297788083 0 -0.007541352005526929 0.015938105379046861 0 -0.0070549756515794412 0.015552223235245558 0 -0.0068174655543333526 0.016053391297788083 0 -0.0074052258424218802 0.016543495151132494 0 -0.0068168901286835802 0.016617473525644608 0 -0.0068174655543333526 0.016053391297788083 0 -0.0074052258424218802 0.016543495151132494 0 -0.0072199647464838562 0.017010061001153008 0 -0.0078141824439505406 0.017134686144869033 0 -0.0074052258424218802 0.016543495151132494 0 -0.0072199647464838562 0.017010061001153008 0 -0.0068168901286835802 0.016617473525644608 0 -0.0072199647464838562 0.017010061001153008 0 -0.0068399830787746231 0.017296491691326642 0 -0.0068168901286835802 0.016617473525644608 0 -0.0072199647464838562 0.017010061001153008 0 -0.0074865441452154555 0.017541813929898797 0 -0.0068399830787746231 0.017296491691326642 0 -0.0072199647464838562 0.017010061001153008 0 -0.0074865441452154555 0.017541813929898797 0 -0.0078141824439505406 0.017134686144869033 0 -0.0077808080159375674 0.01818755377592024 0 -0.0074865441452154555 0.017541813929898797 0 -0.0071525828324473266 0.017991649070025373 0 -0.0074865441452154555 0.017541813929898797 0 -0.0071525828324473266 0.017991649070025373 0 -0.0068399830787746231 0.017296491691326642 0 -0.008115275722838362 0.01800652739585188 0 -0.0080544836146450201 0.017684825437494639 0 -0.0085221217958470243 0.017966132667849796 0 -0.008268766516324003 0.018288735633059869 0 -0.008115275722838362 0.01800652739585188 0 -0.0085221217958470243 0.017966132667849796 0 -0.0077808080159375674 0.01818755377592024 0 -0.008115275722838362 0.01800652739585188 0 -0.0080544836146450201 0.017684825437494639 0 -0.0077808080159375674 0.01818755377592024 0 -0.0074865441452154555 0.017541813929898797 0 -0.0080544836146450201 0.017684825437494639 0 -0.0074865441452154555 0.017541813929898797 0 -0.0080544836146450201 0.017684825437494639 0 -0.0078141824439505406 0.017134686144869033 0 -0.0080544836146450201 0.017684825437494639 0 -0.0078141824439505406 0.017134686144869033 0 -0.0084662311768840589 0.017549593356919385 0 -0.0080544836146450201 0.017684825437494639 0 -0.0084662311768840589 0.017549593356919385 0 -0.0085221217958470243 0.017966132667849796 0 -0.0084227642318143829 0.016969698617640656 0 -0.0085049735841449293 0.017461289425522265 0 -0.0078141824439505406 0.017134686144869033 0 -0.0082580112391868812 0.016360371081543219 0 -0.0084662311768840589 0.017549593356919385 0 -0.008646778869690239 0.017582692629324027 0 -0.0085330143797958356 0.017571197526757017 0 -0.0084662311768840589 0.017549593356919385 0 -0.0074052258424218802 0.016543495151132494 0 -0.0078141824439505406 0.017134686144869033 0 -0.0082580112391868812 0.016360371081543219 0 -0.007541352005526929 0.015938105379046861 0 -0.0074052258424218802 0.016543495151132494 0 -0.0082580112391868812 0.016360371081543219 0 -0.0085330143797958356 0.017571197526757017 0 -0.0084646419209728121 0.017457966568988008 0 -0.0084662311768840589 0.017549593356919385 0 -0.0061375633188792689 0.02282890953707915 0 -0.0032607466724809604 0.026740210062956286 0 -0.007830440030163123 0.021491074048978286 0 -0.0061375633188792689 0.02282890953707915 0 -0.0084646419209728121 0.017457966568988008 0 -0.0084662311768840589 0.017549593356919385 0 -0.0085221217958470243 0.017966132667849796 0 -0.0015312103973524221 0.027470319083033812 0 -0.0025095883537173506 0.027650809267251504 0 -0.0014519990595355983 0.028300201981942608 0 -0.0063829071519408568 0.026578753017265339 0 -0.0074038163391875094 0.024281748454567088 0 -0.0052520235030581045 0.025513994293984071 0 -0.0015312103973524221 0.027470319083033812 0 -0.0014519990595355983 0.028300201981942608 0 -0.00095057949914544872 0.028021039349058374 0 -0.0052520235030581045 0.025513994293984071 0 -0.0053623377870009419 0.026533785602248422 0 -0.0044553399509116385 0.026902474350042564 0 -0.0063829071519408568 0.026578753017265339 0 -0.0052520235030581045 0.025513994293984071 0 -0.0053623377870009419 0.026533785602248422 0 -0.0063829071519408568 0.026578753017265339 0 -0.0053623377870009419 0.026533785602248422 0 -0.0050927050887394285 0.027429169702885444 0 -0.0053623377870009419 0.026533785602248422 0 -0.0050927050887394285 0.027429169702885444 0 -0.0044553399509116385 0.026902474350042564 0 -0.0063829071519408568 0.026578753017265339 0 -0.0050927050887394285 0.027429169702885444 0 -0.0053427406458343533 0.028805940186705598 0 -0.0050927050887394285 0.027429169702885444 0 -0.0047601459068637103 0.028252917219083584 0 -0.0053427406458343533 0.028805940186705598 0 -0.007830440030163123 0.021491074048978286 0 -0.0061556913798033585 0.024127532755342591 0 -0.0050927050887394285 0.027429169702885444 0 -0.0047601459068637103 0.028252917219083584 0 -0.0042850647065519904 0.027706509758691277 0 -0.0084646419209728121 0.017457966568988008 0 -0.0084155031699137788 0.017764305342446308 0 -0.0080119530728949683 0.018118733588367145 0 -0.008818816644747051 0.017877938806759183 0 -0.0085688165393490133 0.017820233942316691 0 -0.0083333416420270645 0.01803117608514318 0 -0.0085330143797958356 0.017571197526757017 0 -0.0084646419209728121 0.017457966568988008 0 -0.0084155031699137788 0.017764305342446308 0 -0.0085330143797958356 0.017571197526757017 0 -0.0084155031699137788 0.017764305342446308 0 -0.0085688165393490133 0.017820233942316691 0 -0.0085688165393490133 0.017820233942316691 0 -0.0084194119567284082 0.017893332605559604 0 -0.0083333416420270645 0.01803117608514318 0 -0.0084155031699137788 0.017764305342446308 0 -0.0085688165393490133 0.017820233942316691 0 -0.0084194119567284082 0.017893332605559604 0 -0.0084155031699137788 0.017764305342446308 0 -0.0083125369730996136 0.017990951249073822 0 -0.0080119530728949683 0.018118733588367145 0 -0.0084155031699137788 0.017764305342446308 0 -0.0084194119567284082 0.017893332605559604 0 -0.0083125369730996136 0.017990951249073822 0 -0.0087595806618510144 0.01926308782532064 0 -0.0095569856547231876 0.018886861457318882 0 -0.0078933654107778434 0.020944682395397363 0 -0.0073987337687083663 0.021029393554996011 0 -0.0081410398560019335 0.022014440799123139 0 -0.0089072306992089168 0.01779744266534727 0 -0.0090119718966129719 0.017867047711153976 0 -0.0089872203893474542 0.017735015333649694 0 -0.0084652116776338347 0.016837619513277082 0 -0.0087595806618510144 0.01926308782532064 0 -0.0087595806618510144 0.01926308782532064 0 -0.0086931770337070006 0.019005184605703766 0 -0.0084194119567284082 0.017893332605559604 0 -0.0083333416420270645 0.01803117608514318 0 -0.0083125369730996136 0.017990951249073822 0 -0.0050679310348404573 0.028848656289210742 0 -0.0053292720708790018 0.028803255782520045 0 -0.0044232508433522865 0.030750999583794486 0 -0.0047601459068637103 0.028252917219083584 0 -0.0050679310348404573 0.028848656289210742 0 -0.0043751832086998546 0.028762446505257482 0 -0.0056932665574596173 0.024621656611127776 0 -0.0061556913798033585 0.024127532755342591 0 -0.0047601459068637103 0.028252917219083584 0 -0.0050679310348404573 0.028848656289210742 0 -0.0053427406458343533 0.028805940186705598 0 -0.0083284452520590961 0.018065464514286384 0 -0.0083125369730996136 0.017990951249073822 0 -0.0080119530728949683 0.018118733588367145 0 -0.0087595806618510144 0.01926308782532064 0 -0.0061556913798033585 0.024127532755342591 0 -0.0050679310348404573 0.028848656289210742 0 -0.0041351375350015393 0.029401540613522546 0 -0.0044232508433522865 0.030750999583794486 0 -0.0038357953583167425 0.02890611384514007 0 -0.0031449211077106127 0.028209776186444498 0 -0.0040840441099160773 0.02839285425420961 0 -0.0038357953583167425 0.02890611384514007 0 -0.0033120910132366302 0.029230796063726378 0 -0.0031449211077106127 0.028209776186444498 0 -0.0038357953583167425 0.02890611384514007 0 -0.0043751832086998546 0.028762446505257482 0 -0.0040840441099160773 0.02839285425420961 0 -0.0050679310348404573 0.028848656289210742 0 -0.0043751832086998546 0.028762446505257482 0 -0.0041351375350015393 0.029401540613522546 0 -0.0047601459068637103 0.028252917219083584 0 -0.0043751832086998546 0.028762446505257482 0 -0.0040840441099160773 0.02839285425420961 0 -0.0038357953583167425 0.02890611384514007 0 -0.0043751832086998546 0.028762446505257482 0 -0.0041351375350015393 0.029401540613522546 0 -0.0038357953583167425 0.02890611384514007 0 -0.0041351375350015393 0.029401540613522546 0 -0.0033120910132366302 0.029230796063726378 0 -0.0041351375350015393 0.029401540613522546 0 -0.0033120910132366302 0.029230796063726378 0 -0.0034936280615152533 0.03000786621370885 0 -0.0033120910132366302 0.029230796063726378 0 -0.0026592351512263112 0.029814376166964172 0 -0.0034936280615152533 0.03000786621370885 0 -0.0033120910132366302 0.029230796063726378 0 -0.0023697971734129592 0.029024733893260386 0 -0.0026592351512263112 0.029814376166964172 0 -0.0023697971734129592 0.029024733893260386 0 -0.0017200141669009947 0.029839418398858855 0 -0.0026592351512263112 0.029814376166964172 0 -0.0033120910132366302 0.029230796063726378 0 -0.0023697971734129592 0.029024733893260386 0 -0.0031449211077106127 0.028209776186444498 0 -0.0031449211077106127 0.028209776186444498 0 -0.0031733445651821331 0.026856736750002181 0 -0.0011262288080753215 0.028045758696095928 0 -0.0023697971734129592 0.029024733893260386 0 -0.0031449211077106127 0.028209776186444498 0 -0.0011262288080753215 0.028045758696095928 0 -0.0015442377903289309 0.032120128592097875 0 0.00011725018564773769 0.035198558477912832 0 -0.0031449211077106127 0.028209776186444498 0 -0.0036083957679800714 0.027434823049673554 0 -0.0031733445651821331 0.026856736750002181 0 -0.0036083957679800714 0.027434823049673554 0 -0.0037779121015002106 0.027937212989974217 0 -0.0042850647065519904 0.027706509758691277 0 -0.0031449211077106127 0.028209776186444498 0 -0.0036083957679800714 0.027434823049673554 0 -0.0037779121015002106 0.027937212989974217 0 -0.0031449211077106127 0.028209776186444498 0 -0.0037779121015002106 0.027937212989974217 0 -0.0040840441099160773 0.02839285425420961 0 -0.0037779121015002106 0.027937212989974217 0 -0.0040840441099160773 0.02839285425420961 0 -0.0042850647065519904 0.027706509758691277 0 -0.0047601459068637103 0.028252917219083584 0 -0.0040840441099160773 0.02839285425420961 0 -0.0042850647065519904 0.027706509758691277 0 -0.0050927050887394285 0.027429169702885444 0 -0.0042850647065519904 0.027706509758691277 0 -0.0044553399509116385 0.026902474350042564 0 -0.0036083957679800714 0.027434823049673554 0 -0.0042850647065519904 0.027706509758691277 0 -0.0044553399509116385 0.026902474350042564 0 -0.0032607466724809604 0.026740210062956286 0 -0.0015442377903289309 0.032120128592097875 0 -0.0052520235030581045 0.025513994293984071 0 -0.0044553399509116385 0.026902474350042564 0 -0.0031190369815271442 0.02677289369404522 0 -0.0036083957679800714 0.027434823049673554 0 -0.0044553399509116385 0.026902474350042564 0 -0.0031190369815271442 0.02677289369404522 0 -0.0017325814595472539 0.028333127546989058 0 -0.0015442377903289309 0.032120128592097875 0 -0.0014519990595355983 0.028300201981942608 0 -0.00095057949914544872 0.028021039349058374 0 -0.00082203364439290038 0.028616474758038118 0 -0.00076010591183228054 0.027876651910654603 0 -0.00095057949914544872 0.028021039349058374 0 -0.00063241971422720467 0.028220702646633351 0 -0.00095057949914544872 0.028021039349058374 0 -0.00063241971422720467 0.028220702646633351 0 -0.00082203364439290038 0.028616474758038118 0 0.00075533934154531585 0.041742937413362366 0 0.00094298637864758783 0.041772708493320994 0 0.0009885691297076794 0.041940962238611934 0 0.00025624946690020617 0.03505582209093136 0 -0.0015442377903289309 0.032120128592097875 0 0.00094040736111615649 0.041580761367142276 0 0.00075533934154531585 0.041742937413362366 0 0.00094298637864758783 0.041772708493320994 0 0.00094040736111615649 0.041580761367142276 0 0.00094298637864758783 0.041772708493320994 0 0.0010445002983051322 0.041812085089655025 0 0.00094298637864758783 0.041772708493320994 0 0.0010445002983051322 0.041812085089655025 0 0.0009885691297076794 0.041940962238611934 0 0.0010849263565266632 0.041441543415636273 0 0.00094040736111615649 0.041580761367142276 0 0.0010445002983051322 0.041812085089655025 0 0.0011135578496992394 0.041748101753360724 0 0.0010849263565266632 0.041441543415636273 0 0.0010445002983051322 0.041812085089655025 0 0.0011135578496992394 0.041748101753360724 0 0.0010445002983051322 0.041812085089655025 0 0.0010689981608454696 0.042024405266358561 0 0.0010445002983051322 0.041812085089655025 0 0.0010588016320882394 0.041959041246425202 0 0.0010689981608454696 0.042024405266358561 0 0.0010445002983051322 0.041812085089655025 0 0.0010588016320882394 0.041959041246425202 0 0.0009885691297076794 0.041940962238611934 0 0.0010588016320882394 0.041959041246425202 0 0.0009885691297076794 0.041940962238611934 0 0.0010787194870669258 0.042032631007987216 0 0.0009885691297076794 0.041940962238611934 0 0.0010787194870669258 0.042032631007987216 0 0.0010883454534367297 0.042032529377944154 0 -0.0023697971734129592 0.029024733893260386 0 -0.0011262288080753215 0.028045758696095928 0 -0.0017200141669009947 0.029839418398858855 0 -0.0011262288080753215 0.028045758696095928 0 -0.00043530277452527306 0.029522960660802927 0 -0.0017200141669009947 0.029839418398858855 0 -0.00043530277452527306 0.029522960660802927 0 0.00012975630723372104 0.03097916974104143 0 0.00098589108477699274 0.029259282629294062 0 -0.0011262288080753215 0.028045758696095928 0 -0.00043530277452527306 0.029522960660802927 0 0.00098589108477699274 0.029259282629294062 0 0.00011725018564773769 0.035198558477912832 0 0.00064201870473903184 0.036631045685974022 0 0.0001153494575114506 0.033955597879199349 0 0.00064201870473903184 0.036631045685974022 0 -7.1951019012606976e-05 0.03078055812441801 0 -0.0017200141669009947 0.029839418398858855 0 -0.00026328414121001967 0.031160926161054661 0 -0.00043530277452527306 0.029522960660802927 0 0.00012975630723372104 0.03097916974104143 0 -0.0017200141669009947 0.029839418398858855 0 0.0001153494575114506 0.033955597879199349 0 -0.0012509184806099867 0.028877507775520495 0 0.0001153494575114506 0.033955597879199349 0 0.001603020716351712 0.034588630267680866 0 -0.0017200141669009947 0.029839418398858855 0 -0.00026328414121001967 0.031160926161054661 0 -0.0022716913304612887 0.030973495983317438 0 0.0001153494575114506 0.033955597879199349 0 -0.0019238377061864748 0.029122054522960041 0 -0.0044584324036233379 0.024230705789537437 0 -0.0046690094288330047 0.024516880137423723 0 -0.0048344036186546042 0.024369732515943498 0 -0.0012509184806099867 0.028877507775520495 0 -0.0033657008521621075 0.027848845860871708 0 -0.0044584324036233379 0.024230705789537437 0 -0.0048344036186546042 0.024369732515943498 0 -0.0048246609396429803 0.024152362652137629 0 -0.0012509184806099867 0.028877507775520495 0 -0.0021891371335136475 0.026987394702942938 0 0.00041802390773223173 0.030189027002580866 0 0.00010674270603736552 0.030037234082175318 0 -0.00014515902145485085 0.02943274636609975 0 0.00041802390773223173 0.030189027002580866 0 0.00067222264802873082 0.030123290630647802 0 0.0011854895634976458 0.029687578425508301 0 -0.0012509184806099867 0.028877507775520495 0 0.001603020716351712 0.034588630267680866 0 -0.00063486884098078102 0.031441423862914021 0 -0.0011441051270637693 0.03245963219616612 0 0.0016490331000149883 0.032729907251740381 0 0.00041802390773223173 0.030189027002580866 0 0.00067222264802873082 0.030123290630647802 0 0.00010674270603736552 0.030037234082175318 0 0.00067222264802873082 0.030123290630647802 0 0.00010674270603736552 0.030037234082175318 0 0.0012682384277422363 0.030954661302483439 0 0.00010674270603736552 0.030037234082175318 0 0.0003180450842400232 0.031574544771044565 0 0.0012682384277422363 0.030954661302483439 0 0.00010674270603736552 0.030037234082175318 0 0.0003180450842400232 0.031574544771044565 0 -0.00099342276118197584 0.032109900180615339 0 0.0003180450842400232 0.031574544771044565 0 0.00098203559034653731 0.032238336128395967 0 0.0012682384277422363 0.030954661302483439 0 0.0003180450842400232 0.031574544771044565 0 0.00098203559034653731 0.032238336128395967 0 -5.7048990826556381e-05 0.032586419820243212 0 0.0003180450842400232 0.031574544771044565 0 -5.7048990826556381e-05 0.032586419820243212 0 -0.00099342276118197584 0.032109900180615339 0 0.00098203559034653731 0.032238336128395967 0 -5.7048990826556381e-05 0.032586419820243212 0 0.00073789567372643306 0.033278986454190237 0 -0.00061645360410851743 0.030509819140342107 0 -0.0032272295318807711 0.027529028883043413 0 -0.0021891371335136475 0.026987394702942938 0 -0.0053078731042745216 0.0236693291616475 0 -0.00051885191020417827 0.028495766843097715 0 -0.00014515902145485085 0.02943274636609975 0 -0.00057221383693587793 0.02628157605761839 0 -5.7048990826556381e-05 0.032586419820243212 0 -0.00099342276118197584 0.032109900180615339 0 -0.0008685687702418202 0.033169960847187346 0 -4.6678590313451176e-06 0.029862559356597922 0 -0.00061645360410851743 0.030509819140342107 0 0.00010674270603736552 0.030037234082175318 0 -0.00051885191020417827 0.028495766843097715 0 -0.00014515902145485085 0.02943274636609975 0 -0.0048344036186546042 0.024369732515943498 0 -0.0049495106223169374 0.024570020286236498 0 -0.0050787077707011479 0.024343664012381108 0 -0.0046690094288330047 0.024516880137423723 0 -0.0048344036186546042 0.024369732515943498 0 -0.0049495106223169374 0.024570020286236498 0 -0.010249771084921902 0.017680697713804431 0 -0.010009185342225547 0.018367952840043049 0 -0.010664772352444105 0.01830303222043847 0 -0.010249771084921902 0.017680697713804431 0 -0.0094114527812660265 0.01850919563745836 0 -0.010009185342225547 0.018367952840043049 0 -0.0077794731226534467 0.02082279045041634 0 -0.0053078731042745216 0.0236693291616475 0 -0.0046690094288330047 0.024516880137423723 0 -0.0049495106223169374 0.024570020286236498 0 -0.0048470125175506772 0.024778120865816145 0 -0.010249771084921902 0.017680697713804431 0 -0.010834937293173958 0.017756306451023062 0 -0.010664772352444105 0.01830303222043847 0 -0.0077794731226534467 0.02082279045041634 0 -0.0080499826806157346 0.020438862087181611 0 -0.010834937293173958 0.017756306451023062 0 -0.010617853507330854 0.017517543847523746 0 -0.010922924219137787 0.01766150933688005 0 -0.010249771084921902 0.017680697713804431 0 -0.010834937293173958 0.017756306451023062 0 -0.010617853507330854 0.017517543847523746 0 -0.010617853507330854 0.017517543847523746 0 -0.010721968132710168 0.017497641603774334 0 -0.01079346461011467 0.017554194287609081 0 -0.0050787077707011479 0.024343664012381108 0 -0.0048246609396429803 0.024152362652137629 0 -0.0052111337672427777 0.024087934068754688 0 -0.0080499826806157346 0.020438862087181611 0 -0.0067121665919663157 0.023777817187049976 0 -0.0048344036186546042 0.024369732515943498 0 -0.0050787077707011479 0.024343664012381108 0 -0.0048246609396429803 0.024152362652137629 0 -0.0017200141669009947 0.029839418398858855 0 -0.0022716913304612887 0.030973495983317438 0 -0.0026592351512263112 0.029814376166964172 0 -0.0022716913304612887 0.030973495983317438 0 -0.0026592351512263112 0.029814376166964172 0 -0.0034936280615152533 0.03000786621370885 0 -0.0033657008521621075 0.027848845860871708 0 -0.0067121665919663157 0.023777817187049976 0 -0.0022716913304612887 0.030973495983317438 0 -0.0034936280615152533 0.03000786621370885 0 -0.0044232508433522865 0.030750999583794486 0 -0.0041351375350015393 0.029401540613522546 0 -0.0034936280615152533 0.03000786621370885 0 -0.0044232508433522865 0.030750999583794486 0 -0.0073987337687083663 0.021029393554996011 0 -0.0068898769935786062 0.022155160713975067 0 -0.0081410398560019335 0.022014440799123139 0 -0.0067121665919663157 0.023777817187049976 0 -0.0095569856547231876 0.018886861457318882 0 -0.010721968132710168 0.017497641603774334 0 -0.010902190679807796 0.017493916012536293 0 -0.010828194334499464 0.017538409676572379 0 -0.0061556913798033585 0.024127532755342591 0 -0.0067121665919663157 0.023777817187049976 0 -0.010902190679807796 0.017493916012536293 0 -0.010898360454642946 0.017566086478134822 0 -0.010828194334499464 0.017538409676572379 0 -0.010902190679807796 0.017493916012536293 0 -0.010898360454642946 0.017566086478134822 0 -0.010934010460556179 0.017586911778501461 0 -0.0095569856547231876 0.018886861457318882 0 -0.010286931615773348 0.017730078394120996 0 -0.010898360454642946 0.017566086478134822 0 -0.010934010460556179 0.017586911778501461 0 -0.010889667583539488 0.017617008472167794 0 -0.010898360454642946 0.017566086478134822 0 -0.010889667583539488 0.017617008472167794 0 -0.010828194334499464 0.017538409676572379 0 -0.010889667583539488 0.017617008472167794 0 -0.010828194334499464 0.017538409676572379 0 -0.01079346461011467 0.017554194287609081 0 -0.010721968132710168 0.017497641603774334 0 -0.010828194334499464 0.017538409676572379 0 -0.01079346461011467 0.017554194287609081 0 -0.010617853507330854 0.017517543847523746 0 -0.01079346461011467 0.017554194287609081 0 -0.010922924219137787 0.01766150933688005 0 -0.010889667583539488 0.017617008472167794 0 -0.01079346461011467 0.017554194287609081 0 -0.010922924219137787 0.01766150933688005 0 -0.010834937293173958 0.017756306451023062 0 -0.011051643469888538 0.017711578642370763 0 -0.011305229699078767 0.018216298896064589 0 -0.010834937293173958 0.017756306451023062 0 -0.010922924219137787 0.01766150933688005 0 -0.011051643469888538 0.017711578642370763 0 -0.011051643469888538 0.017711578642370763 0 -0.010984633334700932 0.017563087506455813 0 -0.010914044953123408 0.017743605494933128 0 -0.010984633334700932 0.017563087506455813 0 -0.010914044953123408 0.017743605494933128 0 -0.010602295895786068 0.01724258351556102 0 -0.010922924219137787 0.01766150933688005 0 -0.011051643469888538 0.017711578642370763 0 -0.010914044953123408 0.017743605494933128 0 -0.010286931615773348 0.017730078394120996 0 -0.010721969589401224 0.017572013957587528 0 -0.010889667583539488 0.017617008472167794 0 -0.010922924219137787 0.01766150933688005 0 -0.010914044953123408 0.017743605494933128 0 -0.010934010460556179 0.017586911778501461 0 -0.010889667583539488 0.017617008472167794 0 -0.010914044953123408 0.017743605494933128 0 -0.010497167244155919 0.017430860302308337 0 -0.010356516904864988 0.017684516323962944 0 -0.010138048153009839 0.017587921139207048 0 -0.010572896867119057 0.017851567228086174 0 -0.010497167244155919 0.017430860302308337 0 -0.010356516904864988 0.017684516323962944 0 -0.010497167244155919 0.017430860302308337 0 -0.01027790985728823 0.017313286076620159 0 -0.010138048153009839 0.017587921139207048 0 -0.010356516904864988 0.017684516323962944 0 -0.010138048153009839 0.017587921139207048 0 -0.010219728064537423 0.017867669113672827 0 -0.010721969589401224 0.017572013957587528 0 -0.010608838443011769 0.017247212021563669 0 -0.010497167244155919 0.017430860302308337 0 -0.01027790985728823 0.017313286076620159 0 -0.010602295895786068 0.01724258351556102 0 -0.01027790985728823 0.017313286076620159 0 -0.010115852286887521 0.017042021116644063 0 -0.010602295895786068 0.01724258351556102 0 -0.0097064494683008675 0.017033855116308678 0 -0.0099628508100682925 0.017350940249145661 0 -0.0096652639893371976 0.017556219075645321 0 -0.009328887540639496 0.018349408589627927 0 -0.0087776457683878331 0.013319455454419109 0 -0.0097064494683008675 0.017033855116308678 0 -0.010115852286887521 0.017042021116644063 0 -0.010003313789049572 0.016569090888312717 0 -0.0097064494683008675 0.017033855116308678 0 -0.010115852286887521 0.017042021116644063 0 -0.0099628508100682925 0.017350940249145661 0 -0.01027790985728823 0.017313286076620159 0 -0.010115852286887521 0.017042021116644063 0 -0.0099628508100682925 0.017350940249145661 0 -0.010138048153009839 0.017587921139207048 0 -0.0098480261393911576 0.017895538676562142 0 -0.0096652639893371976 0.017556219075645321 0 -0.0099628508100682925 0.017350940249145661 0 -0.010138048153009839 0.017587921139207048 0 -0.0096652639893371976 0.017556219075645321 0 -0.01027790985728823 0.017313286076620159 0 -0.0099628508100682925 0.017350940249145661 0 -0.010138048153009839 0.017587921139207048 0 -0.0098480261393911576 0.017895538676562142 0 -0.010065603309347025 0.018026986024758995 0 -0.010219728064537423 0.017867669113672827 0 -0.0087252020690066351 0.015582616967094278 0 -0.0087776457683878331 0.013319455454419109 0 -0.010138048153009839 0.017587921139207048 0 -0.0098480261393911576 0.017895538676562142 0 -0.010219728064537423 0.017867669113672827 0 -0.0098480261393911576 0.017895538676562142 0 -0.010065603309347025 0.018026986024758995 0 -0.0099895982861402371 0.01821883328151867 0 -0.010065603309347025 0.018026986024758995 0 -0.010219728064537423 0.017867669113672827 0 -0.010173763566113443 0.018208683130835845 0 -0.010572896867119057 0.017851567228086174 0 -0.010356516904864988 0.017684516323962944 0 -0.010219728064537423 0.017867669113672827 0 -0.010572896867119057 0.017851567228086174 0 -0.010219728064537423 0.017867669113672827 0 -0.010173763566113443 0.018208683130835845 0 -0.010286931615773348 0.017730078394120996 0 -0.0091724116851364078 0.017286685890300375 0 -0.0089072306992089168 0.01779744266534727 0 -0.0089872203893474542 0.017735015333649694 0 -0.0088654486316643976 0.017733264450269383 0 -0.0095569856547231876 0.018886861457318882 0 -0.0091724116851364078 0.017286685890300375 0 -0.0097802507848566197 0.018015354550119048 0 -0.0097315207643961441 0.017784910458091163 0 -0.0094582691269354691 0.018038524742364118 0 -0.0089072306992089168 0.01779744266534727 0 -0.0088654486316643976 0.017733264450269383 0 -0.0088276857168075665 0.01776325324028467 0 -0.0088400389413594016 0.016447691047197555 0 -0.0089034393963392505 0.01638288191427572 0 -0.0089247531873131516 0.016436766987344177 0 -0.0074170505450178031 0.012845884041928607 0 -0.0075041509688614262 0.01339408169745163 0 -0.0072354987606459151 0.013179512574068197 0 -0.0074170505450178031 0.012845884041928607 0 -0.0076450156125154158 0.0133859267136938 0 -0.0075041509688614262 0.01339408169745163 0 -0.0091724116851364078 0.017286685890300375 0 -0.0085629324720300336 0.015958031198560374 0 -0.0085629324720300336 0.015958031198560374 0 -0.0087666435018252473 0.015773460483687808 0 -0.0077354212314983233 0.013581191638742614 0 -0.0076562216103826424 0.013383812986318952 0 -0.0075041509688614262 0.01339408169745163 0 -0.0073037163541710155 0.013663835638952 0 -0.0077354212314983233 0.013581191638742614 0 -0.0075041509688614262 0.01339408169745163 0 -0.0073037163541710155 0.013663835638952 0 -0.0075041509688614262 0.01339408169745163 0 -0.0072673103585222049 0.013418941454436326 0 -0.0087666435018252473 0.015773460483687808 0 -0.0082915878205672283 0.015457011325047889 0 -0.0087252020690066351 0.015582616967094278 0 -0.0087666435018252473 0.015773460483687808 0 -0.0075041509688614262 0.01339408169745163 0 -0.0072354987606459151 0.013179512574068197 0 -0.0072673103585222049 0.013418941454436326 0 -0.0091724116851364078 0.017286685890300375 0 -0.0087666435018252473 0.015773460483687808 0 -0.010065603309347025 0.018026986024758995 0 -0.010173763566113443 0.018208683130835845 0 -0.0099895982861402371 0.01821883328151867 0 0.0007827275736650871 0.042471205833345717 0 0.00076504864870777689 0.042399259393718997 0 0.00076656039158471637 0.042522567244135188 0 0.00089651777242050646 0.042490192187840614 0 0.00083204849189563517 0.042471458502948284 0 0.00089555692020215378 0.042401352018241162 0 0.0007827275736650871 0.042471205833345717 0 0.00089651777242050646 0.042490192187840614 0 0.00083204849189563517 0.042471458502948284 0 0.0007827275736650871 0.042471205833345717 0 0.00076656039158471637 0.042522567244135188 0 0.00089651777242050646 0.042490192187840614 0 0.0007827275736650871 0.042471205833345717 0 0.00083204849189563517 0.042471458502948284 0 0.00073995637549618986 0.042602010523893792 0 0.00083204849189563517 0.042471458502948284 0 0.00073995637549618986 0.042602010523893792 0 0.00079173410304173692 0.042582177356995883 0 0.00048290020010090419 0.043679619055314485 0 0.00070791307942533622 0.043019048171522259 0 0.00076504864870777689 0.042399259393718997 0 0.00073995637549618986 0.042602010523893792 0 0.0007344402821849405 0.042985993603962644 0 0.00023565734320371969 0.045017150430338042 0 0.00016596400211593438 0.044311812335147645 0 0.0007344402821849405 0.042985993603962644 0 0.0007827275736650871 0.042471205833345717 0 0.00076504864870777689 0.042399259393718997 0 0.00073995637549618986 0.042602010523893792 0 0.00023565734320371969 0.045017150430338042 0 0.00016596400211593438 0.044311812335147645 0 -9.0227004136420727e-06 0.044881970405594461 0 0.00016596400211593438 0.044311812335147645 0 -9.0227004136420727e-06 0.044881970405594461 0 4.8548916185905289e-05 0.044765794494748143 0 -5.9565751455313087e-08 0.044999621328029871 0 -9.0227004136420727e-06 0.044881970405594461 0 4.8548916185905289e-05 0.044765794494748143 0 -5.9565751455313087e-08 0.044999621328029871 0 -9.0227004136420727e-06 0.044881970405594461 0 1.7726363450987902e-08 0.04500004071960375 0 -9.0227004136420727e-06 0.044881970405594461 0 4.8025124741542191e-05 0.044998445651180899 0 1.7726363450987902e-08 0.04500004071960375 0 0.00023565734320371969 0.045017150430338042 0 -9.0227004136420727e-06 0.044881970405594461 0 4.8025124741542191e-05 0.044998445651180899 0 0.00023565734320371969 0.045017150430338042 0 1.8362667232603805e-05 0.044981333574782921 0 4.8025124741542191e-05 0.044998445651180899 0 1.8362667232603805e-05 0.044981333574782921 0 4.8025124741542191e-05 0.044998445651180899 0 5.7766575422283778e-05 0.044929167991272598 0 4.8025124741542191e-05 0.044998445651180899 0 1.7726363450987902e-08 0.04500004071960375 0 5.7766575422283778e-05 0.044929167991272598 0 9.6231222972574673e-08 0.044999780802792211 0 1.7726363450987902e-08 0.04500004071960375 0 5.7766575422283778e-05 0.044929167991272598 0 6.6560864380472688e-05 0.044691879956608387 0 1.8362667232603805e-05 0.044981333574782921 0 5.7766575422283778e-05 0.044929167991272598 0 5.802068885197003e-05 0.044631456604255167 0 0.00015371309496765918 0.043987156184085274 0 0.0007289400106646472 0.044579563490294266 0 6.6560864380472688e-05 0.044691879956608387 0 0.00021909055270492099 0.042908438295165982 0 0.0007289400106646472 0.044579563490294266 0 0.00021909055270492099 0.042908438295165982 0 0.0010388423652030829 0.042662459715464583 0 0.00098355032518841843 0.043317630217538948 0 0.0010096662525698227 0.042781573314126416 0 0.00076656039158471637 0.042522567244135188 0 0.00021909055270492099 0.042908438295165982 0 0.0010388423652030829 0.042662459715464583 0 0.00048290020010090419 0.043679619055314485 0 0.00015371309496765918 0.043987156184085274 0 0.00076504864870777689 0.042399259393718997 0 0.00076656039158471637 0.042522567244135188 0 0.00021909055270492099 0.042908438295165982 0 0.00089651777242050646 0.042490192187840614 0 0.0010388423652030829 0.042662459715464583 0 0.00094564531696769206 0.042484786800801186 0 0.00076656039158471637 0.042522567244135188 0 0.00089651777242050646 0.042490192187840614 0 0.0010388423652030829 0.042662459715464583 0 0.0010388423652030829 0.042662459715464583 0 0.00096515931407727856 0.042381945137147492 0 0.00094564531696769206 0.042484786800801186 0 0.0010830260206706704 0.04231186929962396 0 0.0010388423652030829 0.042662459715464583 0 0.00096515931407727856 0.042381945137147492 0 0.00093677856001293715 0.042285677077729032 0 0.00096515931407727856 0.042381945137147492 0 0.00093107676885902687 0.042351316982635882 0 0.00096515931407727856 0.042381945137147492 0 0.00093107676885902687 0.042351316982635882 0 0.00094564531696769206 0.042484786800801186 0 0.00093677856001293715 0.042285677077729032 0 0.00093107676885902687 0.042351316982635882 0 0.0009406039731889702 0.042256866934376074 0 0.00093107676885902687 0.042351316982635882 0 0.0009406039731889702 0.042256866934376074 0 0.00092466160250334573 0.042337013009141139 0 0.0009406039731889702 0.042256866934376074 0 0.00092466160250334573 0.042337013009141139 0 0.00097163225248930382 0.042202056319959116 0 0.00092466160250334573 0.042337013009141139 0 0.00097163225248930382 0.042202056319959116 0 0.00091157894157336465 0.042255497751278084 0 0.00092466160250334573 0.042337013009141139 0 0.00094564531696769206 0.042484786800801186 0 0.00089555692020215378 0.042401352018241162 0 0.00089651777242050646 0.042490192187840614 0 0.00094564531696769206 0.042484786800801186 0 0.00089555692020215378 0.042401352018241162 0 0.00093107676885902687 0.042351316982635882 0 0.00092466160250334573 0.042337013009141139 0 0.00094564531696769206 0.042484786800801186 0 0.001536976419499626 0.042415184134776844 0 0.0008224217015459363 0.041901964578366292 0 0.0011135578496992394 0.041748101753360724 0 0.0010259714799028079 0.042092598213498457 0 0.0010689981608454696 0.042024405266358561 0 0.0009406039731889702 0.042256866934376074 0 0.0010259714799028079 0.042092598213498457 0 0.00097163225248930382 0.042202056319959116 0 0.0009450506916652971 0.042227868759560229 0 0.0009406039731889702 0.042256866934376074 0 0.0010259714799028079 0.042092598213498457 0 0.00097163225248930382 0.042202056319959116 0 0.0010689981608454696 0.042024405266358561 0 0.0010170712571702901 0.042138302422554993 0 0.0010259714799028079 0.042092598213498457 0 0.00097163225248930382 0.042202056319959116 0 0.0010689981608454696 0.042024405266358561 0 0.0010588016320882394 0.041959041246425202 0 0.0010689981608454696 0.042024405266358561 0 0.0010787194870669258 0.042032631007987216 0 0.0010689981608454696 0.042024405266358561 0 0.0010787194870669258 0.042032631007987216 0 0.0010170712571702901 0.042138302422554993 0 0.0010787194870669258 0.042032631007987216 0 0.0010450507386625466 0.042110185596147778 0 0.0010927543609542932 0.042047748741372813 0 0.0010787194870669258 0.042032631007987216 0 0.0010170712571702901 0.042138302422554993 0 0.0010450507386625466 0.042110185596147778 0 0.0010170712571702901 0.042138302422554993 0 0.0010450507386625466 0.042110185596147778 0 0.00091157894157336465 0.042255497751278084 0 0.0010450507386625466 0.042110185596147778 0 0.00091157894157336465 0.042255497751278084 0 0.00083265688732884634 0.042213588338419136 0 0.00097163225248930382 0.042202056319959116 0 0.0010170712571702901 0.042138302422554993 0 0.00091157894157336465 0.042255497751278084 0 0.0010450507386625466 0.042110185596147778 0 0.0011363240120778385 0.04194122070210194 0 0.00083265688732884634 0.042213588338419136 0 0.0010450507386625466 0.042110185596147778 0 0.0010927543609542932 0.042047748741372813 0 0.0011363240120778385 0.04194122070210194 0 0.0011363240120778385 0.04194122070210194 0 0.0014594325098527421 0.042061712913896168 0 0.0013917042511745322 0.041668488537138372 0 0.0010927543609542932 0.042047748741372813 0 0.0011363240120778385 0.04194122070210194 0 0.0010883454534367297 0.042032529377944154 0 0.0022236194083850198 0.041402197934620424 0 0.00064201870473903184 0.036631045685974022 0 0.0010787194870669258 0.042032631007987216 0 0.0010927543609542932 0.042047748741372813 0 0.0010883454534367297 0.042032529377944154 0 0.00083204849189563517 0.042471458502948284 0 0.00089555692020215378 0.042401352018241162 0 0.00087789480047224886 0.042334786223796189 0 0.00092466160250334573 0.042337013009141139 0 0.00089555692020215378 0.042401352018241162 0 0.00091157894157336465 0.042255497751278084 0 0.00089555692020215378 0.042401352018241162 0 0.00091157894157336465 0.042255497751278084 0 0.00087789480047224886 0.042334786223796189 0 0.00091157894157336465 0.042255497751278084 0 0.00083265688732884634 0.042213588338419136 0 0.00087789480047224886 0.042334786223796189 0 0.00083265688732884634 0.042213588338419136 0 0.00087741843745759069 0.042400918510390406 0 0.00087789480047224886 0.042334786223796189 0 0.00083204849189563517 0.042471458502948284 0 0.00087741843745759069 0.042400918510390406 0 0.00079173410304173692 0.042582177356995883 0 0.00083204849189563517 0.042471458502948284 0 0.00087741843745759069 0.042400918510390406 0 0.00087789480047224886 0.042334786223796189 0 0.00087741843745759069 0.042400918510390406 0 0.00085358894460777423 0.042450816368345357 0 0.00090009365915355523 0.042411486822680144 0 0.00087741843745759069 0.042400918510390406 0 0.00085358894460777423 0.042450816368345357 0 0.00079173410304173692 0.042582177356995883 0 0.00083265688732884634 0.042213588338419136 0 0.00087741843745759069 0.042400918510390406 0 0.00090009365915355523 0.042411486822680144 0 0.00081356527051961987 0.04197057780920839 0 0.00077422276389395761 0.042493127665271406 0 0.00077422276389395761 0.042493127665271406 0 0.001042157190968945 0.038986217954027798 0 0.00063998940130442425 0.04151815190456664 0 0.001046332506446301 0.041107069037255049 0 0.00059577524517072551 0.040833622702656523 0 0.00090009365915355523 0.042411486822680144 0 0.00087892599898900753 0.042338964583721161 0 0.00098000987214647071 0.042239372830168362 0 0.00085358894460777423 0.042450816368345357 0 0.00090009365915355523 0.042411486822680144 0 0.00087892599898900753 0.042338964583721161 0 0.00087892599898900753 0.042338964583721161 0 0.00080893715914625523 0.042273439563518027 0 0.00081945536177884502 0.042401367509793265 0 0.00085358894460777423 0.042450816368345357 0 0.00087892599898900753 0.042338964583721161 0 0.00081945536177884502 0.042401367509793265 0 0.0017331194625460435 0.041477052589028944 0 0.0014594325098527421 0.042061712913896168 0 0.0013917042511745322 0.041668488537138372 0 0.0017331194625460435 0.041477052589028944 0 0.0014463792837419429 0.041453262706948532 0 0.0013917042511745322 0.041668488537138372 0 0.0017331194625460435 0.041477052589028944 0 0.0014463792837419429 0.041453262706948532 0 0.0014405665502652202 0.041343040553793078 0 0.0011363240120778385 0.04194122070210194 0 0.0013917042511745322 0.041668488537138372 0 0.0010493856788303237 0.041621706615183253 0 0.0014463792837419429 0.041453262706948532 0 0.0013917042511745322 0.041668488537138372 0 0.0012560743105791035 0.041436205739944901 0 0.0013917042511745322 0.041668488537138372 0 0.0010493856788303237 0.041621706615183253 0 0.0012560743105791035 0.041436205739944901 0 0.0011363240120778385 0.04194122070210194 0 0.00083265688732884634 0.042213588338419136 0 0.0010493856788303237 0.041621706615183253 0 0.00083265688732884634 0.042213588338419136 0 0.00063998940130442425 0.04151815190456664 0 0.0010493856788303237 0.041621706615183253 0 0.0010493856788303237 0.041621706615183253 0 0.001046332506446301 0.041107069037255049 0 0.0012560743105791035 0.041436205739944901 0 0.00063998940130442425 0.04151815190456664 0 0.0010493856788303237 0.041621706615183253 0 0.001046332506446301 0.041107069037255049 0 0.0026039135917373863 0.030208621218666739 0 0.0014244536088033923 0.030235389742476242 0 0.0011854895634976458 0.029687578425508301 0 0.001810110249619336 0.035635648117588195 0 0.001603020716351712 0.034588630267680866 0 0.001046332506446301 0.041107069037255049 0 0.0012560743105791035 0.041436205739944901 0 0.0014405665502652202 0.041343040553793078 0 0.0026039135917373863 0.030208621218666739 0 0.0014244536088033923 0.030235389742476242 0 0.0012682384277422363 0.030954661302483439 0 0.00067222264802873082 0.030123290630647802 0 0.0014244536088033923 0.030235389742476242 0 0.0012682384277422363 0.030954661302483439 0 0.00067222264802873082 0.030123290630647802 0 0.0014244536088033923 0.030235389742476242 0 0.0011854895634976458 0.029687578425508301 0 0.0014463792837419429 0.041453262706948532 0 0.0012560743105791035 0.041436205739944901 0 0.0014405665502652202 0.041343040553793078 0 0.0026039135917373863 0.030208621218666739 0 0.0012682384277422363 0.030954661302483439 0 0.0026877717569412977 0.031651945961472278 0 0.0012682384277422363 0.030954661302483439 0 0.0026877717569412977 0.031651945961472278 0 0.0018209439983762996 0.031988775540329632 0 0.001810110249619336 0.035635648117588195 0 0.001042157190968945 0.038986217954027798 0 0.0026039135917373863 0.030208621218666739 0 0.0026877717569412977 0.031651945961472278 0 0.0040074794394553684 0.031007604315585947 0 0.0026877717569412977 0.031651945961472278 0 0.0023455584812630565 0.033100590235192219 0 0.004140548330938615 0.03280660470764981 0 0.0026877717569412977 0.031651945961472278 0 0.0023455584812630565 0.033100590235192219 0 0.0018209439983762996 0.031988775540329632 0 0.00098203559034653731 0.032238336128395967 0 0.0023455584812630565 0.033100590235192219 0 0.0018209439983762996 0.031988775540329632 0 0.00098203559034653731 0.032238336128395967 0 0.0023455584812630565 0.033100590235192219 0 0.00073789567372643306 0.033278986454190237 0 0.00098203559034653731 0.032238336128395967 0 0.0012682384277422363 0.030954661302483439 0 0.0018209439983762996 0.031988775540329632 0 0.00087364386884404902 0.042131124873192087 0 0.00080893715914625523 0.042273439563518027 0 0.00075271589532909325 0.04216550601019857 0 0.00087892599898900753 0.042338964583721161 0 0.00087364386884404902 0.042131124873192087 0 0.00080893715914625523 0.042273439563518027 0 0.001042157190968945 0.038986217954027798 0 0.0025966271853506686 0.036971174205710264 0 0.00087892599898900753 0.042338964583721161 0 0.00087364386884404902 0.042131124873192087 0 0.00098000987214647071 0.042239372830168362 0 0.00087364386884404902 0.042131124873192087 0 0.00088668603700368758 0.042032522110193579 0 0.00090229700253560241 0.042022363639526043 0 0.0026877717569412977 0.031651945961472278 0 0.0040074794394553684 0.031007604315585947 0 0.004140548330938615 0.03280660470764981 0 0.0013748556019634807 0.042058186930373095 0 0.001042157190968945 0.038986217954027798 0 0.00087364386884404902 0.042131124873192087 0 0.00082145030817609428 0.042090272597595409 0 0.00075271589532909325 0.04216550601019857 0 0.00090229700253560241 0.042022363639526043 0 0.00082145030817609428 0.042090272597595409 0 0.00081044588578286982 0.042033906648427793 0 0.00087364386884404902 0.042131124873192087 0 0.00090229700253560241 0.042022363639526043 0 0.00082145030817609428 0.042090272597595409 0 0.00082145030817609428 0.042090272597595409 0 0.00075065341992825644 0.042088300030158655 0 0.00081044588578286982 0.042033906648427793 0 0.00075065341992825644 0.042088300030158655 0 0.00065829919311567709 0.042099742353126135 0 0.00071445837949196168 0.042054260897329249 0 0.00075065341992825644 0.042088300030158655 0 0.00065829919311567709 0.042099742353126135 0 0.00075271589532909325 0.04216550601019857 0 0.00065829919311567709 0.042099742353126135 0 0.00064146421302570223 0.04217807006534751 0 0.00075271589532909325 0.04216550601019857 0 0.00082145030817609428 0.042090272597595409 0 0.00075065341992825644 0.042088300030158655 0 0.00075271589532909325 0.04216550601019857 0 0.00060283980698339805 0.042095175636316033 0 0.00065829919311567709 0.042099742353126135 0 0.00056077335213910193 0.042134165922865972 0 0.00065829919311567709 0.042099742353126135 0 0.00064146421302570223 0.04217807006534751 0 0.00056077335213910193 0.042134165922865972 0 0.00052639007274854987 0.042245050168843078 0 0.00064146421302570223 0.04217807006534751 0 0.00056077335213910193 0.042134165922865972 0 0.00052639007274854987 0.042245050168843078 0 0.00064146421302570223 0.04217807006534751 0 0.00072787546021119663 0.042314795265279037 0 0.00064146421302570223 0.04217807006534751 0 0.00075271589532909325 0.04216550601019857 0 0.00072787546021119663 0.042314795265279037 0 0.00080893715914625523 0.042273439563518027 0 0.00075271589532909325 0.04216550601019857 0 0.00072787546021119663 0.042314795265279037 0 0.00085358894460777423 0.042450816368345357 0 0.00081945536177884502 0.042401367509793265 0 0.00079457344822419617 0.042552430149625661 0 0.00080893715914625523 0.042273439563518027 0 0.00081945536177884502 0.042401367509793265 0 0.00072787546021119663 0.042314795265279037 0 0.00081945536177884502 0.042401367509793265 0 0.00072787546021119663 0.042314795265279037 0 0.00079457344822419617 0.042552430149625661 0 0.00052639007274854987 0.042245050168843078 0 0.00063726818384460813 0.04245372978494609 0 0.0002211547247818377 0.042420391040896961 0 0.00052639007274854987 0.042245050168843078 0 0.00072787546021119663 0.042314795265279037 0 0.00063726818384460813 0.04245372978494609 0 0.00072787546021119663 0.042314795265279037 0 0.00063726818384460813 0.04245372978494609 0 0.00079457344822419617 0.042552430149625661 0 0.00063726818384460813 0.04245372978494609 0 0.0007344402821849405 0.042985993603962644 0 0.00079457344822419617 0.042552430149625661 0 0.00073995637549618986 0.042602010523893792 0 0.0007344402821849405 0.042985993603962644 0 0.00079173410304173692 0.042582177356995883 0 0.00063726818384460813 0.04245372978494609 0 0.0007344402821849405 0.042985993603962644 0 0.0002211547247818377 0.042420391040896961 0 0.00085358894460777423 0.042450816368345357 0 0.00079173410304173692 0.042582177356995883 0 0.00079457344822419617 0.042552430149625661 0 0.0007344402821849405 0.042985993603962644 0 0.00079173410304173692 0.042582177356995883 0 0.00079457344822419617 0.042552430149625661 0 4.8548916185905289e-05 0.044765794494748143 0 -3.3977590985820743e-05 0.044931321912320306 0 1.275415122175544e-07 0.044999827848481 0 -5.9565751455313087e-08 0.044999621328029871 0 4.8548916185905289e-05 0.044765794494748143 0 1.275415122175544e-07 0.044999827848481 0 0.00016596400211593438 0.044311812335147645 0 0.0007344402821849405 0.042985993603962644 0 0.0002211547247818377 0.042420391040896961 0 0.00018478043898798805 0.044304998870944176 0 0.00011410532417753226 0.043753468593307338 0 0.00016596400211593438 0.044311812335147645 0 4.8548916185905289e-05 0.044765794494748143 0 -3.3977590985820743e-05 0.044931321912320306 0 0.00011410532417753226 0.043753468593307338 0 0.00021332040286333234 0.043467574200204091 0 -3.3977590985820743e-05 0.044931321912320306 0 -9.2136606136540438e-06 0.044978087186630621 0 -1.1599727873848751e-05 0.044997104049078231 0 -3.3977590985820743e-05 0.044931321912320306 0 -9.2136606136540438e-06 0.044978087186630621 0 1.275415122175544e-07 0.044999827848481 0 -9.2136606136540438e-06 0.044978087186630621 0 1.275415122175544e-07 0.044999827848481 0 -3.9056413458605659e-08 0.045000023297215024 0 -9.2136606136540438e-06 0.044978087186630621 0 -3.9056413458605659e-08 0.045000023297215024 0 -1.1599727873848751e-05 0.044997104049078231 0 0.00052639007274854987 0.042245050168843078 0 0.0002211547247818377 0.042420391040896961 0 0.000454808328334581 0.042173059947860983 0 0.00052639007274854987 0.042245050168843078 0 0.000454808328334581 0.042173059947860983 0 0.00056077335213910193 0.042134165922865972 0 0.000454808328334581 0.042173059947860983 0 0.00056077335213910193 0.042134165922865972 0 0.00054125040257464176 0.042114209768677691 0 0.00056077335213910193 0.042134165922865972 0 0.00054125040257464176 0.042114209768677691 0 0.00057003958945996244 0.042101347930628683 0 0.00060283980698339805 0.042095175636316033 0 0.00056077335213910193 0.042134165922865972 0 0.00057003958945996244 0.042101347930628683 0 -3.9056413458605659e-08 0.045000023297215024 0 -1.1599727873848751e-05 0.044997104049078231 0 -2.0683961425071582e-06 0.04499831856262361 0 -3.9056413458605659e-08 0.045000023297215024 0 -2.0683961425071582e-06 0.04499831856262361 0 8.9354497501443568e-09 0.044999980533536529 0 -1.1599727873848751e-05 0.044997104049078231 0 -2.0683961425071582e-06 0.04499831856262361 0 2.2076633441717292e-06 0.044994994406515179 0 0.000454808328334581 0.042173059947860983 0 0.00054125040257464176 0.042114209768677691 0 0.00058988748629625726 0.042081521634706305 0 0.00021332040286333234 0.043467574200204091 0 0.00020724804343373094 0.044115503717140521 0 -2.0683961425071582e-06 0.04499831856262361 0 8.9354497501443568e-09 0.044999980533536529 0 -2.4164623630760346e-07 0.044997178206276918 0 -2.0683961425071582e-06 0.04499831856262361 0 -2.4164623630760346e-07 0.044997178206276918 0 2.2076633441717292e-06 0.044994994406515179 0 8.9354497501443568e-09 0.044999980533536529 0 -2.4164623630760346e-07 0.044997178206276918 0 -9.7563373392800599e-08 0.044997811067270924 0 1.5036984137930833e-06 0.044668682929087454 0 0.00020724804343373094 0.044115503717140521 0 0.00058988748629625726 0.042081521634706305 0 0.00058346258130552713 0.042090076944740741 0 0.00062514794486976635 0.042103188258136685 0 0.00054125040257464176 0.042114209768677691 0 0.00058988748629625726 0.042081521634706305 0 0.00058346258130552713 0.042090076944740741 0 0.00054125040257464176 0.042114209768677691 0 0.00057003958945996244 0.042101347930628683 0 0.00058346258130552713 0.042090076944740741 0 0.00058346258130552713 0.042090076944740741 0 0.00058448710947604646 0.042088860614264791 0 0.00059623899013426019 0.042090054585332104 0 0.00060283980698339805 0.042095175636316033 0 0.00057003958945996244 0.042101347930628683 0 0.00058448710947604646 0.042088860614264791 0 0.00057003958945996244 0.042101347930628683 0 0.00058346258130552713 0.042090076944740741 0 0.00058448710947604646 0.042088860614264791 0 0.00058448710947604646 0.042088860614264791 0 0.00059623899013426019 0.042090054585332104 0 0.000585632913657532 0.042090659349393912 0 0.00059623899013426019 0.042090054585332104 0 0.000585632913657532 0.042090659349393912 0 0.00062514794486976635 0.042103188258136685 0 0.00058346258130552713 0.042090076944740741 0 0.00059623899013426019 0.042090054585332104 0 0.00062514794486976635 0.042103188258136685 0 0.00062514794486976635 0.042103188258136685 0 0.00055802778101634459 0.042121742992996071 0 0.00075911140318561427 0.042218928260520511 0 0.00058988748629625726 0.042081521634706305 0 0.00062514794486976635 0.042103188258136685 0 0.00075911140318561427 0.042218928260520511 0 0.000585632913657532 0.042090659349393912 0 0.00062514794486976635 0.042103188258136685 0 0.00055802778101634459 0.042121742992996071 0 8.9354497501443568e-09 0.044999980533536529 0 -9.7563373392800599e-08 0.044997811067270924 0 -3.3812509263095882e-09 0.045000004942968859 0 0.00020724804343373094 0.044115503717140521 0 1.534254566044114e-07 0.045001342834940256 0 0.00020724804343373094 0.044115503717140521 0 0.0004396561293465238 0.043521941562763518 0 3.0632880911428391e-05 0.045042544262838907 0 5.5321429988762133e-05 0.045018164276291843 0 7.457423709740764e-08 0.045000156556162484 0 0.00071445837949196168 0.042054260897329249 0 0.00062856693279989787 0.042058578572408467 0 0.00077611790157935902 0.041976554288737818 0 0.00065829919311567709 0.042099742353126135 0 0.00071445837949196168 0.042054260897329249 0 0.00062856693279989787 0.042058578572408467 0 0.00075065341992825644 0.042088300030158655 0 0.00071445837949196168 0.042054260897329249 0 0.00081044588578286982 0.042033906648427793 0 0.00060283980698339805 0.042095175636316033 0 0.00065829919311567709 0.042099742353126135 0 0.00062856693279989787 0.042058578572408467 0 0.00060283980698339805 0.042095175636316033 0 0.00058448710947604646 0.042088860614264791 0 0.00062856693279989787 0.042058578572408467 0 0.00058448710947604646 0.042088860614264791 0 0.000585632913657532 0.042090659349393912 0 0.00062856693279989787 0.042058578572408467 0 0.00067527646529128298 0.042020625202525218 0 1.7135429415460497e-05 0.042436023228719665 0 0.00055802778101634459 0.042121742992996071 0 0.00062856693279989787 0.042058578572408467 0 0.00071466885066395422 0.041910275932322216 0 0.000585632913657532 0.042090659349393912 0 0.00055802778101634459 0.042121742992996071 0 0.00062856693279989787 0.042058578572408467 0 0.00062856693279989787 0.042058578572408467 0 0.00071466885066395422 0.041910275932322216 0 0.00077611790157935902 0.041976554288737818 0 -0.00018280294032059261 0.042361568785792857 0 0.00033758514348557211 0.042545304619929399 0 -0.00019288330416205744 0.043076074798422695 0 0.00055802778101634459 0.042121742992996071 0 -0.00018280294032059261 0.042361568785792857 0 0.00033758514348557211 0.042545304619929399 0 0.00033758514348557211 0.042545304619929399 0 -0.00019288330416205744 0.043076074798422695 0 0.00063439864467444555 0.042932947654377593 0 -0.00019288330416205744 0.043076074798422695 0 0.00063439864467444555 0.042932947654377593 0 0.0002429989077258565 0.04399564448526759 0 2.7405581781170524e-05 0.044961687502369889 0 7.457423709740764e-08 0.045000156556162484 0 -6.9762338274489876e-08 0.044999631888518708 0 5.5321429988762133e-05 0.045018164276291843 0 2.7405581781170524e-05 0.044961687502369889 0 7.457423709740764e-08 0.045000156556162484 0 0.00055802778101634459 0.042121742992996071 0 0.00075911140318561427 0.042218928260520511 0 0.00033758514348557211 0.042545304619929399 0 5.5321429988762133e-05 0.045018164276291843 0 2.7405581781170524e-05 0.044961687502369889 0 0.00018171560812697563 0.044866485709785464 0 0.0004396561293465238 0.043521941562763518 0 0.00037103784371707852 0.043922528582996521 0 0.00075911140318561427 0.042218928260520511 0 0.00033758514348557211 0.042545304619929399 0 0.00063439864467444555 0.042932947654377593 0 2.7405581781170524e-05 0.044961687502369889 0 0.00018171560812697563 0.044866485709785464 0 3.4825263790305435e-05 0.044670886713876742 0 2.7405581781170524e-05 0.044961687502369889 0 -6.9762338274489876e-08 0.044999631888518708 0 3.4825263790305435e-05 0.044670886713876742 0 -6.9762338274489876e-08 0.044999631888518708 0 3.5708747709498554e-08 0.044999442077463606 0 3.4825263790305435e-05 0.044670886713876742 0 3.5708747709498554e-08 0.044999442077463606 0 3.4825263790305435e-05 0.044670886713876742 0 0.00010089275659079717 0.044494795577685174 0 3.4825263790305435e-05 0.044670886713876742 0 0.0002429989077258565 0.04399564448526759 0 0.00010089275659079717 0.044494795577685174 0 0.00018171560812697563 0.044866485709785464 0 3.4825263790305435e-05 0.044670886713876742 0 0.0002429989077258565 0.04399564448526759 0 0.00037103784371707852 0.043922528582996521 0 0.00026518352413483709 0.044010851402026624 0 -0.00019288330416205744 0.043076074798422695 0 0.0002429989077258565 0.04399564448526759 0 -0.00017727645808223155 0.043573299340742014 0 0.0002429989077258565 0.04399564448526759 0 5.327101344434248e-05 0.044014566123905169 0 -0.00017727645808223155 0.043573299340742014 0 0.0002429989077258565 0.04399564448526759 0 5.327101344434248e-05 0.044014566123905169 0 0.00010089275659079717 0.044494795577685174 0 5.327101344434248e-05 0.044014566123905169 0 4.3622352668900827e-05 0.044284854963464307 0 0.00010089275659079717 0.044494795577685174 0 5.327101344434248e-05 0.044014566123905169 0 4.3622352668900827e-05 0.044284854963464307 0 -0.00017151898766757219 0.043851959607510774 0 5.327101344434248e-05 0.044014566123905169 0 -0.00017151898766757219 0.043851959607510774 0 -0.00017727645808223155 0.043573299340742014 0 4.3622352668900827e-05 0.044284854963464307 0 -6.9019068977393781e-05 0.04420598066440528 0 -0.00017151898766757219 0.043851959607510774 0 -6.9019068977393781e-05 0.04420598066440528 0 -0.00017151898766757219 0.043851959607510774 0 -0.00021208069924663568 0.044109161422067562 0 4.3622352668900827e-05 0.044284854963464307 0 -6.9019068977393781e-05 0.04420598066440528 0 1.7718062931922296e-05 0.044435670892273453 0 4.3622352668900827e-05 0.044284854963464307 0 1.7718062931922296e-05 0.044435670892273453 0 6.0380668897188264e-05 0.044682972219944495 0 6.0380668897188264e-05 0.044682972219944495 0 9.206516628885563e-08 0.044999501522352867 0 5.0737191875152546e-08 0.044999744544465592 0 3.5708747709498554e-08 0.044999442077463606 0 9.206516628885563e-08 0.044999501522352867 0 0.00010089275659079717 0.044494795577685174 0 6.0380668897188264e-05 0.044682972219944495 0 9.206516628885563e-08 0.044999501522352867 0 0.00010089275659079717 0.044494795577685174 0 4.3622352668900827e-05 0.044284854963464307 0 6.0380668897188264e-05 0.044682972219944495 0 0.00010089275659079717 0.044494795577685174 0 -0.001334425872461406 0.043493744089257651 0 -0.00082845376760194256 0.043511371175173841 0 -0.00077166402831925257 0.042962795626141137 0 -0.00082845376760194256 0.043511371175173841 0 -0.0004848436936328437 0.043514406777381331 0 -0.00077166402831925257 0.042962795626141137 0 -0.001334425872461406 0.043493744089257651 0 -0.00077166402831925257 0.042962795626141137 0 -0.0015723883584317833 0.042157918505741319 0 -0.0014544854234036172 0.042869559560034458 0 -0.0008025476220675416 0.043569656546170038 0 -0.001334425872461406 0.043493744089257651 0 -0.00082845376760194256 0.043511371175173841 0 -0.00075142013078540414 0.04364519565541311 0 -0.00082845376760194256 0.043511371175173841 0 -0.00047764257100289971 0.043829148288406311 0 -0.0004848436936328437 0.043514406777381331 0 -0.00082845376760194256 0.043511371175173841 0 -0.00047764257100289971 0.043829148288406311 0 -0.00075142013078540414 0.04364519565541311 0 -0.00047764257100289971 0.043829148288406311 0 -0.00017151898766757219 0.043851959607510774 0 -0.00021208069924663568 0.044109161422067562 0 -0.00047764257100289971 0.043829148288406311 0 -0.00017151898766757219 0.043851959607510774 0 -0.0004848436936328437 0.043514406777381331 0 -0.00017151898766757219 0.043851959607510774 0 -0.00017727645808223155 0.043573299340742014 0 -0.0003392042309699984 0.043319885264909819 0 -0.00017151898766757219 0.043851959607510774 0 -0.0004848436936328437 0.043514406777381331 0 -0.0003392042309699984 0.043319885264909819 0 -0.0004848436936328437 0.043514406777381331 0 -0.0003392042309699984 0.043319885264909819 0 -0.00077166402831925257 0.042962795626141137 0 -0.00042739114184296608 0.042713672516944121 0 -0.0003392042309699984 0.043319885264909819 0 -0.00077166402831925257 0.042962795626141137 0 -0.00042739114184296608 0.042713672516944121 0 -0.00017727645808223155 0.043573299340742014 0 -0.0003392042309699984 0.043319885264909819 0 -0.00055657787698060873 0.042952700856808738 0 -0.00020404007775461192 0.043448535820143512 0 -0.00019288330416205744 0.043076074798422695 0 -0.00017727645808223155 0.043573299340742014 0 -0.00036469650279485655 0.043075249014048106 0 -0.00062702256564938928 0.043185852753382561 0 -0.00017727645808223155 0.043573299340742014 0 -0.00036469650279485655 0.043075249014048106 0 -0.00062702256564938928 0.043185852753382561 0 -0.00056549670223297291 0.042651688564540984 0 -0.0014821485042321181 0.042565370961205017 0 -0.00062702256564938928 0.043185852753382561 0 -0.00036469650279485655 0.043075249014048106 0 -0.00056549670223297291 0.042651688564540984 0 -0.00056549670223297291 0.042651688564540984 0 -0.0014821485042321181 0.042565370961205017 0 -0.0011051363667636766 0.041900526449846674 0 -0.00055657787698060873 0.042952700856808738 0 -0.0012423523960381983 0.0422193695890659 0 -0.00042739114184296608 0.042713672516944121 0 -0.00098183322502622778 0.041896620769734307 0 -0.00077166402831925257 0.042962795626141137 0 -0.00098183322502622778 0.041896620769734307 0 -0.00077166402831925257 0.042962795626141137 0 -0.0015723883584317833 0.042157918505741319 0 -0.00098183322502622778 0.041896620769734307 0 -0.0015723883584317833 0.042157918505741319 0 -0.0018518176331908615 0.04103185588787224 0 -0.0012423523960381983 0.0422193695890659 0 -0.002050276501757666 0.041363358143008365 0 -0.0014821485042321181 0.042565370961205017 0 -0.0017869588955710225 0.041307109424432734 0 -0.0022845919750827731 0.04173753802524565 0 -0.0014821485042321181 0.042565370961205017 0 -0.0011051363667636766 0.041900526449846674 0 -0.0017869588955710225 0.041307109424432734 0 0.0020266278403564767 0.037039619039017001 0 0.0043187397318794471 0.036479142147723125 0 0.0026779766067534104 0.035058635144533674 0 -0.0011051363667636766 0.041900526449846674 0 -0.0017869588955710225 0.041307109424432734 0 -0.00048342610480499456 0.041110130761227187 0 0.00032750170504079073 0.038938391533550394 0 0.0011100801992183886 0.040301182794255382 0 0.0020266278403564767 0.037039619039017001 0 0.0010565305504491268 0.035597837002495476 0 0.00043620918050819895 0.036561862709915655 0 0.0020266278403564767 0.037039619039017001 0 0.0026779766067534104 0.035058635144533674 0 0.0010565305504491268 0.035597837002495476 0 -0.00036469650279485655 0.043075249014048106 0 -0.00056549670223297291 0.042651688564540984 0 -0.00045515048684759406 0.042733783608216815 0 -0.00019288330416205744 0.043076074798422695 0 -0.00036469650279485655 0.043075249014048106 0 -0.00045515048684759406 0.042733783608216815 0 -0.00018280294032059261 0.042361568785792857 0 -0.00019288330416205744 0.043076074798422695 0 -0.00045515048684759406 0.042733783608216815 0 -0.00056549670223297291 0.042651688564540984 0 -0.0011051363667636766 0.041900526449846674 0 -0.00048342610480499456 0.041110130761227187 0 -0.00056549670223297291 0.042651688564540984 0 -0.00045515048684759406 0.042733783608216815 0 -0.00059077233946915888 0.042571140154394588 0 -0.00089259146329385237 0.043221469315583724 0 0.0011100801992183886 0.040301182794255382 0 -0.00018280294032059261 0.042361568785792857 0 -0.00045515048684759406 0.042733783608216815 0 -0.00059077233946915888 0.042571140154394588 0 1.7135429415460497e-05 0.042436023228719665 0 0.0011100801992183886 0.040301182794255382 0 0.00071466885066395422 0.041910275932322216 0 0.00089809106168953505 0.041819181933430497 0 0.00077611790157935902 0.041976554288737818 0 0.0043187397318794471 0.036479142147723125 0 0.0042544654453991367 0.034630731546648107 0 0.0026779766067534104 0.035058635144533674 0 0.0011100801992183886 0.040301182794255382 0 0.0026662893278534424 0.038158481856154544 0 0.00089809106168953505 0.041819181933430497 0 0.00077611790157935902 0.041976554288737818 0 0.00090046195164358769 0.04194507034008365 0 0.0025966271853506686 0.036971174205710264 0 0.0026662893278534424 0.038158481856154544 0 0.004140548330938615 0.03280660470764981 0 0.0042544654453991367 0.034630731546648107 0 0.0033602435353411327 0.03389477136467841 0 0.00090229700253560241 0.042022363639526043 0 0.00090046195164358769 0.04194507034008365 0 0.00081044588578286982 0.042033906648427793 0 0.00077611790157935902 0.041976554288737818 0 0.00090046195164358769 0.04194507034008365 0 0.00081044588578286982 0.042033906648427793 0 0.00071445837949196168 0.042054260897329249 0 0.00077611790157935902 0.041976554288737818 0 0.00081044588578286982 0.042033906648427793 0 0.0026779766067534104 0.035058635144533674 0 0.0012114279107758507 0.03433102724377906 0 0.0010565305504491268 0.035597837002495476 0 0.0023455584812630565 0.033100590235192219 0 0.0026779766067534104 0.035058635144533674 0 0.0033602435353411327 0.03389477136467841 0 0.0023455584812630565 0.033100590235192219 0 0.004140548330938615 0.03280660470764981 0 0.0033602435353411327 0.03389477136467841 0 0.0042544654453991367 0.034630731546648107 0 0.0026779766067534104 0.035058635144533674 0 0.0033602435353411327 0.03389477136467841 0 0.0023455584812630565 0.033100590235192219 0 0.0012114279107758507 0.03433102724377906 0 0.00073789567372643306 0.033278986454190237 0 0.0023455584812630565 0.033100590235192219 0 0.0026779766067534104 0.035058635144533674 0 0.0012114279107758507 0.03433102724377906 0 -5.7048990826556381e-05 0.032586419820243212 0 0.00073789567372643306 0.033278986454190237 0 -0.00033506699693176026 0.033442561108881552 0 0.00073789567372643306 0.033278986454190237 0 -0.00033506699693176026 0.033442561108881552 0 0.00021633186014044934 0.033982395316354351 0 0.00021633186014044934 0.033982395316354351 0 9.1499586232681959e-05 0.034803750937800824 0 -0.00040789982260169762 0.034111092726782533 0 -0.00033506699693176026 0.033442561108881552 0 0.00021633186014044934 0.033982395316354351 0 -0.00040789982260169762 0.034111092726782533 0 0.0012114279107758507 0.03433102724377906 0 0.00021633186014044934 0.033982395316354351 0 9.1499586232681959e-05 0.034803750937800824 0 0.0012114279107758507 0.03433102724377906 0 0.00073789567372643306 0.033278986454190237 0 0.00021633186014044934 0.033982395316354351 0 0.0012114279107758507 0.03433102724377906 0 9.1499586232681959e-05 0.034803750937800824 0 0.0010565305504491268 0.035597837002495476 0 9.1499586232681959e-05 0.034803750937800824 0 -0.00018331799004065125 0.035621546929408138 0 -0.00075659017439359193 0.034673835689289979 0 9.1499586232681959e-05 0.034803750937800824 0 -0.00018331799004065125 0.035621546929408138 0 0.0010565305504491268 0.035597837002495476 0 -0.00018331799004065125 0.035621546929408138 0 -0.0015783678863588125 0.035323237453920138 0 -0.00075659017439359193 0.034673835689289979 0 9.1499586232681959e-05 0.034803750937800824 0 -0.00075659017439359193 0.034673835689289979 0 -0.00040789982260169762 0.034111092726782533 0 -0.0015783678863588125 0.035323237453920138 0 -0.0012448195930649028 0.034405958836612537 0 -0.001725447434285167 0.034069724273431329 0 -0.0015783678863588125 0.035323237453920138 0 -0.00075659017439359193 0.034673835689289979 0 -0.0012448195930649028 0.034405958836612537 0 -0.00099342276118197584 0.032109900180615339 0 -0.0008685687702418202 0.033169960847187346 0 -0.0018507855336050234 0.033802080691975156 0 -0.00075659017439359193 0.034673835689289979 0 -0.0012448195930649028 0.034405958836612537 0 -0.0010667039077758593 0.033891636128950048 0 -0.00051885191020417827 0.028495766843097715 0 -0.00057221383693587793 0.02628157605761839 0 -0.00080441839038643986 0.025934070387221269 0 -0.0010667039077758593 0.033891636128950048 0 -0.001725447434285167 0.034069724273431329 0 -0.0018507855336050234 0.033802080691975156 0 -0.0012448195930649028 0.034405958836612537 0 -0.0010667039077758593 0.033891636128950048 0 -0.001725447434285167 0.034069724273431329 0 -0.00075659017439359193 0.034673835689289979 0 -0.0010667039077758593 0.033891636128950048 0 -0.00040789982260169762 0.034111092726782533 0 -0.00033506699693176026 0.033442561108881552 0 -0.0010667039077758593 0.033891636128950048 0 -0.00040789982260169762 0.034111092726782533 0 -0.00033506699693176026 0.033442561108881552 0 -0.0010667039077758593 0.033891636128950048 0 -0.0008685687702418202 0.033169960847187346 0 -5.7048990826556381e-05 0.032586419820243212 0 -0.00033506699693176026 0.033442561108881552 0 -0.0008685687702418202 0.033169960847187346 0 -0.0010667039077758593 0.033891636128950048 0 -0.0008685687702418202 0.033169960847187346 0 -0.0018507855336050234 0.033802080691975156 0 -0.0094114527812660265 0.01850919563745836 0 -0.010009185342225547 0.018367952840043049 0 -0.0094497713517194305 0.018823722715449309 0 -0.010009185342225547 0.018367952840043049 0 -0.010129970704018346 0.018876388470922937 0 -0.0094497713517194305 0.018823722715449309 0 -0.0023221544086664708 0.029918818208968502 0 -0.0032272295318807711 0.027529028883043413 0 -0.0091732174347150756 0.019162127461261533 0 -0.0092715302144304717 0.018838432011864029 0 -0.0094497713517194305 0.018823722715449309 0 -0.0053078731042745216 0.0236693291616475 0 -0.0032272295318807711 0.027529028883043413 0 -0.0053078731042745216 0.0236693291616475 0 -0.0056051286519954863 0.022300467744867096 0 -0.010834937293173958 0.017756306451023062 0 -0.010664772352444105 0.01830303222043847 0 -0.011305229699078767 0.018216298896064589 0 -0.010009185342225547 0.018367952840043049 0 -0.010129970704018346 0.018876388470922937 0 -0.010664772352444105 0.01830303222043847 0 -0.010129970704018346 0.018876388470922937 0 -0.010664772352444105 0.01830303222043847 0 -0.01071318849529811 0.01909203990636087 0 -0.010664772352444105 0.01830303222043847 0 -0.01071318849529811 0.01909203990636087 0 -0.011354497771751711 0.018727596629051071 0 -0.010664772352444105 0.01830303222043847 0 -0.011305229699078767 0.018216298896064589 0 -0.011354497771751711 0.018727596629051071 0 -0.01071318849529811 0.01909203990636087 0 -0.011354497771751711 0.018727596629051071 0 -0.011787013630550966 0.019252025482457788 0 -0.010129970704018346 0.018876388470922937 0 -0.01071318849529811 0.01909203990636087 0 -0.009660037796263685 0.020093786291309215 0 -0.01071318849529811 0.01909203990636087 0 -0.009660037796263685 0.020093786291309215 0 -0.011371628024712142 0.020193252601143487 0 -0.01071318849529811 0.01909203990636087 0 -0.011371628024712142 0.020193252601143487 0 -0.011787013630550966 0.019252025482457788 0 -0.0015783678863588125 0.035323237453920138 0 -0.001725447434285167 0.034069724273431329 0 -0.0029155962966878656 0.035394101366714593 0 -0.010129970704018346 0.018876388470922937 0 -0.0094497713517194305 0.018823722715449309 0 -0.009660037796263685 0.020093786291309215 0 -0.0032272295318807711 0.027529028883043413 0 -0.0064626521961972652 0.02769561907269073 0 -0.0092715302144304717 0.018838432011864029 0 -0.0094497713517194305 0.018823722715449309 0 -0.009660037796263685 0.020093786291309215 0 -0.001725447434285167 0.034069724273431329 0 -0.0018487472118640233 0.033772176515437971 0 -0.0029155962966878656 0.035394101366714593 0 -0.0015783678863588125 0.035323237453920138 0 -0.0029155962966878656 0.035394101366714593 0 -0.0019980907290835246 0.03704241595034144 0 -0.0029155962966878656 0.035394101366714593 0 -0.0030729012986208844 0.037713704334325714 0 -0.0019980907290835246 0.03704241595034144 0 -0.011371628024712142 0.020193252601143487 0 -0.012333764121676003 0.023866870008061335 0 -0.010792931199733015 0.023572261458322311 0 -0.009660037796263685 0.020093786291309215 0 -0.011371628024712142 0.020193252601143487 0 -0.010792931199733015 0.023572261458322311 0 -0.0029155962966878656 0.035394101366714593 0 -0.0030729012986208844 0.037713704334325714 0 -0.0042201067027078923 0.038052264427524927 0 -0.0064626521961972652 0.02769561907269073 0 -0.007467261225286884 0.031180143531949828 0 -0.011371628024712142 0.020193252601143487 0 -0.01144058391800603 0.02302470467575074 0 -0.01219289409390208 0.021527698982225011 0 -0.011474840462883809 0.020836226665150118 0 -0.011804172921317586 0.022720559750200191 0 -0.012333764121676003 0.023866870008061335 0 -0.010792931199733015 0.023572261458322311 0 -0.012824023040138169 0.027759600105177053 0 -0.007467261225286884 0.031180143531949828 0 -0.010363507294560079 0.031342442758306666 0 -0.0042201067027078923 0.038052264427524927 0 -0.0032751956476028917 0.03939481957847376 0 -0.0047453704962179761 0.040090825334642158 0 -0.0030729012986208844 0.037713704334325714 0 -0.0042201067027078923 0.038052264427524927 0 -0.0032751956476028917 0.03939481957847376 0 -0.0030729012986208844 0.037713704334325714 0 -0.0019980907290835246 0.03704241595034144 0 -0.0032751956476028917 0.03939481957847376 0 -0.0019980907290835246 0.03704241595034144 0 -0.0032751956476028917 0.03939481957847376 0 -0.0015120946129091098 0.03769307774034393 0 -0.0032751956476028917 0.03939481957847376 0 -0.0027995032471233253 0.040444086500869239 0 -0.003035149736440024 0.040189168136750317 0 -0.0032751956476028917 0.03939481957847376 0 -0.0027995032471233253 0.040444086500869239 0 -0.0026114739462261673 0.040861450293180938 0 -0.0032579823081175237 0.039453807677240965 0 -0.001569392170471704 0.039395971817057944 0 -0.0032751956476028917 0.03939481957847376 0 -0.0015120946129091098 0.03769307774034393 0 -0.00020456660313363564 0.037857143374206773 0 -0.0027291311229223313 0.040628903758085595 0 -0.002050276501757666 0.041363358143008365 0 0.00032750170504079073 0.038938391533550394 0 -0.001569392170471704 0.039395971817057944 0 -0.0017869588955710225 0.041307109424432734 0 -0.0026114739462261673 0.040861450293180938 0 -0.0022845919750827731 0.04173753802524565 0 -0.0027995032471233253 0.040444086500869239 0 -0.0026114739462261673 0.040861450293180938 0 -0.0022845919750827731 0.04173753802524565 0 0.0020266278403564767 0.037039619039017001 0 -0.00020456660313363564 0.037857143374206773 0 0.00043620918050819895 0.036561862709915655 0 -0.00020456660313363564 0.037857143374206773 0 0.00043620918050819895 0.036561862709915655 0 -0.00071299993176281162 0.036701157157657829 0 -0.00018331799004065125 0.035621546929408138 0 0.0010565305504491268 0.035597837002495476 0 0.00043620918050819895 0.036561862709915655 0 -0.00018331799004065125 0.035621546929408138 0 0.00043620918050819895 0.036561862709915655 0 -0.00071299993176281162 0.036701157157657829 0 -0.00018331799004065125 0.035621546929408138 0 -0.0015783678863588125 0.035323237453920138 0 -0.00071299993176281162 0.036701157157657829 0 -0.0015783678863588125 0.035323237453920138 0 -0.0019980907290835246 0.03704241595034144 0 -0.00071299993176281162 0.036701157157657829 0 -0.0019980907290835246 0.03704241595034144 0 -0.0015120946129091098 0.03769307774034393 0 -0.00071299993176281162 0.036701157157657829 0 -0.0015120946129091098 0.03769307774034393 0 -0.00020456660313363564 0.037857143374206773 0 -0.00071299993176281162 0.036701157157657829 0 -0.01070795605324015 0.017725964797493034 0 -0.01081435346414444 0.017540031345786643 0 -0.010410763468184453 0.017478336689417291 0 -0.01070795605324015 0.017725964797493034 0 -0.01107178534130523 0.017820192856460321 0 -0.01081435346414444 0.017540031345786643 0 -0.01070795605324015 0.017725964797493034 0 -0.010333332858597525 0.017575498249688685 0 -0.010410763468184453 0.017478336689417291 0 -0.01070795605324015 0.017725964797493034 0 -0.010704263853826239 0.018063291607787899 0 -0.010333332858597525 0.017575498249688685 0 -0.0097064494683008675 0.017033855116308678 0 -0.010003313789049572 0.016569090888312717 0 -0.0093807966478648384 0.01666105026470829 0 -0.01070795605324015 0.017725964797493034 0 -0.010704263853826239 0.018063291607787899 0 -0.011078518935542209 0.018015018579079788 0 -0.010704263853826239 0.018063291607787899 0 -0.011078518935542209 0.018015018579079788 0 -0.011497311632706344 0.0183401047990439 0 -0.010344271967059376 0.017829061685729369 0 -0.011113256168299175 0.017740991980167254 0 -0.010003313789049572 0.016569090888312717 0 -0.010602295895786068 0.01724258351556102 0 -0.010845455114402951 0.017235925504679776 0 -0.010115852286887521 0.017042021116644063 0 -0.010003313789049572 0.016569090888312717 0 -0.010602295895786068 0.01724258351556102 0 -0.011078518935542209 0.018015018579079788 0 -0.011373861519361744 0.018142247525973633 0 -0.011497311632706344 0.0183401047990439 0 -0.011078518935542209 0.018015018579079788 0 -0.01107178534130523 0.017820192856460321 0 -0.011373861519361744 0.018142247525973633 0 -0.01070795605324015 0.017725964797493034 0 -0.011078518935542209 0.018015018579079788 0 -0.01107178534130523 0.017820192856460321 0 -0.01107178534130523 0.017820192856460321 0 -0.011343933767932118 0.017907112244282826 0 -0.011373861519361744 0.018142247525973633 0 -0.011343933767932118 0.017907112244282826 0 -0.011534555568845988 0.018280484807842976 0 -0.011373861519361744 0.018142247525973633 0 -0.011343933767932118 0.017907112244282826 0 -0.011534555568845988 0.018280484807842976 0 -0.011581370948553198 0.018067735705003009 0 -0.011534555568845988 0.018280484807842976 0 -0.011634972142407643 0.018508427779991017 0 -0.011581370948553198 0.018067735705003009 0 -0.011534555568845988 0.018280484807842976 0 -0.011533930005918503 0.018348267432287856 0 -0.011561134949749096 0.018473120314435057 0 -0.011534555568845988 0.018280484807842976 0 -0.011561134949749096 0.018473120314435057 0 -0.011634972142407643 0.018508427779991017 0 -0.011534555568845988 0.018280484807842976 0 -0.011533930005918503 0.018348267432287856 0 -0.011373861519361744 0.018142247525973633 0 -0.010984633334700932 0.017563087506455813 0 -0.010845455114402951 0.017235925504679776 0 -0.011305229699078767 0.018216298896064589 0 -0.011533930005918503 0.018348267432287856 0 -0.011497311632706344 0.0183401047990439 0 -0.011305229699078767 0.018216298896064589 0 -0.011113256168299175 0.017740991980167254 0 -0.011236106884861756 0.018140205958814687 0 -0.011533930005918503 0.018348267432287856 0 -0.011373861519361744 0.018142247525973633 0 -0.011497311632706344 0.0183401047990439 0 -0.010984633334700932 0.017563087506455813 0 -0.010602295895786068 0.01724258351556102 0 -0.010845455114402951 0.017235925504679776 0 -0.011051643469888538 0.017711578642370763 0 -0.010984633334700932 0.017563087506455813 0 -0.011305229699078767 0.018216298896064589 0 -0.011533930005918503 0.018348267432287856 0 -0.011305229699078767 0.018216298896064589 0 -0.011561134949749096 0.018473120314435057 0 -0.011305229699078767 0.018216298896064589 0 -0.011354497771751711 0.018727596629051071 0 -0.01156090859959877 0.018603648561604135 0 -0.011354497771751711 0.018727596629051071 0 -0.01156090859959877 0.018603648561604135 0 -0.011694774568941734 0.018826104541063451 0 -0.011305229699078767 0.018216298896064589 0 -0.011561134949749096 0.018473120314435057 0 -0.01156090859959877 0.018603648561604135 0 -0.011561134949749096 0.018473120314435057 0 -0.01156090859959877 0.018603648561604135 0 -0.011634972142407643 0.018508427779991017 0 -0.01156090859959877 0.018603648561604135 0 -0.011634972142407643 0.018508427779991017 0 -0.011694774568941734 0.018826104541063451 0 -0.011634972142407643 0.018508427779991017 0 -0.011694774568941734 0.018826104541063451 0 -0.011721958525606122 0.018482339875984341 0 -0.011634972142407643 0.018508427779991017 0 -0.011721958525606122 0.018482339875984341 0 -0.011581370948553198 0.018067735705003009 0 -0.011787013630550966 0.019252025482457788 0 -0.011694774568941734 0.018826104541063451 0 -0.011721958525606122 0.018482339875984341 0 -0.011354497771751711 0.018727596629051071 0 -0.011787013630550966 0.019252025482457788 0 -0.011694774568941734 0.018826104541063451 0 -0.011979458798412747 0.01922054588590737 0 -0.012634517709754503 0.019587698582102037 0 -0.011371628024712142 0.020193252601143487 0 -0.01221131693156856 0.020656176249131613 0 -0.01219289409390208 0.021527698982225011 0 -0.011787013630550966 0.019252025482457788 0 -0.01221131693156856 0.020656176249131613 0 -0.013776816947817376 0.021688809145760279 0 -0.011371628024712142 0.020193252601143487 0 -0.011787013630550966 0.019252025482457788 0 -0.01221131693156856 0.020656176249131613 0 -0.011721958525606122 0.018482339875984341 0 -0.011884517629303565 0.017742386644506666 0 -0.011581370948553198 0.018067735705003009 0 -0.011787013630550966 0.019252025482457788 0 -0.011721958525606122 0.018482339875984341 0 -0.011884517629303565 0.017742386644506666 0 -0.013776816947817376 0.021688809145760279 0 -0.012608555593368364 0.022524021587286586 0 -0.013682663287453963 0.022951412163364 0 -0.01144058391800603 0.02302470467575074 0 -0.01219289409390208 0.021527698982225011 0 -0.012608555593368364 0.022524021587286586 0 -0.01221131693156856 0.020656176249131613 0 -0.013776816947817376 0.021688809145760279 0 -0.01219289409390208 0.021527698982225011 0 -0.013776816947817376 0.021688809145760279 0 -0.01219289409390208 0.021527698982225011 0 -0.012608555593368364 0.022524021587286586 0 -0.011804172921317586 0.022720559750200191 0 -0.010363507294560079 0.031342442758306666 0 -0.01144058391800603 0.02302470467575074 0 -0.012608555593368364 0.022524021587286586 0 -0.012846163174875263 0.024297641512375553 0 -0.01144058391800603 0.02302470467575074 0 -0.012846163174875263 0.024297641512375553 0 -0.011758239816589678 0.026560038468880293 0 -0.012846163174875263 0.024297641512375553 0 -0.014155324016923179 0.024893280476776029 0 -0.013331843280028411 0.026498283715964563 0 -0.012846163174875263 0.024297641512375553 0 -0.014155324016923179 0.024893280476776029 0 -0.013682663287453963 0.022951412163364 0 -0.012608555593368364 0.022524021587286586 0 -0.012846163174875263 0.024297641512375553 0 -0.013682663287453963 0.022951412163364 0 -0.012634517709754503 0.019587698582102037 0 -0.014669760496784289 0.020728135041863029 0 -0.01478895967966388 0.023038769398447477 0 -0.014669760496784289 0.020728135041863029 0 -0.013776816947817376 0.021688809145760279 0 -0.013682663287453963 0.022951412163364 0 -0.015517234815751943 0.023944939234292119 0 -0.011884517629303565 0.017742386644506666 0 -0.011655183420172946 0.016989210103699984 0 -0.011589692637397701 0.017481871917863368 0 -0.014155324016923179 0.024893280476776029 0 -0.01594576737145199 0.02412464365375153 0 -0.014951160241044672 0.026702769233391207 0 -0.014155324016923179 0.024893280476776029 0 -0.013682663287453963 0.022951412163364 0 -0.01594576737145199 0.02412464365375153 0 -0.014669760496784289 0.020728135041863029 0 -0.011885676430809735 0.0099036674101045039 0 -0.014669760496784289 0.020728135041863029 0 -0.011849559933545225 0.016802556392308682 0 -0.011655183420172946 0.016989210103699984 0 -0.011589692637397701 0.017481871917863368 0 -0.011298817425696023 0.01721396165366328 0 -0.011391066704663751 0.017611437398747834 0 -0.011589692637397701 0.017481871917863368 0 -0.011298817425696023 0.01721396165366328 0 -0.011391066704663751 0.017611437398747834 0 -0.011589692637397701 0.017481871917863368 0 -0.011581370948553198 0.018067735705003009 0 -0.011884517629303565 0.017742386644506666 0 -0.011589692637397701 0.017481871917863368 0 -0.011581370948553198 0.018067735705003009 0 -0.011343933767932118 0.017907112244282826 0 -0.011391066704663751 0.017611437398747834 0 -0.011581370948553198 0.018067735705003009 0 -0.011077848189263186 0.017498819096013807 0 -0.011298817425696023 0.01721396165366328 0 -0.010828316354624338 0.017134458839498386 0 -0.01107178534130523 0.017820192856460321 0 -0.011343933767932118 0.017907112244282826 0 -0.011077848189263186 0.017498819096013807 0 -0.011343933767932118 0.017907112244282826 0 -0.011391066704663751 0.017611437398747834 0 -0.011077848189263186 0.017498819096013807 0 -0.01107178534130523 0.017820192856460321 0 -0.011077848189263186 0.017498819096013807 0 -0.01081435346414444 0.017540031345786643 0 -0.011391066704663751 0.017611437398747834 0 -0.011077848189263186 0.017498819096013807 0 -0.011298817425696023 0.01721396165366328 0 -0.011298817425696023 0.01721396165366328 0 -0.010828316354624338 0.017134458839498386 0 -0.011303128911066692 0.01654378366452592 0 -0.010067323067916837 0.010033000331039628 0 -0.011885676430809735 0.0099036674101045039 0 -0.0095578601303127047 0.0023983430240868716 0 -0.009536622165221862 0.0029517020586754426 0 -0.0099633119530148154 0.0024784101066868676 0 -0.011655183420172946 0.016989210103699984 0 -0.011298817425696023 0.01721396165366328 0 -0.011303128911066692 0.01654378366452592 0 -0.0095578601303127047 0.0023983430240868716 0 -0.009536622165221862 0.0029517020586754426 0 -0.009140949640302343 0.0026328902847885844 0 -0.010828316354624338 0.017134458839498386 0 -0.01081435346414444 0.017540031345786643 0 -0.010410763468184453 0.017478336689417291 0 -0.010067323067916837 0.010033000331039628 0 -0.0097035262558768567 0.010704651531047079 0 -0.009536622165221862 0.0029517020586754426 0 -0.009140949640302343 0.0026328902847885844 0 -0.0091156967475182864 0.003563057267035204 0 -0.011077848189263186 0.017498819096013807 0 -0.010828316354624338 0.017134458839498386 0 -0.01081435346414444 0.017540031345786643 0 -0.013011822025530619 0.0023474503252727693 0 -0.012290108404119055 0.004359495859345695 0 -0.015151562468112773 0.0052422472005868824 0 -0.013011822025530619 0.0023474503252727693 0 -0.012290108404119055 0.004359495859345695 0 -0.011153417187917588 0.0019778854904874041 0 -0.0095578601303127047 0.0023983430240868716 0 -0.0094441813803057776 0.0017005671704459595 0 -0.009140949640302343 0.0026328902847885844 0 -0.0095578601303127047 0.0023983430240868716 0 -0.0094441813803057776 0.0017005671704459595 0 -0.0099633119530148154 0.0024784101066868676 0 -0.010626690735624942 0.0023837916829378895 0 -0.011885676430809735 0.0099036674101045039 0 -0.012290108404119055 0.004359495859345695 0 -0.014667119893019916 0.0058158995913583714 0 -0.015151562468112773 0.0052422472005868824 0 -0.015490427536721054 0.018058150130421637 0 -0.010464250532274509 0.015278678881612051 0 -0.011953460474160189 0.013501001164432929 0 -0.011885676430809735 0.0099036674101045039 0 -0.011849559933545225 0.016802556392308682 0 -0.0075699007521251114 0.018779157380837828 0 -0.0091110899356743082 0.020676798160460058 0 -0.0088942588095622284 0.019010228880482167 0 -0.010244100190972698 0.0085337790317261929 0 -0.011849559933545225 0.016802556392308682 0 -0.0088942588095622284 0.019010228880482167 0 -0.010080321117565504 0.019529237167913781 0 -0.0094540538190670386 0.017886164515309454 0 -0.0091110899356743082 0.020676798160460058 0 -0.0088942588095622284 0.019010228880482167 0 -0.010080321117565504 0.019529237167913781 0 -0.015413330331262338 0.029494983066321909 0 -0.014951160241044672 0.026702769233391207 0 -0.013593384959814913 0.029240561363813294 0 -0.011849559933545225 0.016802556392308682 0 -0.013022232640808302 0.02437531229228428 0 -0.017811818830821502 0.026472685818011658 0 -0.015413330331262338 0.029494983066321909 0 -0.014951160241044672 0.026702769233391207 0 -0.01594576737145199 0.02412464365375153 0 -0.017811818830821502 0.026472685818011658 0 -0.014951160241044672 0.026702769233391207 0 -0.014951160241044672 0.026702769233391207 0 -0.013331843280028411 0.026498283715964563 0 -0.013593384959814913 0.029240561363813294 0 -0.013331843280028411 0.026498283715964563 0 -0.012353472092011007 0.027802080945331188 0 -0.013593384959814913 0.029240561363813294 0 -0.014155324016923179 0.024893280476776029 0 -0.014951160241044672 0.026702769233391207 0 -0.013331843280028411 0.026498283715964563 0 -0.012846163174875263 0.024297641512375553 0 -0.013331843280028411 0.026498283715964563 0 -0.011758239816589678 0.026560038468880293 0 -0.013331843280028411 0.026498283715964563 0 -0.011758239816589678 0.026560038468880293 0 -0.012353472092011007 0.027802080945331188 0 -0.010363507294560079 0.031342442758306666 0 -0.010416641362558855 0.028814999902031471 0 -0.01171795594618298 0.026600645796048442 0 -0.012353472092011007 0.027802080945331188 0 -0.012543250670688299 0.032457006129664366 0 -0.015413330331262338 0.029494983066321909 0 -0.013593384959814913 0.029240561363813294 0 -0.012911825003973943 0.032554076226405125 0 -0.012353472092011007 0.027802080945331188 0 -0.013593384959814913 0.029240561363813294 0 -0.012543250670688299 0.032457006129664366 0 -0.013593384959814913 0.029240561363813294 0 -0.012543250670688299 0.032457006129664366 0 -0.012911825003973943 0.032554076226405125 0 -0.010363507294560079 0.031342442758306666 0 -0.0080500941381738099 0.035354557151890204 0 -0.013022232640808302 0.02437531229228428 0 -0.010040857451223944 0.031363403791529181 0 -0.0042943321008127094 0.041452575309201142 0 -0.0042646471478057502 0.041492794006253393 0 -0.0043775162421162096 0.04167841344674466 0 -0.013480010603468675 0.03411000787939393 0 -0.01319453477164154 0.031848390513075232 0 -0.012228472717349474 0.033089695347025029 0 -0.0080500941381738099 0.035354557151890204 0 -0.0042580250203485531 0.039586663424584154 0 -0.0043130430782641156 0.041380183182394226 0 -0.0042646471478057502 0.041492794006253393 0 -0.0040991099636846426 0.041497570703732646 0 -0.0043130430782641156 0.041380183182394226 0 -0.0043196697798436037 0.041429915081696002 0 -0.0042646471478057502 0.041492794006253393 0 -0.0076785247356985454 0.03440068937366423 0 -0.0072573028202895457 0.031636959836658568 0 -0.0054600555991417598 0.03379062440119978 0 -0.0080500941381738099 0.035354557151890204 0 -0.0077884183970528187 0.035623027923014257 0 -0.0080500941381738099 0.035354557151890204 0 -0.010040857451223944 0.031363403791529181 0 -0.0077884183970528187 0.035623027923014257 0 -0.010040857451223944 0.031363403791529181 0 -0.0077884183970528187 0.035623027923014257 0 -0.0063448366682848879 0.037529965865632613 0 -0.013480010603468675 0.03411000787939393 0 -0.013297374783150033 0.034336837971317195 0 -0.012228472717349474 0.033089695347025029 0 -0.0042646471478057502 0.041492794006253393 0 -0.004164727399930279 0.041703877613804313 0 -0.0040991099636846426 0.041497570703732646 0 -0.0077884183970528187 0.035623027923014257 0 -0.0088954241093728171 0.037202228846975466 0 -0.0042646471478057502 0.041492794006253393 0 -0.004164727399930279 0.041703877613804313 0 -0.0043775162421162096 0.04167841344674466 0 -0.01319453477164154 0.031848390513075232 0 -0.012228472717349474 0.033089695347025029 0 -0.011769412901872304 0.030611691674218035 0 -0.004164727399930279 0.041703877613804313 0 -0.0043775162421162096 0.04167841344674466 0 -0.0042291122756361018 0.042086058573645883 0 -0.010605338490206107 0.033564706349191696 0 -0.012228472717349474 0.033089695347025029 0 -0.010078980528756521 0.031743940889466839 0 -0.012228472717349474 0.033089695347025029 0 -0.010078980528756521 0.031743940889466839 0 -0.011769412901872304 0.030611691674218035 0 -0.010078980528756521 0.031743940889466839 0 -0.0098192619486509349 0.03004288409170212 0 -0.011769412901872304 0.030611691674218035 0 -0.010080321117565504 0.019529237167913781 0 -0.011043113359120437 0.018439649964014652 0 -0.0094540538190670386 0.017886164515309454 0 -0.013297374783150033 0.034336837971317195 0 -0.010605338490206107 0.033564706349191696 0 -0.012228472717349474 0.033089695347025029 0 -0.010040857451223944 0.031363403791529181 0 -0.010218646984161261 0.025383244213258625 0 -0.010218646984161261 0.025383244213258625 0 -0.0077877133773210146 0.025537486299245432 0 -0.0088942588095622284 0.019010228880482167 0 -0.0094540538190670386 0.017886164515309454 0 -0.007756313998421153 0.017304626954347625 0 -0.0075699007521251114 0.018779157380837828 0 -0.0088942588095622284 0.019010228880482167 0 -0.007756313998421153 0.017304626954347625 0 -0.010078980528756521 0.031743940889466839 0 -0.0081930712891621627 0.0305430095248042 0 -0.0076870896626924316 0.032577700040627051 0 -0.010605338490206107 0.033564706349191696 0 -0.010078980528756521 0.031743940889466839 0 -0.0076870896626924316 0.032577700040627051 0 -0.010078980528756521 0.031743940889466839 0 -0.0081930712891621627 0.0305430095248042 0 -0.0098192619486509349 0.03004288409170212 0 -0.0076870896626924316 0.032577700040627051 0 -0.0059904427785384615 0.030666738280328509 0 -0.0047661733954653769 0.031496343116533293 0 -0.0077877133773210146 0.025537486299245432 0 -0.0064680905460671664 0.015548309116934469 0 -0.0081930712891621627 0.0305430095248042 0 -0.0076870896626924316 0.032577700040627051 0 -0.0059904427785384615 0.030666738280328509 0 -0.010244100190972698 0.0085337790317261929 0 -0.0064680905460671664 0.015548309116934469 0 -0.0075699007521251114 0.018779157380837828 0 -0.007756313998421153 0.017304626954347625 0 -0.0059529682971403014 0.016746199708781398 0 -0.0025001043257376629 0.041132460318176342 0 -0.0031907343745068246 0.040739355375800285 0 -0.0023646109656589986 0.042473685909757412 0 -0.0031907343745068246 0.040739355375800285 0 -0.0032384730496991163 0.041426015418753508 0 -0.0024545794943501239 0.04134099790672608 0 -0.0031535856482455514 0.040857371985149195 0 -0.0023847948374839524 0.041886982073661497 0 -0.0015723883584317833 0.042157918505741319 0 -0.0025001043257376629 0.041132460318176342 0 -0.0023646109656589986 0.042473685909757412 0 -0.0015723883584317833 0.042157918505741319 0 -0.0018518176331908615 0.04103185588787224 0 -0.0025001043257376629 0.041132460318176342 0 -0.0027995032471233253 0.040444086500869239 0 -0.0018518176331908615 0.04103185588787224 0 -0.0025001043257376629 0.041132460318176342 0 -0.0025001043257376629 0.041132460318176342 0 -0.0031907343745068246 0.040739355375800285 0 -0.003035149736440024 0.040189168136750317 0 -0.0027995032471233253 0.040444086500869239 0 -0.0025001043257376629 0.041132460318176342 0 -0.003035149736440024 0.040189168136750317 0 -0.0032751956476028917 0.03939481957847376 0 -0.0031907343745068246 0.040739355375800285 0 -0.003035149736440024 0.040189168136750317 0 -0.0032751956476028917 0.03939481957847376 0 -0.0031907343745068246 0.040739355375800285 0 -0.00392240969042744 0.040764550141553328 0 -0.0032751956476028917 0.03939481957847376 0 -0.0047453704962179761 0.040090825334642158 0 -0.00392240969042744 0.040764550141553328 0 -0.0047453704962179761 0.040090825334642158 0 -0.0046357442015709394 0.041449301384134551 0 -0.00392240969042744 0.040764550141553328 0 -0.0046357442015709394 0.041449301384134551 0 -0.00392240969042744 0.040764550141553328 0 -0.0040787845993111443 0.041328741321156132 0 -0.00392240969042744 0.040764550141553328 0 -0.0040787845993111443 0.041328741321156132 0 -0.0037050474677647392 0.04148616195836393 0 -0.0031907343745068246 0.040739355375800285 0 -0.00392240969042744 0.040764550141553328 0 -0.0032384730496991163 0.041426015418753508 0 -0.00392240969042744 0.040764550141553328 0 -0.0032384730496991163 0.041426015418753508 0 -0.0037050474677647392 0.04148616195836393 0 -0.0032384730496991163 0.041426015418753508 0 -0.0037050474677647392 0.04148616195836393 0 -0.0035258115445938529 0.042005935292766139 0 -0.0037050474677647392 0.04148616195836393 0 -0.0039039279179016299 0.041723920936904552 0 -0.0035258115445938529 0.042005935292766139 0 -0.0040787845993111443 0.041328741321156132 0 -0.0037050474677647392 0.04148616195836393 0 -0.0040991099636846426 0.041497570703732646 0 -0.0043130430782641156 0.041380183182394226 0 -0.0040787845993111443 0.041328741321156132 0 -0.0040991099636846426 0.041497570703732646 0 -0.0037050474677647392 0.04148616195836393 0 -0.0040991099636846426 0.041497570703732646 0 -0.0039039279179016299 0.041723920936904552 0 -0.004164727399930279 0.041703877613804313 0 -0.0040991099636846426 0.041497570703732646 0 -0.0039039279179016299 0.041723920936904552 0 -0.004164727399930279 0.041703877613804313 0 -0.0039039279179016299 0.041723920936904552 0 -0.0038956134061259597 0.042051123150091317 0 -0.0039039279179016299 0.041723920936904552 0 -0.0038956134061259597 0.042051123150091317 0 -0.0035258115445938529 0.042005935292766139 0 -0.0038956134061259597 0.042051123150091317 0 -0.0035258115445938529 0.042005935292766139 0 -0.0036380011332306358 0.042322548366248963 0 -0.004164727399930279 0.041703877613804313 0 -0.0038956134061259597 0.042051123150091317 0 -0.0042291122756361018 0.042086058573645883 0 -0.0035258115445938529 0.042005935292766139 0 -0.0027178976922217352 0.042229807448389611 0 -0.0032841891151744887 0.042667361769149786 0 -0.0032384730496991163 0.041426015418753508 0 -0.0035258115445938529 0.042005935292766139 0 -0.0027178976922217352 0.042229807448389611 0 -0.0032384730496991163 0.041426015418753508 0 -0.0027178976922217352 0.042229807448389611 0 -0.0024545794943501239 0.04134099790672608 0 -0.0015389229543254722 0.042247132861756596 0 -0.0027178976922217352 0.042229807448389611 0 -0.0024545794943501239 0.04134099790672608 0 -0.001334425872461406 0.043493744089257651 0 -0.0015723883584317833 0.042157918505741319 0 -0.0023646109656589986 0.042473685909757412 0 -0.0014544854234036172 0.042869559560034458 0 -0.0023847948374839524 0.041886982073661497 0 -0.0015389229543254722 0.042247132861756596 0 -0.0027178976922217352 0.042229807448389611 0 -0.0021435546515971671 0.042918563621958901 0 -0.0021435546515971671 0.042918563621958901 0 -0.0020909715889860254 0.043587767806251287 0 -0.0015085791782356677 0.043430331441154539 0 -0.0021435546515971671 0.042918563621958901 0 -0.0020909715889860254 0.043587767806251287 0 -0.0026619888422058364 0.04310718527019209 0 -0.0020909715889860254 0.043587767806251287 0 -0.0019810649192205172 0.043957231825145215 0 -0.0021977450483281285 0.04384558016317771 0 -0.0020909715889860254 0.043587767806251287 0 -0.0025872729620021111 0.043704096227061486 0 -0.0021977450483281285 0.04384558016317771 0 -0.0020909715889860254 0.043587767806251287 0 -0.0019810649192205172 0.043957231825145215 0 -0.0015579712539208642 0.043998825497327275 0 -0.0025872729620021111 0.043704096227061486 0 -0.0026619888422058364 0.04310718527019209 0 -0.0031183810539812573 0.043498749863518031 0 -0.0020909715889860254 0.043587767806251287 0 -0.0025872729620021111 0.043704096227061486 0 -0.0026619888422058364 0.04310718527019209 0 -0.0027178976922217352 0.042229807448389611 0 -0.0026619888422058364 0.04310718527019209 0 -0.0032841891151744887 0.042667361769149786 0 -0.0027178976922217352 0.042229807448389611 0 -0.0021435546515971671 0.042918563621958901 0 -0.0026619888422058364 0.04310718527019209 0 -0.0035258115445938529 0.042005935292766139 0 -0.0032841891151744887 0.042667361769149786 0 -0.0036380011332306358 0.042322548366248963 0 -0.0032841891151744887 0.042667361769149786 0 -0.0038820292191586322 0.042496451601582108 0 -0.0036151242792066348 0.043260759411676113 0 -0.0032841891151744887 0.042667361769149786 0 -0.0036380011332306358 0.042322548366248963 0 -0.0038820292191586322 0.042496451601582108 0 -0.0038956134061259597 0.042051123150091317 0 -0.0038820292191586322 0.042496451601582108 0 -0.0042291122756361018 0.042086058573645883 0 -0.0038956134061259597 0.042051123150091317 0 -0.0036380011332306358 0.042322548366248963 0 -0.0038820292191586322 0.042496451601582108 0 -0.0038820292191586322 0.042496451601582108 0 -0.0042808539973896685 0.042371831492528773 0 -0.0042056409265212669 0.042656148094460618 0 -0.0038820292191586322 0.042496451601582108 0 -0.0042291122756361018 0.042086058573645883 0 -0.0042808539973896685 0.042371831492528773 0 -0.0038820292191586322 0.042496451601582108 0 -0.0036151242792066348 0.043260759411676113 0 -0.0042056409265212669 0.042656148094460618 0 -0.0032841891151744887 0.042667361769149786 0 -0.0036151242792066348 0.043260759411676113 0 -0.0031183810539812573 0.043498749863518031 0 -0.0026619888422058364 0.04310718527019209 0 -0.0032841891151744887 0.042667361769149786 0 -0.0031183810539812573 0.043498749863518031 0 -0.0029027669947577946 0.037296087074494201 0 -0.0029814838018357953 0.0373040320120792 0 -0.003133760022060646 0.037376429166606571 0 -0.0034239365654974755 0.040780781758906412 0 -0.0030088668114513924 0.040579661692025204 0 -0.0031183810539812573 0.043498749863518031 0 -0.0038397372007514144 0.043903560698751072 0 -0.0029187436637173351 0.044042561971582107 0 -0.0036151242792066348 0.043260759411676113 0 -0.0031183810539812573 0.043498749863518031 0 -0.0038397372007514144 0.043903560698751072 0 -0.0036151242792066348 0.043260759411676113 0 -0.0038397372007514144 0.043903560698751072 0 -0.0043020875618322643 0.043597812330951245 0 -0.0029027669947577946 0.037296087074494201 0 -0.0029077617980968634 0.037185836593292526 0 -0.0029814838018357953 0.0373040320120792 0 -0.0029027669947577946 0.037296087074494201 0 -0.0029077617980968634 0.037185836593292526 0 -0.002919488130661646 0.037217505569426955 0 -0.0029077617980968634 0.037185836593292526 0 -0.0029814838018357953 0.0373040320120792 0 -0.002940222276613314 0.037301634621470035 0 -0.0029814838018357953 0.0373040320120792 0 -0.0029475071599565379 0.03742197688442999 0 -0.003133760022060646 0.037376429166606571 0 -0.0029814838018357953 0.0373040320120792 0 -0.002940222276613314 0.037301634621470035 0 -0.0029475071599565379 0.03742197688442999 0 -0.002940222276613314 0.037301634621470035 0 -0.0029475071599565379 0.03742197688442999 0 -0.002968325220590744 0.03733661384933358 0 -0.0027166780898016463 0.037618708649368851 0 -0.0027849582708828783 0.038589999884702186 0 -0.0020601364260695977 0.038483035927773857 0 -0.0026441094352772127 0.037510531363922496 0 -0.0027217046226745787 0.039962329197018219 0 -0.0029475071599565379 0.03742197688442999 0 -0.0026441094352772127 0.037510531363922496 0 -0.002968325220590744 0.03733661384933358 0 -0.0011792948257086935 0.039148905816671596 0 -0.0020601364260695977 0.038483035927773857 0 -0.0027217046226745787 0.039962329197018219 0 -0.0011792948257086935 0.039148905816671596 0 -0.0020601364260695977 0.038483035927773857 0 -0.0017435356328597599 0.03749981671514932 0 -0.0020601364260695977 0.038483035927773857 0 -0.0017435356328597599 0.03749981671514932 0 -0.0026441094352772127 0.037510531363922496 0 -0.0021308475289685425 0.04413427834667133 0 -0.0019832551426213294 0.044230025594500226 0 -0.0029187436637173351 0.044042561971582107 0 -0.0016075267290202367 0.042443251474426562 0 -0.0017197286474611589 0.042007960761546961 0 -0.0019704651622629329 0.044245566315227539 0 -0.0019810649192205172 0.043957231825145215 0 -0.0015579712539208642 0.043998825497327275 0 -0.0021308475289685425 0.04413427834667133 0 -0.0019704651622629329 0.044245566315227539 0 -0.0019810649192205172 0.043957231825145215 0 -0.0025872729620021111 0.043704096227061486 0 -0.0021308475289685425 0.04413427834667133 0 -0.0021977450483281285 0.04384558016317771 0 -0.0021308475289685425 0.04413427834667133 0 -0.0019810649192205172 0.043957231825145215 0 -0.0021977450483281285 0.04384558016317771 0 -0.0025872729620021111 0.043704096227061486 0 -0.0021308475289685425 0.04413427834667133 0 -0.0029187436637173351 0.044042561971582107 0 -0.0017197286474611589 0.042007960761546961 0 -0.0030088668114513924 0.040579661692025204 0 -0.0017435356328597599 0.03749981671514932 0 -0.003133760022060646 0.037376429166606571 0 -0.0026441094352772127 0.037510531363922496 0 -0.0025872729620021111 0.043704096227061486 0 -0.0031183810539812573 0.043498749863518031 0 -0.0029187436637173351 0.044042561971582107 0 -0.0029475071599565379 0.03742197688442999 0 -0.003133760022060646 0.037376429166606571 0 -0.0026441094352772127 0.037510531363922496 0 -0.0071431465330634028 0.026466579687580764 0 -0.0054795178859013026 0.025610839090462835 0 -0.0045019818786370116 0.026594049059978919 0 -0.0067584994500203659 0.028082285794413433 0 -0.0083367309692122544 0.027080705488838324 0 -0.0048688012762784158 0.026864781463580949 0 -0.0081358558076681138 0.026321749338698155 0 -0.0045324889252745708 0.02678350113299495 0 -0.0071431465330634028 0.026466579687580764 0 -0.0066455533322976523 0.025495785287516219 0 -0.0054795178859013026 0.025610839090462835 0 -0.0067584994500203659 0.028082285794413433 0 -0.0083768639223170908 0.028886152118793165 0 -0.0083367309692122544 0.027080705488838324 0 -0.0067584994500203659 0.028082285794413433 0 -0.0066762542039632018 0.029302590779806716 0 -0.0055369958516447602 0.028280052166709015 0 -0.0059904427785384615 0.030666738280328509 0 -0.0066762542039632018 0.029302590779806716 0 -0.0047591933609592218 0.029297440482486215 0 -0.0081930712891621627 0.0305430095248042 0 -0.0066762542039632018 0.029302590779806716 0 -0.0083768639223170908 0.028886152118793165 0 -0.0081930712891621627 0.0305430095248042 0 -0.0059904427785384615 0.030666738280328509 0 -0.0066762542039632018 0.029302590779806716 0 -0.0067584994500203659 0.028082285794413433 0 -0.0066762542039632018 0.029302590779806716 0 -0.0083768639223170908 0.028886152118793165 0 -0.0081930712891621627 0.0305430095248042 0 -0.0083768639223170908 0.028886152118793165 0 -0.0098192619486509349 0.03004288409170212 0 -0.0083768639223170908 0.028886152118793165 0 -0.0098192619486509349 0.03004288409170212 0 -0.010493238063779246 0.0288495910433046 0 -0.0071431465330634028 0.026466579687580764 0 -0.0096690821334862974 0.026402376139323055 0 -0.0074527676114902412 0.025232037568394219 0 -0.0081358558076681138 0.026321749338698155 0 -0.0089379282262048235 0.031295689476959272 0 -0.0083768639223170908 0.028886152118793165 0 -0.0083367309692122544 0.027080705488838324 0 -0.010493238063779246 0.0288495910433046 0 -0.0071431465330634028 0.026466579687580764 0 -0.0074527676114902412 0.025232037568394219 0 -0.0066455533322976523 0.025495785287516219 0 -0.011793950317441933 0.027206503472350249 0 -0.010493238063779246 0.0288495910433046 0 -0.012926868739181144 0.029258996240996815 0 -0.0083367309692122544 0.027080705488838324 0 -0.011793950317441933 0.027206503472350249 0 -0.010493238063779246 0.0288495910433046 0 -0.0089379282262048235 0.031295689476959272 0 -0.0058324135948832831 0.038759547961896408 0 -0.0089379282262048235 0.031295689476959272 0 -0.008224073895802984 0.03560047986183127 0 -0.010493238063779246 0.0288495910433046 0 -0.011769412901872304 0.030611691674218035 0 -0.012926868739181144 0.029258996240996815 0 -0.0098192619486509349 0.03004288409170212 0 -0.010493238063779246 0.0288495910433046 0 -0.011769412901872304 0.030611691674218035 0 -0.0088954241093728171 0.037202228846975466 0 -0.008224073895802984 0.03560047986183127 0 -0.0043775162421162096 0.04167841344674466 0 -0.0045936529324642327 0.042255369927487386 0 -0.0042291122756361018 0.042086058573645883 0 -0.01319453477164154 0.031848390513075232 0 -0.011769412901872304 0.030611691674218035 0 -0.012926868739181144 0.029258996240996815 0 -0.0045936529324642327 0.042255369927487386 0 -0.0042808539973896685 0.042371831492528773 0 -0.0042056409265212669 0.042656148094460618 0 -0.0045936529324642327 0.042255369927487386 0 -0.0042291122756361018 0.042086058573645883 0 -0.0042808539973896685 0.042371831492528773 0 -0.0031112285214495152 0.044346430249244631 0 -0.0058324135948832831 0.038759547961896408 0 -0.0036151242792066348 0.043260759411676113 0 -0.0046271021562023524 0.043156752844766007 0 -0.0043020875618322643 0.043597812330951245 0 -0.0036151242792066348 0.043260759411676113 0 -0.0042056409265212669 0.042656148094460618 0 -0.0047085174939948526 0.042900482820389454 0 -0.008224073895802984 0.03560047986183127 0 -0.0058324135948832831 0.038759547961896408 0 -0.0078148508875606291 0.034213856568270556 0 -0.0086289093198030214 0.035519857280952055 0 -0.0084236835119538139 0.03419350653432484 0 -0.0045936529324642327 0.042255369927487386 0 -0.0042056409265212669 0.042656148094460618 0 -0.0047085174939948526 0.042900482820389454 0 -0.0029027669947577946 0.037296087074494201 0 -0.0029452736617970607 0.037186208325915612 0 -0.0029777098525706628 0.037124375464630814 0 -0.0038397372007514144 0.043903560698751072 0 -0.0043020875618322643 0.043597812330951245 0 -0.0047256478568329209 0.043860357575146433 0 -0.0046271021562023524 0.043156752844766007 0 -0.0043020875618322643 0.043597812330951245 0 -0.0047256478568329209 0.043860357575146433 0 -0.0034239365654974755 0.040780781758906412 0 -0.0036719070665751485 0.03888449292814862 0 -0.0032342133166332974 0.036997795169206815 0 -0.0023259148163166719 0.037791410826599967 0 -0.0029077617980968634 0.037185836593292526 0 -0.0030595765833569609 0.036884926661994943 0 -0.0029652915631200589 0.037049294743401115 0 -0.0029027669947577946 0.037296087074494201 0 -0.002919488130661646 0.037217505569426955 0 -0.0029452736617970607 0.037186208325915612 0 -0.0029077617980968634 0.037185836593292526 0 -0.002919488130661646 0.037217505569426955 0 -0.0029541621575445757 0.037233486258910875 0 -0.0029541621575445757 0.037233486258910875 0 -0.0029452736617970607 0.037186208325915612 0 -0.0029736862430521128 0.03717163011095137 0 -0.002919488130661646 0.037217505569426955 0 -0.0029541621575445757 0.037233486258910875 0 -0.0029452736617970607 0.037186208325915612 0 -0.0029452736617970607 0.037186208325915612 0 -0.0029736862430521128 0.03717163011095137 0 -0.0029777098525706628 0.037124375464630814 0 -0.0023259148163166719 0.037791410826599967 0 -0.0054901522690358829 0.029943938620247607 0 -0.0029736862430521128 0.03717163011095137 0 -0.0030257150378252768 0.037143478614214361 0 -0.0029777098525706628 0.037124375464630814 0 -0.0030595765833569609 0.036884926661994943 0 -0.0030667922872629548 0.036859466238339418 0 -0.0030327877814924739 0.037161159330867506 0 -0.0029541621575445757 0.037233486258910875 0 -0.0030880866997886241 0.037132033855890041 0 -0.0032594099669159861 0.037129942230077241 0 -0.0030257150378252768 0.037143478614214361 0 -0.0030880866997886241 0.037132033855890041 0 -0.0029777098525706628 0.037124375464630814 0 -0.0029541621575445757 0.037233486258910875 0 -0.0030257150378252768 0.037143478614214361 0 -0.0030880866997886241 0.037132033855890041 0 -0.0029541621575445757 0.037233486258910875 0 -0.0029736862430521128 0.03717163011095137 0 -0.0030257150378252768 0.037143478614214361 0 -0.0030595765833569609 0.036884926661994943 0 -0.0030667922872629548 0.036859466238339418 0 -0.0030348840233600243 0.036940647207865017 0 -0.0089379282262048235 0.031295689476959272 0 -0.0056777999744716985 0.030297384927936447 0 -0.0058324135948832831 0.038759547961896408 0 -0.0036719070665751485 0.03888449292814862 0 -0.0030880866997886241 0.037132033855890041 0 -0.0029777098525706628 0.037124375464630814 0 -0.003201672214593187 0.037044239639604945 0 -0.0058394956989519979 0.035652797834012324 0 -0.0060211901120872024 0.034265441384953514 0 -0.0049262618570038831 0.034180680053205452 0 -0.0058394956989519979 0.035652797834012324 0 -0.0062395813617406115 0.035644261392462205 0 -0.0060211901120872024 0.034265441384953514 0 -0.0036719070665751485 0.03888449292814862 0 -0.0056777999744716985 0.030297384927936447 0 -0.0096690821334862974 0.026402376139323055 0 -0.0074527676114902412 0.025232037568394219 0 -0.008268957351371755 0.024152083947641109 0 -0.0074527676114902412 0.025232037568394219 0 -0.0064848839132822782 0.024675873947332345 0 -0.0066455533322976523 0.025495785287516219 0 -0.0074527676114902412 0.025232037568394219 0 -0.006644909085444419 0.024045511170510927 0 -0.0064848839132822782 0.024675873947332345 0 -0.0056777999744716985 0.030297384927936447 0 -0.0065022479734336541 0.025537421734237398 0 -0.0074527676114902412 0.025232037568394219 0 -0.008268957351371755 0.024152083947641109 0 -0.006644909085444419 0.024045511170510927 0 -0.0030880866997886241 0.037132033855890041 0 -0.003201672214593187 0.037044239639604945 0 -0.0032594099669159861 0.037129942230077241 0 -0.0054901522690358829 0.029943938620247607 0 -0.0046366634667614993 0.027834629354254483 0 -0.0030327877814924739 0.037161159330867506 0 -0.0028311123130148655 0.036580184720498413 0 -0.0016494420250830674 0.035143121538409865 0 -0.0056777999744716985 0.030297384927936447 0 -0.0054901522690358829 0.029943938620247607 0 -0.0030327877814924739 0.037161159330867506 0 -0.0028311123130148655 0.036580184720498413 0 -0.0030069984224331712 0.036727836147514396 0 -0.0030667922872629548 0.036859466238339418 0 -0.0030327877814924739 0.037161159330867506 0 -0.0030069984224331712 0.036727836147514396 0 -0.0057449396504471364 0.026870195918399991 0 -0.0058421173584351539 0.027017079678299045 0 -0.0060990025276609263 0.026839713997512771 0 -0.0054901522690358829 0.029943938620247607 0 -0.0062425402624584894 0.022949726147078037 0 -0.0058421173584351539 0.027017079678299045 0 -0.0060990025276609263 0.026839713997512771 0 -0.0064521347921620096 0.026803708554181866 0 -0.00848311089858865 0.021632113147650681 0 -0.0075151914184686565 0.020011068981326843 0 -0.0063819969693150831 0.02190230499150472 0 -0.0065022479734336541 0.025537421734237398 0 -0.0062425402624584894 0.022949726147078037 0 -0.0062990108901276329 0.024675506718660863 0 -0.0045534622000911237 0.024847239960823379 0 -0.0064848839132822782 0.024675873947332345 0 -0.0054795178859013026 0.025610839090462835 0 -0.0042258737443074176 0.024953824968404027 0 -0.0064848839132822782 0.024675873947332345 0 -0.004740529694823639 0.024782540049617625 0 -0.005270611648168326 0.023952622140335802 0 -0.006644909085444419 0.024045511170510927 0 -0.0064848839132822782 0.024675873947332345 0 -0.005270611648168326 0.023952622140335802 0 -0.0064848839132822782 0.024675873947332345 0 -0.0066455533322976523 0.025495785287516219 0 -0.0054795178859013026 0.025610839090462835 0 -0.00653369966043488 0.01844649946216767 0 -0.0075151914184686565 0.020011068981326843 0 -0.0060226811608299407 0.01979403921957178 0 -4.2292512983263568e-05 0.032431377970745023 0 -0.0016494420250830674 0.035143121538409865 0 -0.00090888331580146894 0.032167904444846684 0 -0.0038232677192514548 0.023199035667757346 0 -0.0046366634667614993 0.027834629354254483 0 -0.0016494420250830674 0.035143121538409865 0 -0.0033841558387814703 0.034657085081207871 0 -0.00090888331580146894 0.032167904444846684 0 -0.0038232677192514548 0.023199035667757346 0 -0.0025313015964073099 0.026826734816520172 0 -0.0075151914184686565 0.020011068981326843 0 -0.0060226811608299407 0.01979403921957178 0 -0.0063819969693150831 0.02190230499150472 0 -0.0029305386798545051 0.036496411729544924 0 -0.0032806780618055672 0.035800141191905416 0 -0.0028311123130148655 0.036580184720498413 0 -0.0016494420250830674 0.035143121538409865 0 -0.0033841558387814703 0.034657085081207871 0 -0.0028311123130148655 0.036580184720498413 0 -0.0030069984224331712 0.036727836147514396 0 -0.0031027390607632167 0.036833475736591868 0 -0.0030069984224331712 0.036727836147514396 0 -0.0031027390607632167 0.036833475736591868 0 -0.0030667556461714306 0.036832670570965551 0 -0.0032806780618055672 0.035800141191905416 0 -0.0033988370639665352 0.036488141498508382 0 -0.0032806780618055672 0.035800141191905416 0 -0.0025313015964073099 0.026826734816520172 0 -0.003297969267639689 0.033218134565325651 0 -0.0037005154089587082 0.031223862482391417 0 -0.0017981203729961924 0.031818822752380432 0 -0.0032806780618055672 0.035800141191905416 0 -0.0030751969588140092 0.033168124480683805 0 -0.0031877201736590487 0.036930713237891356 0 -0.0030562764037626203 0.037045924900506462 0 -0.0032227804872175746 0.037284469648035175 0 -0.0030562764037626203 0.037045924900506462 0 -0.0029493848042338503 0.037112449694929141 0 -0.003052890154074762 0.037181867252433047 0 -0.0030562764037626203 0.037045924900506462 0 -0.0030439400231241187 0.036949258183106778 0 -0.0029586747229242726 0.037061703055684417 0 -0.0031877201736590487 0.036930713237891356 0 -0.0030562764037626203 0.037045924900506462 0 -0.0030439400231241187 0.036949258183106778 0 -0.0031877201736590487 0.036930713237891356 0 -0.0030439400231241187 0.036949258183106778 0 -0.0030667556461714306 0.036832670570965551 0 -0.0030439400231241187 0.036949258183106778 0 -0.0030667556461714306 0.036832670570965551 0 -0.0030348840233600243 0.036940647207865017 0 -0.0030667922872629548 0.036859466238339418 0 -0.0030667556461714306 0.036832670570965551 0 -0.0030348840233600243 0.036940647207865017 0 -0.0030667922872629548 0.036859466238339418 0 -0.0030069984224331712 0.036727836147514396 0 -0.0030667556461714306 0.036832670570965551 0 -0.0030439400231241187 0.036949258183106778 0 -0.0030348840233600243 0.036940647207865017 0 -0.0029586747229242726 0.037061703055684417 0 -0.0030348840233600243 0.036940647207865017 0 -0.0029586747229242726 0.037061703055684417 0 -0.0029652915631200589 0.037049294743401115 0 -0.0030595765833569609 0.036884926661994943 0 -0.0030348840233600243 0.036940647207865017 0 -0.0029652915631200589 0.037049294743401115 0 -0.0029586747229242726 0.037061703055684417 0 -0.0029652915631200589 0.037049294743401115 0 -0.0029095347180564026 0.037143660286307688 0 -0.0029586747229242726 0.037061703055684417 0 -0.0029095347180564026 0.037143660286307688 0 -0.0028975509874048142 0.037168500737231859 0 -0.0029586747229242726 0.037061703055684417 0 -0.0029493848042338503 0.037112449694929141 0 -0.0028975509874048142 0.037168500737231859 0 -0.0030562764037626203 0.037045924900506462 0 -0.0029586747229242726 0.037061703055684417 0 -0.0029493848042338503 0.037112449694929141 0 -0.0029493848042338503 0.037112449694929141 0 -0.0028767217878736362 0.037180430680983409 0 -0.0028975509874048142 0.037168500737231859 0 -0.0028418205299112617 0.037174291616401567 0 -0.0023223341080122325 0.037290287046861 0 -0.0028767217878736362 0.037180430680983409 0 -0.0028975509874048142 0.037168500737231859 0 -0.0028975616041861077 0.037192987961716953 0 -0.0028767217878736362 0.037180430680983409 0 -0.0026848808800662206 0.037579301135732254 0 -0.0018162963491996358 0.037330662793559205 0 -0.0029493848042338503 0.037112449694929141 0 -0.0028767217878736362 0.037180430680983409 0 -0.003052890154074762 0.037181867252433047 0 -0.0028767217878736362 0.037180430680983409 0 -0.0026848808800662206 0.037579301135732254 0 -0.0031488880268992644 0.037385520146469078 0 -0.0023436697003130801 0.038041089044658548 0 -0.0030405928797449674 0.037943700672157347 0 -0.0024563507914289202 0.038961223277871292 0 -0.0026848808800662206 0.037579301135732254 0 -0.0023436697003130801 0.038041089044658548 0 -0.0018162963491996358 0.037330662793559205 0 -0.0026848808800662206 0.037579301135732254 0 -0.0023436697003130801 0.038041089044658548 0 -0.0030405928797449674 0.037943700672157347 0 -0.0030751969588140092 0.033168124480683805 0 -0.0011730797648205535 0.03301544337983172 0 -0.0012207845028940865 0.027924653586800918 0 -0.0011925207784804672 0.027118700124577257 0 -0.00082795025397025524 0.028878459701286614 0 -0.0030405928797449674 0.037943700672157347 0 -0.0035486360482138431 0.037238423902785922 0 -0.003375405284193249 0.038398226533764353 0 -0.0026848808800662206 0.037579301135732254 0 -0.0030405928797449674 0.037943700672157347 0 -0.0031488880268992644 0.037385520146469078 0 -0.0012207845028940865 0.027924653586800918 0 -0.0014740082298499262 0.028557000709152802 0 -0.00082795025397025524 0.028878459701286614 0 -0.0030562764037626203 0.037045924900506462 0 -0.0032227804872175746 0.037284469648035175 0 -0.003052890154074762 0.037181867252433047 0 -0.0030751969588140092 0.033168124480683805 0 -0.0026030117019053152 0.035645757140120346 0 -0.0030405928797449674 0.037943700672157347 0 -0.0035486360482138431 0.037238423902785922 0 -0.0031488880268992644 0.037385520146469078 0 -0.0028767217878736362 0.037180430680983409 0 -0.0031488880268992644 0.037385520146469078 0 -0.003052890154074762 0.037181867252433047 0 -0.0032227804872175746 0.037284469648035175 0 -0.0031488880268992644 0.037385520146469078 0 -0.003052890154074762 0.037181867252433047 0 -0.0030751969588140092 0.033168124480683805 0 -0.0025313015964073099 0.026826734816520172 0 -0.0011925207784804672 0.027118700124577257 0 -0.0018707990468210909 0.027589208867929416 0 -0.0028643404312436926 0.026518262342175629 0 -0.0012207845028940865 0.027924653586800918 0 -0.0011925207784804672 0.027118700124577257 0 -0.0018707990468210909 0.027589208867929416 0 -9.019967822463724e-05 0.022594216314220216 0 -0.0012581063468964085 0.021973647194904324 0 -0.0011607253894613213 0.023075670509253871 0 -0.0014598816578712474 0.028497998665510792 0 -0.0018707990468210909 0.027589208867929416 0 -0.0026023744052479387 0.027886836684145676 0 -0.001911928123685029 0.027244641415849365 0 -0.0014586070385067629 0.025285046970905556 0 -0.0012207845028940865 0.027924653586800918 0 -0.0014598816578712474 0.028497998665510792 0 -0.0018707990468210909 0.027589208867929416 0 -0.0016680797994292115 0.028025164952347179 0 -0.001911928123685029 0.027244641415849365 0 -0.0012581063468964085 0.021973647194904324 0 -0.0011607253894613213 0.023075670509253871 0 -0.0020253857814258066 0.022832324014412722 0 -0.0014586070385067629 0.025285046970905556 0 -0.0033817084020684222 0.018263887183589282 0 -0.0012581063468964085 0.021973647194904324 0 -0.0024458084298208094 0.021345894501070363 0 -0.0020253857814258066 0.022832324014412722 0 -0.0026023744052479387 0.027886836684145676 0 -0.0028643404312436926 0.026518262342175629 0 -0.0037343125283556271 0.027267462471419767 0 -0.0018707990468210909 0.027589208867929416 0 -0.0026023744052479387 0.027886836684145676 0 -0.0028643404312436926 0.026518262342175629 0 -0.0034428574648256729 0.017962697281374368 0 -0.003047457340027052 0.01809415420963506 0 -0.0036779588126098646 0.018294520544611816 0 -0.0025313015964073099 0.026826734816520172 0 -0.0033817084020684222 0.018263887183589282 0 -0.0029329559335808256 0.037252451546743816 0 -0.002968325220590744 0.03733661384933358 0 -0.002910091043327043 0.037220555486583699 0 -0.0029329559335808256 0.037252451546743816 0 -0.002910091043327043 0.037220555486583699 0 -0.002913844525603526 0.037229259564718446 0 -0.002764822112368726 0.039956613651327785 0 -0.0027849582708828783 0.038589999884702186 0 -0.0023135910539471092 0.04227529559717403 0 -0.0010205985119353775 0.042488497902838124 0 -0.00073531143186738809 0.041181000998690862 0 -0.0023135910539471092 0.04227529559717403 0 -0.0027217046226745787 0.039962329197018219 0 -0.00073531143186738809 0.041181000998690862 0 -0.0011792948257086935 0.039148905816671596 0 -0.0027217046226745787 0.039962329197018219 0 -0.00073531143186738809 0.041181000998690862 0 -0.002940222276613314 0.037301634621470035 0 -0.002968325220590744 0.03733661384933358 0 -0.002910091043327043 0.037220555486583699 0 -0.0029077617980968634 0.037185836593292526 0 -0.002940222276613314 0.037301634621470035 0 -0.002910091043327043 0.037220555486583699 0 -0.0029077617980968634 0.037185836593292526 0 -0.0029095347180564026 0.037143660286307688 0 -0.002910091043327043 0.037220555486583699 0 -0.0029077617980968634 0.037185836593292526 0 -0.0029652915631200589 0.037049294743401115 0 -0.0029095347180564026 0.037143660286307688 0 -0.0029095347180564026 0.037143660286307688 0 -0.0028975509874048142 0.037168500737231859 0 -0.002910091043327043 0.037220555486583699 0 -0.0028975509874048142 0.037168500737231859 0 -0.002910091043327043 0.037220555486583699 0 -0.0028975616041861077 0.037192987961716953 0 -0.002910091043327043 0.037220555486583699 0 -0.0028975616041861077 0.037192987961716953 0 -0.002913844525603526 0.037229259564718446 0 -0.0029102701780687164 0.037235259188487649 0 -0.0028975616041861077 0.037192987961716953 0 -0.002913844525603526 0.037229259564718446 0 -0.0019759054650042461 0.03723189611846852 0 -0.0023223341080122325 0.037290287046861 0 -0.0023436697003130801 0.038041089044658548 0 -0.0018162963491996358 0.037330662793559205 0 -0.0015039247340102365 0.038379700022234779 0 -0.00073378874694140128 0.037594703963256711 0 -0.00034579429664989461 0.038402628929982162 0 -0.0015039247340102365 0.038379700022234779 0 -0.00073378874694140128 0.037594703963256711 0 -0.0018162963491996358 0.037330662793559205 0 -0.0015039247340102365 0.038379700022234779 0 -0.00073378874694140128 0.037594703963256711 0 -0.00034579429664989461 0.038402628929982162 0 0.0003765148822020801 0.037881602908980141 0 -0.0019759054650042461 0.03723189611846852 0 -0.00078124279261674353 0.03964653254046701 0 -0.0029102701780687164 0.037235259188487649 0 -0.0029122174684461499 0.037244775729143968 0 -0.002913844525603526 0.037229259564718446 0 -0.0029102701780687164 0.037235259188487649 0 -0.0029122174684461499 0.037244775729143968 0 -0.0028878283814676494 0.037270939934564762 0 -0.0029329559335808256 0.037252451546743816 0 -0.0029122174684461499 0.037244775729143968 0 -0.002913844525603526 0.037229259564718446 0 -0.0023135910539471092 0.04227529559717403 0 -0.0014257648106896059 0.043246772411664185 0 -0.0018880323825300205 0.04416895910511754 0 -0.002764822112368726 0.039956613651327785 0 -0.00078124279261674353 0.03964653254046701 0 -0.0029329559335808256 0.037252451546743816 0 -0.0029122174684461499 0.037244775729143968 0 -0.0028878283814676494 0.037270939934564762 0 -0.0023135910539471092 0.04227529559717403 0 -0.0014257648106896059 0.043246772411664185 0 -0.0010205985119353775 0.042488497902838124 0 -0.0014257648106896059 0.043246772411664185 0 -0.0011536367246337362 0.043668373091330606 0 -0.0013728984640025831 0.04387759363783568 0 -0.0013728984640025831 0.04387759363783568 0 -0.0011421969845176354 0.044225411622709897 0 -0.00095801220192153684 0.04393495144022358 0 -0.0010601179669316456 0.044352572405403731 0 -0.0011421969845176354 0.044225411622709897 0 -0.0018880323825300205 0.04416895910511754 0 -0.0014257648106896059 0.043246772411664185 0 -0.0013728984640025831 0.04387759363783568 0 -0.0018880323825300205 0.04416895910511754 0 -0.00078124279261674353 0.03964653254046701 0 0.0004843378277995637 0.038766007426481244 0 -0.0011536367246337362 0.043668373091330606 0 -0.0013728984640025831 0.04387759363783568 0 -0.00095801220192153684 0.04393495144022358 0 -0.00034579429664989461 0.038402628929982162 0 0.0003765148822020801 0.037881602908980141 0 0.00050791574949150115 0.038728981144255589 0 0.0008047857509508856 0.038738417580064577 0 0.00049892391639845221 0.038665977706914982 0 0.00057618126292213192 0.039153009695496073 0 -0.00017914415614492759 0.042493567931248935 0 -0.00078124279261674353 0.03964653254046701 0 -0.0013728984640025831 0.04387759363783568 0 -0.0011421969845176354 0.044225411622709897 0 -0.0018880323825300205 0.04416895910511754 0 -0.00017914415614492759 0.042493567931248935 0 -0.00016216604016149375 0.042634257897135326 0 -0.00017914415614492759 0.042493567931248935 0 0.00044182952892520791 0.044629544149305006 0 -0.0010270603134651622 0.044341423231293871 0 -0.00053290277010420656 0.044055496136823843 0 0.00045485421109237891 0.044318132183172897 0 -0.00053290277010420656 0.044055496136823843 0 0.00045485421109237891 0.044318132183172897 0 -0.00014862758294051964 0.04379224075322264 0 -0.00053290277010420656 0.044055496136823843 0 -0.00068628169804526163 0.043731618613044761 0 -0.00014862758294051964 0.04379224075322264 0 -0.00095801220192153684 0.04393495144022358 0 -0.00053290277010420656 0.044055496136823843 0 -0.00068628169804526163 0.043731618613044761 0 -0.0011536367246337362 0.043668373091330606 0 -0.00095801220192153684 0.04393495144022358 0 -0.00068628169804526163 0.043731618613044761 0 -0.00095801220192153684 0.04393495144022358 0 -0.00090941712012190877 0.044139814540813595 0 -0.00053290277010420656 0.044055496136823843 0 -0.0010270603134651622 0.044341423231293871 0 -0.00090941712012190877 0.044139814540813595 0 -0.00053290277010420656 0.044055496136823843 0 -0.0011421969845176354 0.044225411622709897 0 -0.00095801220192153684 0.04393495144022358 0 -0.00090941712012190877 0.044139814540813595 0 -0.0010270603134651622 0.044341423231293871 0 -0.0011421969845176354 0.044225411622709897 0 -0.00090941712012190877 0.044139814540813595 0 0.00045485421109237891 0.044318132183172897 0 0.00051336045380254137 0.043876302209674513 0 -0.00014862758294051964 0.04379224075322264 0 0.00045485421109237891 0.044318132183172897 0 0.00051336045380254137 0.043876302209674513 0 0.00060020278544092756 0.044181194350376415 0 0.00051336045380254137 0.043876302209674513 0 5.9359453399896477e-05 0.043242423286754088 0 0.00079307944015537105 0.042762363566459342 0 0.00051336045380254137 0.043876302209674513 0 5.9359453399896477e-05 0.043242423286754088 0 -0.00014862758294051964 0.04379224075322264 0 5.9359453399896477e-05 0.043242423286754088 0 0.00079307944015537105 0.042762363566459342 0 -4.0881648540781432e-05 0.042493550402003158 0 -0.0014257648106896059 0.043246772411664185 0 -0.0011536367246337362 0.043668373091330606 0 -0.00066802335983390986 0.043170624808020273 0 -0.0011536367246337362 0.043668373091330606 0 -0.00068628169804526163 0.043731618613044761 0 -0.00066802335983390986 0.043170624808020273 0 -0.00068628169804526163 0.043731618613044761 0 -0.00014862758294051964 0.04379224075322264 0 -0.00066802335983390986 0.043170624808020273 0 5.9359453399896477e-05 0.043242423286754088 0 -0.00014862758294051964 0.04379224075322264 0 -0.00066802335983390986 0.043170624808020273 0 5.9359453399896477e-05 0.043242423286754088 0 -0.00066802335983390986 0.043170624808020273 0 -4.0881648540781432e-05 0.042493550402003158 0 -0.00066802335983390986 0.043170624808020273 0 -0.0010205985119353775 0.042488497902838124 0 -4.0881648540781432e-05 0.042493550402003158 0 -0.0014257648106896059 0.043246772411664185 0 -0.00066802335983390986 0.043170624808020273 0 -0.0010205985119353775 0.042488497902838124 0 -0.0010205985119353775 0.042488497902838124 0 -0.00073531143186738809 0.041181000998690862 0 -4.0881648540781432e-05 0.042493550402003158 0 -0.00073531143186738809 0.041181000998690862 0 -4.0881648540781432e-05 0.042493550402003158 0 0.00015657473537282311 0.041496012907325068 0 -4.0881648540781432e-05 0.042493550402003158 0 0.0011531169778887925 0.041786680553924087 0 0.00015657473537282311 0.041496012907325068 0 0.00079307944015537105 0.042762363566459342 0 -4.0881648540781432e-05 0.042493550402003158 0 0.0011531169778887925 0.041786680553924087 0 0.00038437035955757852 0.040655882514617006 0 0.0017413027646631986 0.041044947866682766 0 0.0014983912076539469 0.040008023355627975 0 0.0011531169778887925 0.041786680553924087 0 0.00038437035955757852 0.040655882514617006 0 0.0017413027646631986 0.041044947866682766 0 0.0011531169778887925 0.041786680553924087 0 0.00015657473537282311 0.041496012907325068 0 0.00038437035955757852 0.040655882514617006 0 0.00088589686549497468 0.040204450983819473 0 0.00064722099427601048 0.041891156663191126 0 -0.0011792948257086935 0.039148905816671596 0 -0.00073531143186738809 0.041181000998690862 0 0.00078301681407240442 0.040176164524063245 0 -0.00073531143186738809 0.041181000998690862 0 0.00015657473537282311 0.041496012907325068 0 0.00038437035955757852 0.040655882514617006 0 -0.00071257157496434388 0.041187756866434659 0 0.00088589686549497468 0.040204450983819473 0 0.0015411683472110007 0.042781071774122888 0 0.0010304998015612185 0.043691653087739896 0 0.0027894430436397094 0.040629524475475937 0 0.0017413027646631986 0.041044947866682766 0 0.0014983912076539469 0.040008023355627975 0 0.0015411683472110007 0.042781071774122888 0 0.00064722099427601048 0.041891156663191126 0 0.0027894430436397094 0.040629524475475937 0 0.0017413027646631986 0.041044947866682766 0 0.00240470896547998 0.042389476169069018 0 0.00079307944015537105 0.042762363566459342 0 0.0011531169778887925 0.041786680553924087 0 0.00240470896547998 0.042389476169069018 0 0.0011531169778887925 0.041786680553924087 0 0.0017413027646631986 0.041044947866682766 0 0.00240470896547998 0.042389476169069018 0 0.00062244972598203324 0.04437792309410532 0 0.00053826958970526343 0.044407708311828574 0 0.00047872079778329464 0.044661140215041459 0 0.0017657038700371968 0.043208348738473214 0 0.0010304998015612185 0.043691653087739896 0 0.0027894430436397094 0.040629524475475937 0 0.00240470896547998 0.042389476169069018 0 0.0040157537451938376 0.041224400905766886 0 0.00062244972598203324 0.04437792309410532 0 0.00053826958970526343 0.044407708311828574 0 0.00057244098303683912 0.044282669059990044 0 0.0004237647011005714 0.043967839193232564 0 0.0017657038700371968 0.043208348738473214 0 0.00062244972598203324 0.04437792309410532 0 0.00060020278544092756 0.044181194350376415 0 0.00057244098303683912 0.044282669059990044 0 0.00051336045380254137 0.043876302209674513 0 0.00079307944015537105 0.042762363566459342 0 0.00240470896547998 0.042389476169069018 0 0.00051336045380254137 0.043876302209674513 0 0.00062244972598203324 0.04437792309410532 0 0.00060020278544092756 0.044181194350376415 0 0.00060020278544092756 0.044181194350376415 0 0.00057244098303683912 0.044282669059990044 0 0.00057430318635666813 0.044242807793689366 0 0.00053826958970526343 0.044407708311828574 0 0.00057244098303683912 0.044282669059990044 0 0.00048622105340690873 0.044374789424396814 0 0.00057244098303683912 0.044282669059990044 0 0.00048622105340690873 0.044374789424396814 0 0.00055038629618678672 0.044264131266044775 0 0.00057244098303683912 0.044282669059990044 0 0.00057430318635666813 0.044242807793689366 0 0.00055038629618678672 0.044264131266044775 0 0.00048622105340690873 0.044374789424396814 0 0.00035486842266819584 0.044459834329515398 0 0.00040145934702837154 0.044321067017811848 0 0.00048622105340690873 0.044374789424396814 0 0.00035486842266819584 0.044459834329515398 0 0.00037785527780348461 0.04454806826634708 0 0.00035486842266819584 0.044459834329515398 0 0.00027389995053561411 0.044384348096987387 0 0.00040145934702837154 0.044321067017811848 0 0.00037785527780348461 0.04454806826634708 0 0.00044475041103733302 0.044532310703260809 0 0.00032685584681139496 0.044702287188401579 0 0.00037785527780348461 0.04454806826634708 0 0.00026132487995434513 0.044649912674573279 0 0.00032685584681139496 0.044702287188401579 0 0.00035486842266819584 0.044459834329515398 0 0.00037785527780348461 0.04454806826634708 0 0.00026132487995434513 0.044649912674573279 0 0.00053826958970526343 0.044407708311828574 0 0.00048622105340690873 0.044374789424396814 0 0.00044475041103733302 0.044532310703260809 0 0.00048622105340690873 0.044374789424396814 0 0.00037785527780348461 0.04454806826634708 0 0.00044475041103733302 0.044532310703260809 0 1.7804762150558882e-08 0.045000065839311265 0 -2.1118986436840696e-06 0.044998217937858236 0 -3.7884120475704295e-06 0.044984517508310132 0 5.4496801217248111e-06 0.044432573354644844 0 0.00016842005422044843 0.044439710015543178 0 0.00016493692273291015 0.044322294936389561 0 5.4496801217248111e-06 0.044432573354644844 0 0.00012885107752897361 0.044545854971116482 0 0.00016842005422044843 0.044439710015543178 0 5.4496801217248111e-06 0.044432573354644844 0 0.00012885107752897361 0.044545854971116482 0 7.0381682557422586e-05 0.044707831424679323 0 0.00012885107752897361 0.044545854971116482 0 0.00022945914671916977 0.044516862365998389 0 0.00014065835800951759 0.044692871321124795 0 0.00012885107752897361 0.044545854971116482 0 0.00016842005422044843 0.044439710015543178 0 0.00022945914671916977 0.044516862365998389 0 0.00035486842266819584 0.044459834329515398 0 0.00027389995053561411 0.044384348096987387 0 0.00022945914671916977 0.044516862365998389 0 0.00016842005422044843 0.044439710015543178 0 0.00027389995053561411 0.044384348096987387 0 0.00022945914671916977 0.044516862365998389 0 0.00035486842266819584 0.044459834329515398 0 0.00022945914671916977 0.044516862365998389 0 0.00026132487995434513 0.044649912674573279 0 0.00026132487995434513 0.044649912674573279 0 0.00014065835800951759 0.044692871321124795 0 8.5253381108999467e-05 0.044881649202803763 0 0.00022945914671916977 0.044516862365998389 0 0.00026132487995434513 0.044649912674573279 0 0.00014065835800951759 0.044692871321124795 0 1.7804762150558882e-08 0.045000065839311265 0 -3.7884120475704295e-06 0.044984517508310132 0 -7.63693733769769e-08 0.044999642333940458 0 5.4496801217248111e-06 0.044432573354644844 0 7.0381682557422586e-05 0.044707831424679323 0 -3.7884120475704295e-06 0.044984517508310132 0 1.3241155088803969e-05 0.044721561961504244 0 -1.2016389831234238e-05 0.044954154336272444 0 0.00012885107752897361 0.044545854971116482 0 0.00014065835800951759 0.044692871321124795 0 7.0381682557422586e-05 0.044707831424679323 0 0.00014065835800951759 0.044692871321124795 0 7.0381682557422586e-05 0.044707831424679323 0 5.0428048383978016e-05 0.044862403776349716 0 0.00014065835800951759 0.044692871321124795 0 8.5253381108999467e-05 0.044881649202803763 0 5.0428048383978016e-05 0.044862403776349716 0 5.0428048383978016e-05 0.044862403776349716 0 -3.7884120475704295e-06 0.044984517508310132 0 -7.63693733769769e-08 0.044999642333940458 0 8.5253381108999467e-05 0.044881649202803763 0 5.0428048383978016e-05 0.044862403776349716 0 -7.63693733769769e-08 0.044999642333940458 0 7.0381682557422586e-05 0.044707831424679323 0 5.0428048383978016e-05 0.044862403776349716 0 -3.7884120475704295e-06 0.044984517508310132 0 -7.63693733769769e-08 0.044999642333940458 0 4.906986354377826e-05 0.044952502204058269 0 6.2197302514930924e-08 0.045000004239672868 0 8.5253381108999467e-05 0.044881649202803763 0 -7.63693733769769e-08 0.044999642333940458 0 4.906986354377826e-05 0.044952502204058269 0 0.00010758871276808938 0.044847120211364513 0 8.9576044999335432e-05 0.044887748258306728 0 8.5253381108999467e-05 0.044881649202803763 0 4.906986354377826e-05 0.044952502204058269 0 6.1132033575916404e-05 0.04493015634441562 0 0.00026132487995434513 0.044649912674573279 0 8.5253381108999467e-05 0.044881649202803763 0 0.00032685584681139496 0.044702287188401579 0 4.906986354377826e-05 0.044952502204058269 0 6.1132033575916404e-05 0.04493015634441562 0 4.4429851387706203e-05 0.04491871182044626 0 4.906986354377826e-05 0.044952502204058269 0 4.4429851387706203e-05 0.04491871182044626 0 2.8727167158348494e-05 0.044969073060987852 0 4.906986354377826e-05 0.044952502204058269 0 6.2197302514930924e-08 0.045000004239672868 0 2.8727167158348494e-05 0.044969073060987852 0 0.00053826958970526343 0.044407708311828574 0 0.00044475041103733302 0.044532310703260809 0 0.00047872079778329464 0.044661140215041459 0 0.00044475041103733302 0.044532310703260809 0 0.00032685584681139496 0.044702287188401579 0 0.00047872079778329464 0.044661140215041459 0 8.9576044999335432e-05 0.044887748258306728 0 0.0010304998015612185 0.043691653087739896 0 6.1132033575916404e-05 0.04493015634441562 0 4.4429851387706203e-05 0.04491871182044626 0 5.5179200484568476e-05 0.044916071719009645 0 -0.00040399535745635367 0.045290793290724593 0 0.0010304998015612185 0.043691653087739896 0 -2.5582273213286732e-05 0.044835974586642832 0 1.297747544625999e-05 0.044876971509880355 0 4.798847769549497e-06 0.044839484492450336 0 4.4429851387706203e-05 0.04491871182044626 0 1.297747544625999e-05 0.044876971509880355 0 4.798847769549497e-06 0.044839484492450336 0 4.798847769549497e-06 0.044839484492450336 0 -9.9482083433123698e-06 0.0447541700596416 0 -3.6448808100729766e-05 0.044798313116755049 0 -1.8178924876430121e-06 0.04484699571044972 0 4.8752556950944663e-05 0.044869831628228871 0 4.798847769549497e-06 0.044839484492450336 0 1.2512043881327255e-05 0.04477128779912793 0 5.2405051926132147e-05 0.04477160114098297 0 4.4429851387706203e-05 0.04491871182044626 0 4.798847769549497e-06 0.044839484492450336 0 4.3067526858073207e-05 0.044959878891792308 0 1.1080509004487887e-05 0.044723252669402518 0 5.2405051926132147e-05 0.04477160114098297 0 4.0131041627326646e-05 0.04472382433646422 0 1.2512043881327255e-05 0.04477128779912793 0 1.1080509004487887e-05 0.044723252669402518 0 5.2405051926132147e-05 0.04477160114098297 0 1.1080509004487887e-05 0.044723252669402518 0 -7.6628908063021897e-05 0.044621408793596634 0 -9.2857005989495482e-06 0.044632852427438981 0 1.1080509004487887e-05 0.044723252669402518 0 -9.2857005989495482e-06 0.044632852427438981 0 4.0131041627326646e-05 0.04472382433646422 0 4.798847769549497e-06 0.044839484492450336 0 1.2512043881327255e-05 0.04477128779912793 0 -9.9482083433123698e-06 0.0447541700596416 0 -8.5574289884646646e-06 0.044577620954227778 0 -0.000137977510240627 0.04405013116503903 0 1.1080509004487887e-05 0.044723252669402518 0 -7.6628908063021897e-05 0.044621408793596634 0 -0.00019968455588980337 0.044686513302849451 0 -0.00023748596095883855 0.044401783850356674 0 -0.000137977510240627 0.04405013116503903 0 1.2512043881327255e-05 0.04477128779912793 0 1.1080509004487887e-05 0.044723252669402518 0 -9.9482083433123698e-06 0.0447541700596416 0 6.2197302514930924e-08 0.045000004239672868 0 2.8727167158348494e-05 0.044969073060987852 0 -9.8435833205563414e-09 0.044999986438067234 0 4.4429851387706203e-05 0.04491871182044626 0 2.8727167158348494e-05 0.044969073060987852 0 4.3067526858073207e-05 0.044959878891792308 0 5.2405051926132147e-05 0.04477160114098297 0 3.8607778678682248e-05 0.0448356796653454 0 4.0131041627326646e-05 0.04472382433646422 0 2.8727167158348494e-05 0.044969073060987852 0 4.3067526858073207e-05 0.044959878891792308 0 -9.8435833205563414e-09 0.044999986438067234 0 4.8752556950944663e-05 0.044869831628228871 0 4.1520895390388547e-08 0.044999941764405804 0 5.2405051926132147e-05 0.04477160114098297 0 6.1981470340833937e-08 0.044999571659078169 0 3.8607778678682248e-05 0.0448356796653454 0 3.8607778678682248e-05 0.0448356796653454 0 4.2086544906957355e-05 0.044770923492688679 0 5.0737191875152546e-08 0.044999744544465592 0 6.1981470340833937e-08 0.044999571659078169 0 3.8607778678682248e-05 0.0448356796653454 0 5.0737191875152546e-08 0.044999744544465592 0 3.8607778678682248e-05 0.0448356796653454 0 4.0844263688951287e-05 0.044710027698230313 0 4.2086544906957355e-05 0.044770923492688679 0 3.8607778678682248e-05 0.0448356796653454 0 4.0844263688951287e-05 0.044710027698230313 0 4.0131041627326646e-05 0.04472382433646422 0 1.7718062931922296e-05 0.044435670892273453 0 6.0380668897188264e-05 0.044682972219944495 0 3.7201493580806474e-05 0.044612288537722519 0 6.0380668897188264e-05 0.044682972219944495 0 3.7201493580806474e-05 0.044612288537722519 0 4.2086544906957355e-05 0.044770923492688679 0 4.0844263688951287e-05 0.044710027698230313 0 3.7201493580806474e-05 0.044612288537722519 0 4.2086544906957355e-05 0.044770923492688679 0 6.0380668897188264e-05 0.044682972219944495 0 4.2086544906957355e-05 0.044770923492688679 0 5.0737191875152546e-08 0.044999744544465592 0 -6.7643631327905755e-05 0.044512452830449238 0 -0.00019652029722161521 0.044379490457451216 0 -5.0216663488545472e-05 0.044400994531173431 0 -7.6628908063021897e-05 0.044621408793596634 0 -0.00014370185708585122 0.044596805165317548 0 -0.00019652029722161521 0.044379490457451216 0 -7.6628908063021897e-05 0.044621408793596634 0 -6.7643631327905755e-05 0.044512452830449238 0 -0.00019652029722161521 0.044379490457451216 0 -6.7643631327905755e-05 0.044512452830449238 0 -9.2857005989495482e-06 0.044632852427438981 0 7.7066189771695181e-06 0.044603775418071624 0 -7.6628908063021897e-05 0.044621408793596634 0 -6.7643631327905755e-05 0.044512452830449238 0 -9.2857005989495482e-06 0.044632852427438981 0 4.0844263688951287e-05 0.044710027698230313 0 4.0131041627326646e-05 0.04472382433646422 0 7.7066189771695181e-06 0.044603775418071624 0 -9.2857005989495482e-06 0.044632852427438981 0 4.0131041627326646e-05 0.04472382433646422 0 7.7066189771695181e-06 0.044603775418071624 0 4.0844263688951287e-05 0.044710027698230313 0 3.7201493580806474e-05 0.044612288537722519 0 7.7066189771695181e-06 0.044603775418071624 0 -6.7643631327905755e-05 0.044512452830449238 0 7.7066189771695181e-06 0.044603775418071624 0 -5.0216663488545472e-05 0.044400994531173431 0 1.7718062931922296e-05 0.044435670892273453 0 3.7201493580806474e-05 0.044612288537722519 0 -5.0216663488545472e-05 0.044400994531173431 0 3.7201493580806474e-05 0.044612288537722519 0 7.7066189771695181e-06 0.044603775418071624 0 -5.0216663488545472e-05 0.044400994531173431 0 -6.9019068977393781e-05 0.04420598066440528 0 1.7718062931922296e-05 0.044435670892273453 0 -5.0216663488545472e-05 0.044400994531173431 0 -6.9019068977393781e-05 0.04420598066440528 0 -5.0216663488545472e-05 0.044400994531173431 0 -0.00021208069924663568 0.044109161422067562 0 -0.00019652029722161521 0.044379490457451216 0 -5.0216663488545472e-05 0.044400994531173431 0 -0.00021208069924663568 0.044109161422067562 0 -0.00019652029722161521 0.044379490457451216 0 -0.00021208069924663568 0.044109161422067562 0 -0.00048907579499884394 0.044072940528195034 0 -0.00047764257100289971 0.043829148288406311 0 -0.00021208069924663568 0.044109161422067562 0 -0.00048907579499884394 0.044072940528195034 0 -0.00019652029722161521 0.044379490457451216 0 -0.00048907579499884394 0.044072940528195034 0 -0.00047256014818139144 0.04445764204806292 0 -0.00048907579499884394 0.044072940528195034 0 -0.00090707941712016521 0.044009831506244636 0 -0.00047256014818139144 0.04445764204806292 0 -0.00048907579499884394 0.044072940528195034 0 -0.00075142013078540414 0.04364519565541311 0 -0.00090707941712016521 0.044009831506244636 0 -0.00047764257100289971 0.043829148288406311 0 -0.00048907579499884394 0.044072940528195034 0 -0.00075142013078540414 0.04364519565541311 0 -0.00075142013078540414 0.04364519565541311 0 -0.0015085791782356677 0.043430331441154539 0 -0.00090707941712016521 0.044009831506244636 0 -0.0015389229543254722 0.042247132861756596 0 -0.0021435546515971671 0.042918563621958901 0 -0.0015085791782356677 0.043430331441154539 0 -0.0015389229543254722 0.042247132861756596 0 -0.00075142013078540414 0.04364519565541311 0 -0.0015085791782356677 0.043430331441154539 0 -0.0015085791782356677 0.043430331441154539 0 -0.0015579712539208642 0.043998825497327275 0 -0.00090707941712016521 0.044009831506244636 0 -0.0020909715889860254 0.043587767806251287 0 -0.0015085791782356677 0.043430331441154539 0 -0.0015579712539208642 0.043998825497327275 0 -0.0015579712539208642 0.043998825497327275 0 -0.00090707941712016521 0.044009831506244636 0 -0.0010760575079402539 0.044376114614203564 0 -0.000729539307798356 0.042787658100617208 0 -0.00078625403502515629 0.042898167359592627 0 -0.00059052243353317031 0.042876450479680007 0 -0.00090707941712016521 0.044009831506244636 0 -0.0010760575079402539 0.044376114614203564 0 -0.00047256014818139144 0.04445764204806292 0 -0.0019704651622629329 0.044245566315227539 0 -0.0015579712539208642 0.043998825497327275 0 -0.0010760575079402539 0.044376114614203564 0 -0.0010407483510309708 0.042774830222312078 0 -0.000729539307798356 0.042787658100617208 0 -0.00078625403502515629 0.042898167359592627 0 -0.0017197286474611589 0.042007960761546961 0 -0.00086001244330096891 0.043738310967747676 0 -0.0017197286474611589 0.042007960761546961 0 -0.00027953984527794614 0.040410022666703412 0 -0.0011792948257086935 0.039148905816671596 0 -0.0017435356328597599 0.03749981671514932 0 0.00029980712599624124 0.038347969764719325 0 -0.0011792948257086935 0.039148905816671596 0 0.00078301681407240442 0.040176164524063245 0 0.00029980712599624124 0.038347969764719325 0 -0.00027953984527794614 0.040410022666703412 0 0.00064722099427601048 0.041891156663191126 0 0.00078301681407240442 0.040176164524063245 0 0.00029980712599624124 0.038347969764719325 0 0.0022439512488377222 0.039260895220660681 0 -0.00078625403502515629 0.042898167359592627 0 -0.00059052243353317031 0.042876450479680007 0 -0.00057165941003415959 0.042989325944193073 0 -2.5582273213286732e-05 0.044835974586642832 0 -4.8684958655106304e-05 0.044796112850116032 0 -3.6448808100729766e-05 0.044798313116755049 0 0.00064722099427601048 0.041891156663191126 0 -0.00047776958626283256 0.04406334565721761 0 -0.00059052243353317031 0.042876450479680007 0 -0.00057165941003415959 0.042989325944193073 0 -0.0004181345506556738 0.042897993136110042 0 -2.5582273213286732e-05 0.044835974586642832 0 4.798847769549497e-06 0.044839484492450336 0 -3.6448808100729766e-05 0.044798313116755049 0 -0.00014370185708585122 0.044596805165317548 0 -0.00019652029722161521 0.044379490457451216 0 -0.00047256014818139144 0.04445764204806292 0 -0.000137977510240627 0.04405013116503903 0 -0.00047776958626283256 0.04406334565721761 0 -0.000137977510240627 0.04405013116503903 0 -0.00049587578236254205 0.04358563641953022 0 -0.00027855122953595598 0.042829855147880569 0 -0.0004181345506556738 0.042897993136110042 0 -0.0004817731415074452 0.042811198117096279 0 -0.00059052243353317031 0.042876450479680007 0 -0.0004181345506556738 0.042897993136110042 0 -0.0004817731415074452 0.042811198117096279 0 -0.00086001244330096891 0.043738310967747676 0 -0.00049587578236254205 0.04358563641953022 0 -0.000729539307798356 0.042787658100617208 0 -0.00059052243353317031 0.042876450479680007 0 -0.0004817731415074452 0.042811198117096279 0 -0.005729723173226133 -0.013671509784937036 0 -0.0054365491530945246 -0.013309563254127507 0 -0.0058296661712840016 -0.01377627067040142 0 -0.005729723173226133 -0.013671509784937036 0 -0.0059321380346843292 -0.013202291830658359 0 -0.0054365491530945246 -0.013309563254127507 0 -0.0059321380346843292 -0.013202291830658359 0 -0.0059134057259225322 -0.014222074445088485 0 -0.0071899724399264548 -0.013464881473750695 0 -0.005729723173226133 -0.013671509784937036 0 -0.0059321380346843292 -0.013202291830658359 0 -0.0059134057259225322 -0.014222074445088485 0 -0.0059321380346843292 -0.013202291830658359 0 -0.0063202231662384412 -0.012541035262600522 0 -0.0056259818411552786 -0.012344861020672669 0 -0.0063202231662384412 -0.012541035262600522 0 -0.0056259818411552786 -0.012344861020672669 0 -0.0059733414484541367 -0.011756078023905851 0 -0.0056259818411552786 -0.012344861020672669 0 -0.0053590913720862592 -0.012409035627103878 0 -0.0055704462073665204 -0.012810763734254375 0 -0.0059321380346843292 -0.013202291830658359 0 -0.0056259818411552786 -0.012344861020672669 0 -0.0055704462073665204 -0.012810763734254375 0 -0.0059321380346843292 -0.013202291830658359 0 -0.0055704462073665204 -0.012810763734254375 0 -0.0054365491530945246 -0.013309563254127507 0 -0.0054365491530945246 -0.013309563254127507 0 -0.00519522897567248 -0.012607888673004421 0 -0.0040871511167345055 -0.012816547556813461 0 -0.0055704462073665204 -0.012810763734254375 0 -0.0054365491530945246 -0.013309563254127507 0 -0.00519522897567248 -0.012607888673004421 0 -0.0053590913720862592 -0.012409035627103878 0 -0.00519522897567248 -0.012607888673004421 0 -0.0050737868290730275 -0.011926661069422579 0 -0.0053590913720862592 -0.012409035627103878 0 -0.0055704462073665204 -0.012810763734254375 0 -0.00519522897567248 -0.012607888673004421 0 -0.0040871511167345055 -0.012816547556813461 0 -0.0031391382503139251 -0.011891554654359371 0 -0.0031090627411219556 -0.013688502097325927 0 -0.0054365491530945246 -0.013309563254127507 0 -0.0040871511167345055 -0.012816547556813461 0 -0.0031090627411219556 -0.013688502097325927 0 -0.00519522897567248 -0.012607888673004421 0 -0.0043763517853436119 -0.011927714090641663 0 -0.0040871511167345055 -0.012816547556813461 0 -0.0043763517853436119 -0.011927714090641663 0 -0.0040871511167345055 -0.012816547556813461 0 -0.0031391382503139251 -0.011891554654359371 0 -0.0031391382503139251 -0.011891554654359371 0 -0.0031090627411219556 -0.013688502097325927 0 -0.0016515764943254734 -0.012634325587921607 0 -0.0031391382503139251 -0.011891554654359371 0 -0.0019536978735061354 -0.011459543242028275 0 -0.0016515764943254734 -0.012634325587921607 0 -0.0031090627411219556 -0.013688502097325927 0 -0.00090167625614373124 -0.014169640278683154 0 -0.0016515764943254734 -0.012634325587921607 0 -0.0042185151184911162 -0.014102742337243689 0 -0.0047226486686647324 -0.010192297188947671 0 -0.0059899418703208279 -0.013750790300985544 0 -0.0061450543793787988 -0.013676325865753855 0 -0.0062716252605870817 -0.013725022252005049 0 -0.0055955604417322891 -0.013249983899736948 0 -0.0042185151184911162 -0.014102742337243689 0 -0.0054365491530945246 -0.013309563254127507 0 -0.0059899418703208279 -0.013750790300985544 0 -0.0058296661712840016 -0.01377627067040142 0 -0.0059899418703208279 -0.013750790300985544 0 -0.0058296661712840016 -0.01377627067040142 0 -0.0061450543793787988 -0.013676325865753855 0 -0.0058296661712840016 -0.01377627067040142 0 -0.0061450543793787988 -0.013676325865753855 0 -0.0061768859522420023 -0.013545990668281839 0 -0.0061450543793787988 -0.013676325865753855 0 -0.0063747292700823445 -0.013549545192193065 0 -0.0062716252605870817 -0.013725022252005049 0 -0.0063747292700823445 -0.013549545192193065 0 -0.0061768859522420023 -0.013545990668281839 0 -0.0066685969514421514 -0.012679646225401407 0 -0.0061450543793787988 -0.013676325865753855 0 -0.0063747292700823445 -0.013549545192193065 0 -0.0061768859522420023 -0.013545990668281839 0 -0.0058296661712840016 -0.01377627067040142 0 -0.0061768859522420023 -0.013545990668281839 0 -0.0059600607283392185 -0.01366838489564774 0 -0.0058296661712840016 -0.01377627067040142 0 -0.0059600607283392185 -0.01366838489564774 0 -0.0059134057259225322 -0.014222074445088485 0 -0.005729723173226133 -0.013671509784937036 0 -0.0058296661712840016 -0.01377627067040142 0 -0.0059134057259225322 -0.014222074445088485 0 -0.0059600607283392185 -0.01366838489564774 0 -0.0059134057259225322 -0.014222074445088485 0 -0.0056871398597110323 -0.013921286151145996 0 -0.0059134057259225322 -0.014222074445088485 0 -0.0056871398597110323 -0.013921286151145996 0 -0.0053156732349636613 -0.014562450345419725 0 -0.0056871398597110323 -0.013921286151145996 0 -0.0053156732349636613 -0.014562450345419725 0 -0.0050633025374625931 -0.013969206943791865 0 -0.0048377607191513964 -0.014687222458492773 0 -0.0044163567767281104 -0.01467381585700684 0 -0.0050633025374625931 -0.013969206943791865 0 -0.0053156732349636613 -0.014562450345419725 0 -0.0048377607191513964 -0.014687222458492773 0 -0.0050633025374625931 -0.013969206943791865 0 -0.0048377607191513964 -0.014687222458492773 0 -0.0048037608857891155 -0.015301636986718209 0 -0.0044690332986110923 -0.015147106154289635 0 -0.0053156732349636613 -0.014562450345419725 0 -0.0048377607191513964 -0.014687222458492773 0 -0.0048037608857891155 -0.015301636986718209 0 -0.0053156732349636613 -0.014562450345419725 0 -0.0048037608857891155 -0.015301636986718209 0 -0.0052061894714776503 -0.015785737946266781 0 -0.0048037608857891155 -0.015301636986718209 0 -0.0044885741892523841 -0.016051049638660456 0 -0.0052061894714776503 -0.015785737946266781 0 -0.0059134057259225322 -0.014222074445088485 0 -0.0053156732349636613 -0.014562450345419725 0 -0.0052061894714776503 -0.015785737946266781 0 -0.0035217025716014934 -0.015544477288539096 0 -0.0038699246980906515 -0.014827918512332811 0 -0.0032553146616583254 -0.015185348272608971 0 -0.0035217025716014934 -0.015544477288539096 0 -0.004026978966055297 -0.015354682014955936 0 -0.0038699246980906515 -0.014827918512332811 0 -0.0035217025716014934 -0.015544477288539096 0 -0.004026978966055297 -0.015354682014955936 0 -0.0036575310127648017 -0.016062583024217685 0 -0.004026978966055297 -0.015354682014955936 0 -0.0044163567767281104 -0.01467381585700684 0 -0.0038699246980906515 -0.014827918512332811 0 -0.0048377607191513964 -0.014687222458492773 0 -0.0044163567767281104 -0.01467381585700684 0 -0.0044690332986110923 -0.015147106154289635 0 -0.004026978966055297 -0.015354682014955936 0 -0.0044163567767281104 -0.01467381585700684 0 -0.0044690332986110923 -0.015147106154289635 0 -0.0048037608857891155 -0.015301636986718209 0 -0.0044690332986110923 -0.015147106154289635 0 -0.0042276124885327927 -0.015773667383504261 0 -0.0048037608857891155 -0.015301636986718209 0 -0.0042276124885327927 -0.015773667383504261 0 -0.0044885741892523841 -0.016051049638660456 0 -0.0042276124885327927 -0.015773667383504261 0 -0.0039559983130317044 -0.016449544389634908 0 -0.0044885741892523841 -0.016051049638660456 0 -0.004026978966055297 -0.015354682014955936 0 -0.0042276124885327927 -0.015773667383504261 0 -0.0036575310127648017 -0.016062583024217685 0 -0.004026978966055297 -0.015354682014955936 0 -0.0044690332986110923 -0.015147106154289635 0 -0.0042276124885327927 -0.015773667383504261 0 -0.0042276124885327927 -0.015773667383504261 0 -0.0036575310127648017 -0.016062583024217685 0 -0.0039559983130317044 -0.016449544389634908 0 -0.0036575310127648017 -0.016062583024217685 0 -0.0034767185714137403 -0.016687779629810568 0 -0.0031442842672688614 -0.016485477678890539 0 -0.0036575310127648017 -0.016062583024217685 0 -0.0031442842672688614 -0.016485477678890539 0 -0.0032924818497512992 -0.016064056565628371 0 -0.0035217025716014934 -0.015544477288539096 0 -0.0036575310127648017 -0.016062583024217685 0 -0.0032924818497512992 -0.016064056565628371 0 -0.0033628962561708655 -0.017164452007240961 0 -0.0034767185714137403 -0.016687779629810568 0 -0.0037284690083800053 -0.017003964910056683 0 -0.0034767185714137403 -0.016687779629810568 0 -0.0039559983130317044 -0.016449544389634908 0 -0.0037284690083800053 -0.017003964910056683 0 -0.0036575310127648017 -0.016062583024217685 0 -0.0034767185714137403 -0.016687779629810568 0 -0.0039559983130317044 -0.016449544389634908 0 -0.0039559983130317044 -0.016449544389634908 0 -0.0037284690083800053 -0.017003964910056683 0 -0.004169184191411577 -0.017033958539559878 0 -0.0039559983130317044 -0.016449544389634908 0 -0.0044885741892523841 -0.016051049638660456 0 -0.004169184191411577 -0.017033958539559878 0 -0.007976287982605355 -0.012324466459588384 0 -0.0083849584058861126 -0.012654837314417357 0 -0.0076283906983780096 -0.01265578608956551 0 -0.007976287982605355 -0.012324466459588384 0 -0.0083501661314166423 -0.01251451426523887 0 -0.0080391426173053084 -0.011707570749644274 0 -0.007976287982605355 -0.012324466459588384 0 -0.0083501661314166423 -0.01251451426523887 0 -0.0083849584058861126 -0.012654837314417357 0 -0.0037284690083800053 -0.017003964910056683 0 -0.004169184191411577 -0.017033958539559878 0 -0.0030218317898630265 -0.01792518084212557 0 -0.0033628962561708655 -0.017164452007240961 0 -0.0037284690083800053 -0.017003964910056683 0 -0.0030218317898630265 -0.01792518084212557 0 -0.0083849584058861126 -0.012654837314417357 0 -0.0082430777070186985 -0.012641838966235981 0 -0.0080757664247427651 -0.012563518920332634 0 -0.0084242010970137331 -0.012484878361599533 0 -0.0087852013392861906 -0.012320129920552298 0 -0.0083501661314166423 -0.01251451426523887 0 -0.0083849584058861126 -0.012654837314417357 0 -0.0082430777070186985 -0.012641838966235981 0 -0.0062570839313459362 -0.014845864089314089 0 -0.0053912430062393003 -0.015305102358351953 0 -0.0059321380346843292 -0.013202291830658359 0 -0.0063202231662384412 -0.012541035262600522 0 -0.0071899724399264548 -0.013464881473750695 0 -0.0058932889100272992 -0.014318727637364095 0 -0.006128159931347083 -0.01462214544834884 0 -0.0083849584058861126 -0.012654837314417357 0 -0.0071899724399264548 -0.013464881473750695 0 -0.0076283906983780096 -0.01265578608956551 0 -0.0044885741892523841 -0.016051049638660456 0 -0.004169184191411577 -0.017033958539559878 0 -0.0052061894714776503 -0.015785737946266781 0 -0.0062570839313459362 -0.014845864089314089 0 -0.006128159931347083 -0.01462214544834884 0 -0.0076283906983780096 -0.01265578608956551 0 -0.0068253906991048987 -0.012122859974982412 0 -0.0073859857384672416 -0.011779555766862576 0 -0.0071899724399264548 -0.013464881473750695 0 -0.0076283906983780096 -0.01265578608956551 0 -0.0068253906991048987 -0.012122859974982412 0 -0.007976287982605355 -0.012324466459588384 0 -0.0076283906983780096 -0.01265578608956551 0 -0.0073859857384672416 -0.011779555766862576 0 -0.0063202231662384412 -0.012541035262600522 0 -0.0071899724399264548 -0.013464881473750695 0 -0.0068253906991048987 -0.012122859974982412 0 -0.0066416584440947262 -0.011471062834360279 0 -0.0068253906991048987 -0.012122859974982412 0 -0.0059733414484541367 -0.011756078023905851 0 -0.0063202231662384412 -0.012541035262600522 0 -0.0068253906991048987 -0.012122859974982412 0 -0.0059733414484541367 -0.011756078023905851 0 -0.0066416584440947262 -0.011471062834360279 0 -0.0063359635488924393 -0.010910666261564495 0 -0.0059733414484541367 -0.011756078023905851 0 -0.0066416584440947262 -0.011471062834360279 0 -0.0073859857384672416 -0.011779555766862576 0 -0.0070486601577247447 -0.010976035602789775 0 -0.0066416584440947262 -0.011471062834360279 0 -0.0068253906991048987 -0.012122859974982412 0 -0.0073859857384672416 -0.011779555766862576 0 -0.007976287982605355 -0.012324466459588384 0 -0.0073859857384672416 -0.011779555766862576 0 -0.0080391426173053084 -0.011707570749644274 0 -0.0073859857384672416 -0.011779555766862576 0 -0.0076852426858685114 -0.011202499568046378 0 -0.0080391426173053084 -0.011707570749644274 0 -0.0073859857384672416 -0.011779555766862576 0 -0.0076852426858685114 -0.011202499568046378 0 -0.0070486601577247447 -0.010976035602789775 0 -0.0075806369341538471 -0.010420485111958432 0 -0.0067076984581970634 -0.010315894162244958 0 -0.0070486601577247447 -0.010976035602789775 0 -0.0076852426858685114 -0.011202499568046378 0 -0.0075806369341538471 -0.010420485111958432 0 -0.0070486601577247447 -0.010976035602789775 0 -0.0067076984581970634 -0.010315894162244958 0 -0.0063359635488924393 -0.010910666261564495 0 -0.0058446953162043557 -0.010062504654608333 0 -0.0067076984581970634 -0.010315894162244958 0 -0.0063359635488924393 -0.010910666261564495 0 -0.0070486601577247447 -0.010976035602789775 0 -0.0066416584440947262 -0.011471062834360279 0 -0.0063359635488924393 -0.010910666261564495 0 -0.0070486601577247447 -0.010976035602789775 0 -0.0083501661314166423 -0.01251451426523887 0 -0.0094569714535574605 -0.011906282729957279 0 -0.0086813326361078174 -0.011775078876292191 0 -0.0094924406536566405 -0.011100056889208723 0 -0.0094569714535574605 -0.011906282729957279 0 -0.0086813326361078174 -0.011775078876292191 0 -0.0094924406536566405 -0.011100056889208723 0 -0.0086813326361078174 -0.011775078876292191 0 -0.0084536823208495281 -0.010854755361456551 0 -0.0086813326361078174 -0.011775078876292191 0 -0.0080391426173053084 -0.011707570749644274 0 -0.0084536823208495281 -0.010854755361456551 0 -0.0083501661314166423 -0.01251451426523887 0 -0.0086813326361078174 -0.011775078876292191 0 -0.0080391426173053084 -0.011707570749644274 0 -0.0076852426858685114 -0.011202499568046378 0 -0.0080391426173053084 -0.011707570749644274 0 -0.0084536823208495281 -0.010854755361456551 0 -0.0076852426858685114 -0.011202499568046378 0 -0.0075806369341538471 -0.010420485111958432 0 -0.0084536823208495281 -0.010854755361456551 0 -0.0075806369341538471 -0.010420485111958432 0 -0.0084536823208495281 -0.010854755361456551 0 -0.0083347423434151965 -0.010029587273605364 0 -0.0084536823208495281 -0.010854755361456551 0 -0.0088213708470780278 -0.01038074230673269 0 -0.0083347423434151965 -0.010029587273605364 0 -0.0090275694600401683 -0.01072873700278979 0 -0.0084536823208495281 -0.010854755361456551 0 -0.0088213708470780278 -0.01038074230673269 0 -0.0093259337203449762 -0.010964339864879468 0 -0.0085157954172266192 -0.010829384587921072 0 -0.0088213708470780278 -0.01038074230673269 0 -0.0089374873940337579 -0.0098031136916483484 0 -0.0092895214910132407 -0.010256756686598048 0 -0.0090275694600401683 -0.01072873700278979 0 -0.0088213708470780278 -0.01038074230673269 0 -0.0092895214910132407 -0.010256756686598048 0 -0.0089374873940337579 -0.0098031136916483484 0 -0.0083347423434151965 -0.010029587273605364 0 -0.008608380627285004 -0.0091406922828683006 0 -0.0089374873940337579 -0.0098031136916483484 0 -0.008608380627285004 -0.0091406922828683006 0 -0.0092088968059236675 -0.0090471482295161956 0 -0.0088213708470780278 -0.01038074230673269 0 -0.0089374873940337579 -0.0098031136916483484 0 -0.0083347423434151965 -0.010029587273605364 0 -0.0075806369341538471 -0.010420485111958432 0 -0.0083347423434151965 -0.010029587273605364 0 -0.0078368432368667966 -0.0093714424451219365 0 -0.0083347423434151965 -0.010029587273605364 0 -0.0078368432368667966 -0.0093714424451219365 0 -0.008608380627285004 -0.0091406922828683006 0 -0.0078368432368667966 -0.0093714424451219365 0 -0.0082711196533710955 -0.0083833506942848079 0 -0.0075967515779869028 -0.0084370752554566997 0 -0.0078368432368667966 -0.0093714424451219365 0 -0.008608380627285004 -0.0091406922828683006 0 -0.0082711196533710955 -0.0083833506942848079 0 -0.008608380627285004 -0.0091406922828683006 0 -0.0090536146696596227 -0.0083249802981678264 0 -0.0082711196533710955 -0.0083833506942848079 0 -0.008608380627285004 -0.0091406922828683006 0 -0.0092088968059236675 -0.0090471482295161956 0 -0.0090536146696596227 -0.0083249802981678264 0 -0.0067076984581970634 -0.010315894162244958 0 -0.0063695633965563216 -0.0093717593095189854 0 -0.0071348201694292606 -0.0096844991947071263 0 -0.0067076984581970634 -0.010315894162244958 0 -0.0063695633965563216 -0.0093717593095189854 0 -0.0058446953162043557 -0.010062504654608333 0 -0.0075806369341538471 -0.010420485111958432 0 -0.0078368432368667966 -0.0093714424451219365 0 -0.0071348201694292606 -0.0096844991947071263 0 -0.0075806369341538471 -0.010420485111958432 0 -0.0067076984581970634 -0.010315894162244958 0 -0.0071348201694292606 -0.0096844991947071263 0 -0.0078368432368667966 -0.0093714424451219365 0 -0.0071166077146283899 -0.0089991929206354564 0 -0.0075967515779869028 -0.0084370752554566997 0 -0.0071166077146283899 -0.0089991929206354564 0 -0.0075967515779869028 -0.0084370752554566997 0 -0.0065681205881174759 -0.0082641961772683473 0 -0.0078368432368667966 -0.0093714424451219365 0 -0.0071348201694292606 -0.0096844991947071263 0 -0.0071166077146283899 -0.0089991929206354564 0 -0.0063695633965563216 -0.0093717593095189854 0 -0.0071166077146283899 -0.0089991929206354564 0 -0.0065681205881174759 -0.0082641961772683473 0 -0.0063695633965563216 -0.0093717593095189854 0 -0.0057885525895425751 -0.0088647991493767276 0 -0.0065681205881174759 -0.0082641961772683473 0 -0.0063695633965563216 -0.0093717593095189854 0 -0.0071348201694292606 -0.0096844991947071263 0 -0.0071166077146283899 -0.0089991929206354564 0 -0.0057885525895425751 -0.0088647991493767276 0 -0.0049807383057567812 -0.0087531331650025895 0 -0.0054880587038935759 -0.0080958521478789736 0 -0.0057885525895425751 -0.0088647991493767276 0 -0.005827714600645924 -0.0094181259805516896 0 -0.0052936704738075994 -0.0093789502568513029 0 -0.0057885525895425751 -0.0088647991493767276 0 -0.0049807383057567812 -0.0087531331650025895 0 -0.0052936704738075994 -0.0093789502568513029 0 -0.0063695633965563216 -0.0093717593095189854 0 -0.0057885525895425751 -0.0088647991493767276 0 -0.005827714600645924 -0.0094181259805516896 0 -0.0042916677850694512 -0.0088619681731241153 0 -0.0049807383057567812 -0.0087531331650025895 0 -0.0043633792620438351 -0.0079520565579829922 0 -0.0049807383057567812 -0.0087531331650025895 0 -0.0046204505177448044 -0.0093460439445086675 0 -0.0052936704738075994 -0.0093789502568513029 0 -0.0042916677850694512 -0.0088619681731241153 0 -0.0049807383057567812 -0.0087531331650025895 0 -0.0046204505177448044 -0.0093460439445086675 0 -0.0042916677850694512 -0.0088619681731241153 0 -0.0046204505177448044 -0.0093460439445086675 0 -0.0039771370894147017 -0.0093459279644374765 0 -0.0046204505177448044 -0.0093460439445086675 0 -0.0049683130772807125 -0.0097999983750182273 0 -0.0043793349398782476 -0.0098830689559455225 0 -0.0046204505177448044 -0.0093460439445086675 0 -0.0043793349398782476 -0.0098830689559455225 0 -0.0039771370894147017 -0.0093459279644374765 0 -0.0046204505177448044 -0.0093460439445086675 0 -0.0049683130772807125 -0.0097999983750182273 0 -0.0052936704738075994 -0.0093789502568513029 0 -0.0049683130772807125 -0.0097999983750182273 0 -0.0043793349398782476 -0.0098830689559455225 0 -0.0051407839683839471 -0.010336966734678885 0 -0.0043793349398782476 -0.0098830689559455225 0 -0.0051407839683839471 -0.010336966734678885 0 -0.0044348507616228149 -0.010421768713422791 0 -0.0063695633965563216 -0.0093717593095189854 0 -0.005827714600645924 -0.0094181259805516896 0 -0.0058446953162043557 -0.010062504654608333 0 -0.005827714600645924 -0.0094181259805516896 0 -0.0052936704738075994 -0.0093789502568513029 0 -0.0058446953162043557 -0.010062504654608333 0 -0.0049683130772807125 -0.0097999983750182273 0 -0.0052936704738075994 -0.0093789502568513029 0 -0.0058446953162043557 -0.010062504654608333 0 -0.0049683130772807125 -0.0097999983750182273 0 -0.0058446953162043557 -0.010062504654608333 0 -0.0051407839683839471 -0.010336966734678885 0 -0.0063359635488924393 -0.010910666261564495 0 -0.0058446953162043557 -0.010062504654608333 0 -0.0057794099772170218 -0.010889137912813101 0 -0.0063359635488924393 -0.010910666261564495 0 -0.0057794099772170218 -0.010889137912813101 0 -0.0059733414484541367 -0.011756078023905851 0 -0.0057794099772170218 -0.010889137912813101 0 -0.0053070226298557238 -0.011079404785719746 0 -0.0059733414484541367 -0.011756078023905851 0 -0.0058446953162043557 -0.010062504654608333 0 -0.0057794099772170218 -0.010889137912813101 0 -0.0051407839683839471 -0.010336966734678885 0 -0.0057794099772170218 -0.010889137912813101 0 -0.0051407839683839471 -0.010336966734678885 0 -0.0053070226298557238 -0.011079404785719746 0 -0.0051407839683839471 -0.010336966734678885 0 -0.0048334897453991988 -0.010720043764600277 0 -0.0053070226298557238 -0.011079404785719746 0 -0.0051407839683839471 -0.010336966734678885 0 -0.0044348507616228149 -0.010421768713422791 0 -0.0048334897453991988 -0.010720043764600277 0 -0.0044348507616228149 -0.010421768713422791 0 -0.0048334897453991988 -0.010720043764600277 0 -0.0043945342259560571 -0.010806454094058183 0 -0.0047614358810894319 -0.011083578271768171 0 -0.0051983569301884058 -0.011691536213310059 0 -0.0042496816046787272 -0.011132939290586945 0 -0.0043945342259560571 -0.010806454094058183 0 -0.0047614358810894319 -0.011083578271768171 0 -0.0042398114011763547 -0.011134475732551869 0 -0.0048334897453991988 -0.010720043764600277 0 -0.0043945342259560571 -0.010806454094058183 0 -0.0047614358810894319 -0.011083578271768171 0 -0.0045933755526550392 -0.0094352604406472262 0 -0.0051967318742382638 -0.0085134101837335847 0 -0.0048334897453991988 -0.010720043764600277 0 -0.0047614358810894319 -0.011083578271768171 0 -0.0053070226298557238 -0.011079404785719746 0 -0.0047614358810894319 -0.011083578271768171 0 -0.0053070226298557238 -0.011079404785719746 0 -0.0051983569301884058 -0.011691536213310059 0 -0.0053070226298557238 -0.011079404785719746 0 -0.0051983569301884058 -0.011691536213310059 0 -0.0059733414484541367 -0.011756078023905851 0 -0.00519522897567248 -0.012607888673004421 0 -0.0050737868290730275 -0.011926661069422579 0 -0.0044034932392733586 -0.011262232951646075 0 -0.005529869042812754 -0.011432097584511922 0 -0.0051967318742382638 -0.0085134101837335847 0 -0.0051983569301884058 -0.011691536213310059 0 -0.0050737868290730275 -0.011926661069422579 0 -0.0046900787197197129 -0.011236686721727463 0 -0.0056259818411552786 -0.012344861020672669 0 -0.0053590913720862592 -0.012409035627103878 0 -0.0050737868290730275 -0.011926661069422579 0 -0.0056259818411552786 -0.012344861020672669 0 -0.0051983569301884058 -0.011691536213310059 0 -0.0050737868290730275 -0.011926661069422579 0 -0.0056259818411552786 -0.012344861020672669 0 -0.0051983569301884058 -0.011691536213310059 0 -0.0059733414484541367 -0.011756078023905851 0 -0.0031391382503139251 -0.011891554654359371 0 -0.0036354511384162087 -0.01091256876438643 0 -0.0021551706618498376 -0.01001977887864933 0 -0.0031391382503139251 -0.011891554654359371 0 -0.0019536978735061354 -0.011459543242028275 0 -0.0021551706618498376 -0.01001977887864933 0 -0.0043763517853436119 -0.011927714090641663 0 -0.0036354511384162087 -0.01091256876438643 0 -0.0042985236802888498 -0.0098324870356721258 0 -0.0036354511384162087 -0.01091256876438643 0 -0.0042985236802888498 -0.0098324870356721258 0 -0.0021551706618498376 -0.01001977887864933 0 -0.0051682255192564931 -0.014046305985653295 0 -0.0051439147493368273 -0.0065634122483840505 0 -0.00519522897567248 -0.012607888673004421 0 -0.0043763517853436119 -0.011927714090641663 0 -0.0042985236802888498 -0.0098324870356721258 0 -0.0043763517853436119 -0.011927714090641663 0 -0.0031391382503139251 -0.011891554654359371 0 -0.0036354511384162087 -0.01091256876438643 0 -0.0050737868290730275 -0.011926661069422579 0 -0.0046900787197197129 -0.011236686721727463 0 -0.0044034932392733586 -0.011262232951646075 0 -0.0040981222765781623 0.0037739802295855863 0 -0.0039060811264749716 0.0042778179707772153 0 -0.0025003430356820796 0.0036888149193822434 0 -0.0043945342259560571 -0.010806454094058183 0 -0.0042398114011763547 -0.011134475732551869 0 -0.0037172869948842568 -0.010696858632184079 0 -0.0051967318742382638 -0.0085134101837335847 0 -0.0051439147493368273 -0.0065634122483840505 0 -0.0051967318742382638 -0.0085134101837335847 0 -0.0048015913800048679 -0.0027627467588820609 0 -0.0051439147493368273 -0.0065634122483840505 0 -0.0048015913800048679 -0.0027627467588820609 0 -0.006046078924100238 -0.006430691652523495 0 -0.0048513516791619336 -0.006536361447567249 0 -0.0042487192180289323 -0.0049912884790197353 0 -0.0044348507616228149 -0.010421768713422791 0 -0.0043945342259560571 -0.010806454094058183 0 -0.0037172869948842568 -0.010696858632184079 0 -0.0044348507616228149 -0.010421768713422791 0 -0.0037172869948842568 -0.010696858632184079 0 -0.0040544380182110356 -0.010206291484925847 0 -0.0039060811264749716 0.0042778179707772153 0 -0.0025003430356820796 0.0036888149193822434 0 -0.0018212993144557182 0.0048616091924480308 0 -0.0051439147493368273 -0.0065634122483840505 0 -0.0021524646693619216 -0.0031457884186245491 0 -0.0048015913800048679 -0.0027627467588820609 0 -0.0028809780889848605 0.0051334683450256257 0 -0.0039060811264749716 0.0042778179707772153 0 -0.0021219292405811564 0.0056101042603541144 0 -0.0018212993144557182 0.0048616091924480308 0 -0.0072862380801404832 -2.913027672642012e-05 0 -0.0037506034003865155 0.0030489814251234235 0 -0.0056859249097448526 0.0041284538095992035 0 -0.0048015913800048679 -0.0027627467588820609 0 -0.0027799463139996762 -0.0050211331992637285 0 -0.0037172869948842568 -0.010696858632184079 0 -0.0036846707891992204 -0.0098314677274787578 0 -0.0030145578126079585 -0.0091470026264898665 0 -0.0037172869948842568 -0.010696858632184079 0 -0.0040544380182110356 -0.010206291484925847 0 -0.0036846707891992204 -0.0098314677274787578 0 -0.0043793349398782476 -0.0098830689559455225 0 -0.0040544380182110356 -0.010206291484925847 0 -0.0036846707891992204 -0.0098314677274787578 0 -0.0043793349398782476 -0.0098830689559455225 0 -0.0044348507616228149 -0.010421768713422791 0 -0.0040544380182110356 -0.010206291484925847 0 -0.0036846707891992204 -0.0098314677274787578 0 -0.0033129776288168202 -0.0093336375554585495 0 -0.0030145578126079585 -0.0091470026264898665 0 -0.0036846707891992204 -0.0098314677274787578 0 -0.0033129776288168202 -0.0093336375554585495 0 -0.0039771370894147017 -0.0093459279644374765 0 -0.0043793349398782476 -0.0098830689559455225 0 -0.0036846707891992204 -0.0098314677274787578 0 -0.0039771370894147017 -0.0093459279644374765 0 -0.003584187690338973 -0.0088284312764441448 0 -0.0030116860616090243 -0.0092123980875495719 0 -0.0032325524615261078 -0.008111947812502603 0 -0.0042916677850694512 -0.0088619681731241153 0 -0.0039771370894147017 -0.0093459279644374765 0 -0.003584187690338973 -0.0088284312764441448 0 -0.0033129776288168202 -0.0093336375554585495 0 -0.0039771370894147017 -0.0093459279644374765 0 -0.003584187690338973 -0.0088284312764441448 0 -0.0033129776288168202 -0.0093336375554585495 0 -0.003584187690338973 -0.0088284312764441448 0 -0.0030116860616090243 -0.0092123980875495719 0 -0.0042916677850694512 -0.0088619681731241153 0 -0.003584187690338973 -0.0088284312764441448 0 -0.0043633792620438351 -0.0079520565579829922 0 -0.0037506034003865155 0.0030489814251234235 0 -0.0056859249097448526 0.0041284538095992035 0 -0.0029381635479393837 0.0057714542851555369 0 -0.00075139274847405252 -0.0054057193998521148 0 -0.00053170205898611677 -0.0053012430108546069 0 -0.00060212785961604148 -0.0051473918353072343 0 -0.0027799463139996762 -0.0050211331992637285 0 -0.0015540206015530486 0.00064349567766754697 0 -0.0037591710765783998 -0.0065415392498972512 0 -0.0027799463139996762 -0.0050211331992637285 0 -0.0021219292405811564 0.0056101042603541144 0 -0.0012338678478214867 0.0056741772128587904 0 -0.0012027966109265261 0.0058442340426786837 0 -0.0028809780889848605 0.0051334683450256257 0 -0.0014083840238437028 0.0054585570933930062 0 -0.0037506034003865155 0.0030489814251234235 0 -0.0029381635479393837 0.0057714542851555369 0 -0.0012027966109265261 0.0058442340426786837 0 -0.0021219292405811564 0.0056101042603541144 0 -0.001683971766300525 0.0052435344069896002 0 -0.0014275726160571382 0.0054814939893009576 0 -0.0021219292405811564 0.0056101042603541144 0 -0.0014275726160571382 0.0054814939893009576 0 -0.0012338678478214867 0.0056741772128587904 0 -0.001683971766300525 0.0052435344069896002 0 -0.0018212993144557182 0.0048616091924480308 0 -0.0014415188381344314 0.005057456775970446 0 -0.001683971766300525 0.0052435344069896002 0 -0.0014275726160571382 0.0054814939893009576 0 -0.0014415188381344314 0.005057456775970446 0 -0.0021219292405811564 0.0056101042603541144 0 -0.001683971766300525 0.0052435344069896002 0 -0.0018212993144557182 0.0048616091924480308 0 -0.0011478192870161689 0.0053645465327138674 0 -0.00087344859948932784 0.0057990282613602255 0 -0.00087278501437895695 0.0051856443130339439 0 -0.0011478192870161689 0.0053645465327138674 0 -0.0011209709598187672 0.0049868242027859711 0 -0.00087278501437895695 0.0051856443130339439 0 -0.0011478192870161689 0.0053645465327138674 0 -0.0014275726160571382 0.0054814939893009576 0 -0.0014415188381344314 0.005057456775970446 0 -0.0011478192870161689 0.0053645465327138674 0 -0.0014415188381344314 0.005057456775970446 0 -0.0011209709598187672 0.0049868242027859711 0 -0.0014275726160571382 0.0054814939893009576 0 -0.0010642909520168255 0.0056218020707529577 0 -0.0012338678478214867 0.0056741772128587904 0 -0.0011478192870161689 0.0053645465327138674 0 -0.0014275726160571382 0.0054814939893009576 0 -0.0010642909520168255 0.0056218020707529577 0 -0.0010642909520168255 0.0056218020707529577 0 -0.00091806134988387097 0.005626258800400674 0 -0.0012338678478214867 0.0056741772128587904 0 -0.0011478192870161689 0.0053645465327138674 0 -0.0010642909520168255 0.0056218020707529577 0 -0.00087344859948932784 0.0057990282613602255 0 -0.0010642909520168255 0.0056218020707529577 0 -0.00087344859948932784 0.0057990282613602255 0 -0.00091806134988387097 0.005626258800400674 0 -0.0012338678478214867 0.0056741772128587904 0 -0.0012027966109265261 0.0058442340426786837 0 -0.00095360639535721351 0.00584144822188685 0 -0.00091806134988387097 0.005626258800400674 0 -0.0012338678478214867 0.0056741772128587904 0 -0.00095360639535721351 0.00584144822188685 0 -0.0012027966109265261 0.0058442340426786837 0 -0.00095360639535721351 0.00584144822188685 0 -0.00071548197837609272 0.0060262629579852555 0 -0.00107327521038536 0.0056083289431415832 0 -0.00094377908803739547 0.0055053153806651446 0 -0.00091806134988387097 0.005626258800400674 0 -0.00071548197837609272 0.0060262629579852555 0 -0.00036938674755430213 0.0059054626338828874 0 -0.00091806134988387097 0.005626258800400674 0 -0.0022297082224986557 0.0052150207957407536 0 -0.0014960370803189299 0.0058422489538700016 0 -0.00071548197837609272 0.0060262629579852555 0 -0.00036938674755430213 0.0059054626338828874 0 -0.00052657958280590185 0.0063378054797773248 0 -0.0022297082224986557 0.0052150207957407536 0 -0.0020998900427003087 0.0060087958514567202 0 -0.0014960370803189299 0.0058422489538700016 0 -0.00091806134988387097 0.005626258800400674 0 -0.00095360639535721351 0.00584144822188685 0 -0.00071548197837609272 0.0060262629579852555 0 -0.0022297082224986557 0.0052150207957407536 0 -0.0038747613648512239 0.0047393936741262485 0 -0.003451483223654466 0.0057769742225260556 0 -0.00094377908803739547 0.0055053153806651446 0 -0.0045092189894792916 0.0080126869376366313 0 -0.00036938674755430213 0.0059054626338828874 0 5.4091746924957737e-05 0.0061276613547793235 0 -0.00021868229891575013 0.0063939398019801866 0 -0.0022297082224986557 0.0052150207957407536 0 -0.0026931962683947493 0.0061175969204314579 0 -0.003451483223654466 0.0057769742225260556 0 -0.0026931962683947493 0.0061175969204314579 0 -0.003451483223654466 0.0057769742225260556 0 -0.0034817053946591616 0.0065941989204293837 0 -0.0022297082224986557 0.0052150207957407536 0 -0.0026931962683947493 0.0061175969204314579 0 -0.0020998900427003087 0.0060087958514567202 0 -0.0026931962683947493 0.0061175969204314579 0 -0.0020998900427003087 0.0060087958514567202 0 -0.0023292865502493126 0.0065769911922519374 0 -0.0026931962683947493 0.0061175969204314579 0 -0.0023292865502493126 0.0065769911922519374 0 -0.0028972636987320351 0.0068983438168429105 0 -0.0023292865502493126 0.0065769911922519374 0 -0.00192065551760411 0.0071228054465166972 0 -0.0024671075187140102 0.0072040199959822844 0 -0.0023292865502493126 0.0065769911922519374 0 -0.0028972636987320351 0.0068983438168429105 0 -0.0024671075187140102 0.0072040199959822844 0 -0.0028972636987320351 0.0068983438168429105 0 -0.0033735076988037791 0.0073033587128294815 0 -0.0034817053946591616 0.0065941989204293837 0 -0.0026931962683947493 0.0061175969204314579 0 -0.0028972636987320351 0.0068983438168429105 0 -0.0034817053946591616 0.0065941989204293837 0 -0.00087344859948932784 0.0057990282613602255 0 -0.0013842924534065817 0.0061497877367424269 0 -0.0014960370803189299 0.0058422489538700016 0 -0.00087344859948932784 0.0057990282613602255 0 -0.00091806134988387097 0.005626258800400674 0 -0.0014960370803189299 0.0058422489538700016 0 -0.0020998900427003087 0.0060087958514567202 0 -0.0014960370803189299 0.0058422489538700016 0 -0.0017724516500686974 0.0063526108955960989 0 -0.0020998900427003087 0.0060087958514567202 0 -0.0023292865502493126 0.0065769911922519374 0 -0.0017724516500686974 0.0063526108955960989 0 -0.0013842924534065817 0.0061497877367424269 0 -0.0014960370803189299 0.0058422489538700016 0 -0.0017724516500686974 0.0063526108955960989 0 -0.0013842924534065817 0.0061497877367424269 0 -0.0017724516500686974 0.0063526108955960989 0 -0.001401367960446628 0.0066292142022320736 0 -0.0023292865502493126 0.0065769911922519374 0 -0.0017724516500686974 0.0063526108955960989 0 -0.00192065551760411 0.0071228054465166972 0 -0.0017724516500686974 0.0063526108955960989 0 -0.001401367960446628 0.0066292142022320736 0 -0.00192065551760411 0.0071228054465166972 0 -0.00084624338508603792 0.0059352535121064533 0 -0.00082128955789415644 0.0061564543130268887 0 -0.00087344859948932784 0.0057990282613602255 0 -0.001401367960446628 0.0066292142022320736 0 -0.0012125275696726653 0.0075578629066265779 0 -0.00087344859948932784 0.0057990282613602255 0 -0.00043184892101121578 0.0048956567016174317 0 -0.00087278501437895695 0.0051856443130339439 0 -0.00087344859948932784 0.0057990282613602255 0 -0.0013842924534065817 0.0061497877367424269 0 -0.001401367960446628 0.0066292142022320736 0 -0.00043184892101121578 0.0048956567016174317 0 -0.00087278501437895695 0.0051856443130339439 0 -0.00079387329372759331 0.0048629284066379177 0 -0.00043184892101121578 0.0048956567016174317 0 -0.00055786514079947836 0.0046313644751908439 0 -0.00079387329372759331 0.0048629284066379177 0 -0.0012125275696726653 0.0075578629066265779 0 -0.00192065551760411 0.0071228054465166972 0 -0.0019166359457211428 0.008027353997801974 0 -0.001401367960446628 0.0066292142022320736 0 -0.0012125275696726653 0.0075578629066265779 0 -0.00192065551760411 0.0071228054465166972 0 -0.0012125275696726653 0.0075578629066265779 0 -0.0019166359457211428 0.008027353997801974 0 -0.0018081062232266434 0.0090419416104280167 0 -0.00043184892101121578 0.0048956567016174317 0 -0.00055786514079947836 0.0046313644751908439 0 -0.00018570988389912462 0.0042975174519927157 0 -0.00082128955789415644 0.0061564543130268887 0 -0.0010672892328815599 0.0072327538269284864 0 -0.00055786514079947836 0.0046313644751908439 0 -0.00079387329372759331 0.0048629284066379177 0 -0.00093714551911273166 0.0046335115774319363 0 -0.00055786514079947836 0.0046313644751908439 0 -0.00075824068543870957 0.0043024982628957088 0 -0.00093714551911273166 0.0046335115774319363 0 -0.00017452236943703541 0.0042320417124903729 0 -0.00035277797448613249 0.002967732503365655 0 -0.0033735076988037791 0.0073033587128294815 0 -0.002837497346896757 0.0075352760308571784 0 -0.0031710856988312482 0.0079379478960506355 0 -0.0028972636987320351 0.0068983438168429105 0 -0.0033735076988037791 0.0073033587128294815 0 -0.002837497346896757 0.0075352760308571784 0 -0.00192065551760411 0.0071228054465166972 0 -0.0019166359457211428 0.008027353997801974 0 -0.0023438413119684881 0.0077728462356636491 0 -0.002837497346896757 0.0075352760308571784 0 -0.0023438413119684881 0.0077728462356636491 0 -0.002709145591641743 0.0081749912046353082 0 -0.002837497346896757 0.0075352760308571784 0 -0.0024671075187140102 0.0072040199959822844 0 -0.0023438413119684881 0.0077728462356636491 0 -0.0028972636987320351 0.0068983438168429105 0 -0.002837497346896757 0.0075352760308571784 0 -0.0024671075187140102 0.0072040199959822844 0 -0.00192065551760411 0.0071228054465166972 0 -0.0024671075187140102 0.0072040199959822844 0 -0.0023438413119684881 0.0077728462356636491 0 -0.0019166359457211428 0.008027353997801974 0 -0.0023210520052238978 0.0085030729981231679 0 -0.0018081062232266434 0.0090419416104280167 0 -0.0019166359457211428 0.008027353997801974 0 -0.0023438413119684881 0.0077728462356636491 0 -0.0023210520052238978 0.0085030729981231679 0 -0.0023210520052238978 0.0085030729981231679 0 -0.002709145591641743 0.0081749912046353082 0 -0.0029140455103274982 0.0089391870276550704 0 -0.0023438413119684881 0.0077728462356636491 0 -0.0023210520052238978 0.0085030729981231679 0 -0.002709145591641743 0.0081749912046353082 0 -0.002709145591641743 0.0081749912046353082 0 -0.0031710856988312482 0.0079379478960506355 0 -0.0029140455103274982 0.0089391870276550704 0 -0.0031710856988312482 0.0079379478960506355 0 -0.0029140455103274982 0.0089391870276550704 0 -0.0037876025895643524 0.0077239169161769225 0 -0.002837497346896757 0.0075352760308571784 0 -0.002709145591641743 0.0081749912046353082 0 -0.0031710856988312482 0.0079379478960506355 0 -0.0019183631128738172 0.011471208455532508 0 -0.0024039283019843026 0.01280742487256507 0 -0.0012233487799769109 0.01341718820201993 0 -0.0019183631128738172 0.011471208455532508 0 -0.00021634111190340093 0.011280340631007899 0 -0.0012233487799769109 0.01341718820201993 0 -0.0010672892328815599 0.0072327538269284864 0 -0.002291809069485503 0.0093300806757447268 0 -0.003300903053493735 0.0093221332013601124 0 -0.0029140455103274982 0.0089391870276550704 0 -0.0018081062232266434 0.0090419416104280167 0 -0.0026598278292698347 0.010467914483203934 0 -0.0010672892328815599 0.0072327538269284864 0 -0.0023210520052238978 0.0085030729981231679 0 -0.0029140455103274982 0.0089391870276550704 0 -0.0018081062232266434 0.0090419416104280167 0 -0.0022128001801141411 0.0029851714804310044 0 -0.0015272513237945967 0.0043528987531787321 0 -0.0034003255203004295 0.0054673123449645077 0 -0.00049309701412513245 0.0028035413278178212 0 -0.0022128001801141411 0.0029851714804310044 0 -0.0015272513237945967 0.0043528987531787321 0 -0.00055786514079947836 0.0046313644751908439 0 -0.00071912923321769786 0.004342245066797942 0 -0.00018570988389912462 0.0042975174519927157 0 -0.00035277797448613249 0.002967732503365655 0 -0.0010672892328815599 0.0072327538269284864 0 -0.00049309701412513245 0.0028035413278178212 0 -0.0015272513237945967 0.0043528987531787321 0 0.00020154905923679259 0.0040204302179621546 0 -0.00035277797448613249 0.002967732503365655 0 -0.0012111712594628122 -0.0030881731552348749 0 -0.00075824068543870957 0.0043024982628957088 0 -0.0013646036320650464 0.004378575425203271 0 -0.00093714551911273166 0.0046335115774319363 0 -0.0003719072057233176 0.00012767131354387919 0 -0.00066345329963557248 -0.00039903461256205061 0 -0.0011233180483358985 0.00019001160854448086 0 -0.00035277797448613249 0.002967732503365655 0 -0.00040362480882345851 -0.00032950504914058934 0 -0.0012111712594628122 -0.0030881731552348749 0 -0.00040362480882345851 -0.00032950504914058934 0 0.00075354343303497525 -0.011214876853553326 0 -9.9148202083380215e-05 -0.010150699345912109 0 -0.00069251187811989281 -0.011425519417030357 0 -0.0021551706618498376 -0.01001977887864933 0 -9.9148202083380215e-05 -0.010150699345912109 0 -0.00069251187811989281 -0.011425519417030357 0 -0.0021524646693619216 -0.0031457884186245491 0 -0.00040362480882345851 -0.00032950504914058934 0 -0.0019536978735061354 -0.011459543242028275 0 -0.0021551706618498376 -0.01001977887864933 0 -0.00069251187811989281 -0.011425519417030357 0 -0.0025003430356820796 0.0036888149193822434 0 -0.00073677899098186113 0.0034866228013639335 0 -0.0018212993144557182 0.0048616091924480308 0 -0.0013646036320650464 0.004378575425203271 0 -0.0018212993144557182 0.0048616091924480308 0 -0.0014415188381344314 0.005057456775970446 0 -0.00040362480882345851 -0.00032950504914058934 0 -0.0024666191077013767 0.0059964059030980085 0 -0.0013646036320650464 0.004378575425203271 0 -0.0014415188381344314 0.005057456775970446 0 -0.0011209709598187672 0.0049868242027859711 0 -0.0011209709598187672 0.0049868242027859711 0 -0.00079387329372759331 0.0048629284066379177 0 -0.00093714551911273166 0.0046335115774319363 0 -0.0011209709598187672 0.0049868242027859711 0 -0.00087278501437895695 0.0051856443130339439 0 -0.00079387329372759331 0.0048629284066379177 0 -0.0013646036320650464 0.004378575425203271 0 -0.0011209709598187672 0.0049868242027859711 0 -0.00093714551911273166 0.0046335115774319363 0 -0.003047457340027052 0.01809415420963506 0 -0.0036779588126098646 0.018294520544611816 0 -0.0038675463810339226 0.018799807831179197 0 -0.0034168411651063174 0.01788615438999256 0 -0.0036779588126098646 0.018294520544611816 0 -0.0043614351469463322 0.017973106205995047 0 -0.0038232677192514548 0.023199035667757346 0 -0.0026124671319857377 0.019481736489998919 0 -0.0036779588126098646 0.018294520544611816 0 -0.0043614351469463322 0.017973106205995047 0 -0.0038675463810339226 0.018799807831179197 0 -0.0024458084298208094 0.021345894501070363 0 -0.0028129696955679984 0.02271261068723086 0 -0.0020253857814258066 0.022832324014412722 0 -0.0024458084298208094 0.021345894501070363 0 -0.0033928059003022525 0.02218951285911723 0 -0.0028129696955679984 0.02271261068723086 0 -0.0033817084020684222 0.018263887183589282 0 -0.0038467601660702906 0.015394200568251006 0 -0.0036028631678651302 0.0081069207942551028 0 -0.0050086332478393334 0.0093955842323370509 0 -0.0059012438242883516 0.0084661440642422887 0 -0.0050086332478393334 0.0093955842323370509 0 -0.0065260577636082331 0.0094537910594370729 0 -0.006403305822790856 0.010656761124104994 0 -0.0050086332478393334 0.0093955842323370509 0 -0.0059012438242883516 0.0084661440642422887 0 -0.0065260577636082331 0.0094537910594370729 0 -0.0036028631678651302 0.0081069207942551028 0 -0.0057598757952440427 0.0069950834708141646 0 -0.0056641297812559796 0.0071517419542156584 0 -0.0033817084020684222 0.018263887183589282 0 -0.0058712341574601486 0.012188959932257317 0 -0.0036028631678651302 0.0081069207942551028 0 -0.0059012438242883516 0.0084661440642422887 0 -0.0056641297812559796 0.0071517419542156584 0 -0.0043614351469463322 0.017973106205995047 0 -0.0038675463810339226 0.018799807831179197 0 -0.0053029907470701293 0.018032021097956322 0 -0.0057598757952440427 0.0069950834708141646 0 -0.0056641297812559796 0.0071517419542156584 0 -0.0052738703885716193 0.0066585466135752709 0 -0.0049421709965055691 0.0069689071542094827 0 -0.0044646684797478341 0.0063813566287631799 0 -0.0044773237715892058 0.0076803801418641035 0 -0.0057598757952440427 0.0069950834708141646 0 -0.0049421709965055691 0.0069689071542094827 0 -0.0052738703885716193 0.0066585466135752709 0 -0.0049421709965055691 0.0069689071542094827 0 -0.0052738703885716193 0.0066585466135752709 0 -0.0044646684797478341 0.0063813566287631799 0 -0.0052738703885716193 0.0066585466135752709 0 -0.0050431873890149029 0.0059139691367616808 0 -0.0044646684797478341 0.0063813566287631799 0 -0.0056535583915509301 0.0070656294046806661 0 -0.006207754831848134 0.0072782051733212821 0 -0.0059012438242883516 0.0084661440642422887 0 -0.0056641297812559796 0.0071517419542156584 0 -0.0071430457367664167 0.00854950153066702 0 -0.0056641297812559796 0.0071517419542156584 0 -0.0052738703885716193 0.0066585466135752709 0 -0.0050431873890149029 0.0059139691367616808 0 -0.0059012438242883516 0.0084661440642422887 0 -0.0065260577636082331 0.0094537910594370729 0 -0.0071430457367664167 0.00854950153066702 0 -0.0065260577636082331 0.0094537910594370729 0 -0.0071430457367664167 0.00854950153066702 0 -0.0085715714644037256 0.009824849666122867 0 -0.0065260577636082331 0.0094537910594370729 0 -0.0085715714644037256 0.009824849666122867 0 -0.006403305822790856 0.010656761124104994 0 -0.006207754831848134 0.0072782051733212821 0 -0.0045092189894792916 0.0080126869376366313 0 -0.0050431873890149029 0.0059139691367616808 0 -0.0041492712135533698 0.0056470599390998884 0 -0.0038747613648512239 0.0047393936741262485 0 -0.0041492712135533698 0.0056470599390998884 0 -0.0038747613648512239 0.0047393936741262485 0 -0.003451483223654466 0.0057769742225260556 0 -0.0044882310319166695 0.0056695857203437417 0 -0.0043755465609862107 0.010194265662545455 0 -0.003451483223654466 0.0057769742225260556 0 -0.0044646684797478341 0.0063813566287631799 0 -0.0034817053946591616 0.0065941989204293837 0 -0.0044646684797478341 0.0063813566287631799 0 -0.0039498058994283788 0.0071344554541384652 0 -0.0045867738569070832 0.0078852418741005136 0 -0.0050431873890149029 0.0059139691367616808 0 -0.0041492712135533698 0.0056470599390998884 0 -0.0044646684797478341 0.0063813566287631799 0 -0.0041492712135533698 0.0056470599390998884 0 -0.003451483223654466 0.0057769742225260556 0 -0.0044646684797478341 0.0063813566287631799 0 -0.0044646684797478341 0.0063813566287631799 0 -0.0039498058994283788 0.0071344554541384652 0 -0.0034817053946591616 0.0065941989204293837 0 -0.0033735076988037791 0.0073033587128294815 0 -0.0039498058994283788 0.0071344554541384652 0 -0.0034817053946591616 0.0065941989204293837 0 -0.0029140455103274982 0.0089391870276550704 0 -0.0037876025895643524 0.0077239169161769225 0 -0.0045867738569070832 0.0078852418741005136 0 -0.0033115412519374426 0.0084923917898675084 0 -0.0043755465609862107 0.010194265662545455 0 -0.0033735076988037791 0.0073033587128294815 0 -0.0031710856988312482 0.0079379478960506355 0 -0.0037876025895643524 0.0077239169161769225 0 -0.0033735076988037791 0.0073033587128294815 0 -0.0039498058994283788 0.0071344554541384652 0 -0.0037876025895643524 0.0077239169161769225 0 -0.0039498058994283788 0.0071344554541384652 0 -0.0037876025895643524 0.0077239169161769225 0 -0.0045867738569070832 0.0078852418741005136 0 -0.0043755465609862107 0.010194265662545455 0 -0.0041981763555724045 0.015895435858417843 0 -0.0026598278292698347 0.010467914483203934 0 -0.0037358375183998054 0.014980151056882237 0 -0.003300903053493735 0.0093221332013601124 0 -0.0029140455103274982 0.0089391870276550704 0 -0.0047336911125647882 0.0083847477490738825 0 -0.0019183631128738172 0.011471208455532508 0 -0.0036120474233328156 0.011661923963991381 0 -0.0024039283019843026 0.01280742487256507 0 -0.003300903053493735 0.0093221332013601124 0 -0.0047336911125647882 0.0083847477490738825 0 -0.0047389452908172137 0.0092555865175287001 0 -0.0037358375183998054 0.014980151056882237 0 -0.0041981763555724045 0.015895435858417843 0 -0.003300903053493735 0.0093221332013601124 0 -0.0047447151199718962 0.0097479480236690313 0 -0.0047389452908172137 0.0092555865175287001 0 -0.0027359567966695492 0.019344247159315556 0 -0.0033343206063418374 0.019871469046059097 0 -0.0046559388378780309 0.018964468405301579 0 -0.0026979732203309785 0.01979708295460959 0 -0.0033343206063418374 0.019871469046059097 0 -0.0027020313810546359 0.021561922346754876 0 -0.0033343206063418374 0.019871469046059097 0 -0.0046814748627628262 0.020318198601138322 0 -0.0038324210138245144 0.020861523458889444 0 -0.0027483999401541129 0.019677806140441893 0 -0.0027359567966695492 0.019344247159315556 0 -0.0033343206063418374 0.019871469046059097 0 -0.0037358375183998054 0.014980151056882237 0 -0.0034168184602220491 0.017066285983923429 0 -0.0041981763555724045 0.015895435858417843 0 -0.0052769203274725092 0.017687482478905996 0 -0.0058712341574601486 0.012188959932257317 0 -0.0043755465609862107 0.010194265662545455 0 -0.0057598757952440427 0.0069950834708141646 0 -0.0049421709965055691 0.0069689071542094827 0 -0.0044773237715892058 0.0076803801418641035 0 -0.0067126089577735654 0.017260313585790266 0 -0.0067043044325462101 0.016623397345592785 0 -0.0050698897635547951 0.017237880957241953 0 -0.0053029907470701293 0.018032021097956322 0 -0.0067126089577735654 0.017260313585790266 0 -0.0050698897635547951 0.017237880957241953 0 -0.0043614351469463322 0.017973106205995047 0 -0.0053029907470701293 0.018032021097956322 0 -0.0050698897635547951 0.017237880957241953 0 -0.0046559388378780309 0.018964468405301579 0 -0.0046814748627628262 0.020318198601138322 0 -0.0060226811608299407 0.01979403921957178 0 -0.0033343206063418374 0.019871469046059097 0 -0.0046559388378780309 0.018964468405301579 0 -0.0046814748627628262 0.020318198601138322 0 -0.0046814748627628262 0.020318198601138322 0 -0.0060226811608299407 0.01979403921957178 0 -0.0063819969693150831 0.02190230499150472 0 -0.00653369966043488 0.01844649946216767 0 -0.0046559388378780309 0.018964468405301579 0 -0.0060226811608299407 0.01979403921957178 0 -0.0034168411651063174 0.01788615438999256 0 -0.0043614351469463322 0.017973106205995047 0 -0.0050698897635547951 0.017237880957241953 0 -0.0038232677192514548 0.023199035667757346 0 -0.0052769203274725092 0.017687482478905996 0 -0.0062425402624584894 0.022949726147078037 0 -0.0035034758759643703 0.023141878124351839 0 -0.004740529694823639 0.024782540049617625 0 -0.005270611648168326 0.023952622140335802 0 -0.003372069685533205 0.024248974026185675 0 -0.0062425402624584894 0.022949726147078037 0 -0.0042011999282896952 0.02141039263447158 0 -0.0046814748627628262 0.020318198601138322 0 -0.0063819969693150831 0.02190230499150472 0 -0.0045774195627000993 0.02170021812768793 0 -0.0046814748627628262 0.020318198601138322 0 -0.0045774195627000993 0.02170021812768793 0 -0.0038324210138245144 0.020861523458889444 0 -0.0057129915444778809 0.021082599629507256 0 -0.004023421029634584 0.020937666573019639 0 -0.0040240390937744085 0.021348368309627171 0 -0.0042258737443074176 0.024953824968404027 0 -0.0018306463493206263 0.025228812146801779 0 -0.0030593133027274179 0.025877924888235732 0 -0.004740529694823639 0.024782540049617625 0 -0.003372069685533205 0.024248974026185675 0 -0.003126222389696023 0.024916044731395054 0 -0.0045534622000911237 0.024847239960823379 0 -0.0023406806824564949 0.025342000412326243 0 -0.0040240390937744085 0.021348368309627171 0 -0.0023763771814314712 0.020817832316639667 0 -0.0023785693791385869 0.021629284635176781 0 -0.003372069685533205 0.024248974026185675 0 -0.003126222389696023 0.024916044731395054 0 -0.0015977636728857867 0.02452031212103516 0 -0.0023406806824564949 0.025342000412326243 0 -0.00060732279427045158 0.020619871207513404 0 -0.003126222389696023 0.024916044731395054 0 -0.0015977636728857867 0.02452031212103516 0 -0.0015990867277424976 0.025069947766498849 0 -0.0035034758759643703 0.023141878124351839 0 -0.0018702622115548695 0.019309106520108147 0 -0.0045774195627000993 0.02170021812768793 0 -0.0038324210138245144 0.020861523458889444 0 -0.0027020313810546359 0.021561922346754876 0 -0.0033343206063418374 0.019871469046059097 0 -0.0038324210138245144 0.020861523458889444 0 -0.0027020313810546359 0.021561922346754876 0 -0.004023421029634584 0.020937666573019639 0 -0.0040240390937744085 0.021348368309627171 0 -0.0023763771814314712 0.020817832316639667 0 -0.0042011999282896952 0.02141039263447158 0 -0.0028698241605101733 0.018746280589668766 0 -0.0036120474233328156 0.011661923963991381 0 -0.0036146381965863543 0.014003917352383528 0 -0.0030945474434597203 0.013426939489395129 0 -0.0036120474233328156 0.011661923963991381 0 -0.0030945474434597203 0.013426939489395129 0 -0.0024039283019843026 0.01280742487256507 0 -0.0037358375183998054 0.014980151056882237 0 -0.0028698241605101733 0.018746280589668766 0 -0.0036146381965863543 0.014003917352383528 0 -0.0030299507224993963 0.013976685493909579 0 -0.0030658079068386565 0.014483942249160968 0 -0.0036146381965863543 0.014003917352383528 0 -0.0030299507224993963 0.013976685493909579 0 -0.0030945474434597203 0.013426939489395129 0 -0.0030945474434597203 0.013426939489395129 0 -0.0024039283019843026 0.01280742487256507 0 -0.0024142158915372567 0.0139962256213791 0 -0.0030299507224993963 0.013976685493909579 0 -0.0030945474434597203 0.013426939489395129 0 -0.0024142158915372567 0.0139962256213791 0 -0.0030299507224993963 0.013976685493909579 0 -0.0024142158915372567 0.0139962256213791 0 -0.0030658079068386565 0.014483942249160968 0 -0.0024142158915372567 0.0139962256213791 0 -0.0030658079068386565 0.014483942249160968 0 -0.0022296601931838037 0.015531331556955295 0 -0.0030658079068386565 0.014483942249160968 0 -0.0036154317129935207 0.015277964428372618 0 -0.0022296601931838037 0.015531331556955295 0 -0.0028698241605101733 0.018746280589668766 0 -0.0018702622115548695 0.019309106520108147 0 -0.0036146381965863543 0.014003917352383528 0 -0.0030658079068386565 0.014483942249160968 0 -0.0036154317129935207 0.015277964428372618 0 -0.0013504948099554504 0.016763383490216669 0 -0.0024491024980382481 0.015738026693562973 0 -0.001345825132437467 0.015925796823815959 0 -0.0018702622115548695 0.019309106520108147 0 -0.00060732279427045158 0.020619871207513404 0 -0.0018702622115548695 0.019309106520108147 0 -0.0033638931659646233 0.012373805542757767 0 -0.0013504948099554504 0.016763383490216669 0 -0.0027952741695874018 0.016454487164135143 0 -0.0024491024980382481 0.015738026693562973 0 -0.0045736920255551655 0.0079704228481910135 0 -0.0049640684303793644 0.0087875123471307919 0 -0.0038787259706897924 0.0080956551299624473 0 -0.0033638931659646233 0.012373805542757767 0 -0.0032928954564621356 0.011421750723961368 0 -0.0075203853717047808 0.00078018859047351515 0 -0.0080343756960800893 0.0019229410983656419 0 -0.0065659004562809327 0.0010475637679887503 0 -0.0032928954564621356 0.011421750723961368 0 -0.003234736626134143 0.0084069071877803485 0 0.00040464846307073754 0.015830938976725453 0 -7.5856417152541311e-05 0.01618702499207289 0 1.3308285842455053e-05 0.01667702769206281 0 -0.0004188575865988413 0.015749327569677857 0 -7.5856417152541311e-05 0.01618702499207289 0 -0.00042102229232214198 0.016814685680813877 0 -0.0032928954564621356 0.011421750723961368 0 -0.00060732279427045158 0.020619871207513404 0 0.00040464846307073754 0.015830938976725453 0 -0.0004188575865988413 0.015749327569677857 0 -7.5856417152541311e-05 0.01618702499207289 0 0.00069194829471321776 0.025501475473091732 0 0.00070390625226896377 0.027072976589214304 0 0.00015848021721762563 0.026305926840217517 0 -0.00060732279427045158 0.020619871207513404 0 -0.00011746604970765191 0.01948587256209695 0 -7.5856417152541311e-05 0.01618702499207289 0 -0.00042102229232214198 0.016814685680813877 0 1.3308285842455053e-05 0.01667702769206281 0 -0.00011746604970765191 0.01948587256209695 0 -0.003234736626134143 0.0084069071877803485 0 -0.0078854026380251307 -0.0011109684017930656 0 -0.0090720109823704525 0.000230873305173922 0 -0.0068624666658726142 -0.00075856368202719413 0 -0.0069454335697889391 -0.0017070150674954379 0 -0.0058252493794253611 -0.0018312323786002344 0 -0.0065244685338284349 -0.0013376726534405224 0 -0.0083523094500935497 -0.0021105063151134131 0 -0.0078854026380251307 -0.0011109684017930656 0 -0.0065122736660776339 -0.0018319969964730491 0 -0.0078672319838792686 0.0035572087365970165 0 -0.006242114192146939 -0.0014719426467372564 0 -0.012276973498844128 0.012067044838490252 0 -0.012271816983597092 0.0074389628527151246 0 -0.014813726570449864 0.012795991340657916 0 -0.0078854026380251307 -0.0011109684017930656 0 -0.0090720109823704525 0.000230873305173922 0 -0.0090874932213864407 -0.00069582066763289308 0 -0.0078672319838792686 0.0035572087365970165 0 -0.0047797243587532779 0.013251974659440568 0 -0.0083523094500935497 -0.0021105063151134131 0 -0.0078854026380251307 -0.0011109684017930656 0 -0.0090874932213864407 -0.00069582066763289308 0 -0.003234736626134143 0.0084069071877803485 0 -0.0047797243587532779 0.013251974659440568 0 0.0022377358836735179 0.02594224970652876 0 0.0023006310048994134 0.027795992032957427 0 0.0013594771538961762 0.027912031397894086 0 0.0017453848438721226 0.011543253875399008 0 0.0075310773088320777 0.0099343462180077526 0 0.0017228108947597669 0.022189866631358263 0 -0.00011746604970765191 0.01948587256209695 0 -0.0047797243587532779 0.013251974659440568 0 0.0022377358836735179 0.02594224970652876 0 -0.00062433501812568309 0.028483784041071897 0 -0.0029110823562573198 0.028220974864757394 0 -0.00011746604970765191 0.01948587256209695 0 -0.002299957044942692 0.030081290354713595 0 0.0015285385513870826 0.029387564578833715 0 -0.00062433501812568309 0.028483784041071897 0 -0.001896186259648758 0.030548270291308775 0 0.0022377358836735179 0.02594224970652876 0 0.0013594771538961762 0.027912031397894086 0 -0.00062433501812568309 0.028483784041071897 0 0.0013594771538961762 0.027912031397894086 0 0.0015285385513870826 0.029387564578833715 0 -0.00062433501812568309 0.028483784041071897 0 0.0023006310048994134 0.027795992032957427 0 0.0013594771538961762 0.027912031397894086 0 0.0015285385513870826 0.029387564578833715 0 -0.0047797243587532779 0.013251974659440568 0 -0.0069516794190998708 0.0084376328335370714 0 -0.0078672319838792686 0.0035572087365970165 0 -0.0069516794190998708 0.0084376328335370714 0 0.00070390625226896377 0.027072976589214304 0 -0.00069467531776299708 0.026754218624673847 0 -0.0029110823562573198 0.028220974864757394 0 -0.0018306463493206263 0.025228812146801779 0 0.00069194829471321776 0.025501475473091732 0 -0.00066423082402524162 0.026106881632803787 0 -0.00069467531776299708 0.026754218624673847 0 -0.00066423082402524162 0.026106881632803787 0 -0.0016479813170308605 0.026748642342319096 0 0.00070390625226896377 0.027072976589214304 0 -0.00069467531776299708 0.026754218624673847 0 0.00015848021721762563 0.026305926840217517 0 -0.00069467531776299708 0.026754218624673847 0 0.00015848021721762563 0.026305926840217517 0 -0.00066423082402524162 0.026106881632803787 0 0.00069194829471321776 0.025501475473091732 0 0.00015848021721762563 0.026305926840217517 0 -0.00066423082402524162 0.026106881632803787 0 -0.0018306463493206263 0.025228812146801779 0 -0.00066423082402524162 0.026106881632803787 0 -0.0016479813170308605 0.026748642342319096 0 -0.0030593133027274179 0.025877924888235732 0 -0.0016479813170308605 0.026748642342319096 0 -0.0045019818786370116 0.026594049059978919 0 -0.00069467531776299708 0.026754218624673847 0 -0.0016479813170308605 0.026748642342319096 0 -0.0029110823562573198 0.028220974864757394 0 -0.0018738054663412487 0.026753067029324097 0 -0.0045324889252745708 0.02678350113299495 0 -0.0016479813170308605 0.026748642342319096 0 -0.0039050523316326463 0.027838746485423276 0 -0.0048688012762784158 0.026864781463580949 0 -0.0018306463493206263 0.025228812146801779 0 -0.0030593133027274179 0.025877924888235732 0 -0.0016479813170308605 0.026748642342319096 0 -0.0016479813170308605 0.026748642342319096 0 -0.0029110823562573198 0.028220974864757394 0 -0.0039050523316326463 0.027838746485423276 0 -0.00062433501812568309 0.028483784041071897 0 -0.0029110823562573198 0.028220974864757394 0 -0.001896186259648758 0.030548270291308775 0 -0.0029110823562573198 0.028220974864757394 0 -0.0036467156280721507 0.030079775970567036 0 -0.001896186259648758 0.030548270291308775 0 -0.0029110823562573198 0.028220974864757394 0 -0.0039050523316326463 0.027838746485423276 0 -0.0047591933609592218 0.029297440482486215 0 -0.0029110823562573198 0.028220974864757394 0 -0.0047591933609592218 0.029297440482486215 0 -0.0036467156280721507 0.030079775970567036 0 -0.0047591933609592218 0.029297440482486215 0 -0.0036467156280721507 0.030079775970567036 0 -0.0045560148601157466 0.03033546059496357 0 -0.0039050523316326463 0.027838746485423276 0 -0.0047591933609592218 0.029297440482486215 0 -0.0055369958516447602 0.028280052166709015 0 -0.0066762542039632018 0.029302590779806716 0 -0.0047591933609592218 0.029297440482486215 0 -0.0055369958516447602 0.028280052166709015 0 -0.0067584994500203659 0.028082285794413433 0 -0.0055369958516447602 0.028280052166709015 0 -0.0048688012762784158 0.026864781463580949 0 -0.0039050523316326463 0.027838746485423276 0 -0.0055369958516447602 0.028280052166709015 0 -0.0048688012762784158 0.026864781463580949 0 -0.0042258737443074176 0.024953824968404027 0 -0.0030593133027274179 0.025877924888235732 0 -0.0045019818786370116 0.026594049059978919 0 -0.0054795178859013026 0.025610839090462835 0 -0.0042258737443074176 0.024953824968404027 0 -0.0045019818786370116 0.026594049059978919 0 -0.002230775633406169 -0.0001605502330292776 0 -0.0037438314416236716 -0.00047232133172304546 0 -0.0050842428465427778 0.00084868841332369212 0 -0.0029112783391605952 -0.0011616152968125966 0 -0.0021862133606496137 -0.00060242881016697768 0 -0.0022927048844921779 -0.0019030898356844626 0 -0.0029112783391605952 -0.0011616152968125966 0 -0.002230775633406169 -0.0001605502330292776 0 -0.0037438314416236716 -0.00047232133172304546 0 -0.0029112783391605952 -0.0011616152968125966 0 -0.0021862133606496137 -0.00060242881016697768 0 -0.002230775633406169 -0.0001605502330292776 0 -0.0036786030783716463 -0.0030998744796930347 0 -0.0037218072936754045 -0.0052692290679287011 0 -0.0037218072936754045 -0.0052692290679287011 0 -0.0047226486686647324 -0.010192297188947671 0 -0.00090167625614373124 -0.014169640278683154 0 -0.0016515764943254734 -0.012634325587921607 0 -6.7233218652440431e-05 -0.012711714071489693 0 -0.0021862133606496137 -0.00060242881016697768 0 -0.0022385152724677241 -0.00023479913666727857 0 -0.0014967176224467056 -0.0004358180784266941 0 -0.0021862133606496137 -0.00060242881016697768 0 -0.0014967176224467056 -0.0004358180784266941 0 -0.0022927048844921779 -0.0019030898356844626 0 -0.0047226486686647324 -0.010192297188947671 0 -0.0011607531803100675 -0.0072204657231496067 0 -0.00069251187811989281 -0.011425519417030357 0 -0.0016515764943254734 -0.012634325587921607 0 -6.7233218652440431e-05 -0.012711714071489693 0 -0.0019536978735061354 -0.011459543242028275 0 -0.00069251187811989281 -0.011425519417030357 0 -0.0016515764943254734 -0.012634325587921607 0 -0.0031568715733545087 -0.0034620592697523298 0 -0.0029112783391605952 -0.0011616152968125966 0 -0.0022927048844921779 -0.0019030898356844626 0 -0.0031568715733545087 -0.0034620592697523298 0 -0.0029112783391605952 -0.0011616152968125966 0 -0.0047787225739424639 -0.0014247407783406114 0 -0.0012111712594628122 -0.0030881731552348749 0 -0.0011607531803100675 -0.0072204657231496067 0 0.00075354343303497525 -0.011214876853553326 0 -0.00069251187811989281 -0.011425519417030357 0 -6.7233218652440431e-05 -0.012711714071489693 0 -0.0015272513237945967 0.0043528987531787321 0 -0.0034003255203004295 0.0054673123449645077 0 -0.0017353200925122173 0.0065008588847494247 0 -0.0012111712594628122 -0.0030881731552348749 0 -0.0034131915553100053 0.0031870925883369888 0 -0.0015272513237945967 0.0043528987531787321 0 0.00020154905923679259 0.0040204302179621546 0 -0.0017353200925122173 0.0065008588847494247 0 -0.0024039283019843026 0.01280742487256507 0 -0.0024142158915372567 0.0139962256213791 0 -0.0012233487799769109 0.01341718820201993 0 -0.0034003255203004295 0.0054673123449645077 0 -0.0033593536470754547 0.0072501460899736577 0 -0.0017353200925122173 0.0065008588847494247 0 -0.0033638931659646233 0.012373805542757767 0 -0.002291809069485503 0.0093300806757447268 0 -0.0024142158915372567 0.0139962256213791 0 -0.0022296601931838037 0.015531331556955295 0 -0.0012233487799769109 0.01341718820201993 0 -0.0047787225739424639 -0.0014247407783406114 0 -0.0050842428465427778 0.00084868841332369212 0 -0.006422383370260399 0.00082054652329463355 0 -0.0034131915553100053 0.0031870925883369888 0 -0.0057116781448715336 0.0041776498685684822 0 -0.0033593536470754547 0.0072501460899736577 0 -0.0017353200925122173 0.0065008588847494247 0 -0.0036796648315765377 0.0089727244314816677 0 -0.0045838929576520367 0.0079671814331578935 0 -0.0034003255203004295 0.0054673123449645077 0 -0.0033593536470754547 0.0072501460899736577 0 -0.0045838929576520367 0.0079671814331578935 0 -0.0033593536470754547 0.0072501460899736577 0 -0.0038787259706897924 0.0080956551299624473 0 -0.0033593536470754547 0.0072501460899736577 0 -0.0038787259706897924 0.0080956551299624473 0 -0.0036796648315765377 0.0089727244314816677 0 -0.0033638931659646233 0.012373805542757767 0 -0.0042054480941152213 0.01113629829406005 0 -0.0029112783391605952 -0.0011616152968125966 0 -0.0047787225739424639 -0.0014247407783406114 0 -0.0037438314416236716 -0.00047232133172304546 0 -0.0047787225739424639 -0.0014247407783406114 0 -0.0037438314416236716 -0.00047232133172304546 0 -0.0050842428465427778 0.00084868841332369212 0 -0.0054320186053463289 -0.0029572951894982383 0 -0.0065122736660776339 -0.0018319969964730491 0 -0.0051071907475296495 -0.0019360682998230728 0 -0.0054320186053463289 -0.0029572951894982383 0 -0.0051071907475296495 -0.0019360682998230728 0 -0.0046594868784118025 -0.0024845536376109441 0 -0.0080343756960800893 0.0019229410983656419 0 -0.0050842428465427778 0.00084868841332369212 0 -0.0065659004562809327 0.0010475637679887503 0 -0.003234736626134143 0.0084069071877803485 0 -0.0060959792343855332 -0.0016006230116965071 0 -0.0083523094500935497 -0.0021105063151134131 0 -0.0054320186053463289 -0.0029572951894982383 0 -0.0065122736660776339 -0.0018319969964730491 0 -0.0075203853717047808 0.00078018859047351515 0 -0.0064205450034212847 0.00086776009343089494 0 -0.0065659004562809327 0.0010475637679887503 0 -0.0049640684303793644 0.0087875123471307919 0 -0.0038787259706897924 0.0080956551299624473 0 -0.0036796648315765377 0.0089727244314816677 0 -0.0032928954564621356 0.011421750723961368 0 -0.0057116781448715336 0.0041776498685684822 0 -0.0057116781448715336 0.0041776498685684822 0 -0.0055969161428899086 0.0038445254056093041 0 -0.0050842428465427778 0.00084868841332369212 0 -0.006422383370260399 0.00082054652329463355 0 -0.0065659004562809327 0.0010475637679887503 0 -0.0058252493794253611 -0.0018312323786002344 0 -0.0051071907475296495 -0.0019360682998230728 0 -0.0056349294803837748 -0.0013731452645904369 0 -0.006242114192146939 -0.0014719426467372564 0 -0.005323876086699356 -0.0017787107925682636 0 -0.0065122736660776339 -0.0018319969964730491 0 -0.0068624666658726142 -0.00075856368202719413 0 -0.0051071907475296495 -0.0019360682998230728 0 -0.0078854026380251307 -0.0011109684017930656 0 -0.0065122736660776339 -0.0018319969964730491 0 -0.0068624666658726142 -0.00075856368202719413 0 -0.0051071907475296495 -0.0019360682998230728 0 -0.0042792894511043443 -0.0019235894168311938 0 -0.0047348366323534726 -0.001506546517748271 0 -0.0051071907475296495 -0.0019360682998230728 0 -0.0042792894511043443 -0.0019235894168311938 0 -0.0046594868784118025 -0.0024845536376109441 0 -0.0078437294229640447 -0.013148562409441828 0 -0.0080513613982558206 -0.012547790685442456 0 -0.0077072046286076057 -0.012896558338042473 0 -0.0037218072936754045 -0.0052692290679287011 0 -0.0064355957891895459 -0.0078977385412681081 0 -0.0037218072936754045 -0.0052692290679287011 0 -0.0060959792343855332 -0.0016006230116965071 0 -0.00398231699847833 -0.0032094223645606507 0 -0.0042792894511043443 -0.0019235894168311938 0 -0.0046594868784118025 -0.0024845536376109441 0 -0.00398231699847833 -0.0032094223645606507 0 -0.0054320186053463289 -0.0029572951894982383 0 -0.0046594868784118025 -0.0024845536376109441 0 -0.0073672978600108499 -0.012796767329820675 0 -0.007711181328587737 -0.013179808438000432 0 -0.0077072046286076057 -0.012896558338042473 0 -0.0078437294229640447 -0.013148562409441828 0 -0.007711181328587737 -0.013179808438000432 0 -0.0077072046286076057 -0.012896558338042473 0 -0.0073649117145011891 -0.013934027700393675 0 -0.0047226486686647324 -0.010192297188947671 0 -0.0073672978600108499 -0.012796767329820675 0 -0.0080513613982558206 -0.012547790685442456 0 -0.0075682897734523601 -0.012353813734834481 0 -0.0073672978600108499 -0.012796767329820675 0 -0.0080513613982558206 -0.012547790685442456 0 -0.0077072046286076057 -0.012896558338042473 0 -0.008479990909214908 -0.011544611060876354 0 -0.0079980920837162007 -0.011087437906632917 0 -0.0073350729810106258 -0.011814398557594126 0 -0.0075682897734523601 -0.012353813734834481 0 -0.008479990909214908 -0.011544611060876354 0 -0.0073350729810106258 -0.011814398557594126 0 -0.0064355957891895459 -0.0078977385412681081 0 -0.0063921387166552919 -0.0059293032097284424 0 -0.0080513613982558206 -0.012547790685442456 0 -0.0075682897734523601 -0.012353813734834481 0 -0.008479990909214908 -0.011544611060876354 0 -0.0042792894511043443 -0.0019235894168311938 0 -0.0043643970497637755 -0.00094689564377382408 0 -0.0047348366323534726 -0.001506546517748271 0 -0.0051071907475296495 -0.0019360682998230728 0 -0.0051868219071679426 -0.0012166443610245345 0 -0.0056349294803837748 -0.0013731452645904369 0 -0.0051071907475296495 -0.0019360682998230728 0 -0.0047348366323534726 -0.001506546517748271 0 -0.0051868219071679426 -0.0012166443610245345 0 -0.0043643970497637755 -0.00094689564377382408 0 -0.0047348366323534726 -0.001506546517748271 0 -0.0051868219071679426 -0.0012166443610245345 0 -0.0056349294803837748 -0.0013731452645904369 0 -0.00607995603953274 -0.00088993422917711229 0 -0.0061399450424899664 -0.001269388841329554 0 -0.0058252493794253611 -0.0018312323786002344 0 -0.0056349294803837748 -0.0013731452645904369 0 -0.0061399450424899664 -0.001269388841329554 0 -0.0051868219071679426 -0.0012166443610245345 0 -0.0056349294803837748 -0.0013731452645904369 0 -0.005689781236690292 -0.00085736298959691241 0 -0.005689781236690292 -0.00085736298959691241 0 -0.00607995603953274 -0.00088993422917711229 0 -0.006065514031472906 -0.0005031823342950912 0 -0.0056349294803837748 -0.0013731452645904369 0 -0.005689781236690292 -0.00085736298959691241 0 -0.00607995603953274 -0.00088993422917711229 0 -0.0051868219071679426 -0.0012166443610245345 0 -0.005689781236690292 -0.00085736298959691241 0 -0.0054096747383088738 -0.00043404717105158637 0 -0.005689781236690292 -0.00085736298959691241 0 -0.006065514031472906 -0.0005031823342950912 0 -0.0054096747383088738 -0.00043404717105158637 0 -0.006065514031472906 -0.0005031823342950912 0 -0.0054096747383088738 -0.00043404717105158637 0 -0.0061426846595975127 -0.00011904238830888169 0 -0.0043643970497637755 -0.00094689564377382408 0 -0.0051868219071679426 -0.0012166443610245345 0 -0.0054096747383088738 -0.00043404717105158637 0 -0.0043643970497637755 -0.00094689564377382408 0 -0.0054096747383088738 -0.00043404717105158637 0 -0.0044588370785246384 0.0004786813107618054 0 -0.0054096747383088738 -0.00043404717105158637 0 -0.0057896821139191623 0.00029704174101509738 0 -0.0044588370785246384 0.0004786813107618054 0 -0.0057896821139191623 0.00029704174101509738 0 -0.0061426846595975127 -0.00011904238830888169 0 -0.0064222268653239432 0.00053301751120975681 0 -0.0054096747383088738 -0.00043404717105158637 0 -0.0057896821139191623 0.00029704174101509738 0 -0.0061426846595975127 -0.00011904238830888169 0 -0.0057896821139191623 0.00029704174101509738 0 -0.0056847822392084172 0.0010045913684749231 0 -0.0064222268653239432 0.00053301751120975681 0 -0.0057896821139191623 0.00029704174101509738 0 -0.0056847822392084172 0.0010045913684749231 0 -0.0044588370785246384 0.0004786813107618054 0 -0.0056847822392084172 0.0010045913684749231 0 -0.0044588370785246384 0.0004786813107618054 0 -0.0055242648202827246 0.0018609053379821667 0 -0.0089187735208423186 -0.010236792011824676 0 -0.0079300708394176526 -0.010451721081925389 0 -0.0079980920837162007 -0.011087437906632917 0 -0.0089187735208423186 -0.010236792011824676 0 -0.0079300708394176526 -0.010451721081925389 0 -0.0083686303337897425 -0.0097016921506640486 0 -0.0079300708394176526 -0.010451721081925389 0 -0.0076959814818644921 -0.0098020773979082265 0 -0.0083686303337897425 -0.0097016921506640486 0 -0.0079300708394176526 -0.010451721081925389 0 -0.0076959814818644921 -0.0098020773979082265 0 -0.0072428990337879261 -0.010488724475279982 0 -0.0079300708394176526 -0.010451721081925389 0 -0.0072428990337879261 -0.010488724475279982 0 -0.0073545045241525898 -0.011136260619946691 0 -0.0079980920837162007 -0.011087437906632917 0 -0.0073545045241525898 -0.011136260619946691 0 -0.0073350729810106258 -0.011814398557594126 0 -0.0079300708394176526 -0.010451721081925389 0 -0.0079980920837162007 -0.011087437906632917 0 -0.0073545045241525898 -0.011136260619946691 0 -0.0063921387166552919 -0.0059293032097284424 0 -0.0067504405843298605 -0.0055593986403085164 0 -0.008479990909214908 -0.011544611060876354 0 -0.0089187735208423186 -0.010236792011824676 0 -0.0079980920837162007 -0.011087437906632917 0 -0.011153417187917588 0.0019778854904874041 0 -0.010925137741076379 -0.00027762326362791307 0 -0.0095348538050561375 0.00075882984586887682 0 -0.011153417187917588 0.0019778854904874041 0 -0.0095348538050561375 0.00075882984586887682 0 -0.010044479989481228 0.0028833995013412706 0 -0.013011822025530619 0.0023474503252727693 0 -0.011153417187917588 0.0019778854904874041 0 -0.010925137741076379 -0.00027762326362791307 0 -0.0059904427785384615 0.030666738280328509 0 -0.0047661733954653769 0.031496343116533293 0 -0.0050004813629486175 0.030971881893961363 0 -0.0059904427785384615 0.030666738280328509 0 -0.0050004813629486175 0.030971881893961363 0 -0.0045560148601157466 0.03033546059496357 0 -0.0059904427785384615 0.030666738280328509 0 -0.0047591933609592218 0.029297440482486215 0 -0.0045560148601157466 0.03033546059496357 0 -0.0047661733954653769 0.031496343116533293 0 -0.0050004813629486175 0.030971881893961363 0 -0.0045560148601157466 0.03033546059496357 0 -0.0047661733954653769 0.031496343116533293 0 -0.0036467156280721507 0.030079775970567036 0 -0.0045560148601157466 0.03033546059496357 0 -0.010925137741076379 -0.00027762326362791307 0 -0.0088974080327351764 -0.00083903530981879824 0 -0.0095348538050561375 0.00075882984586887682 0 -0.0047661733954653769 0.031496343116533293 0 -0.0036467156280721507 0.030079775970567036 0 -0.001896186259648758 0.030548270291308775 0 -0.0064680905460671664 0.015548309116934469 0 -0.0051540733057486177 0.015048357880713365 0 -0.0088974080327351764 -0.00083903530981879824 0 -0.0095348538050561375 0.00075882984586887682 0 -0.0080028552322612707 -8.5103954710287648e-05 0 -0.0095348538050561375 0.00075882984586887682 0 -0.0080188011706569442 0.0013560442364481771 0 -0.010044479989481228 0.0028833995013412706 0 -0.0095348538050561375 0.00075882984586887682 0 -0.0080188011706569442 0.0013560442364481771 0 -0.0080028552322612707 -8.5103954710287648e-05 0 -0.0080188011706569442 0.0013560442364481771 0 -0.0064538595438380052 -0.00045561241444715697 0 -0.0069953415246198731 -7.4503009338049378e-05 0 -0.0077648717234480849 0.00064468352514699605 0 -0.0065795605645177259 -0.00029469146065594582 0 -0.0080188011706569442 0.0013560442364481771 0 -0.0080028552322612707 -8.5103954710287648e-05 0 -0.0069953415246198731 -7.4503009338049378e-05 0 -0.0088974080327351764 -0.00083903530981879824 0 -0.0080028552322612707 -8.5103954710287648e-05 0 -0.0074123870601220205 -0.00092687843342628381 0 -0.0072764889318392206 -0.0011773969307025745 0 -0.0088974080327351764 -0.00083903530981879824 0 -0.0074123870601220205 -0.00092687843342628381 0 -0.0069516794190998708 0.0084376328335370714 0 -0.0051540733057486177 0.015048357880713365 0 -0.0071351081592470281 -0.0011296124710020567 0 -0.0074123870601220205 -0.00092687843342628381 0 -0.0073569850082005053 -0.0005278102249802666 0 -0.0071351081592470281 -0.0011296124710020567 0 -0.0073302928184446649 -0.0010784099926582523 0 -0.0074123870601220205 -0.00092687843342628381 0 -0.0069516794190998708 0.0084376328335370714 0 -0.00603275823820194 0.0052572860180881403 0 -0.0080028552322612707 -8.5103954710287648e-05 0 -0.0074123870601220205 -0.00092687843342628381 0 -0.0073569850082005053 -0.0005278102249802666 0 -0.0080028552322612707 -8.5103954710287648e-05 0 -0.0073569850082005053 -0.0005278102249802666 0 -0.0069953415246198731 -7.4503009338049378e-05 0 -0.0066448916741197869 -0.00087591238693371083 0 -0.0064538595438380052 -0.00045561241444715697 0 -0.0069953415246198731 -7.4503009338049378e-05 0 -0.0071351081592470281 -0.0011296124710020567 0 -0.0073569850082005053 -0.0005278102249802666 0 -0.0069953415246198731 -7.4503009338049378e-05 0 -0.0069454335697889391 -0.0017070150674954379 0 -0.0066448916741197869 -0.00087591238693371083 0 -0.0069953415246198731 -7.4503009338049378e-05 0 -0.0078672319838792686 0.0035572087365970165 0 -0.0069265044362015315 -0.0020242125328545678 0 -0.0069454335697889391 -0.0017070150674954379 0 -0.0066448916741197869 -0.00087591238693371083 0 -0.0065244685338284349 -0.0013376726534405224 0 -0.0058252493794253611 -0.0018312323786002344 0 -0.0065244685338284349 -0.0013376726534405224 0 -0.0061399450424899664 -0.001269388841329554 0 -0.0065244685338284349 -0.0013376726534405224 0 -0.0061399450424899664 -0.001269388841329554 0 -0.0063932378570884206 -0.0008980153125676566 0 -0.0066448916741197869 -0.00087591238693371083 0 -0.0065244685338284349 -0.0013376726534405224 0 -0.0063932378570884206 -0.0008980153125676566 0 -0.00607995603953274 -0.00088993422917711229 0 -0.0061399450424899664 -0.001269388841329554 0 -0.0063932378570884206 -0.0008980153125676566 0 -0.0066448916741197869 -0.00087591238693371083 0 -0.0063932378570884206 -0.0008980153125676566 0 -0.0064538595438380052 -0.00045561241444715697 0 -0.00607995603953274 -0.00088993422917711229 0 -0.0063932378570884206 -0.0008980153125676566 0 -0.0064538595438380052 -0.00045561241444715697 0 -0.007506421446242007 -2.8449869789200071e-05 0 -0.0064538595438380052 -0.00045561241444715697 0 -0.006724982079061026 9.0357825400159451e-05 0 -0.00607995603953274 -0.00088993422917711229 0 -0.006065514031472906 -0.0005031823342950912 0 -0.0064538595438380052 -0.00045561241444715697 0 -0.006065514031472906 -0.0005031823342950912 0 -0.0064538595438380052 -0.00045561241444715697 0 -0.0061426846595975127 -0.00011904238830888169 0 -0.0064538595438380052 -0.00045561241444715697 0 -0.0061426846595975127 -0.00011904238830888169 0 -0.006724982079061026 9.0357825400159451e-05 0 -0.0061426846595975127 -0.00011904238830888169 0 -0.006724982079061026 9.0357825400159451e-05 0 -0.0064222268653239432 0.00053301751120975681 0 -0.006724982079061026 9.0357825400159451e-05 0 -0.0064222268653239432 0.00053301751120975681 0 -0.0072102199848162055 0.00070398254412937255 0 -0.0064222268653239432 0.00053301751120975681 0 -0.0068188332943758447 0.0012848894546937523 0 -0.0072102199848162055 0.00070398254412937255 0 -0.0056847822392084172 0.0010045913684749231 0 -0.0068188332943758447 0.0012848894546937523 0 -0.0064416046880615505 0.0019687928768883866 0 -0.0056847822392084172 0.0010045913684749231 0 -0.0064222268653239432 0.00053301751120975681 0 -0.0068188332943758447 0.0012848894546937523 0 -0.0068188332943758447 0.0012848894546937523 0 -0.0078095778715399867 0.0015459940230424134 0 -0.0073705958286381778 0.0021062900278810606 0 -0.0068188332943758447 0.0012848894546937523 0 -0.0078095778715399867 0.0015459940230424134 0 -0.0072102199848162055 0.00070398254412937255 0 -0.007506421446242007 -2.8449869789200071e-05 0 -0.006724982079061026 9.0357825400159451e-05 0 -0.0072102199848162055 0.00070398254412937255 0 -0.007506421446242007 -2.8449869789200071e-05 0 -0.0072102199848162055 0.00070398254412937255 0 -0.0086163953084855832 0.00081177213056304127 0 -0.0077648717234480849 0.00064468352514699605 0 -0.0094026305796600703 0.0019342680430489954 0 -0.0078095778715399867 0.0015459940230424134 0 -0.0072102199848162055 0.00070398254412937255 0 -0.0086163953084855832 0.00081177213056304127 0 -0.0078095778715399867 0.0015459940230424134 0 -0.0086696450695898167 0.0020090989710631877 0 -0.0086163953084855832 0.00081177213056304127 0 -0.0078095778715399867 0.0015459940230424134 0 -0.0086696450695898167 0.0020090989710631877 0 -0.0080914921524212341 0.0022320693603448496 0 -0.0094441813803057776 0.0017005671704459595 0 -0.0086696450695898167 0.0020090989710631877 0 -0.009140949640302343 0.0026328902847885844 0 -0.0094441813803057776 0.0017005671704459595 0 -0.0086696450695898167 0.0020090989710631877 0 -0.0086163953084855832 0.00081177213056304127 0 -0.010626690735624942 0.0023837916829378895 0 -0.0094026305796600703 0.0019342680430489954 0 -0.012290108404119055 0.004359495859345695 0 -0.011153417187917588 0.0019778854904874041 0 -0.010044479989481228 0.0028833995013412706 0 -0.0085889749461249432 0.0028535244256630964 0 -0.0082974602190828937 0.0036168210122537363 0 -0.0091156967475182864 0.003563057267035204 0 -0.009140949640302343 0.0026328902847885844 0 -0.0085889749461249432 0.0028535244256630964 0 -0.0091156967475182864 0.003563057267035204 0 -0.0086696450695898167 0.0020090989710631877 0 -0.009140949640302343 0.0026328902847885844 0 -0.0085889749461249432 0.0028535244256630964 0 -0.0086696450695898167 0.0020090989710631877 0 -0.0080914921524212341 0.0022320693603448496 0 -0.0085889749461249432 0.0028535244256630964 0 -0.0080914921524212341 0.0022320693603448496 0 -0.0081239974279810005 0.0029375015695948703 0 -0.0085889749461249432 0.0028535244256630964 0 -0.0081239974279810005 0.0029375015695948703 0 -0.0085889749461249432 0.0028535244256630964 0 -0.0082974602190828937 0.0036168210122537363 0 -0.0083077433240538023 0.0032567819667574153 0 -0.0083875495818864759 0.0032822906506410759 0 -0.0081239974279810005 0.0029375015695948703 0 -0.0076520499739432327 0.003883309957858655 0 -0.00898776569454624 0.004044584822465864 0 -0.0081239974279810005 0.0029375015695948703 0 -0.0070285189658199085 0.0029447764100716443 0 -0.0076520499739432327 0.003883309957858655 0 -0.0070285189658199085 0.0029447764100716443 0 -0.0065930023528732182 0.0038365048333660647 0 -0.0076520499739432327 0.003883309957858655 0 -0.0081239974279810005 0.0029375015695948703 0 -0.0073705958286381778 0.0021062900278810606 0 -0.0070285189658199085 0.0029447764100716443 0 -0.0080914921524212341 0.0022320693603448496 0 -0.0081239974279810005 0.0029375015695948703 0 -0.0073705958286381778 0.0021062900278810606 0 -0.0078095778715399867 0.0015459940230424134 0 -0.0080914921524212341 0.0022320693603448496 0 -0.0073705958286381778 0.0021062900278810606 0 -0.0064416046880615505 0.0019687928768883866 0 -0.0070285189658199085 0.0029447764100716443 0 -0.0060562568464143287 0.0031363215536445561 0 -0.0068188332943758447 0.0012848894546937523 0 -0.0073705958286381778 0.0021062900278810606 0 -0.0064416046880615505 0.0019687928768883866 0 -0.0073705958286381778 0.0021062900278810606 0 -0.0064416046880615505 0.0019687928768883866 0 -0.0070285189658199085 0.0029447764100716443 0 -0.0070285189658199085 0.0029447764100716443 0 -0.0065930023528732182 0.0038365048333660647 0 -0.0060562568464143287 0.0031363215536445561 0 -0.0065930023528732182 0.0038365048333660647 0 -0.0071083976535022547 0.0048623247547593274 0 -0.0058598712845191834 0.0046453096134637436 0 -0.0064231212781875125 0.0054987452510321154 0 -0.0071083976535022547 0.0048623247547593274 0 -0.0058598712845191834 0.0046453096134637436 0 -0.0064231212781875125 0.0054987452510321154 0 -0.0078975771046150781 0.0061135192188047048 0 -0.0071083976535022547 0.0048623247547593274 0 -0.0064158993396811106 0.005313006856497153 0 -0.0077524794207411455 0.0054633870898647173 0 -0.0078975771046150781 0.0061135192188047048 0 -0.0071083976535022547 0.0048623247547593274 0 -0.0084454211643044483 0.0050939745460898472 0 -0.0071083976535022547 0.0048623247547593274 0 -0.0076520499739432327 0.003883309957858655 0 -0.0084454211643044483 0.0050939745460898472 0 -0.0065930023528732182 0.0038365048333660647 0 -0.0071083976535022547 0.0048623247547593274 0 -0.0076520499739432327 0.003883309957858655 0 -0.0076520499739432327 0.003883309957858655 0 -0.00898776569454624 0.004044584822465864 0 -0.0084454211643044483 0.0050939745460898472 0 -0.00898776569454624 0.004044584822465864 0 -0.0084454211643044483 0.0050939745460898472 0 -0.010009843539763436 0.0058748766241791461 0 -0.0083875495818864759 0.0032822906506410759 0 -0.0088810821305422907 0.0093758531749323117 0 -0.0077524794207411455 0.0054633870898647173 0 -0.0092650565418878478 0.011362310213639025 0 -0.0073783965225981797 0.0052985470757980196 0 -0.0084295874097738439 0.0055421566088892536 0 -0.0078941422526871627 0.0059905528562593383 0 -0.0078975771046150781 0.0061135192188047048 0 -0.0084454211643044483 0.0050939745460898472 0 -0.0098123464952159251 0.0061880624763711372 0 -0.0078975771046150781 0.0061135192188047048 0 -0.0098123464952159251 0.0061880624763711372 0 -0.01033789072629095 0.0068871051947381016 0 -0.0098123464952159251 0.0061880624763711372 0 -0.010075898216883624 0.0060962526835584216 0 -0.01033789072629095 0.0068871051947381016 0 -0.0088810821305422907 0.0093758531749323117 0 -0.0092650565418878478 0.011362310213639025 0 -0.0084454211643044483 0.0050939745460898472 0 -0.0098123464952159251 0.0061880624763711372 0 -0.010009843539763436 0.0058748766241791461 0 -0.0092681410160567919 0.0087780990595986205 0 -0.0088810821305422907 0.0093758531749323117 0 -0.010704263853826239 0.018063291607787899 0 -0.0099831674625712203 0.017378714881770743 0 -0.010333332858597525 0.017575498249688685 0 -0.010003313789049572 0.016569090888312717 0 -0.0087006553684962889 0.016064567930393521 0 -0.0093807966478648384 0.01666105026470829 0 -0.0099648050789526172 0.017280485139089245 0 -0.0099831674625712203 0.017378714881770743 0 -0.010333332858597525 0.017575498249688685 0 -0.010344271967059376 0.017829061685729369 0 -0.0092650565418878478 0.011362310213639025 0 -0.0088810821305422907 0.0093758531749323117 0 -0.0097035262558768567 0.010704651531047079 0 -0.0099648050789526172 0.017280485139089245 0 -0.010333332858597525 0.017575498249688685 0 -0.010410763468184453 0.017478336689417291 0 -0.0082974602190828937 0.0036168210122537363 0 -0.0085465405756153003 0.0043315968996236421 0 -0.0091156967475182864 0.003563057267035204 0 -0.0070255747188153238 -0.0026057308062849838 0 -0.0062228064886968573 -0.00043950099090488853 0 -0.0054287392033236844 0.0037609722883930941 0 -0.0046987943747236654 0.0038867016041270711 0 -0.0050539856413297996 0.003250056501658485 0 -0.0081668304736980616 -0.0084765892133146434 0 -0.0081102574481103171 -0.0091434305235354053 0 -0.0092010800713150254 -0.0087156133662060434 0 -0.0081668304736980616 -0.0084765892133146434 0 -0.0070063273968505669 -0.0080183916338314055 0 -0.0073649229030568865 -0.0090551975737807738 0 -0.0070255747188153238 -0.0026057308062849838 0 -0.0067910446489485767 -0.0013268291155947294 0 -0.0081668304736980616 -0.0084765892133146434 0 -0.0081102574481103171 -0.0091434305235354053 0 -0.0073649229030568865 -0.0090551975737807738 0 -0.0081102574481103171 -0.0091434305235354053 0 -0.0076959814818644921 -0.0098020773979082265 0 -0.0073649229030568865 -0.0090551975737807738 0 -0.0081102574481103171 -0.0091434305235354053 0 -0.0076959814818644921 -0.0098020773979082265 0 -0.0083686303337897425 -0.0097016921506640486 0 -0.0089187735208423186 -0.010236792011824676 0 -0.0083686303337897425 -0.0097016921506640486 0 -0.0092010800713150254 -0.0087156133662060434 0 -0.0067504405843298605 -0.0055593986403085164 0 -0.0062228064886968573 -0.00043950099090488853 0 -0.0081102574481103171 -0.0091434305235354053 0 -0.0083686303337897425 -0.0097016921506640486 0 -0.0092010800713150254 -0.0087156133662060434 0 -0.0044588370785246384 0.0004786813107618054 0 -0.0055242648202827246 0.0018609053379821667 0 -0.0046295432120800548 0.0019425983508413805 0 -0.0050629346030894055 0.0024458580065229198 0 -0.0062228064886968573 -0.00043950099090488853 0 -0.0065456293155583944 0.0019003054599684673 0 -0.0050629346030894055 0.0024458580065229198 0 -0.0064416046880615505 0.0019687928768883866 0 -0.0053776137866393854 0.0025954947127111291 0 -0.0060562568464143287 0.0031363215536445561 0 -0.0056847822392084172 0.0010045913684749231 0 -0.0064416046880615505 0.0019687928768883866 0 -0.0055242648202827246 0.0018609053379821667 0 -0.0065930023528732182 0.0038365048333660647 0 -0.0060562568464143287 0.0031363215536445561 0 -0.0054948312408467509 0.0037926065575811124 0 -0.0053776137866393854 0.0025954947127111291 0 -0.0060562568464143287 0.0031363215536445561 0 -0.0054948312408467509 0.0037926065575811124 0 -0.0053776137866393854 0.0025954947127111291 0 -0.0054948312408467509 0.0037926065575811124 0 -0.0044484792806271153 0.0030250724890287716 0 -0.0054948312408467509 0.0037926065575811124 0 -0.0044484792806271153 0.0030250724890287716 0 -0.00485536664477815 0.0045896171997285564 0 -0.0062228064886968573 -0.00043950099090488853 0 -0.004625009416135523 0.0046330700496297009 0 -0.0054948312408467509 0.0037926065575811124 0 -0.00485536664477815 0.0045896171997285564 0 -0.0058598712845191834 0.0046453096134637436 0 -0.0065930023528732182 0.0038365048333660647 0 -0.0054948312408467509 0.0037926065575811124 0 -0.0058598712845191834 0.0046453096134637436 0 -0.0064158993396811106 0.005313006856497153 0 -0.0055486908070832008 0.0050544657169944345 0 -0.0064231212781875125 0.0054987452510321154 0 -0.0058598712845191834 0.0046453096134637436 0 -0.0054289875505144688 0.0049616863513929719 0 -0.00485536664477815 0.0045896171997285564 0 -0.0058598712845191834 0.0046453096134637436 0 -0.0054289875505144688 0.0049616863513929719 0 -0.0047195923811562254 0.0027971977039518278 0 -0.0043532838577269896 0.0033429707920289123 0 -0.0051804174082587312 0.0050710539744581746 0 -0.00485536664477815 0.0045896171997285564 0 -0.0054289875505144688 0.0049616863513929719 0 -0.0051804174082587312 0.0050710539744581746 0 -0.004625009416135523 0.0046330700496297009 0 -0.0051606168003543737 0.0046057822526720969 0 -0.0043532838577269896 0.0033429707920289123 0 -0.0052737841911441423 0.0027690302561740321 0 -0.0056977531191029791 0.001885701057207942 0 -0.0047693669417511854 0.0030144497753495608 0 -0.0050539856413297996 0.003250056501658485 0 -0.0052737841911441423 0.0027690302561740321 0 -0.0043532838577269896 0.0033429707920289123 0 -0.0047693669417511854 0.0030144497753495608 0 -0.0052737841911441423 0.0027690302561740321 0 -0.0047195923811562254 0.0027971977039518278 0 -0.0043532838577269896 0.0033429707920289123 0 -0.0047693669417511854 0.0030144497753495608 0 -0.0046987943747236654 0.0038867016041270711 0 -0.0047195923811562254 0.0027971977039518278 0 -0.0050539856413297996 0.003250056501658485 0 -0.0047195923811562254 0.0027971977039518278 0 -0.0047693669417511854 0.0030144497753495608 0 -0.0050539856413297996 0.003250056501658485 0 -0.0054287392033236844 0.0037609722883930941 0 -0.0058624142080247075 0.003341055110407159 0 -0.0062419188549994731 0.0035560620042089045 0 -0.0050539856413297996 0.003250056501658485 0 -0.0058624142080247075 0.003341055110407159 0 -0.0052737841911441423 0.0027690302561740321 0 -0.0054287392033236844 0.0037609722883930941 0 -0.0050539856413297996 0.003250056501658485 0 -0.0058624142080247075 0.003341055110407159 0 -0.0058624142080247075 0.003341055110407159 0 -0.0060301105109456772 0.0026862343811212839 0 -0.0052737841911441423 0.0027690302561740321 0 -0.0060301105109456772 0.0026862343811212839 0 -0.0052737841911441423 0.0027690302561740321 0 -0.0056977531191029791 0.001885701057207942 0 -0.0060301105109456772 0.0026862343811212839 0 -0.0065169070494911028 0.0019667811429831708 0 -0.0056977531191029791 0.001885701057207942 0 -0.0065169070494911028 0.0019667811429831708 0 -0.0069804077353749711 0.002883713161450782 0 -0.0073398499121765104 0.0015513251639298347 0 -0.0060301105109456772 0.0026862343811212839 0 -0.0065169070494911028 0.0019667811429831708 0 -0.0069804077353749711 0.002883713161450782 0 -0.008612086554314391 0.0023734046472246974 0 -0.0069804077353749711 0.002883713161450782 0 -0.0073398499121765104 0.0015513251639298347 0 -0.008612086554314391 0.0023734046472246974 0 -0.0073398499121765104 0.0015513251639298347 0 -0.0085828869636699352 0.0011417050404423116 0 -0.008612086554314391 0.0023734046472246974 0 -0.0082319685782403246 0.0035695942323609561 0 -0.0095967304762028874 0.0030399293804512276 0 -0.008612086554314391 0.0023734046472246974 0 -0.0082319685782403246 0.0035695942323609561 0 -0.0069804077353749711 0.002883713161450782 0 -0.0070376241583387051 -0.004322875653296308 0 -0.0064496179151570018 -0.0041156706092173069 0 -0.0069653075843875006 -0.0049981673040375594 0 -0.0075351390666424907 -0.00035604054467916111 0 -0.0067910446489485767 -0.0013268291155947294 0 -0.0082319685782403246 0.0035695942323609561 0 -0.0068285517588610534 0.0040308884286873259 0 -0.0069804077353749711 0.002883713161450782 0 -0.0069802757163243048 0.0030330672704751869 0 -0.0067910446489485767 -0.0013268291155947294 0 -0.0058624142080247075 0.003341055110407159 0 -0.0068285517588610534 0.0040308884286873259 0 -0.0069804077353749711 0.002883713161450782 0 -0.0058624142080247075 0.003341055110407159 0 -0.0060301105109456772 0.0026862343811212839 0 -0.0069804077353749711 0.002883713161450782 0 -0.0048555832752991664 -0.0041474468012317068 0 -0.0049859332061044466 -0.0047169487504044117 0 -0.0042664915833643523 -0.0045912341701757889 0 -0.0071131180192887172 -0.0021173060955884571 0 -0.0057061770435044065 -0.0034095545229413664 0 -0.0048555832752991664 -0.0041474468012317068 0 -0.0056337028682425638 -0.0044544825628661721 0 -0.0052335595028795059 -0.0032793285759998561 0 -0.0064383324445219563 -0.0066927238270070907 0 -0.0071131180192887172 -0.0021173060955884571 0 -0.0048555832752991664 -0.0041474468012317068 0 -0.0049859332061044466 -0.0047169487504044117 0 -0.0056337028682425638 -0.0044544825628661721 0 -0.0071131180192887172 -0.0021173060955884571 0 -0.0077908237100662832 -0.00038371447832010873 0 -0.008612086554314391 0.0023734046472246974 0 -0.010074174310487067 0.0022368674758337682 0 -0.0085828869636699352 0.0011417050404423116 0 -0.008612086554314391 0.0023734046472246974 0 -0.010074174310487067 0.0022368674758337682 0 -0.0095967304762028874 0.0030399293804512276 0 -0.0071131180192887172 -0.0021173060955884571 0 -0.0073611227368933062 -0.004376907420418517 0 -0.0067403737299405906 -0.0047061818155976678 0 -0.0069238398172919175 -0.0045704731163293301 0 -0.0070746239531752396 -0.004817810339190899 0 -0.0067347936898312401 -0.0099193814995278337 0 -0.0063286312313048836 -0.010177607854493948 0 -0.0065616472314674722 -0.010577112658711274 0 -0.0073611227368933062 -0.004376907420418517 0 -0.0064917773482534901 -0.0094158745360130025 0 -0.0075351390666424907 -0.00035604054467916111 0 -0.0073611227368933062 -0.004376907420418517 0 -0.0064383324445219563 -0.0066927238270070907 0 -0.0065189560231069775 -0.0099067105119834374 0 -0.0063286312313048836 -0.010177607854493948 0 -0.0062021729762709579 -0.01052910307536275 0 -0.005689311190760213 -0.010232175887886372 0 -0.0062810345382182543 -0.0097658465970646754 0 -0.0063286312313048836 -0.010177607854493948 0 -0.005689311190760213 -0.010232175887886372 0 -0.0062810345382182543 -0.0097658465970646754 0 -0.0067347936898312401 -0.0099193814995278337 0 -0.0063286312313048836 -0.010177607854493948 0 -0.0064383324445219563 -0.0066927238270070907 0 -0.0073611227368933062 -0.004376907420418517 0 -0.0062413514576754375 -0.010883883473102259 0 -0.0065616472314674722 -0.010577112658711274 0 -0.0065053020571065922 -0.0112428912712173 0 -0.0062021729762709579 -0.01052910307536275 0 -0.0062413514576754375 -0.010883883473102259 0 -0.00578312397219606 -0.01079629843959031 0 -0.0063286312313048836 -0.010177607854493948 0 -0.0062021729762709579 -0.01052910307536275 0 -0.0065616472314674722 -0.010577112658711274 0 -0.0062021729762709579 -0.01052910307536275 0 -0.0062413514576754375 -0.010883883473102259 0 -0.0065616472314674722 -0.010577112658711274 0 -0.0067347936898312401 -0.0099193814995278337 0 -0.0065616472314674722 -0.010577112658711274 0 -0.0072287288589398604 -0.010751891505171503 0 -0.0065616472314674722 -0.010577112658711274 0 -0.0065053020571065922 -0.0112428912712173 0 -0.0072287288589398604 -0.010751891505171503 0 -0.0063680110851844539 -0.011125715421891433 0 -0.0064917773482534901 -0.0094158745360130025 0 -0.0061816933092283585 -0.010715160314875894 0 -0.0065472450033069616 -0.010335583597639962 0 -0.0064746836581401727 -0.010595089355633839 0 -0.0061816933092283585 -0.010715160314875894 0 -0.0064746836581401727 -0.010595089355633839 0 -0.0065085245322807116 -0.010848984650208242 0 -0.0065053020571065922 -0.0112428912712173 0 -0.0058065595296973443 -0.011583621462636176 0 -0.0059408958921148784 -0.011205279187047905 0 -0.0062413514576754375 -0.010883883473102259 0 -0.0065053020571065922 -0.0112428912712173 0 -0.0059408958921148784 -0.011205279187047905 0 -0.0062413514576754375 -0.010883883473102259 0 -0.0059408958921148784 -0.011205279187047905 0 -0.00578312397219606 -0.01079629843959031 0 -0.0070063273968505669 -0.0080183916338314055 0 -0.0073649229030568865 -0.0090551975737807738 0 -0.0058251651191442285 -0.0087989152952116078 0 -0.0070376241583387051 -0.004322875653296308 0 -0.0076282340727782229 -0.0045207029231959196 0 -0.0069653075843875006 -0.0049981673040375594 0 -0.0067910446489485767 -0.0013268291155947294 0 -0.0064917773482534901 -0.0094158745360130025 0 -0.0065472450033069616 -0.010335583597639962 0 -0.0064746836581401727 -0.010595089355633839 0 -0.0069392390727729949 -0.010512485009099506 0 -0.0064917773482534901 -0.0094158745360130025 0 -0.0068147606985273267 -0.010522152156927938 0 -0.0058251651191442285 -0.0087989152952116078 0 -0.0072145982332282362 -0.0099006255732905345 0 -0.0069392390727729949 -0.010512485009099506 0 -0.0073649229030568865 -0.0090551975737807738 0 -0.0058251651191442285 -0.0087989152952116078 0 -0.0072145982332282362 -0.0099006255732905345 0 -0.0076959814818644921 -0.0098020773979082265 0 -0.0073649229030568865 -0.0090551975737807738 0 -0.0072145982332282362 -0.0099006255732905345 0 -0.0076959814818644921 -0.0098020773979082265 0 -0.0072145982332282362 -0.0099006255732905345 0 -0.0072428990337879261 -0.010488724475279982 0 -0.0072428990337879261 -0.010488724475279982 0 -0.0069392390727729949 -0.010512485009099506 0 -0.0065085245322807116 -0.010848984650208242 0 -0.0072428990337879261 -0.010488724475279982 0 -0.0068524308185899004 -0.011243245899743902 0 -0.0064263550801054673 -0.011256528681815056 0 -0.0072145982332282362 -0.0099006255732905345 0 -0.0072428990337879261 -0.010488724475279982 0 -0.0069392390727729949 -0.010512485009099506 0 -0.0072154852677676455 -0.010599071930548593 0 -0.0065022689494364586 -0.0110351899042386 0 -0.0072428990337879261 -0.010488724475279982 0 -0.0068524308185899004 -0.011243245899743902 0 -0.0073545045241525898 -0.011136260619946691 0 -0.0073545045241525898 -0.011136260619946691 0 -0.0068862941846079074 -0.011625728823790834 0 -0.0073350729810106258 -0.011814398557594126 0 -0.0068862941846079074 -0.011625728823790834 0 -0.0073350729810106258 -0.011814398557594126 0 -0.0064993940963869856 -0.012237434968982674 0 -0.0068524308185899004 -0.011243245899743902 0 -0.0073545045241525898 -0.011136260619946691 0 -0.0068862941846079074 -0.011625728823790834 0 -0.0064645839888105329 -0.011718665955692684 0 -0.0061110874345163225 -0.012285813047769297 0 -0.0064993940963869856 -0.012237434968982674 0 -0.0068862941846079074 -0.011625728823790834 0 -0.0064645839888105329 -0.011718665955692684 0 -0.0064993940963869856 -0.012237434968982674 0 -0.0068524308185899004 -0.011243245899743902 0 -0.0068862941846079074 -0.011625728823790834 0 -0.0064645839888105329 -0.011718665955692684 0 -0.0064645839888105329 -0.011718665955692684 0 -0.0064263550801054673 -0.011256528681815056 0 -0.0061153082466405958 -0.011865080033224732 0 -0.0064746836581401727 -0.010595089355633839 0 -0.0069392390727729949 -0.010512485009099506 0 -0.0065085245322807116 -0.010848984650208242 0 -0.0068524308185899004 -0.011243245899743902 0 -0.0064645839888105329 -0.011718665955692684 0 -0.0064263550801054673 -0.011256528681815056 0 -0.0061816933092283585 -0.010715160314875894 0 -0.0065085245322807116 -0.010848984650208242 0 -0.0060898943385554937 -0.011259544795651819 0 -0.0065022689494364586 -0.0110351899042386 0 -0.0059395103174421223 -0.011558848365912672 0 -0.0064263550801054673 -0.011256528681815056 0 -0.0057901573707658865 -0.011851224294929866 0 -0.0061153082466405958 -0.011865080033224732 0 -0.0061816933092283585 -0.010715160314875894 0 -0.0060898943385554937 -0.011259544795651819 0 -0.0058065595296973443 -0.011583621462636176 0 -0.0063680110851844539 -0.011125715421891433 0 -0.0058654968270711412 -0.011462331167979879 0 -0.0057901573707658865 -0.011851224294929866 0 -0.0058076195415157584 -0.0122770094091747 0 -0.0055109438012267619 -0.012341570583785934 0 -0.0058076195415157584 -0.0122770094091747 0 -0.0055366408918377935 -0.012619799219459629 0 -0.0055109438012267619 -0.012341570583785934 0 -0.0057901573707658865 -0.011851224294929866 0 -0.0058076195415157584 -0.0122770094091747 0 -0.0061153082466405958 -0.011865080033224732 0 -0.0058076195415157584 -0.0122770094091747 0 -0.0055366408918377935 -0.012619799219459629 0 -0.005808720724698492 -0.012751513044566671 0 -0.0064645839888105329 -0.011718665955692684 0 -0.0061153082466405958 -0.011865080033224732 0 -0.0061110874345163225 -0.012285813047769297 0 -0.0058076195415157584 -0.0122770094091747 0 -0.0061153082466405958 -0.011865080033224732 0 -0.0061110874345163225 -0.012285813047769297 0 -0.0058076195415157584 -0.0122770094091747 0 -0.0061110874345163225 -0.012285813047769297 0 -0.005808720724698492 -0.012751513044566671 0 -0.0061110874345163225 -0.012285813047769297 0 -0.0060055079520809932 -0.013005463665991793 0 -0.005808720724698492 -0.012751513044566671 0 -0.0061110874345163225 -0.012285813047769297 0 -0.0060055079520809932 -0.013005463665991793 0 -0.0064993940963869856 -0.012237434968982674 0 -0.0055366408918377935 -0.012619799219459629 0 -0.005808720724698492 -0.012751513044566671 0 -0.0053155207132935412 -0.013163673633887651 0 -0.005808720724698492 -0.012751513044566671 0 -0.0055906937018260997 -0.013370047713037018 0 -0.0053155207132935412 -0.013163673633887651 0 -0.0060055079520809932 -0.013005463665991793 0 -0.005808720724698492 -0.012751513044566671 0 -0.0055906937018260997 -0.013370047713037018 0 -0.0056871398597110323 -0.013921286151145996 0 -0.0060055079520809932 -0.013005463665991793 0 -0.0055906937018260997 -0.013370047713037018 0 -0.0059600607283392185 -0.01366838489564774 0 -0.0056871398597110323 -0.013921286151145996 0 -0.0060055079520809932 -0.013005463665991793 0 -0.0059600607283392185 -0.01366838489564774 0 -0.0060055079520809932 -0.013005463665991793 0 -0.0066685969514421514 -0.012679646225401407 0 -0.0061768859522420023 -0.013545990668281839 0 -0.0059600607283392185 -0.01366838489564774 0 -0.0066685969514421514 -0.012679646225401407 0 -0.0073649117145011891 -0.013934027700393675 0 -0.0064266044664380876 -0.012301886754250837 0 -0.0073672978600108499 -0.012796767329820675 0 -0.0075682897734523601 -0.012353813734834481 0 -0.0066685969514421514 -0.012679646225401407 0 -0.0075682897734523601 -0.012353813734834481 0 -0.0066685969514421514 -0.012679646225401407 0 -0.0073350729810106258 -0.011814398557594126 0 -0.0066685969514421514 -0.012679646225401407 0 -0.0073350729810106258 -0.011814398557594126 0 -0.0064993940963869856 -0.012237434968982674 0 -0.0060055079520809932 -0.013005463665991793 0 -0.0066685969514421514 -0.012679646225401407 0 -0.0064993940963869856 -0.012237434968982674 0 -0.0043352021658204475 -0.014043721889688495 0 -0.004786488464565801 -0.013292727300629359 0 -0.0040927328478909961 -0.01335181398673391 0 -0.0043352021658204475 -0.014043721889688495 0 -0.0036455475419171681 -0.014303574590157072 0 -0.0040927328478909961 -0.01335181398673391 0 -0.0036455475419171681 -0.014303574590157072 0 -0.0040927328478909961 -0.01335181398673391 0 -0.0034034402279943259 -0.013670982112376058 0 -0.0043352021658204475 -0.014043721889688495 0 -0.0036455475419171681 -0.014303574590157072 0 -0.0038699246980906515 -0.014827918512332811 0 -0.0036455475419171681 -0.014303574590157072 0 -0.0038699246980906515 -0.014827918512332811 0 -0.0032553146616583254 -0.015185348272608971 0 -0.0044163567767281104 -0.01467381585700684 0 -0.0043352021658204475 -0.014043721889688495 0 -0.0038699246980906515 -0.014827918512332811 0 -0.0044163567767281104 -0.01467381585700684 0 -0.0043352021658204475 -0.014043721889688495 0 -0.0050633025374625931 -0.013969206943791865 0 -0.0055906937018260997 -0.013370047713037018 0 -0.0050633025374625931 -0.013969206943791865 0 -0.0053155207132935412 -0.013163673633887651 0 -0.0056871398597110323 -0.013921286151145996 0 -0.0055906937018260997 -0.013370047713037018 0 -0.0050633025374625931 -0.013969206943791865 0 -0.0043352021658204475 -0.014043721889688495 0 -0.0050633025374625931 -0.013969206943791865 0 -0.004786488464565801 -0.013292727300629359 0 -0.0053155207132935412 -0.013163673633887651 0 -0.004786488464565801 -0.013292727300629359 0 -0.0051864481671873627 -0.01274300643581484 0 -0.0050633025374625931 -0.013969206943791865 0 -0.0053155207132935412 -0.013163673633887651 0 -0.004786488464565801 -0.013292727300629359 0 -0.004786488464565801 -0.013292727300629359 0 -0.0051864481671873627 -0.01274300643581484 0 -0.0045984733234116903 -0.012444760145619564 0 -0.0051864481671873627 -0.01274300643581484 0 -0.0052110668973383376 -0.012262463172498095 0 -0.0045984733234116903 -0.012444760145619564 0 -0.0055366408918377935 -0.012619799219459629 0 -0.0053155207132935412 -0.013163673633887651 0 -0.0051864481671873627 -0.01274300643581484 0 -0.0055366408918377935 -0.012619799219459629 0 -0.0051864481671873627 -0.01274300643581484 0 -0.0055109438012267619 -0.012341570583785934 0 -0.0051864481671873627 -0.01274300643581484 0 -0.0055109438012267619 -0.012341570583785934 0 -0.0052110668973383376 -0.012262463172498095 0 -0.0059395103174421223 -0.011558848365912672 0 -0.0053835923654626128 -0.012059420643058729 0 -0.0060898943385554937 -0.011259544795651819 0 -0.0056340297253924731 -0.011871749774048561 0 -0.0058065595296973443 -0.011583621462636176 0 -0.0057901573707658865 -0.011851224294929866 0 -0.0055109438012267619 -0.012341570583785934 0 -0.0052110668973383376 -0.012262463172498095 0 -0.0056340297253924731 -0.011871749774048561 0 -0.0056246068702487662 -0.011527695601474791 0 -0.0058065595296973443 -0.011583621462636176 0 -0.0053835923654626128 -0.012059420643058729 0 -0.0046351717691879516 -0.012377990233082597 0 -0.0056340297253924731 -0.011871749774048561 0 -0.0051344755894707434 -0.011786253973126614 0 -0.0045984733234116903 -0.012444760145619564 0 -0.0056340297253924731 -0.011871749774048561 0 -0.0056246068702487662 -0.011527695601474791 0 -0.0051344755894707434 -0.011786253973126614 0 -0.0051344755894707434 -0.011786253973126614 0 -0.0045984733234116903 -0.012444760145619564 0 -0.0044217702877768564 -0.011204648488748798 0 -0.0045984733234116903 -0.012444760145619564 0 -0.0035557580505807536 -0.012440991824435562 0 -0.0044217702877768564 -0.011204648488748798 0 -0.004786488464565801 -0.013292727300629359 0 -0.0045984733234116903 -0.012444760145619564 0 -0.0040927328478909961 -0.01335181398673391 0 -0.0045984733234116903 -0.012444760145619564 0 -0.0040927328478909961 -0.01335181398673391 0 -0.0035557580505807536 -0.012440991824435562 0 -0.0040927328478909961 -0.01335181398673391 0 -0.0034034402279943259 -0.013670982112376058 0 -0.0035557580505807536 -0.012440991824435562 0 -0.0035557580505807536 -0.012440991824435562 0 -0.0044217702877768564 -0.011204648488748798 0 -0.0034370617737481137 -0.010671464732638379 0 -0.0051344755894707434 -0.011786253973126614 0 -0.0044217702877768564 -0.011204648488748798 0 -0.0050257664979444956 -0.011211536018286491 0 -0.0044217702877768564 -0.011204648488748798 0 -0.0050257664979444956 -0.011211536018286491 0 -0.005093988798546255 -0.010694552451420401 0 -0.0045044728091034212 -0.011149333214947366 0 -0.0054477396438925721 -0.010468483987892716 0 -0.0044217702877768564 -0.011204648488748798 0 -0.0058140897208474136 -0.010266119727101845 0 -0.0043181965986158364 -0.0096069071121565961 0 -0.0044217702877768564 -0.011204648488748798 0 -0.0034370617737481137 -0.010671464732638379 0 -0.0043181965986158364 -0.0096069071121565961 0 -0.0034370617737481137 -0.010671464732638379 0 -0.0043181965986158364 -0.0096069071121565961 0 -0.0031813530021204801 -0.0090014800122962882 0 -0.0056246068702487662 -0.011527695601474791 0 -0.0058065595296973443 -0.011583621462636176 0 -0.0059408958921148784 -0.011205279187047905 0 -0.0056246068702487662 -0.011527695601474791 0 -0.0059408958921148784 -0.011205279187047905 0 -0.0054468061713285314 -0.011189968933996021 0 -0.0059408958921148784 -0.011205279187047905 0 -0.0054468061713285314 -0.011189968933996021 0 -0.00578312397219606 -0.01079629843959031 0 -0.0056246068702487662 -0.011527695601474791 0 -0.0051344755894707434 -0.011786253973126614 0 -0.0054468061713285314 -0.011189968933996021 0 -0.0051344755894707434 -0.011786253973126614 0 -0.0054468061713285314 -0.011189968933996021 0 -0.0050257664979444956 -0.011211536018286491 0 -0.0054468061713285314 -0.011189968933996021 0 -0.0050257664979444956 -0.011211536018286491 0 -0.005093988798546255 -0.010694552451420401 0 -0.0054468061713285314 -0.011189968933996021 0 -0.005093988798546255 -0.010694552451420401 0 -0.00578312397219606 -0.01079629843959031 0 -0.0054477396438925721 -0.010468483987892716 0 -0.0065189560231069775 -0.0099067105119834374 0 -0.0062021729762709579 -0.01052910307536275 0 -0.00578312397219606 -0.01079629843959031 0 -0.005689311190760213 -0.010232175887886372 0 -0.005093988798546255 -0.010694552451420401 0 -0.00578312397219606 -0.01079629843959031 0 -0.005689311190760213 -0.010232175887886372 0 -0.0087420224179191996 -0.0081711292287932856 0 -0.0072972507122071716 -0.009220623926378152 0 -0.0073557126545380751 -0.0083468688284658223 0 -0.0072972507122071716 -0.009220623926378152 0 -0.0073557126545380751 -0.0083468688284658223 0 -0.0064845341280344642 -0.008527353300469458 0 -0.0058140897208474136 -0.010266119727101845 0 -0.0064845341280344642 -0.008527353300469458 0 -0.0053307509293139569 -0.0084633542302905256 0 -0.0058140897208474136 -0.010266119727101845 0 -0.0072972507122071716 -0.009220623926378152 0 -0.0064845341280344642 -0.008527353300469458 0 -0.0055857969750677909 -0.0061913542795670427 0 -0.0047056123805963536 -0.0064311067025859623 0 -0.0064845341280344642 -0.008527353300469458 0 -0.0068781750954954052 -0.0074686320900058572 0 -0.0053307509293139569 -0.0084633542302905256 0 -0.0068781750954954052 -0.0074686320900058572 0 -0.0053307509293139569 -0.0084633542302905256 0 -0.0047436268316898783 -0.0066027599067307484 0 -0.0049859332061044466 -0.0047169487504044117 0 -0.0042544404557593573 -0.0048294649617907168 0 -0.0042664915833643523 -0.0045912341701757889 0 -0.0064383324445219563 -0.0066927238270070907 0 -0.0055857969750677909 -0.0061913542795670427 0 -0.0087420224179191996 -0.0081711292287932856 0 -0.0073557126545380751 -0.0083468688284658223 0 -0.0068781750954954052 -0.0074686320900058572 0 -0.0073557126545380751 -0.0083468688284658223 0 -0.0064845341280344642 -0.008527353300469458 0 -0.0068781750954954052 -0.0074686320900058572 0 -0.0042544404557593573 -0.0048294649617907168 0 -0.0042664915833643523 -0.0045912341701757889 0 -0.0045734197833759548 -0.0057013676865954876 0 -0.0043181965986158364 -0.0096069071121565961 0 -0.0039090046790271346 -0.0078726615555359779 0 -0.0031813530021204801 -0.0090014800122962882 0 -0.0043181965986158364 -0.0096069071121565961 0 -0.0053307509293139569 -0.0084633542302905256 0 -0.0039090046790271346 -0.0078726615555359779 0 -0.0058140897208474136 -0.010266119727101845 0 -0.0043181965986158364 -0.0096069071121565961 0 -0.0053307509293139569 -0.0084633542302905256 0 -0.0053307509293139569 -0.0084633542302905256 0 -0.0039090046790271346 -0.0078726615555359779 0 -0.0047436268316898783 -0.0066027599067307484 0 -0.0039090046790271346 -0.0078726615555359779 0 -0.0030095974734589128 -0.0073688889974233536 0 -0.0031813530021204801 -0.0090014800122962882 0 -0.0039090046790271346 -0.0078726615555359779 0 -0.0038540824974321766 -0.0063158421202723141 0 -0.0030095974734589128 -0.0073688889974233536 0 -0.0039090046790271346 -0.0078726615555359779 0 -0.0038540824974321766 -0.0063158421202723141 0 -0.0047436268316898783 -0.0066027599067307484 0 -0.0038540824974321766 -0.0063158421202723141 0 -0.0047436268316898783 -0.0066027599067307484 0 -0.0046142946373414354 -0.0059552090552947266 0 -0.0038540824974321766 -0.0063158421202723141 0 -0.0041725171638925321 -0.0054832856894501307 0 -0.0046142946373414354 -0.0059552090552947266 0 -0.0038540824974321766 -0.0063158421202723141 0 -0.0031842092443155772 -0.0055636541982580319 0 -0.0041725171638925321 -0.0054832856894501307 0 -0.0038540824974321766 -0.0063158421202723141 0 -0.0031842092443155772 -0.0055636541982580319 0 -0.0025410538671094235 -0.00649951811248182 0 -0.0031842092443155772 -0.0055636541982580319 0 -0.0037689095482268272 -0.0049077888430268286 0 -0.0041725171638925321 -0.0054832856894501307 0 -0.0031842092443155772 -0.0055636541982580319 0 -0.0037689095482268272 -0.0049077888430268286 0 -0.0030535851044169475 -0.004634611843847892 0 -0.0041725171638925321 -0.0054832856894501307 0 -0.0042802274434099296 -0.0049354686307779578 0 -0.0048696952265698422 -0.0052650730901450766 0 -0.0037689095482268272 -0.0049077888430268286 0 -0.0041725171638925321 -0.0054832856894501307 0 -0.0042802274434099296 -0.0049354686307779578 0 -0.0040514863638708067 -0.0044190666028723815 0 -0.0037720404709316985 -0.0038896519715433176 0 -0.0047423051942622795 -0.0039812090838824664 0 -0.0037689095482268272 -0.0049077888430268286 0 -0.0042802274434099296 -0.0049354686307779578 0 -0.0040514863638708067 -0.0044190666028723815 0 -0.0042802274434099296 -0.0049354686307779578 0 -0.0040514863638708067 -0.0044190666028723815 0 -0.0045126616510642687 -0.0045828160605076475 0 -0.003792331156444092 -0.0040902857521743861 0 -0.0017649001501616717 0.00302078308973647 0 -0.0040514863638708067 -0.0044190666028723815 0 -0.0045126616510642687 -0.0045828160605076475 0 -0.0046810271098699291 -0.0041070895496245251 0 -0.0040514863638708067 -0.0044190666028723815 0 -0.0035010320467387889 -0.004310646698864923 0 -0.0037720404709316985 -0.0038896519715433176 0 -0.0035010320467387889 -0.004310646698864923 0 -0.0030535851044169475 -0.004634611843847892 0 -0.0028344841028940539 -0.0036906479686754268 0 -0.0037689095482268272 -0.0049077888430268286 0 -0.0035010320467387889 -0.004310646698864923 0 -0.0030535851044169475 -0.004634611843847892 0 -0.0037689095482268272 -0.0049077888430268286 0 -0.0040514863638708067 -0.0044190666028723815 0 -0.0035010320467387889 -0.004310646698864923 0 -0.0034111708876313094 0.0031539895007540093 0 -0.0017649001501616717 0.00302078308973647 0 -0.0043946566172149582 0.00088598115148912375 0 -0.0029902830954743492 -0.00039425722710120044 0 -0.0024723556301415018 0.0012677285913574353 0 -0.0045126616510642687 -0.0045828160605076475 0 -0.0048696952265698422 -0.0052650730901450766 0 -0.0046810271098699291 -0.0041070895496245251 0 -0.0042393615583393579 -0.0037818514385123624 0 -0.0017649001501616717 0.00302078308973647 0 -0.0042802274434099296 -0.0049354686307779578 0 -0.0045126616510642687 -0.0045828160605076475 0 -0.0048696952265698422 -0.0052650730901450766 0 -0.0043946566172149582 0.00088598115148912375 0 -0.0029902830954743492 -0.00039425722710120044 0 -0.0044950701917028379 -0.00036552109742582099 0 -0.0029902830954743492 -0.00039425722710120044 0 -0.0043589217440211849 -0.0014196705928257944 0 -0.0044950701917028379 -0.00036552109742582099 0 -0.0043589217440211849 -0.0014196705928257944 0 -0.003388453544429387 -0.0020479214269647759 0 -0.0046147334934911154 -0.0029202070415867446 0 -0.0029902830954743492 -0.00039425722710120044 0 -0.0043589217440211849 -0.0014196705928257944 0 -0.003388453544429387 -0.0020479214269647759 0 -0.0041725171638925321 -0.0054832856894501307 0 -0.0048696952265698422 -0.0052650730901450766 0 -0.0046142946373414354 -0.0059552090552947266 0 -0.0042393615583393579 -0.0037818514385123624 0 -0.0039598268427733585 -0.0037439181699610914 0 -0.0048696952265698422 -0.0052650730901450766 0 -0.0045945309351757228 -0.0059221942837500334 0 -0.0046142946373414354 -0.0059552090552947266 0 -0.0042544404557593573 -0.0048294649617907168 0 -0.0047436268316898783 -0.0066027599067307484 0 -0.0045734197833759548 -0.0057013676865954876 0 -0.0045945309351757228 -0.0059221942837500334 0 -0.0046142946373414354 -0.0059552090552947266 0 -0.0045734197833759548 -0.0057013676865954876 0 -0.0047436268316898783 -0.0066027599067307484 0 -0.0046142946373414354 -0.0059552090552947266 0 -0.0045734197833759548 -0.0057013676865954876 0 -0.0042581929125144417 -0.0046490451128535842 0 -0.0039598268427733585 -0.0037439181699610914 0 -0.0042664915833643523 -0.0045912341701757889 0 -0.003388453544429387 -0.0020479214269647759 0 -0.0046147334934911154 -0.0029202070415867446 0 -0.0042664915833643523 -0.0045912341701757889 0 -0.0045945309351757228 -0.0059221942837500334 0 -0.0045734197833759548 -0.0057013676865954876 0 -0.0048555832752991664 -0.0041474468012317068 0 -0.0042664915833643523 -0.0045912341701757889 0 -0.0046147334934911154 -0.0029202070415867446 0 -0.0048555832752991664 -0.0041474468012317068 0 -0.0046147334934911154 -0.0029202070415867446 0 -0.0052335595028795059 -0.0032793285759998561 0 -0.0056662605579777961 -0.0038174805988320805 0 -0.0052335595028795059 -0.0032793285759998561 0 -0.0059456564164109037 -0.002058781108046854 0 -0.0046147334934911154 -0.0029202070415867446 0 -0.0052335595028795059 -0.0032793285759998561 0 -0.0051375804288252853 -0.0021484599802216293 0 -0.0052335595028795059 -0.0032793285759998561 0 -0.0059456564164109037 -0.002058781108046854 0 -0.0051375804288252853 -0.0021484599802216293 0 -0.0056662605579777961 -0.0038174805988320805 0 -0.0059456564164109037 -0.002058781108046854 0 -0.0067845684246056748 -0.0023385697285637631 0 -0.0059456564164109037 -0.002058781108046854 0 -0.0068054927993295286 -0.0011890076496642553 0 -0.0062775071185445482 -0.0007797506731427302 0 -0.0059456564164109037 -0.002058781108046854 0 -0.0053632989680457059 -0.0011189662509571757 0 -0.0062775071185445482 -0.0007797506731427302 0 -0.0043589217440211849 -0.0014196705928257944 0 -0.0046147334934911154 -0.0029202070415867446 0 -0.0051375804288252853 -0.0021484599802216293 0 -0.0043589217440211849 -0.0014196705928257944 0 -0.0053632989680457059 -0.0011189662509571757 0 -0.0051375804288252853 -0.0021484599802216293 0 -0.0059456564164109037 -0.002058781108046854 0 -0.0053632989680457059 -0.0011189662509571757 0 -0.0051375804288252853 -0.0021484599802216293 0 -0.0064498984663419615 0.00093657027796401212 0 -0.0073398499121765104 0.0015513251639298347 0 -0.006863388251907512 -0.00037935806133200729 0 -0.0064498984663419615 0.00093657027796401212 0 -0.006863388251907512 -0.00037935806133200729 0 -0.0058369429239786205 -4.8484014742518077e-05 0 -0.0065169070494911028 0.0019667811429831708 0 -0.0064498984663419615 0.00093657027796401212 0 -0.0073398499121765104 0.0015513251639298347 0 -0.0067845684246056748 -0.0023385697285637631 0 -0.0068054927993295286 -0.0011890076496642553 0 -0.006863388251907512 -0.00037935806133200729 0 -0.0073398499121765104 0.0015513251639298347 0 -0.0085828869636699352 0.0011417050404423116 0 -0.006863388251907512 -0.00037935806133200729 0 -0.0077908237100662832 -0.00038371447832010873 0 -0.006803480746753369 -0.0006171708153423313 0 -0.0059456564164109037 -0.002058781108046854 0 -0.0067845684246056748 -0.0023385697285637631 0 -0.0068054927993295286 -0.0011890076496642553 0 -0.0068054927993295286 -0.0011890076496642553 0 -0.0071290898336845562 -0.00088543273388558394 0 -0.0062775071185445482 -0.0007797506731427302 0 -0.0068054927993295286 -0.0011890076496642553 0 -0.006863388251907512 -0.00037935806133200729 0 -0.0071290898336845562 -0.00088543273388558394 0 -0.006863388251907512 -0.00037935806133200729 0 -0.0071290898336845562 -0.00088543273388558394 0 -0.0058369429239786205 -4.8484014742518077e-05 0 -0.0014469815362023449 0.0065638333533530194 0 -0.0026462599388123306 0.0053153982110655008 0 -0.002519203384654895 0.0064897797788011774 0 -0.0045380110356648953 0.00244888529530896 0 -0.004239814337856797 0.0027611317897827375 0 -0.0014469815362023449 0.0065638333533530194 0 -0.0016793171000026889 0.0073846382643966988 0 -0.002519203384654895 0.0064897797788011774 0 -0.0014469815362023449 0.0065638333533530194 0 -0.0016793171000026889 0.0073846382643966988 0 -0.00034324677828370193 0.0075661709434844205 0 -0.0071290898336845562 -0.00088543273388558394 0 -0.0062775071185445482 -0.0007797506731427302 0 -0.0061374115024380206 0.00044812839650060834 0 -0.0045380110356648953 0.00244888529530896 0 -0.0021936174510980952 0.006104011011204718 0 0.00041867838377979594 0.011564110618080988 0 0.00056613195414072801 0.011484950596825087 0 0.00051028636189849022 0.011653220496666941 0 -0.00011908745975125626 0.0098252145842763674 0 -0.0021936174510980952 0.006104011011204718 0 0.00041867838377979594 0.011564110618080988 0 0.00035307469419783657 0.011372991776704901 0 0.00056613195414072801 0.011484950596825087 0 0.00041867838377979594 0.011564110618080988 0 0.00035307469419783657 0.011372991776704901 0 0.00021192055765990701 0.011568372435348237 0 -0.0043589217440211849 -0.0014196705928257944 0 -0.0053632989680457059 -0.0011189662509571757 0 -0.0044950701917028379 -0.00036552109742582099 0 -0.0053632989680457059 -0.0011189662509571757 0 -0.0053576829207751982 -0.00018311075364131957 0 -0.0044950701917028379 -0.00036552109742582099 0 -0.0053632989680457059 -0.0011189662509571757 0 -0.0053576829207751982 -0.00018311075364131957 0 -0.0062775071185445482 -0.0007797506731427302 0 -0.0053576829207751982 -0.00018311075364131957 0 -0.0062775071185445482 -0.0007797506731427302 0 -0.0061374115024380206 0.00044812839650060834 0 0.00056613195414072801 0.011484950596825087 0 0.00066461462348979896 0.011597895958573988 0 0.00051028636189849022 0.011653220496666941 0 -0.0021936174510980952 0.006104011011204718 0 -0.00040788424061883813 0.0090309033328774373 0 -0.0043946566172149582 0.00088598115148912375 0 -0.0053576829207751982 -0.00018311075364131957 0 -0.0061374115024380206 0.00044812839650060834 0 -0.0015939615002811762 0.0060230463648143799 0 -0.0020801068391681113 0.0059542273586085676 0 -0.0018335318544377131 0.0061677463977838692 0 -0.0043946566172149582 0.00088598115148912375 0 -0.0053576829207751982 -0.00018311075364131957 0 -0.0044950701917028379 -0.00036552109742582099 0 -0.0034111708876313094 0.0031539895007540093 0 -0.0021936174510980952 0.006104011011204718 0 -0.00040788424061883813 0.0090309033328774373 0 0.00012765455541376134 0.010536336757822142 0 0.00066461462348979896 0.011597895958573988 0 0.00065085780779755033 0.011764259127311634 0 0.00076730438376119623 0.011690232506044874 0 -0.0015939615002811762 0.0060230463648143799 0 -0.0018335318544377131 0.0061677463977838692 0 -0.0015844431178592873 0.006384861377367719 0 0.00066461462348979896 0.011597895958573988 0 0.00056481574006645569 0.011741286827434451 0 0.00051028636189849022 0.011653220496666941 0 0.00066461462348979896 0.011597895958573988 0 0.00056481574006645569 0.011741286827434451 0 0.00065085780779755033 0.011764259127311634 0 0.00056481574006645569 0.011741286827434451 0 0.00053206731705993733 0.01181171612741171 0 0.00065085780779755033 0.011764259127311634 0 0.00054775277752701032 0.01176293379508345 0 0.00076399189019657769 0.011556368524597373 0 0.00053206731705993733 0.01181171612741171 0 0.00079361078076926926 0.011455759060685545 0 0.00078716263835371136 0.011791118948019349 0 0.0010418823785668112 0.011456989540341059 0 0.00079361078076926926 0.011455759060685545 0 0.00078716263835371136 0.011791118948019349 0 0.0010418823785668112 0.011456989540341059 0 0.0011000116054694713 0.011771039739749665 0 0.00078716263835371136 0.011791118948019349 0 0.00076399189019657769 0.011556368524597373 0 0.00012765455541376134 0.010536336757822142 0 0.0010418823785668112 0.011456989540341059 0 0.00079361078076926926 0.011455759060685545 0 0.0010926638957607601 0.011148401670390176 0 0.00041867838377979594 0.011564110618080988 0 0.00021192055765990701 0.011568372435348237 0 0.00032720144053812052 0.01177051638717172 0 0.00032720144053812052 0.01177051638717172 0 0.00022236274182906168 0.011966056619529469 0 0.00011459158643058678 0.011869484774082463 0 0.00021192055765990701 0.011568372435348237 0 0.00032720144053812052 0.01177051638717172 0 0.00011459158643058678 0.011869484774082463 0 0.00032720144053812052 0.01177051638717172 0 0.00051028636189849022 0.011653220496666941 0 0.00040433600720113171 0.01185681997374677 0 0.00041867838377979594 0.011564110618080988 0 0.00032720144053812052 0.01177051638717172 0 0.00051028636189849022 0.011653220496666941 0 0.00056481574006645569 0.011741286827434451 0 0.00051028636189849022 0.011653220496666941 0 0.00040433600720113171 0.01185681997374677 0 0.0003981289047947576 0.011943692459465421 0 0.00040433600720113171 0.01185681997374677 0 0.00021582376067552877 0.012086933195494533 0 0.00056481574006645569 0.011741286827434451 0 0.00053206731705993733 0.01181171612741171 0 0.00040433600720113171 0.01185681997374677 0 0.00053206731705993733 0.01181171612741171 0 0.0003981289047947576 0.011943692459465421 0 0.00040433600720113171 0.01185681997374677 0 0.00040433600720113171 0.01185681997374677 0 0.00022236274182906168 0.011966056619529469 0 0.00021582376067552877 0.012086933195494533 0 0.00032720144053812052 0.01177051638717172 0 0.00040433600720113171 0.01185681997374677 0 0.00022236274182906168 0.011966056619529469 0 0.00034181775909061628 0.012355339519967513 0 0.00046765187832597469 0.012664786316802632 0 0.00025227401097211875 0.012570226005490657 0 0.00034181775909061628 0.012355339519967513 0 0.00064161651403115327 0.012355436097355694 0 0.00046765187832597469 0.012664786316802632 0 0.0003981289047947576 0.011943692459465421 0 0.00021582376067552877 0.012086933195494533 0 0.00044711067869746625 0.012018391409790063 0 0.00015230659757581929 0.012108010865929433 0 0.00058938529078791447 0.012202423938218156 0 0.00053206731705993733 0.01181171612741171 0 0.0003981289047947576 0.011943692459465421 0 0.00044711067869746625 0.012018391409790063 0 0.00064161651403115327 0.012355436097355694 0 0.00046765187832597469 0.012664786316802632 0 0.00072119618873216847 0.012576321663752422 0 0.00046765187832597469 0.012664786316802632 0 0.00025227401097211875 0.012570226005490657 0 0.00017269025826215423 0.012790388691177304 0 0.00046765187832597469 0.012664786316802632 0 0.00017269025826215423 0.012790388691177304 0 0.00029338302427778614 0.012983851616296106 0 0.0011000116054694713 0.011771039739749665 0 0.00093365299997609323 0.012164645705637703 0 0.0012268562935235298 0.012080324304338631 0 0.0011000116054694713 0.011771039739749665 0 0.00078716263835371136 0.011791118948019349 0 0.00093365299997609323 0.012164645705637703 0 0.00058938529078791447 0.012202423938218156 0 0.00090591326390580752 0.012182834790239469 0 0.00044711067869746625 0.012018391409790063 0 0.00078716263835371136 0.011791118948019349 0 0.00093365299997609323 0.012164645705637703 0 0.00053206731705993733 0.01181171612741171 0 0.00044711067869746625 0.012018391409790063 0 0.00078716263835371136 0.011791118948019349 0 0.00064161651403115327 0.012355436097355694 0 0.00072119618873216847 0.012576321663752422 0 0.00093365299997609323 0.012164645705637703 0 0.00072119618873216847 0.012576321663752422 0 0.00093365299997609323 0.012164645705637703 0 0.0010619964443455419 0.012450173149092933 0 0.00093365299997609323 0.012164645705637703 0 0.0012268562935235298 0.012080324304338631 0 0.0010619964443455419 0.012450173149092933 0 0.0014228616732004265 0.012293872132670913 0 0.0012268562935235298 0.012080324304338631 0 0.0010619964443455419 0.012450173149092933 0 0.0014228616732004265 0.012293872132670913 0 0.001473393401867784 0.01200055658708569 0 0.0012268562935235298 0.012080324304338631 0 0.0011000116054694713 0.011771039739749665 0 0.0012268562935235298 0.012080324304338631 0 0.0013684923810252047 0.011726681825995663 0 0.001473393401867784 0.01200055658708569 0 0.0012268562935235298 0.012080324304338631 0 0.0013684923810252047 0.011726681825995663 0 0.0011000116054694713 0.011771039739749665 0 0.0013684923810252047 0.011726681825995663 0 0.0012551648497773169 0.011474273388401792 0 0.0016327866006796614 0.011719711106734259 0 0.0017209627583095373 0.011992701326663172 0 0.0018146675750223141 0.011504659290741669 0 0.0011618003046126896 0.011566428319888529 0 0.0020727322224151005 0.0090362092756520532 0 0.0016327866006796614 0.011719711106734259 0 0.0019739907473373315 0.011482046375258032 0 0.0016764823456702565 0.011396618053391702 0 0.0013684923810252047 0.011726681825995663 0 0.0016327866006796614 0.011719711106734259 0 0.0014780600466583642 0.011433150770412077 0 0.001473393401867784 0.01200055658708569 0 0.0016327866006796614 0.011719711106734259 0 0.0017209627583095373 0.011992701326663172 0 0.001473393401867784 0.01200055658708569 0 0.0013684923810252047 0.011726681825995663 0 0.0016327866006796614 0.011719711106734259 0 0.0014228616732004265 0.012293872132670913 0 0.0017209627583095373 0.011992701326663172 0 0.0018611284254578199 0.012444767153758314 0 0.0014228616732004265 0.012293872132670913 0 0.001473393401867784 0.01200055658708569 0 0.0017209627583095373 0.011992701326663172 0 0.0017209627583095373 0.011992701326663172 0 0.0020893568235002824 0.011990114395424903 0 0.0018611284254578199 0.012444767153758314 0 -0.0078900959268131451 -0.010875640526055197 0 -0.0070103228592882025 -0.0092038760690322883 0 -0.0060289417346397591 -0.01086594403501101 0 -0.0078900959268131451 -0.010875640526055197 0 -0.0065519906875225204 -0.01256028291973799 0 -0.0060289417346397591 -0.01086594403501101 0 -0.0026192260920814524 0.00024338024894523052 0 -0.0028504948589065096 -0.0060544077518735221 0 -0.0003401334680877424 0.0026139250240650685 0 0.00041610951261975709 0.001611596379538638 0 -0.00026559309714175558 0.001177752619697977 0 0.00041610951261975709 0.001611596379538638 0 -0.00026559309714175558 0.001177752619697977 0 0.0011807975278177874 0.00057261874133608052 0 -0.0003401334680877424 0.0026139250240650685 0 -0.00026559309714175558 0.001177752619697977 0 -0.0012043353275300432 0.0010580193364008509 0 0.0017209627583095373 0.011992701326663172 0 0.0020893568235002824 0.011990114395424903 0 0.0018146675750223141 0.011504659290741669 0 -0.0026192260920814524 0.00024338024894523052 0 0.0020727322224151005 0.0090362092756520532 0 0.0020727322224151005 0.0090362092756520532 0 0.0010117674731102105 0.0057885849942638408 0 -0.00026559309714175558 0.001177752619697977 0 -0.0012043353275300432 0.0010580193364008509 0 -0.0002425678950224913 0.00022924584971365381 0 0.0019308818938895422 0.011403866373405432 0 0.0020332249993961966 0.011027094625227902 0 0.0024910789254921312 0.010943747453341287 0 0.0020332249993961966 0.011027094625227902 0 0.0024910789254921312 0.010943747453341287 0 0.0021629600640086536 0.010785615403804872 0 0.0020332249993961966 0.011027094625227902 0 0.0018280794603016954 0.010848549192568918 0 0.0017825387347537602 0.011135705532781757 0 0.0019308818938895422 0.011403866373405432 0 0.0020332249993961966 0.011027094625227902 0 0.0017825387347537602 0.011135705532781757 0 -0.0002425678950224913 0.00022924584971365381 0 0.00075463737108339595 -0.00061024351839112203 0 0.0011807975278177874 0.00057261874133608052 0 -0.00026559309714175558 0.001177752619697977 0 -0.0002425678950224913 0.00022924584971365381 0 0.0011807975278177874 0.00057261874133608052 0 -0.0035010320467387889 -0.004310646698864923 0 -0.0037720404709316985 -0.0038896519715433176 0 -0.0028344841028940539 -0.0036906479686754268 0 -0.00050813631424767689 0.0033511855606188912 0 -4.2908096759902984e-05 -0.00015782772737272697 0 0.0010117674731102105 0.0057885849942638408 0 -4.2908096759902984e-05 -0.00015782772737272697 0 0.0024910789254921312 0.010943747453341287 0 0.0024018668862473393 0.010381104175368029 0 0.0030511015348833864 0.010399824472359953 0 -0.00050813631424767689 0.0033511855606188912 0 -0.0017649001501616717 0.00302078308973647 0 0.0024018668862473393 0.010381104175368029 0 0.0020225180108502296 0.010577136547424438 0 0.001624267678885264 0.010261260312216112 0 0.0020332249993961966 0.011027094625227902 0 0.0021629600640086536 0.010785615403804872 0 0.0018280794603016954 0.010848549192568918 0 0.0021629600640086536 0.010785615403804872 0 0.0020225180108502296 0.010577136547424438 0 0.0018280794603016954 0.010848549192568918 0 0.0024910789254921312 0.010943747453341287 0 0.0021629600640086536 0.010785615403804872 0 0.0024018668862473393 0.010381104175368029 0 0.0021629600640086536 0.010785615403804872 0 0.0024018668862473393 0.010381104175368029 0 0.0020225180108502296 0.010577136547424438 0 -0.0017649001501616717 0.00302078308973647 0 0.0021063829994551423 0.012542117624212316 0 0.0020225180108502296 0.010577136547424438 0 0.001624267678885264 0.010261260312216112 0 0.0018280794603016954 0.010848549192568918 0 0.0016675223755946793 0.010934045733723058 0 0.0018280794603016954 0.010848549192568918 0 0.0017825387347537602 0.011135705532781757 0 0.0017326187722396097 0.010531831483301779 0 0.0016675223755946793 0.010934045733723058 0 0.0018280794603016954 0.010848549192568918 0 0.0017326187722396097 0.010531831483301779 0 0.0016675223755946793 0.010934045733723058 0 0.0014330592377073271 0.011008094336079287 0 0.0017326187722396097 0.010531831483301779 0 0.0010467078169997333 0.011064188576224413 0 0.0014330592377073271 0.011008094336079287 0 -0.0015939615002811762 0.0060230463648143799 0 -0.001102306245100132 0.0060879725280846555 0 -0.0015844431178592873 0.006384861377367719 0 -0.0017649001501616717 0.00302078308973647 0 0.00012765455541376134 0.010536336757822142 0 0.0010467078169997333 0.011064188576224413 0 0.0014330592377073271 0.011008094336079287 0 0.0011758043670716933 0.011193424640742727 0 0.00012765455541376134 0.010536336757822142 0 0.00076677772667481446 0.011023949001776783 0 0.0013847344328258757 0.011239672011735076 0 0.0011758043670716933 0.011193424640742727 0 0.0012551648497773169 0.011474273388401792 0 0.0014330592377073271 0.011008094336079287 0 0.0013847344328258757 0.011239672011735076 0 0.0011758043670716933 0.011193424640742727 0 0.0014330592377073271 0.011008094336079287 0 0.0013847344328258757 0.011239672011735076 0 0.0015636423830511334 0.011189784573938183 0 0.0010418823785668112 0.011456989540341059 0 0.0011758043670716933 0.011193424640742727 0 0.0012551648497773169 0.011474273388401792 0 0.0010418823785668112 0.011456989540341059 0 0.0010926638957607601 0.011148401670390176 0 0.0011758043670716933 0.011193424640742727 0 0.0010418823785668112 0.011456989540341059 0 0.0011000116054694713 0.011771039739749665 0 0.0012551648497773169 0.011474273388401792 0 0.0013684923810252047 0.011726681825995663 0 0.0012551648497773169 0.011474273388401792 0 0.0014780600466583642 0.011433150770412077 0 0.0013847344328258757 0.011239672011735076 0 0.0012551648497773169 0.011474273388401792 0 0.0014780600466583642 0.011433150770412077 0 0.0016327866006796614 0.011719711106734259 0 0.0014780600466583642 0.011433150770412077 0 0.0016764823456702565 0.011396618053391702 0 0.0014780600466583642 0.011433150770412077 0 0.0016764823456702565 0.011396618053391702 0 0.0015636423830511334 0.011189784573938183 0 0.0020727322224151005 0.0090362092756520532 0 0.0023321069703565837 0.011268374557512121 0 0.0019739907473373315 0.011482046375258032 0 0.0016764823456702565 0.011396618053391702 0 0.0017825387347537602 0.011135705532781757 0 0.0016675223755946793 0.010934045733723058 0 0.0017825387347537602 0.011135705532781757 0 0.0015636423830511334 0.011189784573938183 0 0.0016764823456702565 0.011396618053391702 0 0.0017825387347537602 0.011135705532781757 0 0.0015636423830511334 0.011189784573938183 0 0.0016675223755946793 0.010934045733723058 0 0.0014330592377073271 0.011008094336079287 0 0.0015636423830511334 0.011189784573938183 0 0.0013847344328258757 0.011239672011735076 0 0.0014780600466583642 0.011433150770412077 0 0.0015636423830511334 0.011189784573938183 0 -0.0070237493997842362 0.013445066564743296 0 -0.0069614399935917374 0.013004003848733996 0 -0.0066162447599475305 0.013722167172499432 0 -0.0076499994925736574 0.010775439239049325 0 -0.0068217677110135504 0.01317913587555682 0 -0.0073037163541710155 0.013663835638952 0 -0.0070237493997842362 0.013445066564743296 0 -0.0066162447599475305 0.013722167172499432 0 -0.0072354987606459151 0.013179512574068197 0 -0.0070237493997842362 0.013445066564743296 0 -0.0069614399935917374 0.013004003848733996 0 -0.0072354987606459151 0.013179512574068197 0 -0.0070237493997842362 0.013445066564743296 0 -0.0072673103585222049 0.013418941454436326 0 -0.0073037163541710155 0.013663835638952 0 -0.0070237493997842362 0.013445066564743296 0 -0.0072673103585222049 0.013418941454436326 0 -0.0056771119820696733 0.010976070968702923 0 -0.008158945282289996 0.0099065533824503997 0 -0.0071344887491956487 0.012316654999869002 0 -0.0056771119820696733 0.010976070968702923 0 -0.0047043496895784673 0.012521115124093341 0 -0.0071344887491956487 0.012316654999869002 0 -0.0056771119820696733 0.010976070968702923 0 -0.008158945282289996 0.0099065533824503997 0 -0.0054340404636263077 0.0086824312565445538 0 -0.008158945282289996 0.0099065533824503997 0 -0.0087370356068484541 0.0076484093567214875 0 -0.0054340404636263077 0.0086824312565445538 0 -0.0076499994925736574 0.010775439239049325 0 -0.0087776457683878331 0.013319455454419109 0 -0.0074170505450178031 0.012845884041928607 0 -0.0069614399935917374 0.013004003848733996 0 -0.007227006760531343 0.012344420982406023 0 -0.008158945282289996 0.0099065533824503997 0 -0.0087370356068484541 0.0076484093567214875 0 -0.0091724844288423955 0.0071024674854708019 0 -0.0074170505450178031 0.012845884041928607 0 -0.0072354987606459151 0.013179512574068197 0 -0.0069614399935917374 0.013004003848733996 0 -0.0087370356068484541 0.0076484093567214875 0 -0.0091724844288423955 0.0071024674854708019 0 -0.0083567018762607422 0.0068136784298322966 0 -0.0091724844288423955 0.0071024674854708019 0 -0.0083567018762607422 0.0068136784298322966 0 -0.0087149338373951352 0.0062761304649490623 0 -0.0087776457683878331 0.013319455454419109 0 -0.0088093484329080738 0.011421031047154905 0 -0.0097064494683008675 0.017033855116308678 0 -0.0093504888109289044 0.017661499170938653 0 -0.0090570050340118193 0.017005008841392992 0 -0.0083567018762607422 0.0068136784298322966 0 -0.0087149338373951352 0.0062761304649490623 0 -0.0078941422526871627 0.0059905528562593383 0 -0.0092650565418878478 0.011362310213639025 0 -0.0088093484329080738 0.011421031047154905 0 -0.0087006553684962889 0.016064567930393521 0 -0.0090570050340118193 0.017005008841392992 0 -0.0093807966478648384 0.01666105026470829 0 -0.0097064494683008675 0.017033855116308678 0 -0.0090570050340118193 0.017005008841392992 0 -0.0093807966478648384 0.01666105026470829 0 -0.0084295874097738439 0.0055421566088892536 0 -0.0087149338373951352 0.0062761304649490623 0 -0.0078941422526871627 0.0059905528562593383 0 -0.0083567018762607422 0.0068136784298322966 0 -0.0078941422526871627 0.0059905528562593383 0 -0.007678909668198227 0.0065056048388295803 0 -0.0087370356068484541 0.0076484093567214875 0 -0.0083567018762607422 0.0068136784298322966 0 -0.0074601552173245329 0.0070900381305464269 0 -0.0083567018762607422 0.0068136784298322966 0 -0.007678909668198227 0.0065056048388295803 0 -0.0074601552173245329 0.0070900381305464269 0 -0.0086609901823229713 0.0076317808873223435 0 -0.0065408953105047778 0.0078921143556868467 0 -0.0070179101812837741 0.0061084885012356385 0 -0.0063549328832611732 0.0068859755089831212 0 -0.0074601552173245329 0.0070900381305464269 0 -0.007678909668198227 0.0065056048388295803 0 -0.0070179101812837741 0.0061084885012356385 0 -0.0074601552173245329 0.0070900381305464269 0 -0.0078941422526871627 0.0059905528562593383 0 -0.007678909668198227 0.0065056048388295803 0 -0.0070179101812837741 0.0061084885012356385 0 -0.0064066348753190599 0.0050898599662673114 0 -0.0073783965225981797 0.0052985470757980196 0 -0.0070179101812837741 0.0061084885012356385 0 -0.0073783965225981797 0.0052985470757980196 0 -0.0078941422526871627 0.0059905528562593383 0 -0.0070179101812837741 0.0061084885012356385 0 -0.0064066348753190599 0.0050898599662673114 0 -0.0070179101812837741 0.0061084885012356385 0 -0.0059964808496484386 0.0057131731696844212 0 -0.0070179101812837741 0.0061084885012356385 0 -0.0063549328832611732 0.0068859755089831212 0 -0.0059964808496484386 0.0057131731696844212 0 -0.0029362681011400565 0.0096227630633157531 0 -0.0054340404636263077 0.0086824312565445538 0 -0.0034803627086101938 0.011299112172801062 0 -0.0046842828902962227 0.0082553110819711048 0 -0.0065408953105047778 0.0078921143556868467 0 -0.0056771119820696733 0.010976070968702923 0 -0.0054340404636263077 0.0086824312565445538 0 -0.0034803627086101938 0.011299112172801062 0 -0.0056771119820696733 0.010976070968702923 0 -0.0034803627086101938 0.011299112172801062 0 -0.0047043496895784673 0.012521115124093341 0 -0.0029362681011400565 0.0096227630633157531 0 -0.0034803627086101938 0.011299112172801062 0 -0.0016204026137226102 0.011742591998217249 0 -0.0016204026137226102 0.011742591998217249 0 -0.001162379977380717 0.010393870537316408 0 -0.00059205083055256325 0.011478979587614168 0 -0.0046842828902962227 0.0082553110819711048 0 -0.0031125930996624375 0.0087042769385028852 0 -0.0029362681011400565 0.0096227630633157531 0 -0.0016204026137226102 0.011742591998217249 0 -0.001162379977380717 0.010393870537316408 0 -0.0063549328832611732 0.0068859755089831212 0 -0.0050705923257462586 0.0069996468687822848 0 -0.0055492231947787312 0.0061596515965304478 0 -0.0055492231947787312 0.0061596515965304478 0 -0.0059964808496484386 0.0057131731696844212 0 -0.0051804174082587312 0.0050710539744581746 0 -0.0063549328832611732 0.0068859755089831212 0 -0.0055492231947787312 0.0061596515965304478 0 -0.0059964808496484386 0.0057131731696844212 0 -0.0064066348753190599 0.0050898599662673114 0 -0.0054289875505144688 0.0049616863513929719 0 -0.0059964808496484386 0.0057131731696844212 0 -0.0054289875505144688 0.0049616863513929719 0 -0.0059964808496484386 0.0057131731696844212 0 -0.0051804174082587312 0.0050710539744581746 0 -0.0055492231947787312 0.0061596515965304478 0 -0.0051804174082587312 0.0050710539744581746 0 -0.0040498420441876645 0.0060315584209110476 0 -0.0050705923257462586 0.0069996468687822848 0 -0.0055492231947787312 0.0061596515965304478 0 -0.0040498420441876645 0.0060315584209110476 0 -0.0040498420441876645 0.0060315584209110476 0 -0.0040721103884175797 0.004971746362977582 0 -0.0026462599388123306 0.0053153982110655008 0 -0.0051804174082587312 0.0050710539744581746 0 -0.0040498420441876645 0.0060315584209110476 0 -0.0040721103884175797 0.004971746362977582 0 -0.0044096220317043642 0.0031358689709989171 0 -0.004239814337856797 0.0027611317897827375 0 -0.0043532838577269896 0.0033429707920289123 0 -0.0040721103884175797 0.004971746362977582 0 -0.0026462599388123306 0.0053153982110655008 0 -0.0043532838577269896 0.0033429707920289123 0 -0.0051804174082587312 0.0050710539744581746 0 -0.0040721103884175797 0.004971746362977582 0 -0.0064498984663419615 0.00093657027796401212 0 -0.0056977531191029791 0.001885701057207942 0 -0.0058369429239786205 -4.8484014742518077e-05 0 -0.0043532838577269896 0.0033429707920289123 0 -0.0056977531191029791 0.001885701057207942 0 -0.0058369429239786205 -4.8484014742518077e-05 0 -0.0065169070494911028 0.0019667811429831708 0 -0.0064498984663419615 0.00093657027796401212 0 -0.0056977531191029791 0.001885701057207942 0 -0.0040498420441876645 0.0060315584209110476 0 -0.0026462599388123306 0.0053153982110655008 0 -0.002519203384654895 0.0064897797788011774 0 -0.0040498420441876645 0.0060315584209110476 0 -0.0033202920871888224 0.0072493612006621529 0 -0.002519203384654895 0.0064897797788011774 0 -0.0016793171000026889 0.0073846382643966988 0 -0.0033202920871888224 0.0072493612006621529 0 -0.002519203384654895 0.0064897797788011774 0 -0.0050705923257462586 0.0069996468687822848 0 -0.0040498420441876645 0.0060315584209110476 0 -0.0033202920871888224 0.0072493612006621529 0 -0.0031125930996624375 0.0087042769385028852 0 -0.0018770405114515928 0.0090526004412023204 0 -0.00011693696801509294 0.011016631395320832 0 -0.00059205083055256325 0.011478979587614168 0 -7.8898883988508061e-05 0.011589329804044427 0 -0.001162379977380717 0.010393870537316408 0 -0.00011693696801509294 0.011016631395320832 0 -0.00059205083055256325 0.011478979587614168 0 0.00021192055765990701 0.011568372435348237 0 -0.00011693696801509294 0.011016631395320832 0 -7.8898883988508061e-05 0.011589329804044427 0 0.00035307469419783657 0.011372991776704901 0 0.00021192055765990701 0.011568372435348237 0 -0.00011693696801509294 0.011016631395320832 0 -0.00011908745975125626 0.0098252145842763674 0 -0.0018770405114515928 0.0090526004412023204 0 0.00011459158643058678 0.011869484774082463 0 -0.00016170086852787755 0.011950440891841814 0 4.7889813390492206e-06 0.012180713333110306 0 0.00021192055765990701 0.011568372435348237 0 -7.8898883988508061e-05 0.011589329804044427 0 0.00011459158643058678 0.011869484774082463 0 -7.8898883988508061e-05 0.011589329804044427 0 0.00011459158643058678 0.011869484774082463 0 -0.00016170086852787755 0.011950440891841814 0 -0.00059205083055256325 0.011478979587614168 0 -0.00056875853461861006 0.012164128307087 0 -0.00016170086852787755 0.011950440891841814 0 -0.00059205083055256325 0.011478979587614168 0 -7.8898883988508061e-05 0.011589329804044427 0 -0.00016170086852787755 0.011950440891841814 0 -0.00056875853461861006 0.012164128307087 0 -0.00016170086852787755 0.011950440891841814 0 4.7889813390492206e-06 0.012180713333110306 0 -0.00056875853461861006 0.012164128307087 0 -0.00022293216148377561 0.012583554547800605 0 4.7889813390492206e-06 0.012180713333110306 0 0.0020965369128874097 0.014653124694204912 0 0.00064577067256364827 0.016177577027567849 0 -0.00030919441820227727 0.01396163556233547 0 0.00038982913416226334 0.013139926979523714 0 -0.00071809334740425461 0.013441460911248608 0 -0.00056875853461861006 0.012164128307087 0 -0.00022293216148377561 0.012583554547800605 0 -0.0012479444994053779 0.01278665564283867 0 0.00015230659757581929 0.012108010865929433 0 0.00038982913416226334 0.013139926979523714 0 0.00022236274182906168 0.011966056619529469 0 0.00011459158643058678 0.011869484774082463 0 4.7889813390492206e-06 0.012180713333110306 0 0.00022236274182906168 0.011966056619529469 0 0.00021582376067552877 0.012086933195494533 0 4.7889813390492206e-06 0.012180713333110306 0 0.00021582376067552877 0.012086933195494533 0 -3.2305160307896952e-05 0.012224635464455437 0 4.7889813390492206e-06 0.012180713333110306 0 0.00038982913416226334 0.013139926979523714 0 0.00025264086454777532 0.012531630675203343 0 0.00034181775909061628 0.012355339519967513 0 2.5365434726847187e-05 0.012536581831146251 0 0.00025227401097211875 0.012570226005490657 0 0.00034181775909061628 0.012355339519967513 0 -2.5450367026958852e-05 0.012264061240522777 0 2.5365434726847187e-05 0.012536581831146251 0 2.5365434726847187e-05 0.012536581831146251 0 0.00017269025826215423 0.012790388691177304 0 -0.00011914241792465114 0.012803654808410636 0 2.5365434726847187e-05 0.012536581831146251 0 0.00025227401097211875 0.012570226005490657 0 0.00017269025826215423 0.012790388691177304 0 2.5365434726847187e-05 0.012536581831146251 0 -0.00011914241792465114 0.012803654808410636 0 -0.00028459561003847423 0.012516609799704911 0 -0.00011914241792465114 0.012803654808410636 0 -0.00028459561003847423 0.012516609799704911 0 -0.00034060667355104298 0.012940586209441269 0 0.00017269025826215423 0.012790388691177304 0 -0.00011914241792465114 0.012803654808410636 0 3.0951797040643286e-05 0.01302058548225367 0 -2.5450367026958852e-05 0.012264061240522777 0 2.5365434726847187e-05 0.012536581831146251 0 -0.00028459561003847423 0.012516609799704911 0 0.00038982913416226334 0.013139926979523714 0 0.00031216670716675187 0.014285120554539482 0 -0.00067677819682037874 0.015797094848083393 0 0.00064577067256364827 0.016177577027567849 0 -0.00081377742372671443 0.017670932922940252 0 -0.00067677819682037874 0.015797094848083393 0 0.00064577067256364827 0.016177577027567849 0 -0.00030919441820227727 0.01396163556233547 0 -0.00028459561003847423 0.012516609799704911 0 -0.0005769992661040531 0.01281391826218683 0 -0.00034060667355104298 0.012940586209441269 0 0.00031216670716675187 0.014285120554539482 0 -0.0012170072986760578 0.015438834786346783 0 -0.0023691394816361547 0.017301511734546537 0 -0.0011999231705639339 0.017455556925939943 0 -0.0024622190915791534 0.018613980733436702 0 -0.0023691394816361547 0.017301511734546537 0 -0.0011999231705639339 0.017455556925939943 0 -0.0022212351853832229 0.015330698044874682 0 -0.00067677819682037874 0.015797094848083393 0 -0.00081377742372671443 0.017670932922940252 0 -0.0022212351853832229 0.015330698044874682 0 -0.0012170072986760578 0.015438834786346783 0 -0.0019526963053307248 0.016261936752495407 0 -0.00067677819682037874 0.015797094848083393 0 -0.0022212351853832229 0.015330698044874682 0 -0.00030919441820227727 0.01396163556233547 0 -0.0022212351853832229 0.015330698044874682 0 -0.00030919441820227727 0.01396163556233547 0 -0.0027977080568731883 0.013128406628548413 0 -0.00071809334740425461 0.013441460911248608 0 -0.0027602534956920662 0.01306602106775436 0 -0.0016204026137226102 0.011742591998217249 0 -0.00056875853461861006 0.012164128307087 0 -0.0012479444994053779 0.01278665564283867 0 -0.0016204026137226102 0.011742591998217249 0 -0.00059205083055256325 0.011478979587614168 0 -0.00056875853461861006 0.012164128307087 0 -0.0016204026137226102 0.011742591998217249 0 -0.0012479444994053779 0.01278665564283867 0 -0.0027977080568731883 0.013128406628548413 0 -0.0034803627086101938 0.011299112172801062 0 -0.0027977080568731883 0.013128406628548413 0 -0.0047043496895784673 0.012521115124093341 0 -0.0034803627086101938 0.011299112172801062 0 -0.0016204026137226102 0.011742591998217249 0 -0.0027977080568731883 0.013128406628548413 0 -0.0027977080568731883 0.013128406628548413 0 -0.0047043496895784673 0.012521115124093341 0 -0.0043090107034270278 0.013803225890728448 0 -0.0047043496895784673 0.012521115124093341 0 -0.0043090107034270278 0.013803225890728448 0 -0.005394775268778523 0.013744001450209679 0 -0.0043090107034270278 0.013803225890728448 0 -0.005394775268778523 0.013744001450209679 0 -0.0048802725268293195 0.014781419713109646 0 -0.005394775268778523 0.013744001450209679 0 -0.0048802725268293195 0.014781419713109646 0 -0.005477812903412314 0.014569427487734647 0 -0.0048802725268293195 0.014781419713109646 0 -0.005221245913885615 0.015725725459097537 0 -0.0055678277410509749 0.015108624556601457 0 -0.0048802725268293195 0.014781419713109646 0 -0.0055678277410509749 0.015108624556601457 0 -0.005477812903412314 0.014569427487734647 0 -0.0043090107034270278 0.013803225890728448 0 -0.0048802725268293195 0.014781419713109646 0 -0.0037794843625164648 0.01484007782993222 0 -0.0048802725268293195 0.014781419713109646 0 -0.0037794843625164648 0.01484007782993222 0 -0.0045005463621314891 0.015634499281495226 0 -0.0022212351853832229 0.015330698044874682 0 -0.0027977080568731883 0.013128406628548413 0 -0.0037794843625164648 0.01484007782993222 0 -0.0027977080568731883 0.013128406628548413 0 -0.0043090107034270278 0.013803225890728448 0 -0.0037794843625164648 0.01484007782993222 0 -0.0022212351853832229 0.015330698044874682 0 -0.0037881745045501838 0.016078090164887381 0 -0.0032064548135564892 0.016945045277284035 0 -0.0022212351853832229 0.015330698044874682 0 -0.0037794843625164648 0.01484007782993222 0 -0.0037881745045501838 0.016078090164887381 0 -0.0023691394816361547 0.017301511734546537 0 -0.0022212351853832229 0.015330698044874682 0 -0.0032064548135564892 0.016945045277284035 0 -0.0037881745045501838 0.016078090164887381 0 -0.0032064548135564892 0.016945045277284035 0 -0.0042129076007809928 0.017032650061460024 0 -0.0032064548135564892 0.016945045277284035 0 -0.0038489389178303617 0.017727346055710559 0 -0.0042129076007809928 0.017032650061460024 0 -0.0032064548135564892 0.016945045277284035 0 -0.0030642035630881691 0.017817837812609191 0 -0.0038489389178303617 0.017727346055710559 0 -0.0023691394816361547 0.017301511734546537 0 -0.0032064548135564892 0.016945045277284035 0 -0.0030642035630881691 0.017817837812609191 0 -0.0046741705156140628 0.017728707924581612 0 -0.0038489389178303617 0.017727346055710559 0 -0.0042129076007809928 0.017032650061460024 0 -0.0046741705156140628 0.017728707924581612 0 -0.0042129076007809928 0.017032650061460024 0 -0.0051324593002795033 0.017147171134939777 0 -0.0042129076007809928 0.017032650061460024 0 -0.0048103204658952034 0.016466843427617193 0 -0.0051324593002795033 0.017147171134939777 0 -0.0048103204658952034 0.016466843427617193 0 -0.005221245913885615 0.015725725459097537 0 -0.0054892919010940877 0.01634723122955652 0 -0.0037881745045501838 0.016078090164887381 0 -0.0042129076007809928 0.017032650061460024 0 -0.0048103204658952034 0.016466843427617193 0 -0.0037881745045501838 0.016078090164887381 0 -0.0048103204658952034 0.016466843427617193 0 -0.0045005463621314891 0.015634499281495226 0 -0.0037794843625164648 0.01484007782993222 0 -0.0037881745045501838 0.016078090164887381 0 -0.0045005463621314891 0.015634499281495226 0 -0.0048802725268293195 0.014781419713109646 0 -0.0045005463621314891 0.015634499281495226 0 -0.005221245913885615 0.015725725459097537 0 -0.0048103204658952034 0.016466843427617193 0 -0.0045005463621314891 0.015634499281495226 0 -0.005221245913885615 0.015725725459097537 0 -0.005221245913885615 0.015725725459097537 0 -0.0058791827661947025 0.015739542386631795 0 -0.0055678277410509749 0.015108624556601457 0 -0.005221245913885615 0.015725725459097537 0 -0.0058791827661947025 0.015739542386631795 0 -0.0054892919010940877 0.01634723122955652 0 -0.0058791827661947025 0.015739542386631795 0 -0.006007214810026985 0.016408263728602226 0 -0.0054892919010940877 0.01634723122955652 0 -0.0058791827661947025 0.015739542386631795 0 -0.006007214810026985 0.016408263728602226 0 -0.0063358699006549257 0.016123331104369788 0 -0.006007214810026985 0.016408263728602226 0 -0.0054892919010940877 0.01634723122955652 0 -0.0058070005536314155 0.017073836507025892 0 -0.006007214810026985 0.016408263728602226 0 -0.0058070005536314155 0.017073836507025892 0 -0.0063667990651452705 0.016797415947811162 0 -0.0048103204658952034 0.016466843427617193 0 -0.0054892919010940877 0.01634723122955652 0 -0.0051324593002795033 0.017147171134939777 0 -0.0051324593002795033 0.017147171134939777 0 -0.0058070005536314155 0.017073836507025892 0 -0.0054033678689383614 0.017777713087290561 0 -0.0054892919010940877 0.01634723122955652 0 -0.0051324593002795033 0.017147171134939777 0 -0.0058070005536314155 0.017073836507025892 0 -0.0058070005536314155 0.017073836507025892 0 -0.0060046632712223947 0.01787126239610377 0 -0.0054033678689383614 0.017777713087290561 0 -0.0058070005536314155 0.017073836507025892 0 -0.0060046632712223947 0.01787126239610377 0 -0.0063192839729526128 0.017363402712449034 0 -0.0046741705156140628 0.017728707924581612 0 -0.0051324593002795033 0.017147171134939777 0 -0.0054033678689383614 0.017777713087290561 0 -0.0071525828324473266 0.017991649070025373 0 -0.0065768152494017082 0.017901234842397865 0 -0.0068399830787746231 0.017296491691326642 0 -0.0065768152494017082 0.017901234842397865 0 -0.0063192839729526128 0.017363402712449034 0 -0.0068399830787746231 0.017296491691326642 0 -0.0060046632712223947 0.01787126239610377 0 -0.0065768152494017082 0.017901234842397865 0 -0.0063192839729526128 0.017363402712449034 0 -0.0058070005536314155 0.017073836507025892 0 -0.0063192839729526128 0.017363402712449034 0 -0.0063667990651452705 0.016797415947811162 0 -0.0063192839729526128 0.017363402712449034 0 -0.0068399830787746231 0.017296491691326642 0 -0.0063667990651452705 0.016797415947811162 0 -0.0068399830787746231 0.017296491691326642 0 -0.0068168901286835802 0.016617473525644608 0 -0.0063667990651452705 0.016797415947811162 0 -0.006007214810026985 0.016408263728602226 0 -0.0063667990651452705 0.016797415947811162 0 -0.0063358699006549257 0.016123331104369788 0 -0.0068168901286835802 0.016617473525644608 0 -0.0063667990651452705 0.016797415947811162 0 -0.0063358699006549257 0.016123331104369788 0 -0.0068168901286835802 0.016617473525644608 0 -0.0063358699006549257 0.016123331104369788 0 -0.0068174655543333526 0.016053391297788083 0 -0.0077988525839523624 0.016003921000019596 0 -0.0073523921117793125 0.016063513219627495 0 -0.0076984408346987311 0.015745401217891305 0 -0.0073829843797415147 0.015798152032947682 0 -0.0068582641223943761 0.015279697562765414 0 -0.0070549756515794412 0.015552223235245558 0 -0.0068174655543333526 0.016053391297788083 0 -0.0063181539576255075 0.015621310356305537 0 -0.0063358699006549257 0.016123331104369788 0 -0.0068174655543333526 0.016053391297788083 0 -0.0063181539576255075 0.015621310356305537 0 -0.0058791827661947025 0.015739542386631795 0 -0.0074302992202683691 0.014416458620371504 0 -0.0062787456290998864 0.014575686411410653 0 -0.0060741425493000753 0.015649841126319862 0 -0.0068582641223943761 0.015279697562765414 0 -0.0058791827661947025 0.015739542386631795 0 -0.0063358699006549257 0.016123331104369788 0 -0.0063181539576255075 0.015621310356305537 0 -0.006121052597212363 0.014644771814386628 0 -0.0062787456290998864 0.014575686411410653 0 -0.0066162447599475305 0.013722167172499432 0 -0.0058791827661947025 0.015739542386631795 0 -0.006121052597212363 0.014644771814386628 0 -0.0062787456290998864 0.014575686411410653 0 -0.0058791827661947025 0.015739542386631795 0 -0.0055678277410509749 0.015108624556601457 0 -0.006121052597212363 0.014644771814386628 0 -0.0055678277410509749 0.015108624556601457 0 -0.006121052597212363 0.014644771814386628 0 -0.005477812903412314 0.014569427487734647 0 -0.005394775268778523 0.013744001450209679 0 -0.006121052597212363 0.014644771814386628 0 -0.005477812903412314 0.014569427487734647 0 -0.0068582641223943761 0.015279697562765414 0 -0.0065913550172241485 0.014888657441277006 0 -0.0047043496895784673 0.012521115124093341 0 -0.005394775268778523 0.013744001450209679 0 -0.0071344887491956487 0.012316654999869002 0 -0.00622573087204383 0.014473067154991973 0 -0.0068217677110135504 0.01317913587555682 0 -0.005394775268778523 0.013744001450209679 0 -0.006121052597212363 0.014644771814386628 0 -0.0071344887491956487 0.012316654999869002 0 -0.0067414916354410336 0.014516883809587627 0 -0.0062787456290998864 0.014575686411410653 0 -0.0066162447599475305 0.013722167172499432 0 -0.0067414916354410336 0.014516883809587627 0 -0.0066162447599475305 0.013722167172499432 0 -0.0072770213985696467 0.014016258754865769 0 -0.0073037163541710155 0.013663835638952 0 -0.0066162447599475305 0.013722167172499432 0 -0.0072770213985696467 0.014016258754865769 0 -0.0068582641223943761 0.015279697562765414 0 -0.0075684145150417591 0.014817130398894401 0 -0.0022170336673254225 0.014809945494770081 0 -0.0018856969454223566 0.01464740077656535 0 -0.0022511769797577443 0.014839116180596879 0 -0.0019029885124831594 0.014985875782646315 0 -0.0012947210529917449 0.014248812184987775 0 -0.002301010072250368 0.014893205778881933 0 -0.0022511769797577443 0.014839116180596879 0 -0.0019029885124831594 0.014985875782646315 0 -0.0019029885124831594 0.014985875782646315 0 -0.0012947210529917449 0.014248812184987775 0 -0.0014578455349929535 0.015185466346363731 0 -0.00096646529022794781 0.014777537247437997 0 -0.0012947210529917449 0.014248812184987775 0 -0.0014578455349929535 0.015185466346363731 0 -0.00096646529022794781 0.014777537247437997 0 -0.0012947210529917449 0.014248812184987775 0 -0.00074336872599263504 0.014301911314152789 0 -0.0024840985975663242 0.015012347892901533 0 -0.0023574827031686402 0.015098373764190327 0 -0.0025143150066468467 0.015134510738254028 0 -0.0022511769797577443 0.014839116180596879 0 -0.0024840985975663242 0.015012347892901533 0 -0.0023574827031686402 0.015098373764190327 0 -0.0072818789822453956 0.019245532428143398 0 -0.0064259794323484444 0.020001432040219633 0 -0.0065619961217588335 0.01913846928110121 0 -0.0064259794323484444 0.020001432040219633 0 -0.0065619961217588335 0.01913846928110121 0 -0.0058787791226289805 0.019226533242689567 0 -0.0065619961217588335 0.01913846928110121 0 -0.0062559329742139227 0.018517292736211211 0 -0.006850237915754117 0.018496409888400574 0 -0.0065619961217588335 0.01913846928110121 0 -0.0062559329742139227 0.018517292736211211 0 -0.0058787791226289805 0.019226533242689567 0 -0.0060046632712223947 0.01787126239610377 0 -0.0065768152494017082 0.017901234842397865 0 -0.0062559329742139227 0.018517292736211211 0 -0.0071525828324473266 0.017991649070025373 0 -0.0065768152494017082 0.017901234842397865 0 -0.006850237915754117 0.018496409888400574 0 -0.0065768152494017082 0.017901234842397865 0 -0.0062559329742139227 0.018517292736211211 0 -0.006850237915754117 0.018496409888400574 0 -0.0054033678689383614 0.017777713087290561 0 -0.0056123262150299469 0.018579072965475139 0 -0.0049685543001822255 0.018457832988442131 0 -0.0046741705156140628 0.017728707924581612 0 -0.0054033678689383614 0.017777713087290561 0 -0.0049685543001822255 0.018457832988442131 0 -0.0060046632712223947 0.01787126239610377 0 -0.0062559329742139227 0.018517292736211211 0 -0.0056123262150299469 0.018579072965475139 0 -0.0060046632712223947 0.01787126239610377 0 -0.0054033678689383614 0.017777713087290561 0 -0.0056123262150299469 0.018579072965475139 0 -0.0062559329742139227 0.018517292736211211 0 -0.0056123262150299469 0.018579072965475139 0 -0.0058787791226289805 0.019226533242689567 0 -0.0056123262150299469 0.018579072965475139 0 -0.005241303125839483 0.019104967186002641 0 -0.0049685543001822255 0.018457832988442131 0 -0.005241303125839483 0.019104967186002641 0 -0.0058787791226289805 0.019226533242689567 0 -0.0051456320731076465 0.019822801275431338 0 -0.0064259794323484444 0.020001432040219633 0 -0.0058787791226289805 0.019226533242689567 0 -0.0051456320731076465 0.019822801275431338 0 -0.004595858363841466 0.017373778098225306 0 -0.003825805259506172 0.017566240589498155 0 -0.005241303125839483 0.019104967186002641 0 -0.0051456320731076465 0.019822801275431338 0 -0.0045443129350680091 0.019114882197138632 0 -0.0056123262150299469 0.018579072965475139 0 -0.005241303125839483 0.019104967186002641 0 -0.0058787791226289805 0.019226533242689567 0 -0.003825805259506172 0.017566240589498155 0 -0.0029959781981784947 0.016316916418271491 0 -0.0051456320731076465 0.019822801275431338 0 -0.0045443129350680091 0.019114882197138632 0 -0.0036295179829611141 0.019621991934923512 0 -0.0025143150066468467 0.015134510738254028 0 -0.0025314305051948355 0.01513248279853016 0 -0.0025420185689858043 0.015149927123068459 0 -0.0025314305051948355 0.01513248279853016 0 -0.0024502299988666677 0.015064836218353713 0 -0.0025359634670509622 0.015155812615259102 0 -0.0023519012301202315 0.015311671912891615 0 -0.0029959781981784947 0.016316916418271491 0 -0.0045443129350680091 0.019114882197138632 0 -0.0038177195553208794 0.018949081956390834 0 -0.0036295179829611141 0.019621991934923512 0 -0.0045443129350680091 0.019114882197138632 0 -0.0049685543001822255 0.018457832988442131 0 -0.0042880976308359098 0.018401681558237001 0 -0.005241303125839483 0.019104967186002641 0 -0.0045443129350680091 0.019114882197138632 0 -0.0049685543001822255 0.018457832988442131 0 -0.0042880976308359098 0.018401681558237001 0 -0.003569753036366613 0.018360213650181749 0 -0.0038177195553208794 0.018949081956390834 0 -0.0045443129350680091 0.019114882197138632 0 -0.0042880976308359098 0.018401681558237001 0 -0.0038177195553208794 0.018949081956390834 0 -0.0046741705156140628 0.017728707924581612 0 -0.0038489389178303617 0.017727346055710559 0 -0.0042880976308359098 0.018401681558237001 0 -0.0038489389178303617 0.017727346055710559 0 -0.0042880976308359098 0.018401681558237001 0 -0.003569753036366613 0.018360213650181749 0 -0.0046741705156140628 0.017728707924581612 0 -0.0049685543001822255 0.018457832988442131 0 -0.0042880976308359098 0.018401681558237001 0 -0.0023691394816361547 0.017301511734546537 0 -0.0030642035630881691 0.017817837812609191 0 -0.0024622190915791534 0.018613980733436702 0 -0.003569753036366613 0.018360213650181749 0 -0.0038177195553208794 0.018949081956390834 0 -0.0024622190915791534 0.018613980733436702 0 -0.0030642035630881691 0.017817837812609191 0 -0.003569753036366613 0.018360213650181749 0 -0.0024622190915791534 0.018613980733436702 0 -0.0030642035630881691 0.017817837812609191 0 -0.0038489389178303617 0.017727346055710559 0 -0.003569753036366613 0.018360213650181749 0 -0.0026286272775342253 0.015232022930823326 0 -0.0022218164767441348 0.015128415616563336 0 -0.0022698407658767942 0.014869576208624651 0 -0.0024502299988666677 0.015064836218353713 0 -0.0023374555009624248 0.01509961037024532 0 -0.0021928568406479241 0.015032107697108383 0 -0.0029959781981784947 0.016316916418271491 0 -0.0020860929861166258 0.015066383979312809 0 -0.0038177195553208794 0.018949081956390834 0 -0.0036295179829611141 0.019621991934923512 0 -0.0024622190915791534 0.018613980733436702 0 -0.0014524997969837159 0.01455514826073843 0 -0.0010764072882769092 0.014617485255785882 0 -0.0023374555009624248 0.01509961037024532 0 -0.0025359634670509622 0.015155812615259102 0 -0.0021657731603288381 0.01512545541543929 0 -0.0029959781981784947 0.016316916418271491 0 -0.0025324395744488947 0.01697054029732142 0 -0.0024502299988666677 0.015064836218353713 0 -0.0023374555009624248 0.01509961037024532 0 -0.0025359634670509622 0.015155812615259102 0 -0.00011190738479050568 0.014021766639048354 0 2.4867030072569039e-05 0.01401265180566459 0 0.00013425090196857067 0.013947062627202387 0 -0.00011190738479050568 0.014021766639048354 0 -6.9131851938700845e-09 0.014088332158819824 0 2.4867030072569039e-05 0.01401265180566459 0 -0.00011190738479050568 0.014021766639048354 0 -0.00039906228832569421 0.013971605220816899 0 0.00013425090196857067 0.013947062627202387 0 -0.00011190738479050568 0.014021766639048354 0 -0.00015039561707412788 0.014104974660352288 0 -6.9131851938700845e-09 0.014088332158819824 0 -6.9131851938700845e-09 0.014088332158819824 0 -0.00010209420891736788 0.014266265686479068 0 5.5743998500968111e-05 0.01426767623662601 0 -0.00015039561707412788 0.014104974660352288 0 -6.9131851938700845e-09 0.014088332158819824 0 -0.00010209420891736788 0.014266265686479068 0 -0.00010209420891736788 0.014266265686479068 0 -0.00028329627974656906 0.014156862198538863 0 -0.00029574022120849543 0.014419146417056545 0 -0.00028329627974656906 0.014156862198538863 0 -0.0004278608860361873 0.014212198329679319 0 -0.00029574022120849543 0.014419146417056545 0 -0.00015039561707412788 0.014104974660352288 0 -0.00010209420891736788 0.014266265686479068 0 -0.00028329627974656906 0.014156862198538863 0 -0.00028329627974656906 0.014156862198538863 0 -0.0002402603109032927 0.014056359812331659 0 -0.00039906228832569421 0.013971605220816899 0 -0.00011190738479050568 0.014021766639048354 0 -0.0002402603109032927 0.014056359812331659 0 -0.00039906228832569421 0.013971605220816899 0 -0.00011190738479050568 0.014021766639048354 0 -0.00015039561707412788 0.014104974660352288 0 -0.0002402603109032927 0.014056359812331659 0 -0.00015039561707412788 0.014104974660352288 0 -0.00028329627974656906 0.014156862198538863 0 -0.0002402603109032927 0.014056359812331659 0 -0.0024840985975663242 0.015012347892901533 0 -0.0025143150066468467 0.015134510738254028 0 -0.0025359634670509622 0.015155812615259102 0 -0.0012947210529917449 0.014248812184987775 0 -0.00039906228832569421 0.013971605220816899 0 -0.00074336872599263504 0.014301911314152789 0 -0.0025143150066468467 0.015134510738254028 0 -0.0025314305051948355 0.01513248279853016 0 -0.0025359634670509622 0.015155812615259102 0 -0.0018856969454223566 0.01464740077656535 0 -0.0014524997969837159 0.01455514826073843 0 -0.00039906228832569421 0.013971605220816899 0 -0.00074336872599263504 0.014301911314152789 0 -0.0004278608860361873 0.014212198329679319 0 -0.00074336872599263504 0.014301911314152789 0 -0.0004278608860361873 0.014212198329679319 0 -0.00029574022120849543 0.014419146417056545 0 -0.00028329627974656906 0.014156862198538863 0 -0.00039906228832569421 0.013971605220816899 0 -0.0004278608860361873 0.014212198329679319 0 -0.00074336872599263504 0.014301911314152789 0 -0.00049006606805849107 0.014808310958780163 0 -0.00029574022120849543 0.014419146417056545 0 -0.00096646529022794781 0.014777537247437997 0 -0.00074336872599263504 0.014301911314152789 0 -0.00049006606805849107 0.014808310958780163 0 -3.6015069137916753e-05 0.014438019626345404 0 -0.00029574022120849543 0.014419146417056545 0 -3.2427131952306794e-05 0.014782045131060595 0 -0.00049006606805849107 0.014808310958780163 0 -0.00029574022120849543 0.014419146417056545 0 -3.2427131952306794e-05 0.014782045131060595 0 -3.6015069137916753e-05 0.014438019626345404 0 0.00013986380494881927 0.014483414517959529 0 -3.2427131952306794e-05 0.014782045131060595 0 -0.00010209420891736788 0.014266265686479068 0 -3.6015069137916753e-05 0.014438019626345404 0 5.5743998500968111e-05 0.01426767623662601 0 -0.00010209420891736788 0.014266265686479068 0 -3.6015069137916753e-05 0.014438019626345404 0 -0.00029574022120849543 0.014419146417056545 0 0.00026487456939801925 0.014352775502608077 0 0.00013986380494881927 0.014483414517959529 0 0.00019109709513041889 0.014211636684918077 0 -3.6015069137916753e-05 0.014438019626345404 0 0.00013986380494881927 0.014483414517959529 0 5.5743998500968111e-05 0.01426767623662601 0 0.00013986380494881927 0.014483414517959529 0 0.00019109709513041889 0.014211636684918077 0 5.5743998500968111e-05 0.01426767623662601 0 0.00013986380494881927 0.014483414517959529 0 0.00029253886308879435 0.014691119412729303 0 -3.2427131952306794e-05 0.014782045131060595 0 0.00026487456939801925 0.014352775502608077 0 0.00013986380494881927 0.014483414517959529 0 0.00029253886308879435 0.014691119412729303 0 0.00026487456939801925 0.014352775502608077 0 0.00038364772097496374 0.014334774340106922 0 0.00029253886308879435 0.014691119412729303 0 0.00026487456939801925 0.014352775502608077 0 0.00038364772097496374 0.014334774340106922 0 0.00024515327478992586 0.014085989217629125 0 0.00024515327478992586 0.014085989217629125 0 0.00022386235080996275 0.014006246242005988 0 0.00017608272926843081 0.013903762866707595 0 0.00038364772097496374 0.014334774340106922 0 0.00024515327478992586 0.014085989217629125 0 0.00017608272926843081 0.013903762866707595 0 0.00024515327478992586 0.014085989217629125 0 0.00017917482932180349 0.014025941537577941 0 0.00022386235080996275 0.014006246242005988 0 0.00024515327478992586 0.014085989217629125 0 0.00017917482932180349 0.014025941537577941 0 0.00018834367684745183 0.01410340285952081 0 0.00017917482932180349 0.014025941537577941 0 0.00018834367684745183 0.01410340285952081 0 0.0001193311934547183 0.014101646251304389 0 0.00024515327478992586 0.014085989217629125 0 0.00018834367684745183 0.01410340285952081 0 0.00019109709513041889 0.014211636684918077 0 0.00026487456939801925 0.014352775502608077 0 0.00024515327478992586 0.014085989217629125 0 0.00019109709513041889 0.014211636684918077 0 0.00018834367684745183 0.01410340285952081 0 0.00019109709513041889 0.014211636684918077 0 0.0001193311934547183 0.014101646251304389 0 0.00019109709513041889 0.014211636684918077 0 5.5743998500968111e-05 0.01426767623662601 0 0.0001193311934547183 0.014101646251304389 0 -6.9131851938700845e-09 0.014088332158819824 0 5.5743998500968111e-05 0.01426767623662601 0 0.0001193311934547183 0.014101646251304389 0 -6.9131851938700845e-09 0.014088332158819824 0 0.0001193311934547183 0.014101646251304389 0 9.7214591680759341e-05 0.014032309332514252 0 0.00017917482932180349 0.014025941537577941 0 0.0001193311934547183 0.014101646251304389 0 9.7214591680759341e-05 0.014032309332514252 0 -6.9131851938700845e-09 0.014088332158819824 0 9.7214591680759341e-05 0.014032309332514252 0 2.4867030072569039e-05 0.01401265180566459 0 -0.0022218164767441348 0.015128415616563336 0 -0.0020683111305463023 0.01492752388627893 0 -0.0018640716893006109 0.015006484861598321 0 -0.0023374555009624248 0.01509961037024532 0 -0.0021657731603288381 0.01512545541543929 0 -0.0021928568406479241 0.015032107697108383 0 9.7214591680759341e-05 0.014032309332514252 0 2.4867030072569039e-05 0.01401265180566459 0 0.00013425090196857067 0.013947062627202387 0 -0.0020860929861166258 0.015066383979312809 0 -0.0019515091956311687 0.01502538533379069 0 -0.0021657731603288381 0.01512545541543929 0 -0.0021928568406479241 0.015032107697108383 0 -0.0018640716893006109 0.015006484861598321 0 0.00017917482932180349 0.014025941537577941 0 9.7214591680759341e-05 0.014032309332514252 0 0.00013425090196857067 0.013947062627202387 0 0.00017917482932180349 0.014025941537577941 0 0.00013425090196857067 0.013947062627202387 0 0.00022386235080996275 0.014006246242005988 0 -0.0019515082384497485 0.014570323247865669 0 -0.0020683111305463023 0.01492752388627893 0 -0.0018640716893006109 0.015006484861598321 0 -0.0019515082384497485 0.014570323247865669 0 -0.0022698407658767942 0.014869576208624651 0 -0.0020683111305463023 0.01492752388627893 0 -0.0022218164767441348 0.015128415616563336 0 -0.0022698407658767942 0.014869576208624651 0 -0.0020683111305463023 0.01492752388627893 0 -0.0012170072986760578 0.015438834786346783 0 -0.0025324395744488947 0.01697054029732142 0 -0.0005769992661040531 0.01281391826218683 0 -0.00034060667355104298 0.012940586209441269 0 -0.00034046856599330167 0.013224448091754415 0 -0.0019515082384497485 0.014570323247865669 0 -0.0018640716893006109 0.015006484861598321 0 -0.0017089318668186784 0.01499789972658089 0 -0.0012170072986760578 0.015438834786346783 0 -0.00063006581403769215 0.013819566501875076 0 -0.00034060667355104298 0.012940586209441269 0 -0.00034046856599330167 0.013224448091754415 0 -0.00020901344270835896 0.013168425804210021 0 -0.00063006581403769215 0.013819566501875076 0 -0.00023717205929054471 0.013477317957265198 0 0.00013425090196857067 0.013947062627202387 0 0.00022730160104683718 0.014004568982129368 0 0.00022386235080996275 0.014006246242005988 0 -0.0021657731603288381 0.01512545541543929 0 -0.0018640716893006109 0.015006484861598321 0 -0.0017089318668186784 0.01499789972658089 0 -0.0010764072882769092 0.014617485255785882 0 -0.00063006581403769215 0.013819566501875076 0 0.00022730160104683718 0.014004568982129368 0 0.00022386235080996275 0.014006246242005988 0 0.00017608272926843081 0.013903762866707595 0 -0.00040607088870039227 0.013245444376911143 0 6.4224189397788984e-05 0.013436298691603078 0 0.00017608272926843081 0.013903762866707595 0 6.4224189397788984e-05 0.013436298691603078 0 0.00026263287610888883 0.013574960782971612 0 0.00017608272926843081 0.013903762866707595 0 -0.00063006581403769215 0.013819566501875076 0 0.00027133613124832732 0.013859050662444052 0 -0.00040607088870039227 0.013245444376911143 0 6.4224189397788984e-05 0.013436298691603078 0 -0.00020901344270835896 0.013168425804210021 0 6.4224189397788984e-05 0.013436298691603078 0 -0.00020901344270835896 0.013168425804210021 0 3.0951797040643286e-05 0.01302058548225367 0 -0.00020901344270835896 0.013168425804210021 0 3.0951797040643286e-05 0.01302058548225367 0 -0.00015989334841817998 0.012982465745203352 0 -0.00011914241792465114 0.012803654808410636 0 3.0951797040643286e-05 0.01302058548225367 0 -0.00015989334841817998 0.012982465745203352 0 -0.00034060667355104298 0.012940586209441269 0 -0.00020901344270835896 0.013168425804210021 0 -0.00015989334841817998 0.012982465745203352 0 -0.00011914241792465114 0.012803654808410636 0 -0.00034060667355104298 0.012940586209441269 0 -0.00015989334841817998 0.012982465745203352 0 0.00017269025826215423 0.012790388691177304 0 3.0951797040643286e-05 0.01302058548225367 0 0.00029338302427778614 0.012983851616296106 0 3.0951797040643286e-05 0.01302058548225367 0 0.000196488286319484 0.013246299891620105 0 0.00029338302427778614 0.012983851616296106 0 0.000196488286319484 0.013246299891620105 0 0.00026263287610888883 0.013574960782971612 0 0.00040927836033673902 0.01315087798933938 0 6.4224189397788984e-05 0.013436298691603078 0 3.0951797040643286e-05 0.01302058548225367 0 0.000196488286319484 0.013246299891620105 0 6.4224189397788984e-05 0.013436298691603078 0 0.000196488286319484 0.013246299891620105 0 0.00026263287610888883 0.013574960782971612 0 0.00026263287610888883 0.013574960782971612 0 0.00031170890083996616 0.013883125189561932 0 0.00036049079751363091 0.013581928950161718 0 0.00026263287610888883 0.013574960782971612 0 0.00017608272926843081 0.013903762866707595 0 0.00031170890083996616 0.013883125189561932 0 0.00038364772097496374 0.014334774340106922 0 0.00017608272926843081 0.013903762866707595 0 0.00039118686004102458 0.014185564958845844 0 0.00017608272926843081 0.013903762866707595 0 0.00031170890083996616 0.013883125189561932 0 0.00039118686004102458 0.014185564958845844 0 0.00031170890083996616 0.013883125189561932 0 0.00039118686004102458 0.014185564958845844 0 0.00029118296968870115 0.014002250720605267 0 0.00039118686004102458 0.014185564958845844 0 0.00039094654285415256 0.01413033909041116 0 0.00029118296968870115 0.014002250720605267 0 0.00039118686004102458 0.014185564958845844 0 0.00056695117653666463 0.014519704389868012 0 0.00039094654285415256 0.01413033909041116 0 0.00038364772097496374 0.014334774340106922 0 0.00039118686004102458 0.014185564958845844 0 0.00056695117653666463 0.014519704389868012 0 0.00056695117653666463 0.014519704389868012 0 0.00039094654285415256 0.01413033909041116 0 0.00047260939047892228 0.013805188078237992 0 0.00056695117653666463 0.014519704389868012 0 0.00047260939047892228 0.013805188078237992 0 0.00065477614528164471 0.014946088474997062 0 0.00039094654285415256 0.01413033909041116 0 0.00047260939047892228 0.013805188078237992 0 9.1395619901397265e-05 0.013772208494284911 0 0.00047260939047892228 0.013805188078237992 0 1.9409940224112475e-06 0.013099628641525311 0 0.00020858784979468033 0.012883129182230351 0 1.9409940224112475e-06 0.013099628641525311 0 0.00020858784979468033 0.012883129182230351 0 -1.8866069696414515e-06 0.010796266940072468 0 0.00047260939047892228 0.013805188078237992 0 1.9409940224112475e-06 0.013099628641525311 0 0.000292491266733525 0.013893458500754914 0 0.00044512968574677317 0.013991897521278572 0 0.00046966125790444911 0.014621477468042803 0 0.00047260939047892228 0.013805188078237992 0 0.00073685085872535921 0.015228011590928353 0 0.00065477614528164471 0.014946088474997062 0 0.00073685085872535921 0.015228011590928353 0 0.00053904570067790972 0.01579528703299115 0 0.00065477614528164471 0.014946088474997062 0 0.00073685085872535921 0.015228011590928353 0 0.00057863058195397688 0.016566985047351716 0 0.00053904570067790972 0.01579528703299115 0 0.00053904570067790972 0.01579528703299115 0 0.00046247824185078061 0.015406270533039869 0 0.00065477614528164471 0.014946088474997062 0 0.00046966125790444911 0.014621477468042803 0 0.00032167841677846563 0.015954801810955561 0 1.9409940224112475e-06 0.013099628641525311 0 0.000292491266733525 0.013893458500754914 0 -1.3262609697856043e-07 0.01541043584732951 0 0.000292491266733525 0.013893458500754914 0 -1.3262609697856043e-07 0.01541043584732951 0 -8.2350475578643126e-05 0.015322203975837147 0 0.00032167841677846563 0.015954801810955561 0 1.6173124752528349e-07 0.017720152470035819 0 -1.3262609697856043e-07 0.01541043584732951 0 -8.2350475578643126e-05 0.015322203975837147 0 -4.3779257466764405e-07 0.017719661153209807 0 0.00057863058195397688 0.016566985047351716 0 0.00053904570067790972 0.01579528703299115 0 0.00025131564233829594 0.016506875843191906 0 0.00053904570067790972 0.01579528703299115 0 0.00027558647959482834 0.015791712104566986 0 0.00046247824185078061 0.015406270533039869 0 0.00053904570067790972 0.01579528703299115 0 0.00027558647959482834 0.015791712104566986 0 0.00025131564233829594 0.016506875843191906 0 0.00046247824185078061 0.015406270533039869 0 0.00048507770093416281 0.01486273357566649 0 0.00019881639852684929 0.015339481666946968 0 0.00027558647959482834 0.015791712104566986 0 0.00046247824185078061 0.015406270533039869 0 0.00019881639852684929 0.015339481666946968 0 0.00056695117653666463 0.014519704389868012 0 0.00065477614528164471 0.014946088474997062 0 0.00048507770093416281 0.01486273357566649 0 0.00046247824185078061 0.015406270533039869 0 0.00065477614528164471 0.014946088474997062 0 0.00048507770093416281 0.01486273357566649 0 0.00038364772097496374 0.014334774340106922 0 0.00056695117653666463 0.014519704389868012 0 0.00048507770093416281 0.01486273357566649 0 0.00038364772097496374 0.014334774340106922 0 0.00048507770093416281 0.01486273357566649 0 0.00029253886308879435 0.014691119412729303 0 0.00048507770093416281 0.01486273357566649 0 0.00029253886308879435 0.014691119412729303 0 0.00019881639852684929 0.015339481666946968 0 0.00029253886308879435 0.014691119412729303 0 -3.2427131952306794e-05 0.014782045131060595 0 0.00019881639852684929 0.015339481666946968 0 -0.00018853223823328961 0.015291305472052163 0 -3.2427131952306794e-05 0.014782045131060595 0 0.00019881639852684929 0.015339481666946968 0 -0.00049006606805849107 0.014808310958780163 0 -0.00018853223823328961 0.015291305472052163 0 -3.2427131952306794e-05 0.014782045131060595 0 -0.00096646529022794781 0.014777537247437997 0 -0.00049006606805849107 0.014808310958780163 0 -0.00073948967939323825 0.015561618786963202 0 -0.00049006606805849107 0.014808310958780163 0 -0.00018853223823328961 0.015291305472052163 0 -0.00073948967939323825 0.015561618786963202 0 -0.00018853223823328961 0.015291305472052163 0 -0.00073948967939323825 0.015561618786963202 0 1.8230862430789171e-05 0.01611645626974751 0 -0.00073948967939323825 0.015561618786963202 0 1.8230862430789171e-05 0.01611645626974751 0 -0.00065421792232640808 0.016483067042185152 0 -0.00018853223823328961 0.015291305472052163 0 1.8230862430789171e-05 0.01611645626974751 0 0.00019881639852684929 0.015339481666946968 0 0.00027558647959482834 0.015791712104566986 0 1.8230862430789171e-05 0.01611645626974751 0 0.00019881639852684929 0.015339481666946968 0 1.8230862430789171e-05 0.01611645626974751 0 0.00025131564233829594 0.016506875843191906 0 1.2178552816016989e-05 0.01769125450545736 0 0.00027558647959482834 0.015791712104566986 0 1.8230862430789171e-05 0.01611645626974751 0 0.00025131564233829594 0.016506875843191906 0 0.00025131564233829594 0.016506875843191906 0 3.775989420309381e-06 0.017724347213188246 0 1.2178552816016989e-05 0.01769125450545736 0 0.00057863058195397688 0.016566985047351716 0 0.00025131564233829594 0.016506875843191906 0 3.775989420309381e-06 0.017724347213188246 0 3.775989420309381e-06 0.017724347213188246 0 1.2178552816016989e-05 0.01769125450545736 0 -5.0744206445761967e-06 0.020177755818460361 0 1.8230862430789171e-05 0.01611645626974751 0 1.2178552816016989e-05 0.01769125450545736 0 -0.00065421792232640808 0.016483067042185152 0 -0.00065421792232640808 0.016483067042185152 0 -0.0017349807005233348 0.017223830997099895 0 -0.0013567075380753917 0.016144363859449399 0 1.2178552816016989e-05 0.01769125450545736 0 -0.00065421792232640808 0.016483067042185152 0 -0.0017349807005233348 0.017223830997099895 0 -0.00022055178119160845 0.021429818017880284 0 -9.9861880207760138e-05 0.020817061453317066 0 -1.5420425170551073e-06 0.02018721851103325 0 1.2178552816016989e-05 0.01769125450545736 0 -0.0017349807005233348 0.017223830997099895 0 -5.0744206445761967e-06 0.020177755818460361 0 -0.00090048171449296107 0.019316373482939415 0 -3.1473740860415397e-07 0.020183950417804436 0 -0.00022055178119160845 0.021429818017880284 0 -9.9861880207760138e-05 0.020817061453317066 0 -9.5070801330254982e-05 0.02144933619757711 0 -1.9092822154362525e-07 0.022506111282029975 0 -9.9861880207760138e-05 0.020817061453317066 0 -0.00016196906525303334 0.022910727732521192 0 -9.9861880207760138e-05 0.020817061453317066 0 -0.00016196906525303334 0.022910727732521192 0 -0.00055024412618203831 0.024520244447903086 0 -0.0002110526576056112 0.02120708282672484 0 -0.00019477534988490152 0.022911543249200601 0 -1.9092822154362525e-07 0.022506111282029975 0 -9.9861880207760138e-05 0.020817061453317066 0 -1.5420425170551073e-06 0.02018721851103325 0 2.6498948712997443e-05 0.023959374234063597 0 -0.00016196906525303334 0.022910727732521192 0 -0.00055024412618203831 0.024520244447903086 0 -0.00022055178119160845 0.021429818017880284 0 -9.5070801330254982e-05 0.02144933619757711 0 -0.00014726387950415149 0.021477787243441786 0 -0.0020997968980387416 0.015809182240307116 0 -0.0013567075380753917 0.016144363859449399 0 -0.0014578455349929535 0.015185466346363731 0 -0.00090048171449296107 0.019316373482939415 0 -0.001131163389452092 0.0187189181065191 0 -0.00019259608240192327 0.021492901002780961 0 -9.5070801330254982e-05 0.02144933619757711 0 -0.00014726387950415149 0.021477787243441786 0 -0.0017349807005233348 0.017223830997099895 0 -0.0020997968980387416 0.015809182240307116 0 -0.0013567075380753917 0.016144363859449399 0 -0.00073948967939323825 0.015561618786963202 0 -0.00065421792232640808 0.016483067042185152 0 -0.0013567075380753917 0.016144363859449399 0 -0.00073948967939323825 0.015561618786963202 0 -0.0013567075380753917 0.016144363859449399 0 -0.0014578455349929535 0.015185466346363731 0 -0.00096646529022794781 0.014777537247437997 0 -0.00073948967939323825 0.015561618786963202 0 -0.0014578455349929535 0.015185466346363731 0 -0.0011112157909848506 0.017813524602751724 0 -0.001131163389452092 0.0187189181065191 0 -0.002301010072250368 0.014893205778881933 0 -0.0019029885124831594 0.014985875782646315 0 -0.0020997968980387416 0.015809182240307116 0 -0.0019029885124831594 0.014985875782646315 0 -0.0020997968980387416 0.015809182240307116 0 -0.0014578455349929535 0.015185466346363731 0 -0.0059844732954054576 -0.0054941101274447362 0 -0.0058359328450380303 -0.0059116912686904 0 -0.0061529325627708133 -0.0060706612409359957 0 -0.0062331608694002599 -0.0053980438304679036 0 -0.0059844732954054576 -0.0054941101274447362 0 -0.0061529325627708133 -0.0060706612409359957 0 -0.0025469213887014375 0.0037308446490537392 0 -0.0022491635134169068 0.0033911431188429842 0 0.0012913015114896932 0.013333737816947187 0 0.0015780460568668056 0.012908976619720441 0 0.0011852807541249436 0.013036968482236636 0 -0.0062331608694002599 -0.0053980438304679036 0 -0.0059844732954054576 -0.0054941101274447362 0 -0.0059907297988806294 -0.0051160579406391233 0 -0.0062331608694002599 -0.0053980438304679036 0 -0.0061147841198327989 -0.0048150666797318348 0 -0.0059907297988806294 -0.0051160579406391233 0 -0.0059844732954054576 -0.0054941101274447362 0 -0.005799880002848686 -0.005490362496317831 0 -0.0058420117726131968 -0.0051484311460907985 0 -0.005799880002848686 -0.005490362496317831 0 -0.0054994744624952113 -0.0057003374022541091 0 -0.0058359328450380303 -0.0059116912686904 0 -0.005799880002848686 -0.005490362496317831 0 -0.0054994744624952113 -0.0057003374022541091 0 -0.0057677984401368404 -0.0052288452821252305 0 -0.0059844732954054576 -0.0054941101274447362 0 -0.005799880002848686 -0.005490362496317831 0 -0.0058359328450380303 -0.0059116912686904 0 -0.0054994744624952113 -0.0057003374022541091 0 -0.0056381236457265227 -0.006394640406314404 0 -0.0058359328450380303 -0.0059116912686904 0 -0.0056381236457265227 -0.006394640406314404 0 -0.0058359328450380303 -0.0059116912686904 0 -0.0057831153775501441 -0.0065050394682643533 0 -0.0058359328450380303 -0.0059116912686904 0 -0.0057831153775501441 -0.0065050394682643533 0 -0.0061529325627708133 -0.0060706612409359957 0 -0.0057831153775501441 -0.0065050394682643533 0 -0.0057145598996098321 -0.0067107590357685298 0 -0.0059260572475787979 -0.0065657495494065941 0 -0.0057831153775501441 -0.0065050394682643533 0 -0.0059260572475787979 -0.0065657495494065941 0 -0.0061529325627708133 -0.0060706612409359957 0 -0.0057831153775501441 -0.0065050394682643533 0 -0.0057145598996098321 -0.0067107590357685298 0 -0.0056721845263021124 -0.0071400474451191491 0 -0.0056381236457265227 -0.006394640406314404 0 -0.0057831153775501441 -0.0065050394682643533 0 -0.0056721845263021124 -0.0071400474451191491 0 -0.0071830362183493363 -0.0095378418710602136 0 -0.0054890211389353148 -0.0066635913530354949 0 -0.0026192260920814524 0.00024338024894523052 0 -0.0071830362183493363 -0.0095378418710602136 0 -0.0057689297828068522 -0.0067212188201305461 0 -0.0057145598996098321 -0.0067107590357685298 0 -0.0059260572475787979 -0.0065657495494065941 0 -0.0026192260920814524 0.00024338024894523052 0 -0.0020699916876791703 0.0032878697600029817 0 0.0014228616732004265 0.012293872132670913 0 0.0018611284254578199 0.012444767153758314 0 0.0012739073750677368 0.012712956457083195 0 -0.0020699916876791703 0.0032878697600029817 0 -0.0022491635134169068 0.0033911431188429842 0 0.0018611284254578199 0.012444767153758314 0 0.0015780460568668056 0.012908976619720441 0 0.0012739073750677368 0.012712956457083195 0 0.0015780460568668056 0.012908976619720441 0 0.0012739073750677368 0.012712956457083195 0 0.0011852807541249436 0.013036968482236636 0 0.0014228616732004265 0.012293872132670913 0 0.0012739073750677368 0.012712956457083195 0 0.0010619964443455419 0.012450173149092933 0 0.0012739073750677368 0.012712956457083195 0 0.0010619964443455419 0.012450173149092933 0 0.00089528488421974624 0.01290364771402182 0 0.00072119618873216847 0.012576321663752422 0 0.0010619964443455419 0.012450173149092933 0 0.00089528488421974624 0.01290364771402182 0 0.00072119618873216847 0.012576321663752422 0 0.00089528488421974624 0.01290364771402182 0 0.00060522146499991051 0.012928370121330289 0 0.00089528488421974624 0.01290364771402182 0 0.00060522146499991051 0.012928370121330289 0 0.00053237258134279381 0.013344712554292539 0 0.0012739073750677368 0.012712956457083195 0 0.00089528488421974624 0.01290364771402182 0 0.0011852807541249436 0.013036968482236636 0 0.00089528488421974624 0.01290364771402182 0 0.00088152630485881841 0.013328421704403532 0 0.0011852807541249436 0.013036968482236636 0 0.000196488286319484 0.013246299891620105 0 0.00029338302427778614 0.012983851616296106 0 0.00040927836033673902 0.01315087798933938 0 0.00046765187832597469 0.012664786316802632 0 0.00029338302427778614 0.012983851616296106 0 0.00040927836033673902 0.01315087798933938 0 0.00046765187832597469 0.012664786316802632 0 0.00072119618873216847 0.012576321663752422 0 0.00060522146499991051 0.012928370121330289 0 0.00046765187832597469 0.012664786316802632 0 0.00060522146499991051 0.012928370121330289 0 0.00040927836033673902 0.01315087798933938 0 0.00060522146499991051 0.012928370121330289 0 0.00040927836033673902 0.01315087798933938 0 0.00053237258134279381 0.013344712554292539 0 0.00040927836033673902 0.01315087798933938 0 0.00036049079751363091 0.013581928950161718 0 0.00053237258134279381 0.013344712554292539 0 0.00026263287610888883 0.013574960782971612 0 0.00040927836033673902 0.01315087798933938 0 0.00036049079751363091 0.013581928950161718 0 0.00036049079751363091 0.013581928950161718 0 0.00053237258134279381 0.013344712554292539 0 0.00032522927732588764 0.013794391084971717 0 0.00032522927732588764 0.013794391084971717 0 0.00043180624773003252 0.013678271928128767 0 0.0001817166319164481 0.013817968686436767 0 0.00053237258134279381 0.013344712554292539 0 0.00032522927732588764 0.013794391084971717 0 0.00043180624773003252 0.013678271928128767 0 0.00031170890083996616 0.013883125189561932 0 0.00032522927732588764 0.013794391084971717 0 0.00029118296968870115 0.014002250720605267 0 0.00031170890083996616 0.013883125189561932 0 0.00036049079751363091 0.013581928950161718 0 0.00032522927732588764 0.013794391084971717 0 0.0012913015114896932 0.013333737816947187 0 0.00088152630485881841 0.013328421704403532 0 0.0011852807541249436 0.013036968482236636 0 0.00053237258134279381 0.013344712554292539 0 0.00088152630485881841 0.013328421704403532 0 0.00043180624773003252 0.013678271928128767 0 0.00089528488421974624 0.01290364771402182 0 0.00053237258134279381 0.013344712554292539 0 0.00088152630485881841 0.013328421704403532 0 0.00088152630485881841 0.013328421704403532 0 0.00043180624773003252 0.013678271928128767 0 0.00099574701418836788 0.013737920986338114 0 0.0017093566349136937 0.015600318456768422 0 -0.0010241791310335866 0.0064208997362153889 0 -0.0025469213887014375 0.0037308446490537392 0 -0.0010241791310335866 0.0064208997362153889 0 0.0012913015114896932 0.013333737816947187 0 0.00088152630485881841 0.013328421704403532 0 0.00099574701418836788 0.013737920986338114 0 -0.00028778815516930631 0.0045009734026833772 0 -3.1852497679769635e-05 0.0050127553214539258 0 -4.6761276071294909e-05 0.0046893173336140679 0 -0.0010241791310335866 0.0064208997362153889 0 -0.0038806207465326399 -0.0006082542241809014 0 0.00017526267947735993 0.013699436428588603 0 0.00019758835596990463 0.01373315587714354 0 -3.1601249183192138e-05 0.01366842073700392 0 0.00043180624773003252 0.013678271928128767 0 0.00017526267947735993 0.013699436428588603 0 0.00019758835596990463 0.01373315587714354 0 -0.0010241791310335866 0.0064208997362153889 0 -0.00019062095078028785 0.0098755896255247038 0 -0.00038666675987559661 0.005303972990685319 0 -3.1852497679769635e-05 0.0050127553214539258 0 0.00011309199350652005 0.0059709756342687451 0 -0.00028778815516930631 0.0045009734026833772 0 -0.00038666675987559661 0.005303972990685319 0 -3.1852497679769635e-05 0.0050127553214539258 0 0.00029118296968870115 0.014002250720605267 0 0.0001817166319164481 0.013817968686436767 0 9.1395619901397265e-05 0.013772208494284911 0 0.00032522927732588764 0.013794391084971717 0 0.00029118296968870115 0.014002250720605267 0 0.0001817166319164481 0.013817968686436767 0 0.00019758835596990463 0.01373315587714354 0 -3.1601249183192138e-05 0.01366842073700392 0 0.0001817166319164481 0.013817968686436767 0 0.00043180624773003252 0.013678271928128767 0 0.00019758835596990463 0.01373315587714354 0 0.0001817166319164481 0.013817968686436767 0 -3.1601249183192138e-05 0.01366842073700392 0 9.1395619901397265e-05 0.013772208494284911 0 -0.00045815969970464484 0.013150204024782404 0 -3.1601249183192138e-05 0.01366842073700392 0 0.0001817166319164481 0.013817968686436767 0 9.1395619901397265e-05 0.013772208494284911 0 0.00039094654285415256 0.01413033909041116 0 0.00029118296968870115 0.014002250720605267 0 9.1395619901397265e-05 0.013772208494284911 0 9.1395619901397265e-05 0.013772208494284911 0 0.00020858784979468033 0.012883129182230351 0 -0.00045815969970464484 0.013150204024782404 0 0.00047260939047892228 0.013805188078237992 0 9.1395619901397265e-05 0.013772208494284911 0 0.00020858784979468033 0.012883129182230351 0 -0.00019062095078028785 0.0098755896255247038 0 -0.0003246293336320894 0.0099996790813243336 0 -0.00057586616298259765 0.0072380393450176194 0 -2.4123537141157877e-06 0.010786987780732957 0 4.0615017269522173e-07 0.0081803554688313403 0 0.00020858784979468033 0.012883129182230351 0 -0.00045815969970464484 0.013150204024782404 0 -1.8866069696414515e-06 0.010796266940072468 0 -0.0003246293336320894 0.0099996790813243336 0 1.012403312679399e-07 0.010789795865790734 0 -3.1852497679769635e-05 0.0050127553214539258 0 0.00011309199350652005 0.0059709756342687451 0 0.00011258426259466398 0.0046741550382279852 0 0.00011309199350652005 0.0059709756342687451 0 0.0001190445779657278 0.0047465722249661396 0 0.00011258426259466398 0.0046741550382279852 0 -0.00038666675987559661 0.005303972990685319 0 -0.00057586616298259765 0.0072380393450176194 0 0.00011309199350652005 0.0059709756342687451 0 -0.00057586616298259765 0.0072380393450176194 0 0.00011309199350652005 0.0059709756342687451 0 4.0615017269522173e-07 0.0081803554688313403 0 0.00011309199350652005 0.0059709756342687451 0 4.0615017269522173e-07 0.0081803554688313403 0 4.176647179040279e-07 0.0055710882621015402 0 0.00011309199350652005 0.0059709756342687451 0 4.176647179040279e-07 0.0055710882621015402 0 0.0001190445779657278 0.0047465722249661396 0 4.176647179040279e-07 0.0055710882621015402 0 0.0001190445779657278 0.0047465722249661396 0 4.9879977440804644e-08 0.0029614561971522853 0 0.0001190445779657278 0.0047465722249661396 0 4.9879977440804644e-08 0.0029614561971522853 0 7.4799552458503464e-05 0.0039294133724136326 0 7.4799552458503464e-05 0.0039294133724136326 0 5.7230435581184714e-05 0.0042254901620241625 0 -0.00011136258147806766 0.0030392191746351827 0 4.9879977440804644e-08 0.0029614561971522853 0 7.4799552458503464e-05 0.0039294133724136326 0 -0.00011136258147806766 0.0030392191746351827 0 0.0001190445779657278 0.0047465722249661396 0 7.4799552458503464e-05 0.0039294133724136326 0 0.00011258426259466398 0.0046741550382279852 0 -3.1852497679769635e-05 0.0050127553214539258 0 0.00011258426259466398 0.0046741550382279852 0 -4.6761276071294909e-05 0.0046893173336140679 0 7.4799552458503464e-05 0.0039294133724136326 0 0.00011258426259466398 0.0046741550382279852 0 5.7230435581184714e-05 0.0042254901620241625 0 0.00011258426259466398 0.0046741550382279852 0 -0.00011541259140371741 0.0046236992903337191 0 -4.6761276071294909e-05 0.0046893173336140679 0 -0.0025789208125069968 0.00066153522610276161 0 -0.0038806207465326399 -0.0006082542241809014 0 -0.00027760458496487372 0.0041513120756828514 0 -0.0025789208125069968 0.00066153522610276161 0 -0.0030740424014188551 -0.0022952868488789998 0 -0.0043219217595332638 -0.0022809918729156751 0 -0.002634178087745174 -0.0034646468154118301 0 -0.0025789208125069968 0.00066153522610276161 0 -0.0043332619351876805 -0.0062090472542810126 0 -0.0025789208125069968 0.00066153522610276161 0 -0.0011264783330793555 0.0010074125616927518 0 -0.0030740424014188551 -0.0022952868488789998 0 -0.0043219217595332638 -0.0022809918729156751 0 -0.0025859028786540251 -0.0010994328855432145 0 -0.0058528213137043353 -0.0048342108570488132 0 -0.0058420117726131968 -0.0051484311460907985 0 -0.0056634661521621516 -0.0051170632454292991 0 -0.0058528213137043353 -0.0048342108570488132 0 -0.0058420117726131968 -0.0051484311460907985 0 -0.0059907297988806294 -0.0051160579406391233 0 -0.0059844732954054576 -0.0054941101274447362 0 -0.0058420117726131968 -0.0051484311460907985 0 -0.0059907297988806294 -0.0051160579406391233 0 -0.005842545566833628 -0.0056759916927085529 0 -0.0043332619351876805 -0.0062090472542810126 0 -0.0061147841198327989 -0.0048150666797318348 0 -0.0059907297988806294 -0.0051160579406391233 0 -0.00595099955649726 -0.0048748464055204553 0 -0.0058528213137043353 -0.0048342108570488132 0 -0.0059907297988806294 -0.0051160579406391233 0 -0.00595099955649726 -0.0048748464055204553 0 -0.0028320382293503502 -0.0097947011905016174 0 -0.0027616066348741127 -0.0091798183709037567 0 -0.0035108927643282416 -0.009279005913693265 0 -0.0013285628694614201 -0.0060388112854321959 0 -0.0043332619351876805 -0.0062090472542810126 0 -0.004174698592608439 -0.0079048262488169395 0 -0.0043332619351876805 -0.0062090472542810126 0 -0.005799880002848686 -0.005490362496317831 0 -0.0058420117726131968 -0.0051484311460907985 0 -0.0057677984401368404 -0.0052288452821252305 0 -0.0030740424014188551 -0.0022952868488789998 0 -0.002634178087745174 -0.0034646468154118301 0 -0.0015607151485068935 -0.0022764002136699776 0 -0.0030740424014188551 -0.0022952868488789998 0 -0.0015607151485068935 -0.0022764002136699776 0 -0.0025859028786540251 -0.0010994328855432145 0 -0.00039380551148246229 -0.0028741236339356276 0 -0.0015607151485068935 -0.0022764002136699776 0 1.2588265896635971e-05 -0.0017551069396062348 0 -0.00039380551148246229 -0.0028741236339356276 0 -0.002634178087745174 -0.0034646468154118301 0 -0.0015607151485068935 -0.0022764002136699776 0 -0.0015607151485068935 -0.0022764002136699776 0 -0.00051260163261564531 0.00030586713281141164 0 1.2588265896635971e-05 -0.0017551069396062348 0 -0.0015607151485068935 -0.0022764002136699776 0 -0.00051260163261564531 0.00030586713281141164 0 -0.0025859028786540251 -0.0010994328855432145 0 -0.00059204295117492147 0.00055801614096860576 0 -0.0011264783330793555 0.0010074125616927518 0 4.9879977440804644e-08 0.0029614561971522853 0 -0.00051260163261564531 0.00030586713281141164 0 -0.00011136258147806766 0.0030392191746351827 0 4.9879977440804644e-08 0.0029614561971522853 0 -0.00051260163261564531 0.00030586713281141164 0 -9.7018713630986389e-07 0.00035207633408920248 0 -0.00051260163261564531 0.00030586713281141164 0 -9.7018713630986389e-07 0.00035207633408920248 0 7.8155236205885614e-06 -0.00099031835838801307 0 -9.7018713630986389e-07 0.00035207633408920248 0 7.8155236205885614e-06 -0.00099031835838801307 0 6.6462979179588489e-07 -0.0022576232648740791 0 6.6462979179588489e-07 -0.0022576232648740791 0 0.000198695533494904 -0.0022984556272132631 0 0.00011284969078539489 -0.0038895796090051291 0 7.8155236205885614e-06 -0.00099031835838801307 0 6.6462979179588489e-07 -0.0022576232648740791 0 0.000198695533494904 -0.0022984556272132631 0 0.000198695533494904 -0.0022984556272132631 0 0.00011284969078539489 -0.0038895796090051291 0 0.00039194020080332884 -0.002952095432397479 0 7.8155236205885614e-06 -0.00099031835838801307 0 0.000198695533494904 -0.0022984556272132631 0 1.2588265896635971e-05 -0.0017551069396062348 0 -0.00051260163261564531 0.00030586713281141164 0 7.8155236205885614e-06 -0.00099031835838801307 0 1.2588265896635971e-05 -0.0017551069396062348 0 0.000198695533494904 -0.0022984556272132631 0 1.2588265896635971e-05 -0.0017551069396062348 0 0.00039194020080332884 -0.002952095432397479 0 -4.296831455696837e-07 -0.0048674210174601204 0 0.00011284969078539489 -0.0038895796090051291 0 -0.00022747007255369571 -0.0059405549393839992 0 6.6462979179588489e-07 -0.0022576232648740791 0 -4.296831455696837e-07 -0.0048674210174601204 0 0.00011284969078539489 -0.0038895796090051291 0 0.00011284969078539489 -0.0038895796090051291 0 -0.00022747007255369571 -0.0059405549393839992 0 -5.9157137634699817e-05 -0.0046368116937024126 0 -0.00022747007255369571 -0.0059405549393839992 0 -5.9157137634699817e-05 -0.0046368116937024126 0 -0.00048553076996437771 -0.0080616169432767143 0 -0.0015945351147101047 -0.0088758703467091624 0 -0.001223560424721492 -0.0096624502693238856 0 -0.00048553076996437771 -0.0080616169432767143 0 0.00011284969078539489 -0.0038895796090051291 0 -5.9157137634699817e-05 -0.0046368116937024126 0 0.00039194020080332884 -0.002952095432397479 0 -0.00065204338220838413 -0.0068052500415368344 0 -0.00089229091647132646 -0.0060766593424718494 0 -0.0015945351147101047 -0.0088758703467091624 0 -0.0017479201057559362 -0.0094257993790731916 0 -0.0021041519398835515 -0.0091194647316839919 0 -0.0017479201057559362 -0.0094257993790731916 0 -0.0020923284105720022 -0.0096946175862024954 0 -0.001466315136530738 -0.0098993320368697315 0 -0.0015945351147101047 -0.0088758703467091624 0 -0.0017479201057559362 -0.0094257993790731916 0 -0.001223560424721492 -0.0096624502693238856 0 -0.0017479201057559362 -0.0094257993790731916 0 -0.001223560424721492 -0.0096624502693238856 0 -0.001466315136530738 -0.0098993320368697315 0 -0.0013285628694614201 -0.0060388112854321959 0 -0.00089229091647132646 -0.0060766593424718494 0 -0.00039380551148246229 -0.0028741236339356276 0 1.2588265896635971e-05 -0.0017551069396062348 0 0.00039194020080332884 -0.002952095432397479 0 -0.0017479201057559362 -0.0094257993790731916 0 -0.0021041519398835515 -0.0091194647316839919 0 -0.0020923284105720022 -0.0096946175862024954 0 -0.0027616066348741127 -0.0091798183709037567 0 -0.0021041519398835515 -0.0091194647316839919 0 -0.0020923284105720022 -0.0096946175862024954 0 -0.0028320382293503502 -0.0097947011905016174 0 -0.0027616066348741127 -0.0091798183709037567 0 -0.0020923284105720022 -0.0096946175862024954 0 -0.0028320382293503502 -0.0097947011905016174 0 -0.0021601393853901366 -0.010260461656274141 0 -0.0020923284105720022 -0.0096946175862024954 0 -0.0056381236457265227 -0.006394640406314404 0 -0.0043785793448129842 -0.0064952894130402491 0 -0.0056721845263021124 -0.0071400474451191491 0 -0.0054994744624952113 -0.0057003374022541091 0 -0.0056381236457265227 -0.006394640406314404 0 -0.0043785793448129842 -0.0064952894130402491 0 -0.004174698592608439 -0.0079048262488169395 0 -0.0032724652515162245 -0.0083596427516112824 0 -0.0021601393853901366 -0.010260461656274141 0 -0.0020923284105720022 -0.0096946175862024954 0 -0.0016223554716479709 -0.010183952445254156 0 -0.0020923284105720022 -0.0096946175862024954 0 -0.001466315136530738 -0.0098993320368697315 0 -0.0016223554716479709 -0.010183952445254156 0 -0.001223560424721492 -0.0096624502693238856 0 -0.001466315136530738 -0.0098993320368697315 0 -0.0010187887197299027 -0.010014630238493239 0 -0.001466315136530738 -0.0098993320368697315 0 -0.001089839792000566 -0.010240410807338873 0 -0.0010187887197299027 -0.010014630238493239 0 -0.001466315136530738 -0.0098993320368697315 0 -0.001089839792000566 -0.010240410807338873 0 -0.0016223554716479709 -0.010183952445254156 0 -0.001089839792000566 -0.010240410807338873 0 -0.0016223554716479709 -0.010183952445254156 0 -0.0014031497867252676 -0.010597742851525295 0 -0.0021601393853901366 -0.010260461656274141 0 -0.0016223554716479709 -0.010183952445254156 0 -0.0014031497867252676 -0.010597742851525295 0 -0.0032724652515162245 -0.0083596427516112824 0 -0.0018328536527680397 -0.0095630874549240772 0 -0.0014031497867252676 -0.010597742851525295 0 -0.00055972873469209493 -0.010799808241793494 0 -0.00064258096881624784 -0.010464643743361934 0 -0.001089839792000566 -0.010240410807338873 0 -0.0014031497867252676 -0.010597742851525295 0 -0.00064258096881624784 -0.010464643743361934 0 -0.0018328536527680397 -0.0095630874549240772 0 -0.00064318162188494908 -0.010680606712064307 0 -0.0021976943647522198 -0.0085212145951854106 0 -0.0018702383634724695 -0.010451194491582338 0 -0.00055972873469209493 -0.010799808241793494 0 -0.0018702383634724695 -0.010451194491582338 0 -0.00055972873469209493 -0.010799808241793494 0 -0.0011597542028242295 -0.011232846852996763 0 -0.0021976943647522198 -0.0085212145951854106 0 -0.0030170611347384306 -0.010333163997436013 0 -0.0041918142920596216 -0.0085032765380816753 0 -0.0021976943647522198 -0.0085212145951854106 0 -0.0018702383634724695 -0.010451194491582338 0 -0.0030170611347384306 -0.010333163997436013 0 -0.0053887863819455659 -0.0093176768425398508 0 -0.0041918142920596216 -0.0085032765380816753 0 -0.0044579801006362305 -0.010642892576143785 0 -0.0030170611347384306 -0.010333163997436013 0 -0.0041918142920596216 -0.0085032765380816753 0 -0.0044579801006362305 -0.010642892576143785 0 -0.0070103228592882025 -0.0092038760690322883 0 -0.0053887863819455659 -0.0093176768425398508 0 -0.0056721845263021124 -0.0071400474451191491 0 -0.0053887863819455659 -0.0093176768425398508 0 -0.0044579801006362305 -0.010642892576143785 0 -0.0060289417346397591 -0.01086594403501101 0 -0.0070103228592882025 -0.0092038760690322883 0 -0.0053887863819455659 -0.0093176768425398508 0 -0.0060289417346397591 -0.01086594403501101 0 -0.0053887863819455659 -0.0093176768425398508 0 -0.0056721845263021124 -0.0071400474451191491 0 -0.0041918142920596216 -0.0085032765380816753 0 -0.0043785793448129842 -0.0064952894130402491 0 -0.0056721845263021124 -0.0071400474451191491 0 -0.0041918142920596216 -0.0085032765380816753 0 -0.0043785793448129842 -0.0064952894130402491 0 -0.0021976943647522198 -0.0085212145951854106 0 -0.0041918142920596216 -0.0085032765380816753 0 -0.0005768397453149094 -0.014262929294411301 0 -0.00088351649561585065 -0.013957671807308268 0 -0.00053583680828579456 -0.013723261808615248 0 0.0002305733743920429 -0.015053278081940546 0 -0.00053583680828579456 -0.013723261808615248 0 8.8003165596922464e-05 -0.013864437387169587 0 -0.00010971413537892344 -0.014273108875709371 0 -0.0005768397453149094 -0.014262929294411301 0 -0.00053583680828579456 -0.013723261808615248 0 7.5529019898276862e-05 -0.01464757382140314 0 -0.00051809293034547736 -0.013826065637979505 0 0.0002305733743920429 -0.015053278081940546 0 8.8003165596922464e-05 -0.013864437387169587 0 0.00037378048957623523 -0.014542936161900775 0 -0.00010971413537892344 -0.014273108875709371 0 -0.00043621091586202888 -0.014542980141124406 0 -0.00021206887064985372 -0.014963593274048373 0 -0.00010971413537892344 -0.014273108875709371 0 -0.00043621091586202888 -0.014542980141124406 0 -0.0005768397453149094 -0.014262929294411301 0 -0.00043621091586202888 -0.014542980141124406 0 -0.0005768397453149094 -0.014262929294411301 0 -0.00066700905927785019 -0.014539644099653233 0 -0.00094307906700873741 -0.014420693182468008 0 -0.00086660069523834978 -0.014354415194978874 0 -0.0012985900960677808 -0.014077181088162008 0 -0.00066700905927785019 -0.014539644099653233 0 -0.00086660069523834978 -0.014354415194978874 0 -0.00083849718931423031 -0.014556848017565131 0 -0.00094307906700873741 -0.014420693182468008 0 -0.00086660069523834978 -0.014354415194978874 0 -0.00083849718931423031 -0.014556848017565131 0 -0.0005768397453149094 -0.014262929294411301 0 -0.00066700905927785019 -0.014539644099653233 0 -0.00086660069523834978 -0.014354415194978874 0 -0.00094960960839090983 -0.012255122457690636 0 -0.00063283317027220049 -0.012852330309593325 0 -0.00094307906700873741 -0.014420693182468008 0 -0.0012985900960677808 -0.014077181088162008 0 -0.00085537985583501025 -0.014576180040712355 0 -0.00055972873469209493 -0.010799808241793494 0 -0.00064258096881624784 -0.010464643743361934 0 -0.00028099542958616317 -0.011076462348846851 0 -0.0012985900960677808 -0.014077181088162008 0 -0.00088351649561585065 -0.013957671807308268 0 -0.001444945886734285 -0.012677207073818392 0 -0.0005768397453149094 -0.014262929294411301 0 -0.00086660069523834978 -0.014354415194978874 0 -0.00088351649561585065 -0.013957671807308268 0 -0.00086660069523834978 -0.014354415194978874 0 -0.0012985900960677808 -0.014077181088162008 0 -0.00088351649561585065 -0.013957671807308268 0 -0.001444945886734285 -0.012677207073818392 0 -0.00027358651611682851 -0.012943940892410346 0 -0.00053583680828579456 -0.013723261808615248 0 -0.00088351649561585065 -0.013957671807308268 0 -0.001444945886734285 -0.012677207073818392 0 -0.00053583680828579456 -0.013723261808615248 0 -0.00094960960839090983 -0.012255122457690636 0 -0.0010702346578265907 -0.011389423841582962 0 -0.001089839792000566 -0.010240410807338873 0 -0.00064258096881624784 -0.010464643743361934 0 -0.0008165642232734223 -0.010135082060514644 0 -0.0010187887197299027 -0.010014630238493239 0 -0.0008165642232734223 -0.010135082060514644 0 -0.00067265413143673103 -0.010195678459373582 0 -0.001089839792000566 -0.010240410807338873 0 -0.0010187887197299027 -0.010014630238493239 0 -0.0008165642232734223 -0.010135082060514644 0 -0.001444945886734285 -0.012677207073818392 0 -4.1409869091865832e-05 -0.011841131716493605 0 -0.00067265413143673103 -0.010195678459373582 0 -0.001444945886734285 -0.012677207073818392 0 -4.1409869091865832e-05 -0.011841131716493605 0 -0.00027358651611682851 -0.012943940892410346 0 -0.0010702346578265907 -0.011389423841582962 0 -0.00074735673244420394 -0.010279476292371173 0 -4.1409869091865832e-05 -0.011841131716493605 0 -0.00027358651611682851 -0.012943940892410346 0 0.00040281500745996157 -0.01263514837782757 0 -0.00027358651611682851 -0.012943940892410346 0 8.8003165596922464e-05 -0.013864437387169587 0 0.00040281500745996157 -0.01263514837782757 0 -0.00027358651611682851 -0.012943940892410346 0 -0.00053583680828579456 -0.013723261808615248 0 8.8003165596922464e-05 -0.013864437387169587 0 8.8003165596922464e-05 -0.013864437387169587 0 0.00040281500745996157 -0.01263514837782757 0 0.0010667273679868812 -0.012669411794750394 0 6.282088931277892e-05 -0.013882908898548251 0 0.00070740067049344458 -0.013616032073524591 0 8.8003165596922464e-05 -0.013864437387169587 0 0.00047578865214160341 -0.014510605089980881 0 0.00037378048957623523 -0.014542936161900775 0 0.00067387306418877752 -0.011972627488515096 0 0.00040281500745996157 -0.01263514837782757 0 0.0010667273679868812 -0.012669411794750394 0 -4.1409869091865832e-05 -0.011841131716493605 0 0.00067387306418877752 -0.011972627488515096 0 0.00040281500745996157 -0.01263514837782757 0 0.00067387306418877752 -0.011972627488515096 0 0.0001960832499804758 -0.010662063424194958 0 0.00062829382994320133 -0.011335859292099092 0 -4.1409869091865832e-05 -0.011841131716493605 0 0.00067387306418877752 -0.011972627488515096 0 0.0001960832499804758 -0.010662063424194958 0 -4.1409869091865832e-05 -0.011841131716493605 0 0.0001960832499804758 -0.010662063424194958 0 -0.00067265413143673103 -0.010195678459373582 0 0.0001960832499804758 -0.010662063424194958 0 -0.00014643832401793272 -0.0095668401522639723 0 0.00016029114268675178 -0.0096196867829341365 0 0.0001960832499804758 -0.010662063424194958 0 0.00062829382994320133 -0.011335859292099092 0 0.00016029114268675178 -0.0096196867829341365 0 -0.001223560424721492 -0.0096624502693238856 0 -0.0010187887197299027 -0.010014630238493239 0 -0.00067265413143673103 -0.010195678459373582 0 0.0001960832499804758 -0.010662063424194958 0 -0.00067265413143673103 -0.010195678459373582 0 -0.00014643832401793272 -0.0095668401522639723 0 -0.00014643832401793272 -0.0095668401522639723 0 -0.00048553076996437771 -0.0080616169432767143 0 0.00016029114268675178 -0.0096196867829341365 0 -0.00067265413143673103 -0.010195678459373582 0 -0.00014643832401793272 -0.0095668401522639723 0 -0.00048553076996437771 -0.0080616169432767143 0 -0.00065204338220838413 -0.0068052500415368344 0 -0.00035325938852069346 -0.0077709247121166411 0 -0.001223560424721492 -0.0096624502693238856 0 -0.00067265413143673103 -0.010195678459373582 0 -0.00048553076996437771 -0.0080616169432767143 0 -0.00022747007255369571 -0.0059405549393839992 0 -0.00048553076996437771 -0.0080616169432767143 0 -2.2633506737687254e-07 -0.0074764757698505876 0 -0.00048553076996437771 -0.0080616169432767143 0 -2.2633506737687254e-07 -0.0074764757698505876 0 0.00016029114268675178 -0.0096196867829341365 0 -4.296831455696837e-07 -0.0048674210174601204 0 -0.00022747007255369571 -0.0059405549393839992 0 -2.2633506737687254e-07 -0.0074764757698505876 0 0.00062829382994320133 -0.011335859292099092 0 0.00016029114268675178 -0.0096196867829341365 0 0.00045750207615483058 -0.011520744294710781 0 -2.2633506737687254e-07 -0.0074764757698505876 0 0.00016029114268675178 -0.0096196867829341365 0 6.2656730790235643e-07 -0.010086066624800256 0 0.00016029114268675178 -0.0096196867829341365 0 6.2656730790235643e-07 -0.010086066624800256 0 0.00045750207615483058 -0.011520744294710781 0 6.2656730790235643e-07 -0.010086066624800256 0 0.00045750207615483058 -0.011520744294710781 0 8.4364840996736881e-07 -0.012694533796917502 0 0.00045750207615483058 -0.011520744294710781 0 0.00040882799102088131 -0.012863604117954935 0 0.00082156521412136215 -0.012215236522079034 0 0.00045750207615483058 -0.011520744294710781 0 0.00040882799102088131 -0.012863604117954935 0 8.4364840996736881e-07 -0.012694533796917502 0 0.00040882799102088131 -0.012863604117954935 0 8.4364840996736881e-07 -0.012694533796917502 0 1.0286821433379002e-06 -0.015305229307003294 0 0.00040882799102088131 -0.012863604117954935 0 1.0286821433379002e-06 -0.015305229307003294 0 0.00021703148826505799 -0.015437164490123166 0 1.0286821433379002e-06 -0.015305229307003294 0 0.00021703148826505799 -0.015437164490123166 0 -2.4926314957992646e-06 -0.017910014783963354 0 0.00040882799102088131 -0.012863604117954935 0 0.0014093136647782684 -0.01221601512054573 0 0.00099152279545886815 -0.012732284590523453 0 0.00047217839777027783 -0.013198520681377026 0 0.001197082624158418 -0.013164969011690062 0 0.00040882799102088131 -0.012863604117954935 0 0.00099152279545886815 -0.012732284590523453 0 0.00082156521412136215 -0.012215236522079034 0 0.0014093136647782684 -0.01221601512054573 0 0.00099152279545886815 -0.012732284590523453 0 0.0021809422271854228 -0.013092031799762404 0 0.00099152279545886815 -0.012732284590523453 0 0.001453761031580143 -0.013567764778829896 0 0.0021809422271854228 -0.013092031799762404 0 0.00099152279545886815 -0.012732284590523453 0 0.00082156521412136215 -0.012215236522079034 0 0.0010394696517230355 -0.012760285152504092 0 0.00099152279545886815 -0.012732284590523453 0 0.001453761031580143 -0.013567764778829896 0 0.0010394696517230355 -0.012760285152504092 0 0.00091601495112325615 -0.012230043701346862 0 0.00082156521412136215 -0.012215236522079034 0 0.0010394696517230355 -0.012760285152504092 0 0.00067387306418877752 -0.011972627488515096 0 0.00062829382994320133 -0.011335859292099092 0 0.00091601495112325615 -0.012230043701346862 0 0.00062829382994320133 -0.011335859292099092 0 0.00091601495112325615 -0.012230043701346862 0 0.00082156521412136215 -0.012215236522079034 0 0.00062829382994320133 -0.011335859292099092 0 0.00045750207615483058 -0.011520744294710781 0 0.00082156521412136215 -0.012215236522079034 0 0.00017613925460793423 -0.022832525208902995 0 -1.692745874613754e-07 -0.020657653545393149 0 1.6924407279386691e-06 -0.024352880272183425 0 0.00017613925460793423 -0.022832525208902995 0 -0.0007458350759184855 -0.022915953931783192 0 0.00029328127676960772 -0.024526907887121994 0 0.00017613925460793423 -0.022832525208902995 0 -1.692745874613754e-07 -0.020657653545393149 0 -0.0007458350759184855 -0.022915953931783192 0 -1.692745874613754e-07 -0.020657653545393149 0 -0.0007458350759184855 -0.022915953931783192 0 -0.00070923615540081301 -0.021360306309779566 0 -0.0013919873832720425 -0.023164902845578813 0 -0.00078656238659791176 -0.018320965450414523 0 -0.00078656238659791176 -0.018320965450414523 0 -2.9256605872044914e-07 -0.017915362272512923 0 -1.692745874613754e-07 -0.020657653545393149 0 -0.00070923615540081301 -0.021360306309779566 0 -2.4775819263722965e-06 -0.017918905942991198 0 0.00021703148826505799 -0.015437164490123166 0 -0.001424602606309139 -0.01570758957467001 0 -2.4926314957992646e-06 -0.017910014783963354 0 0.001197082624158418 -0.013164969011690062 0 -0.00078656238659791176 -0.018320965450414523 0 0.0014093136647782684 -0.01221601512054573 0 0.0028014381810185225 -0.012180547254724824 0 0.0021809422271854228 -0.013092031799762404 0 0.001453761031580143 -0.013567764778829896 0 0.0021809422271854228 -0.013092031799762404 0 0.0028432691127538517 -0.014493996745690003 0 0.0021809422271854228 -0.013092031799762404 0 0.0035931617634517377 -0.013314736282344312 0 0.0028432691127538517 -0.014493996745690003 0 0.0028014381810185225 -0.012180547254724824 0 0.0021809422271854228 -0.013092031799762404 0 0.0035931617634517377 -0.013314736282344312 0 -0.00078656238659791176 -0.018320965450414523 0 0.00036460804135971951 -0.019659948096144013 0 -0.0007458350759184855 -0.022915953931783192 0 -0.0027961782411465999 -0.026472110452547066 0 -0.00034984311367082294 -0.02669674778310244 0 -0.0007458350759184855 -0.022915953931783192 0 -0.0045658519829540707 -0.02248885734197666 0 -0.0027961782411465999 -0.026472110452547066 0 -0.0027961782411465999 -0.026472110452547066 0 -0.00050307835246561378 -0.030346083232131116 0 -0.0008327776145227616 -0.030465847558511561 0 0.00036460804135971951 -0.019659948096144013 0 0.0016941223818932817 -0.023045469169838129 0 0.0035931617634517377 -0.013314736282344312 0 0.0044695447645066565 -0.01490980789744396 0 0.0028432691127538517 -0.014493996745690003 0 -0.0027961782411465999 -0.026472110452547066 0 -0.00034984311367082294 -0.02669674778310244 0 -0.00050307835246561378 -0.030346083232131116 0 -0.00061497036562384994 -0.030452970710269336 0 -8.852788387085044e-05 -0.029891808218420888 0 -0.00034984311367082294 -0.02669674778310244 0 -0.00050307835246561378 -0.030346083232131116 0 0.001380885074109393 -0.026171941154946667 0 -0.00034984311367082294 -0.02669674778310244 0 0.00029328127676960772 -0.024526907887121994 0 0.001380885074109393 -0.026171941154946667 0 -0.0007458350759184855 -0.022915953931783192 0 -0.00034984311367082294 -0.02669674778310244 0 0.00029328127676960772 -0.024526907887121994 0 0.0044695447645066565 -0.01490980789744396 0 0.0043485165628807439 -0.016514179691336815 0 0.0053567615576889261 -0.01672125344673582 0 0.0016941223818932817 -0.023045469169838129 0 0.0036071496556991083 -0.021095730934476132 0 -0.00050307835246561378 -0.030346083232131116 0 -0.0008327776145227616 -0.030465847558511561 0 -0.0010105066150416502 -0.02988289155397018 0 0.0044695447645066565 -0.01490980789744396 0 0.0036240700299286898 -0.015852258113284359 0 0.0028432691127538517 -0.014493996745690003 0 0.0044695447645066565 -0.01490980789744396 0 0.0036240700299286898 -0.015852258113284359 0 0.0043485165628807439 -0.016514179691336815 0 0.0028428697397441362 -0.015787588128871769 0 0.0028432691127538517 -0.014493996745690003 0 0.0021252629648300905 -0.015150266446444457 0 0.0036240700299286898 -0.015852258113284359 0 0.0028428697397441362 -0.015787588128871769 0 0.0028432691127538517 -0.014493996745690003 0 0.001453761031580143 -0.013567764778829896 0 0.0028432691127538517 -0.014493996745690003 0 0.0021252629648300905 -0.015150266446444457 0 0.0028428697397441362 -0.015787588128871769 0 0.0021252629648300905 -0.015150266446444457 0 0.002394028087480151 -0.016043100477852248 0 0.0021252629648300905 -0.015150266446444457 0 0.002394028087480151 -0.016043100477852248 0 0.0018469444373176447 -0.015804716343528771 0 0.002394028087480151 -0.016043100477852248 0 0.0022378638144744966 -0.016411930586883061 0 0.0018469444373176447 -0.015804716343528771 0 0.0022378638144744966 -0.016411930586883061 0 0.0018214725413007898 -0.016502932623337695 0 0.0025103448545819441 -0.017015892434186514 0 0.0022378638144744966 -0.016411930586883061 0 0.0028033659154240932 -0.01662141854579877 0 0.0025103448545819441 -0.017015892434186514 0 0.002394028087480151 -0.016043100477852248 0 0.0022378638144744966 -0.016411930586883061 0 0.0028033659154240932 -0.01662141854579877 0 0.0028033659154240932 -0.01662141854579877 0 0.0029803471452209416 -0.017145210791456877 0 0.0025103448545819441 -0.017015892434186514 0 0.0028033659154240932 -0.01662141854579877 0 0.0034329917697295798 -0.016504978990146787 0 0.003389522878512333 -0.01712075171807333 0 0.0028033659154240932 -0.01662141854579877 0 0.0029803471452209416 -0.017145210791456877 0 0.003389522878512333 -0.01712075171807333 0 0.0028428697397441362 -0.015787588128871769 0 0.002394028087480151 -0.016043100477852248 0 0.0028033659154240932 -0.01662141854579877 0 0.0028428697397441362 -0.015787588128871769 0 0.0028033659154240932 -0.01662141854579877 0 0.0034329917697295798 -0.016504978990146787 0 0.0036240700299286898 -0.015852258113284359 0 0.0028428697397441362 -0.015787588128871769 0 0.0034329917697295798 -0.016504978990146787 0 0.0036240700299286898 -0.015852258113284359 0 0.003933830777523145 -0.01664969349718921 0 0.0034329917697295798 -0.016504978990146787 0 0.0036240700299286898 -0.015852258113284359 0 0.003933830777523145 -0.01664969349718921 0 0.0043485165628807439 -0.016514179691336815 0 0.003933830777523145 -0.01664969349718921 0 0.0034329917697295798 -0.016504978990146787 0 0.0039962671896740798 -0.017115052608186018 0 0.0034329917697295798 -0.016504978990146787 0 0.003389522878512333 -0.01712075171807333 0 0.0039962671896740798 -0.017115052608186018 0 0.0029803471452209416 -0.017145210791456877 0 0.003389522878512333 -0.01712075171807333 0 0.0033998075623525598 -0.017562876049806556 0 0.003389522878512333 -0.01712075171807333 0 0.0038706507286032058 -0.01765362696896064 0 0.0033998075623525598 -0.017562876049806556 0 0.003389522878512333 -0.01712075171807333 0 0.0038706507286032058 -0.01765362696896064 0 0.0039962671896740798 -0.017115052608186018 0 0.0038706507286032058 -0.01765362696896064 0 0.0039962671896740798 -0.017115052608186018 0 0.004371771548772406 -0.017571954156302427 0 0.0039962671896740798 -0.017115052608186018 0 0.004371771548772406 -0.017571954156302427 0 0.0044236455121952614 -0.016921282253838751 0 0.0038706507286032058 -0.01765362696896064 0 0.0043097374881827339 -0.018072999649191162 0 0.004371771548772406 -0.017571954156302427 0 0.0043097374881827339 -0.018072999649191162 0 0.004371771548772406 -0.017571954156302427 0 0.004773379641258413 -0.018431444884983356 0 0.004371771548772406 -0.017571954156302427 0 0.0044236455121952614 -0.016921282253838751 0 0.00509288344778119 -0.017423579048671062 0 0.0044236455121952614 -0.016921282253838751 0 0.0046995421305510857 -0.016479926551251911 0 0.00509288344778119 -0.017423579048671062 0 0.003933830777523145 -0.01664969349718921 0 0.0039962671896740798 -0.017115052608186018 0 0.0044236455121952614 -0.016921282253838751 0 0.003933830777523145 -0.01664969349718921 0 0.0044236455121952614 -0.016921282253838751 0 0.0043485165628807439 -0.016514179691336815 0 0.0044236455121952614 -0.016921282253838751 0 0.0043485165628807439 -0.016514179691336815 0 0.0046995421305510857 -0.016479926551251911 0 0.0050121451016767746 -0.017805822993367752 0 0.0036071496556991083 -0.021095730934476132 0 0.00047578865214160341 -0.014510605089980881 0 0.00085300382139738302 -0.014345227431702348 0 0.00095957978615173736 -0.015215635009046638 0 0.00047578865214160341 -0.014510605089980881 0 0.00058856492894646172 -0.01496623632778577 0 0.00037378048957623523 -0.014542936161900775 0 0.00067387306418877752 -0.011972627488515096 0 0.00091601495112325615 -0.012230043701346862 0 0.0010667273679868812 -0.012669411794750394 0 0.00070740067049344458 -0.013616032073524591 0 0.0010123040635665974 -0.01354758221113378 0 0.00091601495112325615 -0.012230043701346862 0 0.0010667273679868812 -0.012669411794750394 0 0.0010394696517230355 -0.012760285152504092 0 0.001474523332993102 -0.013507594167072194 0 0.0010123040635665974 -0.01354758221113378 0 0.001453761031580143 -0.013567764778829896 0 0.00085300382139738302 -0.014345227431702348 0 0.0013531896404750051 -0.015002160791143668 0 0.001453761031580143 -0.013567764778829896 0 0.0021252629648300905 -0.015150266446444457 0 0.0013531896404750051 -0.015002160791143668 0 0.0021252629648300905 -0.015150266446444457 0 0.0013531896404750051 -0.015002160791143668 0 0.0018469444373176447 -0.015804716343528771 0 0.00085300382139738302 -0.014345227431702348 0 0.0013531896404750051 -0.015002160791143668 0 0.00095957978615173736 -0.015215635009046638 0 0.0013531896404750051 -0.015002160791143668 0 0.0014281332912547302 -0.015822999955462849 0 0.00095957978615173736 -0.015215635009046638 0 0.0013531896404750051 -0.015002160791143668 0 0.0018469444373176447 -0.015804716343528771 0 0.0014281332912547302 -0.015822999955462849 0 0.0022378638144744966 -0.016411930586883061 0 0.0018469444373176447 -0.015804716343528771 0 0.0018214725413007898 -0.016502932623337695 0 0.0018469444373176447 -0.015804716343528771 0 0.0018214725413007898 -0.016502932623337695 0 0.0014281332912547302 -0.015822999955462849 0 0.0012194261500250117 -0.016149302045046242 0 0.0014281332912547302 -0.015822999955462849 0 0.00095957978615173736 -0.015215635009046638 0 0.0018214725413007898 -0.016502932623337695 0 0.0012194261500250117 -0.016149302045046242 0 0.0014281332912547302 -0.015822999955462849 0 0.0012194261500250117 -0.016149302045046242 0 0.00095957978615173736 -0.015215635009046638 0 0.00074205492455155003 -0.015991252630036364 0 0.00095957978615173736 -0.015215635009046638 0 0.00058856492894646172 -0.01496623632778577 0 0.00074205492455155003 -0.015991252630036364 0 0.00047578865214160341 -0.014510605089980881 0 0.00095957978615173736 -0.015215635009046638 0 0.00058856492894646172 -0.01496623632778577 0 0.0002305733743920429 -0.015053278081940546 0 0.00058856492894646172 -0.01496623632778577 0 0.00037378048957623523 -0.014542936161900775 0 7.5529019898276862e-05 -0.01464757382140314 0 0.00065586271550452217 -0.01549570568026112 0 0.0002305733743920429 -0.015053278081940546 0 0.00058856492894646172 -0.01496623632778577 0 0.00074205492455155003 -0.015991252630036364 0 -0.00010971413537892344 -0.014273108875709371 0 0.00056991759514683283 -0.014949225873176155 0 -0.00021206887064985372 -0.014963593274048373 0 0.00024305741333141863 -0.015461608060106097 0 0.00056991759514683283 -0.014949225873176155 0 -0.00021206887064985372 -0.014963593274048373 0 0.00024305741333141863 -0.015461608060106097 0 -0.00021206887064985372 -0.014963593274048373 0 -9.9306789827161235e-05 -0.015398085234107083 0 -0.00092478324500631589 -0.015193692160567748 0 -0.0009191467024469445 -0.015147054887578816 0 -0.00088055194661279838 -0.014917576377745715 0 0.00024305741333141863 -0.015461608060106097 0 0.00033319813035349838 -0.015980391750223744 0 -9.9306789827161235e-05 -0.015398085234107083 0 0.00024305741333141863 -0.015461608060106097 0 0.00033319813035349838 -0.015980391750223744 0 0.00079087262586141334 -0.015946743269416214 0 -0.00092478324500631589 -0.015193692160567748 0 -0.0011163739307407253 -0.015455174804482929 0 -0.0011131766796111651 -0.015422878856345905 0 -0.00034415547482185654 -0.015628052167889084 0 0.0004475170122648297 -0.01579126617656158 0 0.00033319813035349838 -0.015980391750223744 0 0.00079087262586141334 -0.015946743269416214 0 0.0013334286691891791 -0.016746663501012397 0 -0.00092478324500631589 -0.015193692160567748 0 -0.0011131766796111651 -0.015422878856345905 0 -0.0009191467024469445 -0.015147054887578816 0 0.00024305741333141863 -0.015461608060106097 0 0.00079087262586141334 -0.015946743269416214 0 0.00056991759514683283 -0.014949225873176155 0 0.00065586271550452217 -0.01549570568026112 0 0.0013649976683321552 -0.016393065192932293 0 0.00079087262586141334 -0.015946743269416214 0 0.00056991759514683283 -0.014949225873176155 0 0.0014126932583665703 -0.016515562564762613 0 0.0012194261500250117 -0.016149302045046242 0 0.00074205492455155003 -0.015991252630036364 0 0.0014126932583665703 -0.016515562564762613 0 0.0012194261500250117 -0.016149302045046242 0 0.0015418212928278879 -0.016517426884495937 0 0.0014126932583665703 -0.016515562564762613 0 0.0018214725413007898 -0.016502932623337695 0 0.0012194261500250117 -0.016149302045046242 0 0.0015418212928278879 -0.016517426884495937 0 0.0018214725413007898 -0.016502932623337695 0 0.0017407911082237301 -0.016848636741746463 0 0.002168322824922879 -0.017091887506107857 0 0.0018214725413007898 -0.016502932623337695 0 0.0015418212928278879 -0.016517426884495937 0 0.0017407911082237301 -0.016848636741746463 0 0.0015418212928278879 -0.016517426884495937 0 0.0017407911082237301 -0.016848636741746463 0 0.0014126932583665703 -0.016515562564762613 0 -0.0026399940537164272 -0.01943499007736715 0 -0.00089228203528726388 -0.018964023193649461 0 -0.0034386939523187842 -0.023251138361143647 0 -0.0035696585973580015 -0.023192454001237456 0 -0.0037766377327524059 -0.023280890219967581 0 0.0004475170122648297 -0.01579126617656158 0 -0.00089228203528726388 -0.018964023193649461 0 0.0017407911082237301 -0.016848636741746463 0 0.0013334286691891791 -0.016746663501012397 0 0.0021538281024298719 -0.017529507257557097 0 -0.0011163739307407253 -0.015455174804482929 0 -0.0011131766796111651 -0.015422878856345905 0 -0.0013012043726808964 -0.015734261402047547 0 0.00079087262586141334 -0.015946743269416214 0 0.0014126932583665703 -0.016515562564762613 0 0.0013334286691891791 -0.016746663501012397 0 0.0017407911082237301 -0.016848636741746463 0 0.0014126932583665703 -0.016515562564762613 0 0.0013334286691891791 -0.016746663501012397 0 -0.0034386939523187842 -0.023251138361143647 0 -0.0033387336535035646 -0.023120005260340075 0 -0.0031782167381397323 -0.023107397687736786 0 -0.0034386939523187842 -0.023251138361143647 0 -0.0033387336535035646 -0.023120005260340075 0 -0.0034602174406417412 -0.023155037455256697 0 -0.0034386939523187842 -0.023251138361143647 0 -0.0034602174406417412 -0.023155037455256697 0 -0.0035696585973580015 -0.023192454001237456 0 -0.0034602174406417412 -0.023155037455256697 0 -0.0034781443613483938 -0.023054329999802468 0 -0.0035696585973580015 -0.023192454001237456 0 -0.0033387336535035646 -0.023120005260340075 0 -0.0034602174406417412 -0.023155037455256697 0 -0.0034781443613483938 -0.023054329999802468 0 -0.0033387336535035646 -0.023120005260340075 0 -0.0034781443613483938 -0.023054329999802468 0 -0.0032010542941080661 -0.022975668923089391 0 -0.0034781443613483938 -0.023054329999802468 0 -0.003671978768156088 -0.023160152977994758 0 -0.0037286863747105232 -0.023029385421826701 0 -0.0035696585973580015 -0.023192454001237456 0 -0.003671978768156088 -0.023160152977994758 0 -0.0037766377327524059 -0.023280890219967581 0 -0.0034781443613483938 -0.023054329999802468 0 -0.0035696585973580015 -0.023192454001237456 0 -0.003671978768156088 -0.023160152977994758 0 -0.0045792389675143328 -0.023369736805223616 0 -0.003809259153174779 -0.023028265189344446 0 -0.0044129078300246113 -0.02285125241430529 0 -0.0041455944485396514 -0.023196824885527649 0 -0.003609510580792901 -0.022921520998140925 0 -0.0034781443613483938 -0.023054329999802468 0 -0.0037286863747105232 -0.023029385421826701 0 -0.0034115211068372711 -0.022823286907148535 0 -0.0034781443613483938 -0.023054329999802468 0 -0.0034115211068372711 -0.022823286907148535 0 -0.0032010542941080661 -0.022975668923089391 0 -0.003609510580792901 -0.022921520998140925 0 -0.0030527921843692091 -0.022704153987681198 0 -0.0034115211068372711 -0.022823286907148535 0 -0.003000115531579417 -0.022646709087805361 0 -0.0032010542941080661 -0.022975668923089391 0 -0.003000115531579417 -0.022646709087805361 0 -0.0029547283120715047 -0.02289187023957321 0 -0.0032010542941080661 -0.022975668923089391 0 -0.003000115531579417 -0.022646709087805361 0 -0.002630104738805632 -0.022267323727434243 0 -0.0025347293318841988 -0.022637645013517393 0 -0.003000115531579417 -0.022646709087805361 0 -0.0029547283120715047 -0.02289187023957321 0 -0.0025347293318841988 -0.022637645013517393 0 -0.0029547283120715047 -0.02289187023957321 0 -0.0025235639034614146 -0.022871536422744938 0 -0.0025347293318841988 -0.022637645013517393 0 -0.0029547283120715047 -0.02289187023957321 0 -0.0028524503877744934 -0.02315408420228068 0 -0.0030488657292526092 -0.023041465377262028 0 -0.0029547283120715047 -0.02289187023957321 0 -0.0028524503877744934 -0.02315408420228068 0 -0.0025235639034614146 -0.022871536422744938 0 -0.0026399940537164272 -0.01943499007736715 0 -0.0017850862176035753 -0.019125022747264891 0 -0.0028524503877744934 -0.02315408420228068 0 -0.0031782167381397323 -0.023107397687736786 0 -0.0030488657292526092 -0.023041465377262028 0 -0.0034386939523187842 -0.023251138361143647 0 -0.0028524503877744934 -0.02315408420228068 0 -0.0031782167381397323 -0.023107397687736786 0 -0.0033387336535035646 -0.023120005260340075 0 -0.0031782167381397323 -0.023107397687736786 0 -0.0032010542941080661 -0.022975668923089391 0 -0.0031782167381397323 -0.023107397687736786 0 -0.0032010542941080661 -0.022975668923089391 0 -0.0030488657292526092 -0.023041465377262028 0 -0.0029547283120715047 -0.02289187023957321 0 -0.0032010542941080661 -0.022975668923089391 0 -0.0030488657292526092 -0.023041465377262028 0 -0.0033147426364688016 -0.022915781424352508 0 -0.003237652602772278 -0.023392187509637039 0 -0.0028264425675290656 -0.023266608834697111 0 -0.0033147426364688016 -0.022915781424352508 0 -0.0035269379128905071 -0.023164907358982488 0 -0.003237652602772278 -0.023392187509637039 0 0.0040473997207713473 -0.018731559014423273 0 0.0045850030519958033 -0.018927976539273066 0 0.004415736253045038 -0.019129763666554053 0 0.0045850030519958033 -0.018927976539273066 0 0.0041699873174471588 -0.018376182805040244 0 0.004764669147621802 -0.018850195375384009 0 0.0040473997207713473 -0.018731559014423273 0 0.0045850030519958033 -0.018927976539273066 0 0.0041699873174471588 -0.018376182805040244 0 0.0043097374881827339 -0.018072999649191162 0 0.0041699873174471588 -0.018376182805040244 0 0.004764669147621802 -0.018850195375384009 0 0.0038706507286032058 -0.01765362696896064 0 0.0043097374881827339 -0.018072999649191162 0 0.0041699873174471588 -0.018376182805040244 0 0.0038706507286032058 -0.01765362696896064 0 0.0041699873174471588 -0.018376182805040244 0 0.0037357796030846073 -0.018002983846680577 0 0.003899009487027347 -0.018320467117330867 0 0.0041699873174471588 -0.018376182805040244 0 0.0037357796030846073 -0.018002983846680577 0 0.0040473997207713473 -0.018731559014423273 0 0.003899009487027347 -0.018320467117330867 0 0.003711437889265709 -0.018214408425443491 0 0.0040473997207713473 -0.018731559014423273 0 0.003899009487027347 -0.018320467117330867 0 0.0041699873174471588 -0.018376182805040244 0 0.0040473997207713473 -0.018731559014423273 0 0.003711437889265709 -0.018214408425443491 0 0.0034826290320561447 -0.018146231903205294 0 0.003711437889265709 -0.018214408425443491 0 0.0037357796030846073 -0.018002983846680577 0 0.0033943678842556528 -0.017879034179915848 0 0.003899009487027347 -0.018320467117330867 0 0.003711437889265709 -0.018214408425443491 0 0.0037357796030846073 -0.018002983846680577 0 0.0038706507286032058 -0.01765362696896064 0 0.0037357796030846073 -0.018002983846680577 0 0.0033998075623525598 -0.017562876049806556 0 0.0037357796030846073 -0.018002983846680577 0 0.0033998075623525598 -0.017562876049806556 0 0.0033943678842556528 -0.017879034179915848 0 0.0033998075623525598 -0.017562876049806556 0 0.0033943678842556528 -0.017879034179915848 0 0.0030587323481942319 -0.017560724628435422 0 0.003711437889265709 -0.018214408425443491 0 0.0033943678842556528 -0.017879034179915848 0 0.0034826290320561447 -0.018146231903205294 0 0.0033943678842556528 -0.017879034179915848 0 0.0034826290320561447 -0.018146231903205294 0 0.0031599481685043733 -0.017891798592006489 0 0.0034826290320561447 -0.018146231903205294 0 0.0034385341835092369 -0.018208335566853931 0 0.0031599481685043733 -0.017891798592006489 0 0.0040473997207713473 -0.018731559014423273 0 0.0034385341835092369 -0.018208335566853931 0 0.0030674136600278078 -0.018079001380493832 0 0.0034385341835092369 -0.018208335566853931 0 0.0030674136600278078 -0.018079001380493832 0 0.0031599481685043733 -0.017891798592006489 0 0.003822025185433332 -0.018685163493047444 0 0.0028489049541511866 -0.018543743572116241 0 -0.0033147426364688016 -0.022915781424352508 0 -0.0035269379128905071 -0.023164907358982488 0 -0.0038281935326482009 -0.023169856769584909 0 -0.0035269379128905071 -0.023164907358982488 0 -0.0038281935326482009 -0.023169856769584909 0 -0.0036208709111846564 -0.023298269008909047 0 0.00061233064875071115 -0.021004411552832482 0 -0.0012126533732724992 -0.021547164080024758 0 0.0040473997207713473 -0.018731559014423273 0 0.0019958597172421919 -0.019392521066177795 0 0.0017682698786681314 -0.019147129096990623 0 0.0040473997207713473 -0.018731559014423273 0 0.004415736253045038 -0.019129763666554053 0 0.0019958597172421919 -0.019392521066177795 0 0.0040473997207713473 -0.018731559014423273 0 0.0034826290320561447 -0.018146231903205294 0 0.0034385341835092369 -0.018208335566853931 0 -0.0012126533732724992 -0.021547164080024758 0 -0.00089228203528726388 -0.018964023193649461 0 0.0030674136600278078 -0.018079001380493832 0 0.0026874997191259197 -0.017554956408588163 0 0.0021538281024298719 -0.017529507257557097 0 0.0019958597172421919 -0.019392521066177795 0 0.0017682698786681314 -0.019147129096990623 0 -0.00069222399831555224 -0.019589257311099197 0 0.0028489049541511866 -0.018543743572116241 0 -0.00089228203528726388 -0.018964023193649461 0 -0.0038281935326482009 -0.023169856769584909 0 -0.0037766377327524059 -0.023280890219967581 0 -0.0038237871833840136 -0.023250196252538914 0 -0.0038281935326482009 -0.023169856769584909 0 -0.0038237871833840136 -0.023250196252538914 0 -0.0038244719744261919 -0.023265616934302 0 -0.0038281935326482009 -0.023169856769584909 0 -0.0038244719744261919 -0.023265616934302 0 -0.0037838312092832783 -0.02328950720504526 0 0.0030674136600278078 -0.018079001380493832 0 0.0031599481685043733 -0.017891798592006489 0 0.0026874997191259197 -0.017554956408588163 0 0.0033943678842556528 -0.017879034179915848 0 0.0031599481685043733 -0.017891798592006489 0 0.0030587323481942319 -0.017560724628435422 0 0.0031599481685043733 -0.017891798592006489 0 0.0030587323481942319 -0.017560724628435422 0 0.0026874997191259197 -0.017554956408588163 0 0.0029803471452209416 -0.017145210791456877 0 0.0033998075623525598 -0.017562876049806556 0 0.0030587323481942319 -0.017560724628435422 0 0.0029803471452209416 -0.017145210791456877 0 0.0030587323481942319 -0.017560724628435422 0 0.0025103448545819441 -0.017015892434186514 0 0.0030587323481942319 -0.017560724628435422 0 0.0026874997191259197 -0.017554956408588163 0 0.0025103448545819441 -0.017015892434186514 0 0.0018214725413007898 -0.016502932623337695 0 0.0025103448545819441 -0.017015892434186514 0 0.002168322824922879 -0.017091887506107857 0 0.0026874997191259197 -0.017554956408588163 0 0.0025103448545819441 -0.017015892434186514 0 0.002168322824922879 -0.017091887506107857 0 0.0017407911082237301 -0.016848636741746463 0 0.002168322824922879 -0.017091887506107857 0 0.0021538281024298719 -0.017529507257557097 0 0.0026874997191259197 -0.017554956408588163 0 0.002168322824922879 -0.017091887506107857 0 0.0021538281024298719 -0.017529507257557097 0 -0.003671978768156088 -0.023160152977994758 0 -0.0037766377327524059 -0.023280890219967581 0 -0.0038044986311708659 -0.023208239577985575 0 -0.0037766377327524059 -0.023280890219967581 0 -0.0038044986311708659 -0.023208239577985575 0 -0.0038237871833840136 -0.023250196252538914 0 -0.0038044986311708659 -0.023208239577985575 0 -0.0038360284639924794 -0.023273297093309549 0 -0.0038237871833840136 -0.023250196252538914 0 -0.003671978768156088 -0.023160152977994758 0 -0.0037286863747105232 -0.023029385421826701 0 -0.0038044986311708659 -0.023208239577985575 0 -0.0037286863747105232 -0.023029385421826701 0 -0.0038044986311708659 -0.023208239577985575 0 -0.0038669032080702391 -0.023309607997898673 0 -0.0045792389675143328 -0.023369736805223616 0 -0.0045739532133709142 -0.023548206332321082 0 -0.0047358724069433804 -0.023597292997922875 0 -0.0041455944485396514 -0.023196824885527649 0 -0.0041836677517065549 -0.023443579987113342 0 -0.0045739532133709142 -0.023548206332321082 0 -0.0038811343765556183 -0.02415260630337741 0 -0.0043099302014600379 -0.023992128492909721 0 -0.0045739532133709142 -0.023548206332321082 0 -0.0043099302014600379 -0.023992128492909721 0 -0.0047358724069433804 -0.023597292997922875 0 -0.0038669032080702391 -0.023309607997898673 0 -0.0038157703623577484 -0.023317363964758777 0 -0.0037514947818161385 -0.023408205396345302 0 -0.0038157703623577484 -0.023317363964758777 0 -0.0038360284639924794 -0.023273297093309549 0 -0.0038244719744261919 -0.023265616934302 0 -0.0038044986311708659 -0.023208239577985575 0 -0.0038669032080702391 -0.023309607997898673 0 -0.0038360284639924794 -0.023273297093309549 0 -0.0038669032080702391 -0.023309607997898673 0 -0.0038157703623577484 -0.023317363964758777 0 -0.0038360284639924794 -0.023273297093309549 0 -0.0038360284639924794 -0.023273297093309549 0 -0.0038237871833840136 -0.023250196252538914 0 -0.0038244719744261919 -0.023265616934302 0 -0.0038157703623577484 -0.023317363964758777 0 -0.0038244719744261919 -0.023265616934302 0 -0.0037838312092832783 -0.02328950720504526 0 -0.0036208709111846564 -0.023298269008909047 0 -0.0037514947818161385 -0.023408205396345302 0 -0.0036968785426409103 -0.023713195526249172 0 -0.0037838312092832783 -0.02328950720504526 0 -0.0036208709111846564 -0.023298269008909047 0 -0.0037514947818161385 -0.023408205396345302 0 -0.0038157703623577484 -0.023317363964758777 0 -0.0037838312092832783 -0.02328950720504526 0 -0.0037514947818161385 -0.023408205396345302 0 -0.0038281935326482009 -0.023169856769584909 0 -0.0037838312092832783 -0.02328950720504526 0 -0.0036208709111846564 -0.023298269008909047 0 -0.0038669032080702391 -0.023309607997898673 0 -0.0037514947818161385 -0.023408205396345302 0 -0.0036968785426409103 -0.023713195526249172 0 -0.0041836677517065549 -0.023443579987113342 0 -0.0037362183514509629 -0.02364038753857254 0 -0.0045739532133709142 -0.023548206332321082 0 -0.0036968785426409103 -0.023713195526249172 0 -0.0038811343765556183 -0.02415260630337741 0 -0.0036968785426409103 -0.023713195526249172 0 -0.0033881008221793257 -0.024527463089057192 0 -0.0038811343765556183 -0.02415260630337741 0 -0.0036968785426409103 -0.023713195526249172 0 -0.0033881008221793257 -0.024527463089057192 0 -0.002967708095574049 -0.02393633427313413 0 -0.0036208709111846564 -0.023298269008909047 0 -0.0036968785426409103 -0.023713195526249172 0 -0.003237652602772278 -0.023392187509637039 0 -0.0036968785426409103 -0.023713195526249172 0 -0.003237652602772278 -0.023392187509637039 0 -0.002967708095574049 -0.02393633427313413 0 -0.0035269379128905071 -0.023164907358982488 0 -0.0036208709111846564 -0.023298269008909047 0 -0.003237652602772278 -0.023392187509637039 0 -0.0033691080804952888 -0.025019506089023934 0 -0.0033881008221793257 -0.024527463089057192 0 -0.0037032384372638685 -0.024676139452855621 0 -0.0033691080804952888 -0.025019506089023934 0 -0.0037032384372638685 -0.024676139452855621 0 -0.0038163698244693648 -0.024977409844330761 0 -0.0038811343765556183 -0.02415260630337741 0 -0.0040099454946104533 -0.024431276477095198 0 -0.0037032384372638685 -0.024676139452855621 0 -0.0033881008221793257 -0.024527463089057192 0 -0.0038811343765556183 -0.02415260630337741 0 -0.0037032384372638685 -0.024676139452855621 0 -0.0038811343765556183 -0.02415260630337741 0 -0.0040099454946104533 -0.024431276477095198 0 -0.0043099302014600379 -0.023992128492909721 0 -0.0040099454946104533 -0.024431276477095198 0 -0.0037032384372638685 -0.024676139452855621 0 -0.0040773639840580161 -0.02480073885746575 0 -0.0037032384372638685 -0.024676139452855621 0 -0.0040773639840580161 -0.02480073885746575 0 -0.0038163698244693648 -0.024977409844330761 0 -0.0040773639840580161 -0.02480073885746575 0 -0.0044193722473217538 -0.02478372511295646 0 -0.0042890003920245372 -0.024987767012646794 0 -0.0040099454946104533 -0.024431276477095198 0 -0.0040773639840580161 -0.02480073885746575 0 -0.0044030229656704381 -0.024375593851483201 0 -0.0040773639840580161 -0.02480073885746575 0 -0.0044193722473217538 -0.02478372511295646 0 -0.0044030229656704381 -0.024375593851483201 0 -0.0040099454946104533 -0.024431276477095198 0 -0.0043099302014600379 -0.023992128492909721 0 -0.0044030229656704381 -0.024375593851483201 0 -0.0043099302014600379 -0.023992128492909721 0 -0.0044030229656704381 -0.024375593851483201 0 -0.0047358724069433804 -0.023597292997922875 0 -0.0047358724069433804 -0.023597292997922875 0 -0.0047574087888108338 -0.022105997069171598 0 -0.0044129078300246113 -0.02285125241430529 0 -0.0047136575697866523 -0.023519308200035175 0 -0.004694704168088178 -0.023404158376111012 0 -0.0045792389675143328 -0.023369736805223616 0 -0.0047358724069433804 -0.023597292997922875 0 -0.0044129078300246113 -0.02285125241430529 0 -0.0044030229656704381 -0.024375593851483201 0 -0.0047358724069433804 -0.023597292997922875 0 -0.0047398401345912907 -0.024787904235857489 0 -0.0044193722473217538 -0.02478372511295646 0 -0.0047398401345912907 -0.024787904235857489 0 -0.0045025972822976294 -0.024991687763614327 0 -0.0044193722473217538 -0.02478372511295646 0 -0.0044030229656704381 -0.024375593851483201 0 -0.0047398401345912907 -0.024787904235857489 0 -0.0045025972822976294 -0.024991687763614327 0 -0.0044496152213595163 -0.025041707686602611 0 -0.0043348783266835738 -0.02510717138742731 0 -0.0045025972822976294 -0.024991687763614327 0 -0.0044496152213595163 -0.025041707686602611 0 -0.0043957434530194914 -0.025066249674694157 0 -0.0044496152213595163 -0.025041707686602611 0 -0.0044696250730981895 -0.025041016601248581 0 -0.0044635826356855491 -0.024945004443743431 0 -0.0044496152213595163 -0.025041707686602611 0 -0.0043957434530194914 -0.025066249674694157 0 -0.0044696250730981895 -0.025041016601248581 0 -0.0043957434530194914 -0.025066249674694157 0 -0.0044696250730981895 -0.025041016601248581 0 -0.0043578281733533484 -0.025099942581440965 0 -0.0043957434530194914 -0.025066249674694157 0 -0.0043578281733533484 -0.025099942581440965 0 -0.0042382463979172003 -0.025082687108868539 0 -0.0043957434530194914 -0.025066249674694157 0 -0.0042890003920245372 -0.024987767012646794 0 -0.0042382463979172003 -0.025082687108868539 0 -0.0045025972822976294 -0.024991687763614327 0 -0.0043957434530194914 -0.025066249674694157 0 -0.0042890003920245372 -0.024987767012646794 0 -0.0044193722473217538 -0.02478372511295646 0 -0.0045025972822976294 -0.024991687763614327 0 -0.0042890003920245372 -0.024987767012646794 0 -0.0040773639840580161 -0.02480073885746575 0 -0.0042890003920245372 -0.024987767012646794 0 -0.004093042301556658 -0.025088138918927267 0 -0.0040773639840580161 -0.02480073885746575 0 -0.004093042301556658 -0.025088138918927267 0 -0.0038163698244693648 -0.024977409844330761 0 -0.004093042301556658 -0.025088138918927267 0 -0.0038163698244693648 -0.024977409844330761 0 -0.0039129165805199713 -0.025324439431479568 0 -0.0043871754027082028 -0.025313014335943108 0 -0.0043775430184218294 -0.026074227679662124 0 -0.0042890003920245372 -0.024987767012646794 0 -0.004093042301556658 -0.025088138918927267 0 -0.0042382463979172003 -0.025082687108868539 0 -0.004093042301556658 -0.025088138918927267 0 -0.004148960954759055 -0.025101490063703342 0 -0.0042382463979172003 -0.025082687108868539 0 -0.0043577105143072616 -0.024839384430365423 0 -0.0043775430184218294 -0.026074227679662124 0 -0.0043578281733533484 -0.025099942581440965 0 -0.004148960954759055 -0.025101490063703342 0 -0.0042382463979172003 -0.025082687108868539 0 -0.0044280970226523841 -0.024677251448421839 0 -0.0044334676135193282 -0.024876056334415 0 -0.0042027799801916165 -0.024966103816735127 0 -0.004604681136988675 -0.024876166413686465 0 -0.0044280970226523841 -0.024677251448421839 0 -0.0044334676135193282 -0.024876056334415 0 -0.0043775430184218294 -0.026074227679662124 0 -0.0043742922909884366 -0.026637713673967497 0 -0.0052586670883483797 -0.027907722117681406 0 -0.0039094301495531166 -0.027994650671944721 0 -0.0042735687963362913 -0.029281953624827137 0 -0.0041043446291251203 -0.026632086379887475 0 -0.0052586670883483797 -0.027907722117681406 0 -0.0039094301495531166 -0.027994650671944721 0 -0.0037636903645779768 -0.025914832438400807 0 -0.0043775430184218294 -0.026074227679662124 0 -0.0033691080804952888 -0.025019506089023934 0 -0.0038163698244693648 -0.024977409844330761 0 -0.0039129165805199713 -0.025324439431479568 0 -0.0030619780590820629 -0.021990785789587637 0 -0.0038981115217128384 -0.022051989269689168 0 -0.0032840590367174487 -0.021352109234624973 0 -0.0030619780590820629 -0.021990785789587637 0 -0.0032840590367174487 -0.021352109234624973 0 -0.0026699311760125127 -0.021302428926151026 0 -0.0030619780590820629 -0.021990785789587637 0 -0.0026699311760125127 -0.021302428926151026 0 -0.0024007247942240909 -0.021783850332364588 0 -0.0030619780590820629 -0.021990785789587637 0 -0.002630104738805632 -0.022267323727434243 0 -0.0024007247942240909 -0.021783850332364588 0 -0.003000115531579417 -0.022646709087805361 0 -0.0030619780590820629 -0.021990785789587637 0 -0.002630104738805632 -0.022267323727434243 0 -0.003809259153174779 -0.023028265189344446 0 -0.003000115531579417 -0.022646709087805361 0 -0.0030619780590820629 -0.021990785789587637 0 -0.003809259153174779 -0.023028265189344446 0 -0.0044129078300246113 -0.02285125241430529 0 -0.0038981115217128384 -0.022051989269689168 0 -0.003809259153174779 -0.023028265189344446 0 -0.0030619780590820629 -0.021990785789587637 0 -0.0038981115217128384 -0.022051989269689168 0 -0.0047574087888108338 -0.022105997069171598 0 -0.0044129078300246113 -0.02285125241430529 0 -0.0038981115217128384 -0.022051989269689168 0 -0.0047574087888108338 -0.022105997069171598 0 -0.0038981115217128384 -0.022051989269689168 0 -0.0043668539150532731 -0.020996561483047925 0 -0.0038981115217128384 -0.022051989269689168 0 -0.0037252872119950078 -0.020889508309885559 0 -0.0032840590367174487 -0.021352109234624973 0 -0.0038981115217128384 -0.022051989269689168 0 -0.0037252872119950078 -0.020889508309885559 0 -0.0043668539150532731 -0.020996561483047925 0 -0.0047398401345912907 -0.024787904235857489 0 -0.0045025972822976294 -0.024991687763614327 0 -0.0043348783266835738 -0.02510717138742731 0 -0.004694704168088178 -0.023404158376111012 0 -0.0043386488892024015 -0.023024871706866429 0 -0.0044496152213595163 -0.025041707686602611 0 -0.0043348783266835738 -0.02510717138742731 0 -0.0042627095248269336 -0.024864627783163777 0 -0.0043348783266835738 -0.02510717138742731 0 -0.0037538154000334662 -0.02490749363909505 0 -0.0042627095248269336 -0.024864627783163777 0 -0.0043386488892024015 -0.023024871706866429 0 -0.0038449695776758774 -0.022421308368639533 0 -0.0037252872119950078 -0.020889508309885559 0 -0.0043668539150532731 -0.020996561483047925 0 -0.0039654355913548425 -0.020016047590994068 0 -0.0037252872119950078 -0.020889508309885559 0 -0.0030872794214769099 -0.020594697494464579 0 -0.0039654355913548425 -0.020016047590994068 0 -0.0037252872119950078 -0.020889508309885559 0 -0.0032840590367174487 -0.021352109234624973 0 -0.0030872794214769099 -0.020594697494464579 0 -0.0032840590367174487 -0.021352109234624973 0 -0.0026699311760125127 -0.021302428926151026 0 -0.0030872794214769099 -0.020594697494464579 0 -0.0026699311760125127 -0.021302428926151026 0 -0.0030872794214769099 -0.020594697494464579 0 -0.0023060993375079359 -0.020710004441015836 0 -0.0030872794214769099 -0.020594697494464579 0 -0.0026710483038754865 -0.0201273156518165 0 -0.0031490224282180739 -0.019697410187800055 0 -0.0030872794214769099 -0.020594697494464579 0 -0.0026710483038754865 -0.0201273156518165 0 -0.0023060993375079359 -0.020710004441015836 0 -0.0026710483038754865 -0.0201273156518165 0 -0.0018857423350302801 -0.02019142654473954 0 -0.0023060993375079359 -0.020710004441015836 0 -0.0018857423350302801 -0.02019142654473954 0 -0.0017252033974817086 -0.020726212627493305 0 -0.0013158789977780611 -0.020471845644224183 0 -0.0018857423350302801 -0.02019142654473954 0 -0.0017252033974817086 -0.020726212627493305 0 -0.0023060993375079359 -0.020710004441015836 0 -0.0017252033974817086 -0.020726212627493305 0 -0.001957004038771248 -0.021301896154989796 0 -0.0014546780016981237 -0.021112731232506038 0 -0.0017252033974817086 -0.020726212627493305 0 -0.0023060993375079359 -0.020710004441015836 0 -0.001957004038771248 -0.021301896154989796 0 -0.0026699311760125127 -0.021302428926151026 0 -0.0023060993375079359 -0.020710004441015836 0 -0.001957004038771248 -0.021301896154989796 0 -0.0026699311760125127 -0.021302428926151026 0 -0.0024007247942240909 -0.021783850332364588 0 -0.001957004038771248 -0.021301896154989796 0 -0.0024007247942240909 -0.021783850332364588 0 -0.001957004038771248 -0.021301896154989796 0 -0.0018098388870110781 -0.021894776507048054 0 -0.001957004038771248 -0.021301896154989796 0 -0.0018098388870110781 -0.021894776507048054 0 -0.0015208121205637355 -0.021565415549083106 0 -0.001957004038771248 -0.021301896154989796 0 -0.0015208121205637355 -0.021565415549083106 0 -0.0014546780016981237 -0.021112731232506038 0 -0.0018098388870110781 -0.021894776507048054 0 -0.0021761979550586901 -0.022227937645301472 0 -0.0016494474088959248 -0.022259901103886585 0 -0.0024007247942240909 -0.021783850332364588 0 -0.0018098388870110781 -0.021894776507048054 0 -0.0021761979550586901 -0.022227937645301472 0 -0.002630104738805632 -0.022267323727434243 0 -0.0024007247942240909 -0.021783850332364588 0 -0.0021761979550586901 -0.022227937645301472 0 -0.00087578183466569144 -0.021569548671577395 0 -0.001245753539257232 -0.021970373329178169 0 -0.00078694240873559138 -0.022111935763785631 0 -0.00087578183466569144 -0.021569548671577395 0 -0.00044700597780509454 -0.021637597234157462 0 -0.00078694240873559138 -0.022111935763785631 0 -0.00087578183466569144 -0.021569548671577395 0 -0.00068546259349870479 -0.021226715295632151 0 -0.00044700597780509454 -0.021637597234157462 0 -0.0018098388870110781 -0.021894776507048054 0 -0.001245753539257232 -0.021970373329178169 0 -0.0016494474088959248 -0.022259901103886585 0 -0.0018098388870110781 -0.021894776507048054 0 -0.001245753539257232 -0.021970373329178169 0 -0.0015208121205637355 -0.021565415549083106 0 -0.001245753539257232 -0.021970373329178169 0 -0.0012157284274973217 -0.021564363292671151 0 -0.0015208121205637355 -0.021565415549083106 0 -0.00087578183466569144 -0.021569548671577395 0 -0.001245753539257232 -0.021970373329178169 0 -0.0012157284274973217 -0.021564363292671151 0 -0.0012157284274973217 -0.021564363292671151 0 -0.0014546780016981237 -0.021112731232506038 0 -0.0010264030313549138 -0.020988850328910083 0 -0.0012157284274973217 -0.021564363292671151 0 -0.0015208121205637355 -0.021565415549083106 0 -0.0014546780016981237 -0.021112731232506038 0 -0.00087578183466569144 -0.021569548671577395 0 -0.00068546259349870479 -0.021226715295632151 0 -0.0010264030313549138 -0.020988850328910083 0 -0.00087578183466569144 -0.021569548671577395 0 -0.0012157284274973217 -0.021564363292671151 0 -0.0010264030313549138 -0.020988850328910083 0 -0.00068546259349870479 -0.021226715295632151 0 -0.00076639933622448626 -0.020937958026950424 0 -0.00061466043031932873 -0.020983153614166659 0 -0.00068546259349870479 -0.021226715295632151 0 -0.00076639933622448626 -0.020937958026950424 0 -0.0010264030313549138 -0.020988850328910083 0 -0.0010264030313549138 -0.020988850328910083 0 -0.0013158789977780611 -0.020471845644224183 0 -0.00087752339279776486 -0.020353374341095035 0 -0.00076639933622448626 -0.020937958026950424 0 -0.00087752339279776486 -0.020353374341095035 0 -0.00049550654772839958 -0.020889793474299524 0 -0.00076639933622448626 -0.020937958026950424 0 -0.0010264030313549138 -0.020988850328910083 0 -0.00087752339279776486 -0.020353374341095035 0 0.00015176281747266435 -0.013778776498635877 0 0.00055489787438772699 -0.013179023416782142 0 -0.0017252033974817086 -0.020726212627493305 0 -0.0014546780016981237 -0.021112731232506038 0 -0.0013158789977780611 -0.020471845644224183 0 -0.0014546780016981237 -0.021112731232506038 0 -0.0010264030313549138 -0.020988850328910083 0 -0.0013158789977780611 -0.020471845644224183 0 -0.0013158789977780611 -0.020471845644224183 0 -0.00087752339279776486 -0.020353374341095035 0 -0.0011747124196957817 -0.019814626314164092 0 -0.0018857423350302801 -0.02019142654473954 0 -0.0013158789977780611 -0.020471845644224183 0 -0.0011747124196957817 -0.019814626314164092 0 0.00015176281747266435 -0.013778776498635877 0 0.00049798543785942737 -0.014086973466999973 0 0.0013119721345416216 -0.0072056115674939379 0 -0.00037107310572731089 -0.0070290518453312145 0 -9.9695514286994298e-05 -0.0081653576266391102 0 -0.00037107310572731089 -0.0070290518453312145 0 -0.0015207407289447531 -0.0072839783394287221 0 -9.9695514286994298e-05 -0.0081653576266391102 0 -0.00037107310572731089 -0.0070290518453312145 0 -0.00084934881479325564 -0.0062395948455564888 0 -0.0015207407289447531 -0.0072839783394287221 0 -0.00037107310572731089 -0.0070290518453312145 0 -0.00084934881479325564 -0.0062395948455564888 0 0.000394482370736438 -0.0059819651888037432 0 0.0013119721345416216 -0.0072056115674939379 0 -0.00037107310572731089 -0.0070290518453312145 0 0.000394482370736438 -0.0059819651888037432 0 -0.00076639933622448626 -0.020937958026950424 0 -0.00049550654772839958 -0.020889793474299524 0 -0.00061466043031932873 -0.020983153614166659 0 -0.0038540824974321766 -0.0063158421202723141 0 -0.0030095974734589128 -0.0073688889974233536 0 -0.0025410538671094235 -0.00649951811248182 0 -0.0030095974734589128 -0.0073688889974233536 0 -0.0015207407289447531 -0.0072839783394287221 0 -0.0025410538671094235 -0.00649951811248182 0 -0.00084934881479325564 -0.0062395948455564888 0 -0.0015207407289447531 -0.0072839783394287221 0 -0.0018685614008889448 -0.0058123238324146141 0 -0.0015207407289447531 -0.0072839783394287221 0 -0.0018685614008889448 -0.0058123238324146141 0 -0.0025410538671094235 -0.00649951811248182 0 -0.0031842092443155772 -0.0055636541982580319 0 -0.0018685614008889448 -0.0058123238324146141 0 -0.0025410538671094235 -0.00649951811248182 0 -0.0031842092443155772 -0.0055636541982580319 0 -0.0030535851044169475 -0.004634611843847892 0 -0.0025118553946030073 -0.0050804797122829242 0 -0.0031842092443155772 -0.0055636541982580319 0 -0.0018685614008889448 -0.0058123238324146141 0 -0.0025118553946030073 -0.0050804797122829242 0 -0.0018685614008889448 -0.0058123238324146141 0 -0.0025118553946030073 -0.0050804797122829242 0 -0.0019008450124898008 -0.0043285920589504357 0 -0.0018685614008889448 -0.0058123238324146141 0 -0.0019008450124898008 -0.0043285920589504357 0 -0.00081703677740641121 -0.0050631014431087419 0 -0.0013037217392091948 -0.0076509477517452181 0 -0.0001933119121934738 -0.0075463043816752394 0 -0.00078535064643333815 -0.009797292219751997 0 0.00085500104292565628 -0.010279982713879535 0 -0.00061355507278734072 -0.0083617396190819766 0 0.00091880884105423723 -0.017144630896228388 0 -0.0010394860932322109 -0.011809667002295261 0 -0.0013037217392091948 -0.0076509477517452181 0 -4.2908096759902984e-05 -0.00015782772737272697 0 -0.0030535851044169475 -0.004634611843847892 0 -0.0019008450124898008 -0.0043285920589504357 0 -0.0028344841028940539 -0.0036906479686754268 0 -0.0030535851044169475 -0.004634611843847892 0 -0.0025118553946030073 -0.0050804797122829242 0 -0.0019008450124898008 -0.0043285920589504357 0 0.00055489787438772699 -0.013179023416782142 0 0.00091880884105423723 -0.017144630896228388 0 -0.00068546259349870479 -0.021226715295632151 0 -0.00049550654772839958 -0.020889793474299524 0 -0.00044700597780509454 -0.021637597234157462 0 0.00055489787438772699 -0.013179023416782142 0 -0.0001933119121934738 -0.0075463043816752394 0 -0.00049550654772839958 -0.020889793474299524 0 -1.3070391069230796e-05 -0.021548561923251365 0 -0.00044700597780509454 -0.021637597234157462 0 -0.00068546259349870479 -0.021226715295632151 0 -0.00049550654772839958 -0.020889793474299524 0 -0.00061466043031932873 -0.020983153614166659 0 0.002272761503125499 -0.012139801728532773 0 0.00076634475461198604 -0.010983963811927145 0 0.00085500104292565628 -0.010279982713879535 0 -0.00084934881479325564 -0.0062395948455564888 0 -0.0018685614008889448 -0.0058123238324146141 0 -0.00081703677740641121 -0.0050631014431087419 0 -0.00084934881479325564 -0.0062395948455564888 0 0.000394482370736438 -0.0059819651888037432 0 -0.00081703677740641121 -0.0050631014431087419 0 -0.00078535064643333815 -0.009797292219751997 0 0.00076634475461198604 -0.010983963811927145 0 0.00085500104292565628 -0.010279982713879535 0 -1.3070391069230796e-05 -0.021548561923251365 0 -0.00044700597780509454 -0.021637597234157462 0 -0.00033831652307151825 -0.022280662238582837 0 -0.00044700597780509454 -0.021637597234157462 0 -0.00033831652307151825 -0.022280662238582837 0 -0.00078694240873559138 -0.022111935763785631 0 -0.0016333867471787944 -0.019610791657007114 0 -0.0010394860932322109 -0.011809667002295261 0 -1.3070391069230796e-05 -0.021548561923251365 0 -0.00033831652307151825 -0.022280662238582837 0 0.00037938778526838788 -0.022013759831573911 0 -0.0023160157750983469 -0.014999445809174354 0 -0.004142536706827263 -0.015279621455221373 0 -0.0038135980676996767 -0.013924005410779565 0 -0.0017877918362059467 -0.014072680742871687 0 -0.0037148613492132771 -0.013953429935220656 0 -0.0023160157750983469 -0.014999445809174354 0 -0.0021562111024544233 -0.014265317070992973 0 -0.0038135980676996767 -0.013924005410779565 0 -0.0023160157750983469 -0.014999445809174354 0 -0.0021562111024544233 -0.014265317070992973 0 -0.0012731215497790911 -0.014881752791291487 0 -0.00078535064643333815 -0.009797292219751997 0 -0.0023371380511002177 -0.0085772757872819069 0 -0.00061355507278734072 -0.0083617396190819766 0 0.00075463737108339595 -0.00061024351839112203 0 0.00195293819767442 -0.00049697262975533017 0 0.0011807975278177874 0.00057261874133608052 0 -4.2908096759902984e-05 -0.00015782772737272697 0 -0.0010394860932322109 -0.011809667002295261 0 -0.0010394860932322109 -0.011809667002295261 0 -0.0023820603114394884 -0.0061277937292833406 0 -0.004142536706827263 -0.015279621455221373 0 -0.0038135980676996767 -0.013924005410779565 0 -0.0052640662947240208 -0.014099644557516361 0 -0.0028504948589065096 -0.0060544077518735221 0 -0.0023820603114394884 -0.0061277937292833406 0 -0.0065519906875225204 -0.01256028291973799 0 -0.0052640662947240208 -0.014099644557516361 0 -0.0049380224027592949 -0.012377250836061306 0 -0.0038135980676996767 -0.013924005410779565 0 -0.0049380224027592949 -0.012377250836061306 0 -0.0035492287016784876 -0.011982135302408544 0 -0.0038135980676996767 -0.013924005410779565 0 -0.0052640662947240208 -0.014099644557516361 0 -0.0049380224027592949 -0.012377250836061306 0 -0.0049380224027592949 -0.012377250836061306 0 -0.0035492287016784876 -0.011982135302408544 0 -0.0044579801006362305 -0.010642892576143785 0 -0.0030170611347384306 -0.010333163997436013 0 -0.0035492287016784876 -0.011982135302408544 0 -0.0044579801006362305 -0.010642892576143785 0 -0.0065519906875225204 -0.01256028291973799 0 -0.0049380224027592949 -0.012377250836061306 0 -0.0060289417346397591 -0.01086594403501101 0 -0.0049380224027592949 -0.012377250836061306 0 -0.0044579801006362305 -0.010642892576143785 0 -0.0060289417346397591 -0.01086594403501101 0 -0.0016432192846992061 -0.012890398766750888 0 -0.0024368758942779852 -0.012874453868068889 0 -0.001971363658202841 -0.011747594491588664 0 -0.0016432192846992061 -0.012890398766750888 0 -0.0011869097423902553 -0.012188786210390845 0 -0.00083917232197873307 -0.013928466833012956 0 -0.0013057931416181137 -0.013838406854479093 0 -0.0016432192846992061 -0.012890398766750888 0 -0.00083917232197873307 -0.013928466833012956 0 -0.0013057931416181137 -0.013838406854479093 0 -0.0016432192846992061 -0.012890398766750888 0 -0.0024368758942779852 -0.012874453868068889 0 -0.0038135980676996767 -0.013924005410779565 0 -0.0035492287016784876 -0.011982135302408544 0 -0.0024368758942779852 -0.012874453868068889 0 -0.0013057931416181137 -0.013838406854479093 0 -0.0038135980676996767 -0.013924005410779565 0 -0.0024368758942779852 -0.012874453868068889 0 -0.0035492287016784876 -0.011982135302408544 0 -0.0024368758942779852 -0.012874453868068889 0 -0.001971363658202841 -0.011747594491588664 0 -0.0030170611347384306 -0.010333163997436013 0 -0.0035492287016784876 -0.011982135302408544 0 -0.001971363658202841 -0.011747594491588664 0 -0.0018702383634724695 -0.010451194491582338 0 -0.0030170611347384306 -0.010333163997436013 0 -0.001971363658202841 -0.011747594491588664 0 -0.0018702383634724695 -0.010451194491582338 0 -0.001971363658202841 -0.011747594491588664 0 -0.0011597542028242295 -0.011232846852996763 0 -0.0016432192846992061 -0.012890398766750888 0 -0.001971363658202841 -0.011747594491588664 0 -0.0011869097423902553 -0.012188786210390845 0 -0.001971363658202841 -0.011747594491588664 0 -0.0011869097423902553 -0.012188786210390845 0 -0.0011597542028242295 -0.011232846852996763 0 -0.00085537985583501025 -0.014576180040712355 0 -0.00083504918157864777 -0.014394947575456094 0 -0.00083917232197873307 -0.013928466833012956 0 -0.00055972873469209493 -0.010799808241793494 0 -0.0011597542028242295 -0.011232846852996763 0 -0.00028099542958616317 -0.011076462348846851 0 -0.00063283317027220049 -0.012852330309593325 0 -0.00079817130830476862 -0.013857672137697702 0 -0.0011869097423902553 -0.012188786210390845 0 -0.0011597542028242295 -0.011232846852996763 0 -0.00028099542958616317 -0.011076462348846851 0 -0.0011869097423902553 -0.012188786210390845 0 -0.00028099542958616317 -0.011076462348846851 0 -0.00083917232197873307 -0.013928466833012956 0 -0.00085537985583501025 -0.014576180040712355 0 -0.00083504918157864777 -0.014394947575456094 0 -0.00083849718931423031 -0.014556848017565131 0 -0.00094307906700873741 -0.014420693182468008 0 -0.00085537985583501025 -0.014576180040712355 0 -0.00083849718931423031 -0.014556848017565131 0 -0.0013057931416181137 -0.013838406854479093 0 -0.00083917232197873307 -0.013928466833012956 0 -0.00061038201700234975 -0.014438256761243405 0 -0.00083504918157864777 -0.014394947575456094 0 -0.00077217569673175405 -0.014319614963691366 0 -0.00083917232197873307 -0.013928466833012956 0 -0.00077217569673175405 -0.014319614963691366 0 -0.00083917232197873307 -0.013928466833012956 0 -0.00061038201700234975 -0.014438256761243405 0 -0.00069701293229121894 -0.014533774478955827 0 -0.00059530568050343102 -0.014808091320805425 0 -0.00061038201700234975 -0.014438256761243405 0 -0.00077217569673175405 -0.014319614963691366 0 -0.00069701293229121894 -0.014533774478955827 0 -0.00061038201700234975 -0.014438256761243405 0 -0.00077217569673175405 -0.014319614963691366 0 -0.00069701293229121894 -0.014533774478955827 0 -0.00078775504106087205 -0.014480308858970312 0 -0.00069701293229121894 -0.014533774478955827 0 -0.00078775504106087205 -0.014480308858970312 0 -0.00071213961292195492 -0.014626271954763098 0 -0.00083504918157864777 -0.014394947575456094 0 -0.00077217569673175405 -0.014319614963691366 0 -0.00078775504106087205 -0.014480308858970312 0 -0.00069701293229121894 -0.014533774478955827 0 -0.00071213961292195492 -0.014626271954763098 0 -0.00059530568050343102 -0.014808091320805425 0 -0.00071213961292195492 -0.014626271954763098 0 -0.00083849718931423031 -0.014556848017565131 0 -0.00068226755842469621 -0.014669219481515424 0 -0.00083504918157864777 -0.014394947575456094 0 -0.00078775504106087205 -0.014480308858970312 0 -0.00083849718931423031 -0.014556848017565131 0 -0.00078775504106087205 -0.014480308858970312 0 -0.00071213961292195492 -0.014626271954763098 0 -0.00083849718931423031 -0.014556848017565131 0 -0.00066700905927785019 -0.014539644099653233 0 -0.00083849718931423031 -0.014556848017565131 0 -0.00068226755842469621 -0.014669219481515424 0 -0.00066700905927785019 -0.014539644099653233 0 -0.00051590994938651227 -0.014755222041160471 0 -0.00068226755842469621 -0.014669219481515424 0 -0.00043621091586202888 -0.014542980141124406 0 -0.00066700905927785019 -0.014539644099653233 0 -0.00051590994938651227 -0.014755222041160471 0 -0.00051590994938651227 -0.014755222041160471 0 -0.00045915550841973984 -0.014961379751670389 0 -0.0005952037976726213 -0.01481845023749938 0 -0.00071213961292195492 -0.014626271954763098 0 -0.0005952037976726213 -0.01481845023749938 0 -0.00068226755842469621 -0.014669219481515424 0 -0.00051590994938651227 -0.014755222041160471 0 -0.0005952037976726213 -0.01481845023749938 0 -0.00068226755842469621 -0.014669219481515424 0 -0.00043621091586202888 -0.014542980141124406 0 -0.00051590994938651227 -0.014755222041160471 0 -0.00021206887064985372 -0.014963593274048373 0 -0.00051590994938651227 -0.014755222041160471 0 -0.00045915550841973984 -0.014961379751670389 0 -0.00021206887064985372 -0.014963593274048373 0 -0.00045915550841973984 -0.014961379751670389 0 -0.00021206887064985372 -0.014963593274048373 0 -0.0003567003260479194 -0.015176299418620642 0 -0.00034415547482185654 -0.015628052167889084 0 -0.000641768476774903 -0.015065986507437833 0 0.00033319813035349838 -0.015980391750223744 0 -9.9306789827161235e-05 -0.015398085234107083 0 -0.00048999625820389417 -0.015235131468621672 0 -0.00021206887064985372 -0.014963593274048373 0 -9.9306789827161235e-05 -0.015398085234107083 0 -0.0003567003260479194 -0.015176299418620642 0 -0.0003567003260479194 -0.015176299418620642 0 -0.00048999625820389417 -0.015235131468621672 0 -0.00051962529750959206 -0.015005758819303305 0 -9.9306789827161235e-05 -0.015398085234107083 0 -0.0003567003260479194 -0.015176299418620642 0 -0.00048999625820389417 -0.015235131468621672 0 -0.00048999625820389417 -0.015235131468621672 0 -0.00059530568050343102 -0.014808091320805425 0 -0.00061038201700234975 -0.014438256761243405 0 -0.000641768476774903 -0.015065986507437833 0 -0.00090043241094918218 -0.014525261376138646 0 -0.00071213961292195492 -0.014626271954763098 0 -0.0005952037976726213 -0.01481845023749938 0 -0.00059530568050343102 -0.014808091320805425 0 -0.0005952037976726213 -0.01481845023749938 0 -0.00051962529750959206 -0.015005758819303305 0 -0.00059530568050343102 -0.014808091320805425 0 -0.00045915550841973984 -0.014961379751670389 0 -0.0005952037976726213 -0.01481845023749938 0 -0.00051962529750959206 -0.015005758819303305 0 -0.00045915550841973984 -0.014961379751670389 0 -0.0003567003260479194 -0.015176299418620642 0 -0.00051962529750959206 -0.015005758819303305 0 -0.00048999625820389417 -0.015235131468621672 0 -0.00051962529750959206 -0.015005758819303305 0 -0.00059530568050343102 -0.014808091320805425 0 -0.0020079002862044538 -0.022926341988211422 0 -0.001662777527515229 -0.022572777123888093 0 -0.0011368403922329769 -0.022596969524495376 0 -0.00088055194661279838 -0.014917576377745715 0 -0.00088755228359536096 -0.0149434355947747 0 -0.0012153965544606047 -0.014607818810978085 0 -0.0028524503877744934 -0.02315408420228068 0 -0.0020079002862044538 -0.022926341988211422 0 -0.0025235639034614146 -0.022871536422744938 0 -0.0020079002862044538 -0.022926341988211422 0 -0.0025235639034614146 -0.022871536422744938 0 -0.0022766478243702423 -0.022736863684827441 0 -0.0017850862176035753 -0.019125022747264891 0 -0.0014905410435716417 -0.018958795363621751 0 -0.0009191467024469445 -0.015147054887578816 0 -0.00088055194661279838 -0.014917576377745715 0 -0.00088755228359536096 -0.0149434355947747 0 -0.0020079002862044538 -0.022926341988211422 0 -0.0022766478243702423 -0.022736863684827441 0 -0.0020279452894519231 -0.022518784371214361 0 -0.0021761979550586901 -0.022227937645301472 0 -0.0025347293318841988 -0.022637645013517393 0 -0.0020279452894519231 -0.022518784371214361 0 -0.0025347293318841988 -0.022637645013517393 0 -0.0022766478243702423 -0.022736863684827441 0 -0.0020279452894519231 -0.022518784371214361 0 -0.0025235639034614146 -0.022871536422744938 0 -0.0025347293318841988 -0.022637645013517393 0 -0.0022766478243702423 -0.022736863684827441 0 -0.002630104738805632 -0.022267323727434243 0 -0.0021761979550586901 -0.022227937645301472 0 -0.0025347293318841988 -0.022637645013517393 0 -0.0021761979550586901 -0.022227937645301472 0 -0.0020279452894519231 -0.022518784371214361 0 -0.0016494474088959248 -0.022259901103886585 0 -0.001662777527515229 -0.022572777123888093 0 -0.0020279452894519231 -0.022518784371214361 0 -0.0016494474088959248 -0.022259901103886585 0 -0.0020079002862044538 -0.022926341988211422 0 -0.001662777527515229 -0.022572777123888093 0 -0.0020279452894519231 -0.022518784371214361 0 -0.001662777527515229 -0.022572777123888093 0 -0.0013562016833187777 -0.02233337815848636 0 -0.0011368403922329769 -0.022596969524495376 0 -0.001245753539257232 -0.021970373329178169 0 -0.0016494474088959248 -0.022259901103886585 0 -0.0013562016833187777 -0.02233337815848636 0 -0.001662777527515229 -0.022572777123888093 0 -0.0016494474088959248 -0.022259901103886585 0 -0.0013562016833187777 -0.02233337815848636 0 -0.0013562016833187777 -0.02233337815848636 0 -0.0011304738538173401 -0.022254049010525748 0 -0.0011368403922329769 -0.022596969524495376 0 -0.001245753539257232 -0.021970373329178169 0 -0.0013562016833187777 -0.02233337815848636 0 -0.0011304738538173401 -0.022254049010525748 0 -0.001245753539257232 -0.021970373329178169 0 -0.0011304738538173401 -0.022254049010525748 0 -0.00078694240873559138 -0.022111935763785631 0 -0.00033831652307151825 -0.022280662238582837 0 -0.00078694240873559138 -0.022111935763785631 0 -0.0011368403922329769 -0.022596969524495376 0 -0.0011304738538173401 -0.022254049010525748 0 -0.00078694240873559138 -0.022111935763785631 0 -0.0011368403922329769 -0.022596969524495376 0 -0.0016333867471787944 -0.019610791657007114 0 -0.0011303615213353998 -0.01860384160121235 0 -0.0017877918362059467 -0.014072680742871687 0 -0.00090043241094918218 -0.014525261376138646 0 -0.0021562111024544233 -0.014265317070992973 0 -0.0012153965544606047 -0.014607818810978085 0 -0.0012731215497790911 -0.014881752791291487 0 -0.00088755228359536096 -0.0149434355947747 0 -0.0012153965544606047 -0.014607818810978085 0 -0.0012731215497790911 -0.014881752791291487 0 -0.0014905410435716417 -0.018958795363621751 0 -0.0011303615213353998 -0.01860384160121235 0 -0.00052277865162698544 -0.044634088923995223 0 -0.0020665630401752251 -0.043477907872923098 0 -0.00075323275038132907 -0.042686485200456273 0 4.0295235716831854e-07 -0.044994676965667384 0 -0.00052277865162698544 -0.044634088923995223 0 -0.00075323275038132907 -0.042686485200456273 0 4.0295235716831854e-07 -0.044994676965667384 0 -0.00052277865162698544 -0.044634088923995223 0 -4.0252462076844852e-07 -0.045001314789914766 0 -0.0022113076555140597 -0.043443223301987077 0 -0.0010165481277130835 -0.044293204864220823 0 -0.00052277865162698544 -0.044634088923995223 0 -0.0020665630401752251 -0.043477907872923098 0 -0.00064125470670514304 -0.045256440579678862 0 -0.0029364598367584141 -0.042933259296237744 0 -0.0020665630401752251 -0.043477907872923098 0 -0.0027418829547641568 -0.043271469893217625 0 -0.0020665630401752251 -0.043477907872923098 0 -0.0027418829547641568 -0.043271469893217625 0 -0.0024619159250950954 -0.043369443586434034 0 -0.0029364598367584141 -0.042933259296237744 0 -0.0033782572846711213 -0.043006637714264787 0 -0.0027418829547641568 -0.043271469893217625 0 -0.0029364598367584141 -0.042933259296237744 0 -0.0027874502043550103 -0.042461381228972125 0 -0.0036800504745947401 -0.042330296136168205 0 -0.0029364598367584141 -0.042933259296237744 0 -0.0027874502043550103 -0.042461381228972125 0 -0.0020665630401752251 -0.043477907872923098 0 -0.0027874502043550103 -0.042461381228972125 0 -0.0020665630401752251 -0.043477907872923098 0 -0.0020091047105744008 -0.042314011108816857 0 -0.0027874502043550103 -0.042461381228972125 0 -0.0031916513229691469 -0.041153680803960063 0 -0.0036800504745947401 -0.042330296136168205 0 -0.0027874502043550103 -0.042461381228972125 0 -0.0020091047105744008 -0.042314011108816857 0 -0.0031916513229691469 -0.041153680803960063 0 7.6016859667139733e-05 -0.041345226107187903 0 0.0001425659675849989 -0.042596051937485148 0 0.00011375581522966006 -0.041510086403786471 0 -0.0015688515112713144 -0.041097109850747278 0 -0.00047651822337303827 -0.043058846925128236 0 7.6016859667139733e-05 -0.041345226107187903 0 0.0001425659675849989 -0.042596051937485148 0 0.00013433439603284425 -0.04265863805235539 0 -0.0020091047105744008 -0.042314011108816857 0 -0.0031916513229691469 -0.041153680803960063 0 -0.0016867872622794034 -0.041264306081531234 0 -0.00031231033972282018 -0.043015496389417235 0 -0.00047651822337303827 -0.043058846925128236 0 0.00012706120152089652 -0.042821760983196511 0 3.1024681956040856e-08 -0.04499755886816497 0 9.0963161555350914e-05 -0.04351222371825323 0 -0.00047651822337303827 -0.043058846925128236 0 -0.00048860484351856024 -0.043823698952307352 0 -3.7377803771696178e-05 -0.044961959635743495 0 -1.5179543844950976e-05 -0.044996761077545952 0 -1.1471519822151216e-05 -0.044990597062161596 0 0.0001425659675849989 -0.042596051937485148 0 0.00012706120152089652 -0.042821760983196511 0 9.0963161555350914e-05 -0.04351222371825323 0 -0.0020665630401752251 -0.043477907872923098 0 -0.0020091047105744008 -0.042314011108816857 0 -0.00075323275038132907 -0.042686485200456273 0 -0.0020091047105744008 -0.042314011108816857 0 -0.0016867872622794034 -0.041264306081531234 0 -0.00075323275038132907 -0.042686485200456273 0 -8.9968905509583388e-08 -0.044999537824017152 0 -0.00048860484351856024 -0.043823698952307352 0 3.5315747448585252e-09 -0.045000006179905704 0 -1.5179543844950976e-05 -0.044996761077545952 0 -1.2652263697366149e-08 -0.04499999775449242 0 -1.5179543844950976e-05 -0.044996761077545952 0 -1.2652263697366149e-08 -0.04499999775449242 0 -1.1471519822151216e-05 -0.044990597062161596 0 -1.2652263697366149e-08 -0.04499999775449242 0 2.2802050735222373e-09 -0.044999953004689799 0 -1.1471519822151216e-05 -0.044990597062161596 0 -0.00047651822337303827 -0.043058846925128236 0 1.338992550666723e-06 -0.04500006396536417 0 -3.7377803771696178e-05 -0.044961959635743495 0 2.2802050735222373e-09 -0.044999953004689799 0 -1.1471519822151216e-05 -0.044990597062161596 0 3.1024681956040856e-08 -0.04499755886816497 0 9.0963161555350914e-05 -0.04351222371825323 0 6.1582865974461685e-08 -0.044998553062482967 0 5.6479001767368614e-07 -0.04499824108863551 0 7.7656807298336446e-05 -0.040365195917239804 0 -4.9974561796706815e-07 -0.036036184415845732 0 0.0001425659675849989 -0.042596051937485148 0 9.0963161555350914e-05 -0.04351222371825323 0 0.00015681969569482143 -0.042403845637007644 0 9.0963161555350914e-05 -0.04351222371825323 0 0.00014047733659646507 -0.043117253967636736 0 0.00015681969569482143 -0.042403845637007644 0 9.0963161555350914e-05 -0.04351222371825323 0 0.00014047733659646507 -0.043117253967636736 0 6.1582865974461685e-08 -0.044998553062482967 0 0.00012139964163750602 -0.043013564455348763 0 6.7725458356271785e-08 -0.044999282232053732 0 0.0001068417460098276 -0.04299351199022463 0 -1.619688595844502e-07 -0.044996266837917812 0 5.6479001767368614e-07 -0.04499824108863551 0 0.0001068417460098276 -0.04299351199022463 0 5.6479001767368614e-07 -0.04499824108863551 0 7.7656807298336446e-05 -0.040365195917239804 0 0.0001068417460098276 -0.04299351199022463 0 7.7656807298336446e-05 -0.040365195917239804 0 9.7372521330794996e-05 -0.04110946509687409 0 9.7372521330794996e-05 -0.04110946509687409 0 0.00011375581522966006 -0.041510086403786471 0 -7.2386259246349087e-05 -0.040398020705762004 0 7.7656807298336446e-05 -0.040365195917239804 0 9.7372521330794996e-05 -0.04110946509687409 0 -7.2386259246349087e-05 -0.040398020705762004 0 0.00014047733659646507 -0.043117253967636736 0 9.7372521330794996e-05 -0.04110946509687409 0 0.00015681969569482143 -0.042403845637007644 0 0.00012139964163750602 -0.043013564455348763 0 8.5662187832273113e-05 -0.041463200660881105 0 0.0001425659675849989 -0.042596051937485148 0 0.00015681969569482143 -0.042403845637007644 0 0.00011375581522966006 -0.041510086403786471 0 7.6016859667139733e-05 -0.041345226107187903 0 0.00011375581522966006 -0.041510086403786471 0 -0.00023141002245021306 -0.040424005503005886 0 9.7372521330794996e-05 -0.04110946509687409 0 0.00015681969569482143 -0.042403845637007644 0 0.00011375581522966006 -0.041510086403786471 0 0.00011375581522966006 -0.041510086403786471 0 -0.00023141002245021306 -0.040424005503005886 0 -7.2386259246349087e-05 -0.040398020705762004 0 -0.00023141002245021306 -0.040424005503005886 0 -0.00033749456220284686 -0.039875645629384379 0 -7.2386259246349087e-05 -0.040398020705762004 0 -0.00023141002245021306 -0.040424005503005886 0 -0.00033749456220284686 -0.039875645629384379 0 -0.0010036862994216482 -0.039422919922496684 0 -0.00023141002245021306 -0.040424005503005886 0 -0.0010036862994216482 -0.039422919922496684 0 -0.00068650614904522303 -0.040409616857135455 0 -0.00025466408155671791 -0.039319970634772092 0 -0.00025235474236655179 -0.038466359404434505 0 -0.0019424902156452242 -0.038416235986835016 0 -0.00033749456220284686 -0.039875645629384379 0 -0.00025466408155671791 -0.039319970634772092 0 -0.0010036862994216482 -0.039422919922496684 0 7.7656807298336446e-05 -0.040365195917239804 0 -0.00025466408155671791 -0.039319970634772092 0 -7.2386259246349087e-05 -0.040398020705762004 0 -0.00033749456220284686 -0.039875645629384379 0 -0.00025466408155671791 -0.039319970634772092 0 -7.2386259246349087e-05 -0.040398020705762004 0 7.7656807298336446e-05 -0.040365195917239804 0 -0.00025466408155671791 -0.039319970634772092 0 -0.00025235474236655179 -0.038466359404434505 0 7.7656807298336446e-05 -0.040365195917239804 0 -0.00025235474236655179 -0.038466359404434505 0 -4.9974561796706815e-07 -0.036036184415845732 0 -0.00025235474236655179 -0.038466359404434505 0 -4.9974561796706815e-07 -0.036036184415845732 0 -7.6499992958922131e-05 -0.035921103328935867 0 -0.00017888996152220306 -0.038135202175340825 0 -0.00084497673771564811 -0.036877911518977666 0 -0.00025235474236655179 -0.038466359404434505 0 -0.0018180881439023443 -0.03771787027518738 0 -0.0019424902156452242 -0.038416235986835016 0 -4.9974561796706815e-07 -0.036036184415845732 0 -7.6499992958922131e-05 -0.035921103328935867 0 -6.6608945851598375e-05 -0.033618680951820759 0 -0.00084497673771564811 -0.036877911518977666 0 -0.0015553405400987445 -0.035370460946820309 0 -0.0018180881439023443 -0.03771787027518738 0 -0.0019424902156452242 -0.038416235986835016 0 -0.0032336554036733857 -0.03709234583219493 0 -0.001650630451082358 -0.037989063666090672 0 -0.0023231202472147822 -0.037967420341404462 0 -0.0030933350473224684 -0.036812217134605293 0 -0.001650630451082358 -0.037989063666090672 0 -0.0023231202472147822 -0.037967420341404462 0 -0.0017048058577671772 -0.038691180649708883 0 -0.001798117603005822 -0.038235806953836743 0 -0.003358104430721911 -0.037226812709216683 0 -0.00034573057135086932 -0.039142076571370844 0 -0.001798117603005822 -0.038235806953836743 0 -0.00025466408155671791 -0.039319970634772092 0 -0.001650630451082358 -0.037989063666090672 0 -0.0010036862994216482 -0.039422919922496684 0 -0.001650630451082358 -0.037989063666090672 0 -0.0010036862994216482 -0.039422919922496684 0 -0.0017048058577671772 -0.038691180649708883 0 -0.0010036862994216482 -0.039422919922496684 0 -0.0017048058577671772 -0.038691180649708883 0 -0.0014912980798898819 -0.03935533768085249 0 -0.0023231202472147822 -0.037967420341404462 0 -0.0017048058577671772 -0.038691180649708883 0 -0.0022158768802460972 -0.038612267963165497 0 -0.0017048058577671772 -0.038691180649708883 0 -0.0022158768802460972 -0.038612267963165497 0 -0.0014912980798898819 -0.03935533768085249 0 -0.0022158768802460972 -0.038612267963165497 0 -0.0019479820024141013 -0.039581345770666652 0 -0.0014912980798898819 -0.03935533768085249 0 -0.0022158768802460972 -0.038612267963165497 0 -0.0019479820024141013 -0.039581345770666652 0 -0.0028127464244061006 -0.038465810368819957 0 -0.00575661966797761 -0.040521622205094872 0 -0.0058903678252210752 -0.041421911264536808 0 -0.006858901325465897 -0.040330406934526941 0 -0.00575661966797761 -0.040521622205094872 0 -0.0045066961831297077 -0.04077706721545804 0 -0.005059242943715985 -0.041436876682963725 0 -0.0010036862994216482 -0.039422919922496684 0 -0.0014912980798898819 -0.03935533768085249 0 -0.00068650614904522303 -0.040409616857135455 0 -0.0037031642846320129 -0.039936547902154187 0 -0.0025999100700473958 -0.040634114629663591 0 -0.0019479820024141013 -0.039581345770666652 0 -0.0014912980798898819 -0.03935533768085249 0 -0.00068650614904522303 -0.040409616857135455 0 -0.0031916513229691469 -0.041153680803960063 0 -0.0045066961831297077 -0.04077706721545804 0 -0.0036800504745947401 -0.042330296136168205 0 7.6016859667139733e-05 -0.041345226107187903 0 -0.00023141002245021306 -0.040424005503005886 0 -0.00068650614904522303 -0.040409616857135455 0 -0.0015688515112713144 -0.041097109850747278 0 -0.0025999100700473958 -0.040634114629663591 0 -0.0045066961831297077 -0.04077706721545804 0 -0.0036800504745947401 -0.042330296136168205 0 -0.005059242943715985 -0.041436876682963725 0 -0.0036800504745947401 -0.042330296136168205 0 -0.0047747305229501411 -0.042181801941487872 0 -0.005059242943715985 -0.041436876682963725 0 -0.0036800504745947401 -0.042330296136168205 0 -0.0039687764266724389 -0.04266444843751039 0 -0.0033782572846711213 -0.043006637714264787 0 -0.0029364598367584141 -0.042933259296237744 0 -0.0036800504745947401 -0.042330296136168205 0 -0.0033782572846711213 -0.043006637714264787 0 -0.0038439181347942877 -0.042375882577129917 0 -0.0040340743150489057 -0.042121367283450381 0 -0.0047747305229501411 -0.042181801941487872 0 -0.0058903678252210752 -0.041421911264536808 0 -0.0056188482083789366 -0.042200233720781404 0 -0.0058903678252210752 -0.041421911264536808 0 -0.0062736531741535333 -0.041860592333617899 0 -0.0056188482083789366 -0.042200233720781404 0 -0.00575661966797761 -0.040521622205094872 0 -0.0058903678252210752 -0.041421911264536808 0 -0.005059242943715985 -0.041436876682963725 0 -0.0047747305229501411 -0.042181801941487872 0 -0.0058903678252210752 -0.041421911264536808 0 -0.005059242943715985 -0.041436876682963725 0 -0.0067437636499446535 -0.041169559701371844 0 -0.0073526806809965381 -0.040855002942382 0 -0.006858901325465897 -0.040330406934526941 0 -0.0058903678252210752 -0.041421911264536808 0 -0.0067437636499446535 -0.041169559701371844 0 -0.006858901325465897 -0.040330406934526941 0 -0.0058903678252210752 -0.041421911264536808 0 -0.0067437636499446535 -0.041169559701371844 0 -0.0062736531741535333 -0.041860592333617899 0 -0.0067437636499446535 -0.041169559701371844 0 -0.0069353084508289734 -0.041589674852636357 0 -0.0062736531741535333 -0.041860592333617899 0 -0.0019204365755644281 -0.030959521677497916 0 -0.0015629398207606905 -0.031687264517073988 0 -0.0067437636499446535 -0.041169559701371844 0 -0.0073526806809965381 -0.040855002942382 0 -0.0069353084508289734 -0.041589674852636357 0 0.0031356673019418469 -0.021714051790010378 0 0.0031821144817660457 -0.021774574510572884 0 0.0036944910765605386 -0.021956080112034801 0 0.0031356673019418469 -0.021714051790010378 0 0.0032379137543030166 -0.02135829641353916 0 0.0031821144817660457 -0.021774574510572884 0 0.0032379137543030166 -0.02135829641353916 0 0.0032796016378422326 -0.02167260186253446 0 0.0031821144817660457 -0.021774574510572884 0 0.0032796016378422326 -0.02167260186253446 0 0.0031821144817660457 -0.021774574510572884 0 0.0031192297161515971 -0.021939264990215895 0 -0.0019204365755644281 -0.030959521677497916 0 -0.0041785664665674417 -0.033829279276424061 0 -0.0041785664665674417 -0.033829279276424061 0 -0.0055479841019560085 -0.04034007681367556 0 -0.0073526806809965381 -0.040855002942382 0 -0.0076256011768206016 -0.040291140634861243 0 -0.006858901325465897 -0.040330406934526941 0 -0.0047056212074591949 -0.038295106244671834 0 -0.0042633420776314957 -0.037685683570793438 0 -0.0032904627117878011 -0.038786470645010167 0 -0.0076926835827934069 -0.031500030646717386 0 -0.0066763882849539442 -0.033033311066954028 0 -0.0046027129676633107 -0.031008627870887366 0 -0.0041785664665674417 -0.033829279276424061 0 6.4562103960369023e-05 -0.025490659435520771 0 0.0032796016378422326 -0.02167260186253446 0 0.0031192297161515971 -0.021939264990215895 0 0.0035769931556741135 -0.021959509758681411 0 -0.0041785664665674417 -0.033829279276424061 0 -0.0057925709323909755 -0.035063855700079513 0 -0.0057925709323909755 -0.035063855700079513 0 -0.0054748905735451242 -0.035299441928688086 0 -0.0047056212074591949 -0.038295106244671834 0 -0.0051387537916542624 -0.037198490884902013 0 -0.0042633420776314957 -0.037685683570793438 0 -0.0051387537916542624 -0.037198490884902013 0 -0.0042633420776314957 -0.037685683570793438 0 -0.004634530481673285 -0.036456153711882912 0 -0.0042633420776314957 -0.037685683570793438 0 -0.0036839922073201312 -0.037612181961029174 0 -0.004634530481673285 -0.036456153711882912 0 -0.0042633420776314957 -0.037685683570793438 0 -0.0032904627117878011 -0.038786470645010167 0 -0.0036839922073201312 -0.037612181961029174 0 -0.0032904627117878011 -0.038786470645010167 0 -0.0028127464244061006 -0.038465810368819957 0 -0.0036839922073201312 -0.037612181961029174 0 -0.0037031642846320129 -0.039936547902154187 0 -0.0055479841019560085 -0.04034007681367556 0 -0.0019479820024141013 -0.039581345770666652 0 -0.0032904627117878011 -0.038786470645010167 0 -0.0028127464244061006 -0.038465810368819957 0 -0.0022158768802460972 -0.038612267963165497 0 -0.0028127464244061006 -0.038465810368819957 0 -0.0029793436754075721 -0.037693213682225751 0 -4.9974561796706815e-07 -0.036036184415845732 0 -6.6608945851598375e-05 -0.033618680951820759 0 -5.416649556967139e-07 -0.029329192855147762 0 -0.0028127464244061006 -0.038465810368819957 0 -0.0029793436754075721 -0.037693213682225751 0 -0.0036839922073201312 -0.037612181961029174 0 -0.0023231202472147822 -0.037967420341404462 0 -0.0022158768802460972 -0.038612267963165497 0 -0.0029793436754075721 -0.037693213682225751 0 -0.0029793436754075721 -0.037693213682225751 0 -0.0038524403853112256 -0.036928086698878114 0 -0.0036839922073201312 -0.037612181961029174 0 -0.003358104430721911 -0.037226812709216683 0 -0.0046243318391156994 -0.036429456020425133 0 -0.0038524403853112256 -0.036928086698878114 0 -0.0030933350473224684 -0.036812217134605293 0 -0.0046655112495552235 -0.035983948337455829 0 -0.0029793436754075721 -0.037693213682225751 0 -0.0038524403853112256 -0.036928086698878114 0 -0.0030933350473224684 -0.036812217134605293 0 -0.0023231202472147822 -0.037967420341404462 0 -0.0029793436754075721 -0.037693213682225751 0 -0.0030933350473224684 -0.036812217134605293 0 -0.0019424902156452242 -0.038416235986835016 0 -0.0035827795814244103 -0.037629209991682698 0 -0.0032336554036733857 -0.03709234583219493 0 -6.6608945851598375e-05 -0.033618680951820759 0 -4.7633227788969886e-05 -0.031384710339478393 0 -5.416649556967139e-07 -0.029329192855147762 0 -0.0035827795814244103 -0.037629209991682698 0 -0.0032336554036733857 -0.03709234583219493 0 -0.004328176363784208 -0.036645618891915969 0 -0.0035827795814244103 -0.037629209991682698 0 -0.004328176363784208 -0.036645618891915969 0 -0.0046867099778958943 -0.036841878681090526 0 -0.0015553405400987445 -0.035370460946820309 0 -0.00208309060159914 -0.034012812809981877 0 -5.416649556967139e-07 -0.029329192855147762 0 -1.1128512328853203e-05 -0.029097045335522431 0 9.3334559620079661e-06 -0.026856144058357387 0 -4.7633227788969886e-05 -0.031384710339478393 0 -5.416649556967139e-07 -0.029329192855147762 0 -1.1128512328853203e-05 -0.029097045335522431 0 -0.00208309060159914 -0.034012812809981877 0 -0.002275441397837042 -0.032984768336036661 0 -0.004328176363784208 -0.036645618891915969 0 -0.0048259299150198703 -0.036467147302459452 0 -0.0046867099778958943 -0.036841878681090526 0 -0.0048259299150198703 -0.036467147302459452 0 -0.0046867099778958943 -0.036841878681090526 0 -0.0046935438660337964 -0.035959966050074586 0 -0.0046243318391156994 -0.036429456020425133 0 -0.0046628261534783586 -0.036026262544278723 0 -0.0050381730261356804 -0.035712798461289656 0 -0.0046655112495552235 -0.035983948337455829 0 -0.004634530481673285 -0.036456153711882912 0 -0.0050381730261356804 -0.035712798461289656 0 -0.0046655112495552235 -0.035983948337455829 0 -0.0046935438660337964 -0.035959966050074586 0 -0.0038524403853112256 -0.036928086698878114 0 -0.0046655112495552235 -0.035983948337455829 0 -0.004634530481673285 -0.036456153711882912 0 -0.0038524403853112256 -0.036928086698878114 0 -0.0036839922073201312 -0.037612181961029174 0 -0.004634530481673285 -0.036456153711882912 0 -0.0050381730261356804 -0.035712798461289656 0 -0.004634530481673285 -0.036456153711882912 0 -0.0053934322312127947 -0.035169226159281447 0 -0.0051387537916542624 -0.037198490884902013 0 -0.004634530481673285 -0.036456153711882912 0 -0.0053934322312127947 -0.035169226159281447 0 -0.0050381730261356804 -0.035712798461289656 0 -0.0053934322312127947 -0.035169226159281447 0 -0.0043322143298094922 -0.03508060088439862 0 -0.0053934322312127947 -0.035169226159281447 0 -0.0043322143298094922 -0.03508060088439862 0 -0.0042228806024163981 -0.03317625354852851 0 -0.0043322143298094922 -0.03508060088439862 0 -0.0028586885239722257 -0.033356230031621824 0 -0.0042228806024163981 -0.03317625354852851 0 -0.0043322143298094922 -0.03508060088439862 0 -0.003985098310211317 -0.035962867994216746 0 -0.0028677292492779055 -0.035697367029949974 0 -0.0043322143298094922 -0.03508060088439862 0 -0.0028677292492779055 -0.035697367029949974 0 -0.0028586885239722257 -0.033356230031621824 0 -0.0050381730261356804 -0.035712798461289656 0 -0.0043322143298094922 -0.03508060088439862 0 -0.0046935438660337964 -0.035959966050074586 0 -0.0043322143298094922 -0.03508060088439862 0 -0.0046935438660337964 -0.035959966050074586 0 -0.003985098310211317 -0.035962867994216746 0 -0.0048259299150198703 -0.036467147302459452 0 -0.0046935438660337964 -0.035959966050074586 0 -0.0044592961429623544 -0.036281500701742637 0 -0.002275441397837042 -0.032984768336036661 0 -0.0019476300785390818 -0.029813841965988498 0 -1.1128512328853203e-05 -0.029097045335522431 0 4.933625834822984e-06 -0.02673438057359619 0 9.3334559620079661e-06 -0.026856144058357387 0 -0.0048259299150198703 -0.036467147302459452 0 -0.0042473368894215754 -0.036635628084031709 0 -0.0044592961429623544 -0.036281500701742637 0 -5.416649556967139e-07 -0.029329192855147762 0 9.3334559620079661e-06 -0.026856144058357387 0 1.6924407279386691e-06 -0.024352880272183425 0 -0.0019476300785390818 -0.029813841965988498 0 -0.0014736186997555262 -0.029328281987396034 0 -0.0042473368894215754 -0.036635628084031709 0 -0.0044592961429623544 -0.036281500701742637 0 -0.003985098310211317 -0.035962867994216746 0 -0.0046935438660337964 -0.035959966050074586 0 -0.0044592961429623544 -0.036281500701742637 0 -0.003985098310211317 -0.035962867994216746 0 -0.0019476300785390818 -0.029813841965988498 0 -0.0011201323099843598 -0.030561495766301187 0 0.00011568220459144942 -0.026022275827119124 0 0.000422333304119479 -0.024839484668495029 0 0.00088844238762819118 -0.024831936978365211 0 -0.0042473368894215754 -0.036635628084031709 0 -0.003985098310211317 -0.035962867994216746 0 -0.0028677292492779055 -0.035697367029949974 0 -0.00024994861115509181 -0.026020681309146903 0 0.00011568220459144942 -0.026022275827119124 0 0.00088844238762819118 -0.024831936978365211 0 3.0941713802409067e-05 -0.026596554781348678 0 0.00011568220459144942 -0.026022275827119124 0 9.3334559620079661e-06 -0.026856144058357387 0 -0.0019476300785390818 -0.029813841965988498 0 -0.00063690505062478009 -0.028922959242424787 0 0.00011568220459144942 -0.026022275827119124 0 9.3334559620079661e-06 -0.026856144058357387 0 1.6924407279386691e-06 -0.024352880272183425 0 0.00017613925460793423 -0.022832525208902995 0 1.6924407279386691e-06 -0.024352880272183425 0 0.0006090710632371296 -0.024065765048292873 0 0.00011568220459144942 -0.026022275827119124 0 1.6924407279386691e-06 -0.024352880272183425 0 0.000422333304119479 -0.024839484668495029 0 1.6924407279386691e-06 -0.024352880272183425 0 0.000422333304119479 -0.024839484668495029 0 0.0006090710632371296 -0.024065765048292873 0 0.000422333304119479 -0.024839484668495029 0 0.0006090710632371296 -0.024065765048292873 0 0.00088844238762819118 -0.024831936978365211 0 0.00017613925460793423 -0.022832525208902995 0 0.00029328127676960772 -0.024526907887121994 0 0.0006090710632371296 -0.024065765048292873 0 0.00029328127676960772 -0.024526907887121994 0 0.0006090710632371296 -0.024065765048292873 0 0.001380885074109393 -0.026171941154946667 0 0.0006090710632371296 -0.024065765048292873 0 0.00088844238762819118 -0.024831936978365211 0 0.001380885074109393 -0.026171941154946667 0 -0.0011201323099843598 -0.030561495766301187 0 -8.852788387085044e-05 -0.029891808218420888 0 -0.0028677292492779055 -0.035697367029949974 0 -0.0028586885239722257 -0.033356230031621824 0 -0.001257182131604477 -0.033475448031241056 0 -0.0028586885239722257 -0.033356230031621824 0 -0.001257182131604477 -0.033475448031241056 0 -0.0016213559240589666 -0.031331268479754058 0 -0.00050307835246561378 -0.030346083232131116 0 -0.001257182131604477 -0.033475448031241056 0 -0.0016213559240589666 -0.031331268479754058 0 -0.00050307835246561378 -0.030346083232131116 0 -0.0010105066150416502 -0.02988289155397018 0 -0.0016213559240589666 -0.031331268479754058 0 0.0036071496556991083 -0.021095730934476132 0 0.00075673032733945551 -0.026887368757939265 0 -0.0010105066150416502 -0.02988289155397018 0 -0.0016213559240589666 -0.031331268479754058 0 -0.0023106159234034815 -0.030460602319402227 0 -0.0016213559240589666 -0.031331268479754058 0 -0.0023106159234034815 -0.030460602319402227 0 -0.0030236266115771767 -0.03191320020956339 0 -0.0028586885239722257 -0.033356230031621824 0 -0.0016213559240589666 -0.031331268479754058 0 -0.0030236266115771767 -0.03191320020956339 0 -0.0028586885239722257 -0.033356230031621824 0 -0.0030236266115771767 -0.03191320020956339 0 -0.0042228806024163981 -0.03317625354852851 0 -0.0030236266115771767 -0.03191320020956339 0 -0.0042228806024163981 -0.03317625354852851 0 -0.0046027129676633107 -0.031008627870887366 0 -0.0066763882849539442 -0.033033311066954028 0 -0.0053934322312127947 -0.035169226159281447 0 -0.0042228806024163981 -0.03317625354852851 0 -0.0066763882849539442 -0.033033311066954028 0 -0.0042228806024163981 -0.03317625354852851 0 -0.0046027129676633107 -0.031008627870887366 0 -0.0023106159234034815 -0.030460602319402227 0 -0.0030236266115771767 -0.03191320020956339 0 -0.0046027129676633107 -0.031008627870887366 0 0.00075673032733945551 -0.026887368757939265 0 6.4562103960369023e-05 -0.025490659435520771 0 0.0045901801253691154 -0.021896180187412542 0 0.0035769931556741135 -0.021959509758681411 0 0.0037594048476677724 -0.021172874785404187 0 0.0045901801253691154 -0.021896180187412542 0 0.0037594048476677724 -0.021172874785404187 0 0.0046254544934404519 -0.0208096200617163 0 0.0032796016378422326 -0.02167260186253446 0 0.0035769931556741135 -0.021959509758681411 0 0.0037594048476677724 -0.021172874785404187 0 0.0032379137543030166 -0.02135829641353916 0 0.0037594048476677724 -0.021172874785404187 0 0.0035536673359590062 -0.020753176708980116 0 0.0032379137543030166 -0.02135829641353916 0 0.0032796016378422326 -0.02167260186253446 0 0.0037594048476677724 -0.021172874785404187 0 0.0037594048476677724 -0.021172874785404187 0 0.0046254544934404519 -0.0208096200617163 0 0.0042894822346724272 -0.020147732578681909 0 0.0037594048476677724 -0.021172874785404187 0 0.0042894822346724272 -0.020147732578681909 0 0.0035536673359590062 -0.020753176708980116 0 0.0046254544934404519 -0.0208096200617163 0 0.0051098246073237961 -0.019410079950167528 0 0.0042894822346724272 -0.020147732578681909 0 0.0046254544934404519 -0.0208096200617163 0 0.0056913849753730122 -0.02080767279648247 0 0.0051098246073237961 -0.019410079950167528 0 0.005308973576654925 -0.018929375423173918 0 0.0051951868275052007 -0.019327403701165306 0 0.004773379641258413 -0.018431444884983356 0 0.00509288344778119 -0.017423579048671062 0 0.0051098246073237961 -0.019410079950167528 0 0.004371771548772406 -0.017571954156302427 0 0.004773379641258413 -0.018431444884983356 0 0.00509288344778119 -0.017423579048671062 0 0.0061377416160425481 -0.021741527355125918 0 0.0045901801253691154 -0.021896180187412542 0 0.0056913849753730122 -0.02080767279648247 0 0.0036071496556991083 -0.021095730934476132 0 0.005308973576654925 -0.018929375423173918 0 0.0045901801253691154 -0.021896180187412542 0 0.0046254544934404519 -0.0208096200617163 0 0.0056913849753730122 -0.02080767279648247 0 -0.0022420207569365477 -0.022659887150409081 0 -0.00083108073198202967 -0.022511986891396555 0 -0.0021675671966284019 -0.023456840977533696 0 0.0013547499588564525 -0.020983885303116651 0 0.0016008405201947658 -0.021227779757435922 0 0.0045850030519958033 -0.018927976539273066 0 0.004415736253045038 -0.019129763666554053 0 0.004958907831356228 -0.019251381879436529 0 -0.0033147426364688016 -0.022915781424352508 0 -0.0022420207569365477 -0.022659887150409081 0 -0.0028264425675290656 -0.023266608834697111 0 0.00061233064875071115 -0.021004411552832482 0 0.0013547499588564525 -0.020983885303116651 0 -0.0022420207569365477 -0.022659887150409081 0 -0.0021675671966284019 -0.023456840977533696 0 -0.0028264425675290656 -0.023266608834697111 0 0.004958907831356228 -0.019251381879436529 0 0.004764669147621802 -0.018850195375384009 0 0.0051098246073237961 -0.019410079950167528 0 0.0045850030519958033 -0.018927976539273066 0 0.004958907831356228 -0.019251381879436529 0 0.004764669147621802 -0.018850195375384009 0 0.0043097374881827339 -0.018072999649191162 0 0.004773379641258413 -0.018431444884983356 0 0.004764669147621802 -0.018850195375384009 0 0.004773379641258413 -0.018431444884983356 0 0.004764669147621802 -0.018850195375384009 0 0.0051098246073237961 -0.019410079950167528 0 0.004958907831356228 -0.019251381879436529 0 0.0051098246073237961 -0.019410079950167528 0 0.0042894822346724272 -0.020147732578681909 0 0.0042894822346724272 -0.020147732578681909 0 0.0035536673359590062 -0.020753176708980116 0 0.0039282914381849974 -0.019920197820243967 0 0.004958907831356228 -0.019251381879436529 0 0.0042894822346724272 -0.020147732578681909 0 0.0039282914381849974 -0.019920197820243967 0 0.0035536673359590062 -0.020753176708980116 0 0.0039282914381849974 -0.019920197820243967 0 0.0031843522460126721 -0.020979474599785133 0 0.0016008405201947658 -0.021227779757435922 0 0.0020810592655090272 -0.021679286303932382 0 -0.00083108073198202967 -0.022511986891396555 0 -0.00036469444467359801 -0.02356141519073782 0 0.00079963946618470216 -0.022353905868850492 0 -0.00083108073198202967 -0.022511986891396555 0 -0.0013897670687956923 -0.023931844632704341 0 -0.0021675671966284019 -0.023456840977533696 0 -0.00083108073198202967 -0.022511986891396555 0 -0.0013897670687956923 -0.023931844632704341 0 -0.00036469444467359801 -0.02356141519073782 0 -0.00036469444467359801 -0.02356141519073782 0 -0.00027784148593639553 -0.025070689201050451 0 0.0007797633121879318 -0.024027805257541612 0 -0.0013897670687956923 -0.023931844632704341 0 -0.00036469444467359801 -0.02356141519073782 0 -0.00027784148593639553 -0.025070689201050451 0 -0.0013897670687956923 -0.023931844632704341 0 -0.00027784148593639553 -0.025070689201050451 0 -0.0015737594923848901 -0.02515630486872018 0 -0.0013897670687956923 -0.023931844632704341 0 -0.0021913345863817813 -0.024316688767428769 0 -0.0015737594923848901 -0.02515630486872018 0 -0.0013897670687956923 -0.023931844632704341 0 -0.0021913345863817813 -0.024316688767428769 0 -0.0021675671966284019 -0.023456840977533696 0 -0.0021675671966284019 -0.023456840977533696 0 -0.0028264425675290656 -0.023266608834697111 0 -0.002967708095574049 -0.02393633427313413 0 -0.003237652602772278 -0.023392187509637039 0 -0.0028264425675290656 -0.023266608834697111 0 -0.002967708095574049 -0.02393633427313413 0 -0.0021913345863817813 -0.024316688767428769 0 -0.002967708095574049 -0.02393633427313413 0 -0.0027826498454288054 -0.025130052317669474 0 -0.0021913345863817813 -0.024316688767428769 0 -0.0021675671966284019 -0.023456840977533696 0 -0.002967708095574049 -0.02393633427313413 0 -0.0033691080804952888 -0.025019506089023934 0 -0.0033881008221793257 -0.024527463089057192 0 -0.0027826498454288054 -0.025130052317669474 0 -0.0033881008221793257 -0.024527463089057192 0 -0.002967708095574049 -0.02393633427313413 0 -0.0027826498454288054 -0.025130052317669474 0 -0.0021913345863817813 -0.024316688767428769 0 -0.0027826498454288054 -0.025130052317669474 0 -0.0015737594923848901 -0.02515630486872018 0 -0.0027826498454288054 -0.025130052317669474 0 -0.0015737594923848901 -0.02515630486872018 0 -0.0021396638431332164 -0.026532362920318086 0 -0.0037636903645779768 -0.025914832438400807 0 -0.0028201050382698671 -0.025089392759500211 0 -0.0041043446291251203 -0.026632086379887475 0 -0.0027826498454288054 -0.025130052317669474 0 -0.0021396638431332164 -0.026532362920318086 0 -0.0041043446291251203 -0.026632086379887475 0 -0.0021396638431332164 -0.026532362920318086 0 -0.0025482372543638174 -0.027923044078141123 0 -0.0041043446291251203 -0.026632086379887475 0 -0.0039094301495531166 -0.027994650671944721 0 -0.0025482372543638174 -0.027923044078141123 0 -0.0021396638431332164 -0.026532362920318086 0 -0.0025482372543638174 -0.027923044078141123 0 -0.0012311923680769516 -0.027918148894354858 0 -0.0025482372543638174 -0.027923044078141123 0 -0.0012311923680769516 -0.027918148894354858 0 -0.0017188577799817917 -0.029641918205270575 0 -0.0025482372543638174 -0.027923044078141123 0 -0.0030844589029735249 -0.029114563032346035 0 -0.0017188577799817917 -0.029641918205270575 0 -0.0039094301495531166 -0.027994650671944721 0 -0.0025482372543638174 -0.027923044078141123 0 -0.0030844589029735249 -0.029114563032346035 0 -0.0039094301495531166 -0.027994650671944721 0 -0.0030844589029735249 -0.029114563032346035 0 -0.0042735687963362913 -0.029281953624827137 0 -0.00024410051257862613 -0.02865298449570013 0 -0.0012311923680769516 -0.027918148894354858 0 -0.0017188577799817917 -0.029641918205270575 0 -0.0021396638431332164 -0.026532362920318086 0 -0.0012311923680769516 -0.027918148894354858 0 -0.0007871116761709884 -0.026441038858516043 0 -0.0012311923680769516 -0.027918148894354858 0 -7.39885680396185e-05 -0.027499178553703315 0 -0.0007871116761709884 -0.026441038858516043 0 -0.00024410051257862613 -0.02865298449570013 0 -7.39885680396185e-05 -0.027499178553703315 0 0.0010366115043688368 -0.027837679294439147 0 -0.00024410051257862613 -0.02865298449570013 0 -0.0012311923680769516 -0.027918148894354858 0 -7.39885680396185e-05 -0.027499178553703315 0 -7.39885680396185e-05 -0.027499178553703315 0 -0.0007871116761709884 -0.026441038858516043 0 0.00046081696571083282 -0.026568384067700408 0 -0.0015737594923848901 -0.02515630486872018 0 -0.0021396638431332164 -0.026532362920318086 0 -0.0007871116761709884 -0.026441038858516043 0 -0.00027784148593639553 -0.025070689201050451 0 -0.0015737594923848901 -0.02515630486872018 0 -0.0007871116761709884 -0.026441038858516043 0 -0.00027784148593639553 -0.025070689201050451 0 -0.0007871116761709884 -0.026441038858516043 0 0.00046081696571083282 -0.026568384067700408 0 -0.00027784148593639553 -0.025070689201050451 0 0.0013093819171740792 -0.025576645249552218 0 0.00046081696571083282 -0.026568384067700408 0 0.0013093819171740792 -0.025576645249552218 0 0.0014911736602426855 -0.026733991800877932 0 0.00046081696571083282 -0.026568384067700408 0 0.0013093819171740792 -0.025576645249552218 0 0.0022528832785185795 -0.026497387527835495 0 0.0025817850419058608 -0.02540342395364785 0 0.0013093819171740792 -0.025576645249552218 0 0.0014911736602426855 -0.026733991800877932 0 0.0022528832785185795 -0.026497387527835495 0 0.0014911736602426855 -0.026733991800877932 0 0.0021471747539244445 -0.027065069754569324 0 0.0022528832785185795 -0.026497387527835495 0 0.0014911736602426855 -0.026733991800877932 0 0.0010366115043688368 -0.027837679294439147 0 0.0021471747539244445 -0.027065069754569324 0 0.0014911736602426855 -0.026733991800877932 0 0.00046081696571083282 -0.026568384067700408 0 0.0010366115043688368 -0.027837679294439147 0 -7.39885680396185e-05 -0.027499178553703315 0 0.00046081696571083282 -0.026568384067700408 0 0.0010366115043688368 -0.027837679294439147 0 -0.0043772591565596894 -0.037116215530154352 0 -0.0042171160786433686 -0.037530423072029154 0 -0.0041163752609269296 -0.036768303291731995 0 -0.0016042868078733612 -0.032441914848560419 0 -0.001353513495573045 -0.031966646623182229 0 -0.0043772591565596894 -0.037116215530154352 0 -0.004359707591765666 -0.037240556513368446 0 -0.0042171160786433686 -0.037530423072029154 0 -0.0023416196389658981 -0.03274516338843135 0 -0.0016042868078733612 -0.032441914848560419 0 -0.004385597267291476 -0.036892487570790382 0 -0.0043772591565596894 -0.037116215530154352 0 -0.004359707591765666 -0.037240556513368446 0 -0.0033908377402972539 -0.038130999474199158 0 -0.0042171160786433686 -0.037530423072029154 0 -0.0034612831684631765 -0.037364298717469213 0 -0.0033908377402972539 -0.038130999474199158 0 -0.0042171160786433686 -0.037530423072029154 0 -0.0041991237259247846 -0.038402699972868118 0 -0.0038796850109707741 -0.037115921863266566 0 -0.0035438147382286398 -0.03675650222370528 0 -0.0041163752609269296 -0.036768303291731995 0 -0.0042171160786433686 -0.037530423072029154 0 -0.0038796850109707741 -0.037115921863266566 0 -0.0034612831684631765 -0.037364298717469213 0 -0.0042171160786433686 -0.037530423072029154 0 -0.0038796850109707741 -0.037115921863266566 0 -0.0041163752609269296 -0.036768303291731995 0 -0.0038796850109707741 -0.037115921863266566 0 -0.0034612831684631765 -0.037364298717469213 0 -0.0035438147382286398 -0.03675650222370528 0 -0.0034612831684631765 -0.037364298717469213 0 -0.0035438147382286398 -0.03675650222370528 0 -0.0026847801581347448 -0.036843382843105441 0 -0.0035438147382286398 -0.03675650222370528 0 -0.0041163752609269296 -0.036768303291731995 0 -0.0032498724759738697 -0.03589774328729859 0 -0.0035438147382286398 -0.03675650222370528 0 -0.0032498724759738697 -0.03589774328729859 0 -0.0026847801581347448 -0.036843382843105441 0 -0.001353513495573045 -0.031966646623182229 0 0.001517597141193324 -0.031619608378531575 0 0.0021471747539244445 -0.027065069754569324 0 0.0022528832785185795 -0.026497387527835495 0 0.002335583067357198 -0.026891450647275477 0 0.0022528832785185795 -0.026497387527835495 0 0.00357785691699612 -0.025914091685725418 0 0.0045143747730222675 -0.026832322212290066 0 0.0030252319018225075 -0.025497354554434176 0 0.001517597141193324 -0.031619608378531575 0 0.0022528832785185795 -0.026497387527835495 0 0.00357785691699612 -0.025914091685725418 0 0.0025817850419058608 -0.02540342395364785 0 0.00357785691699612 -0.025914091685725418 0 0.0045143747730222675 -0.026832322212290066 0 0.0045005413136960633 -0.025799440662208972 0 0.0045143747730222675 -0.026832322212290066 0 0.0045005413136960633 -0.025799440662208972 0 0.0054385757775009327 -0.026189252784390899 0 0.0045005413136960633 -0.025799440662208972 0 0.0039274151498009504 -0.025118636151419349 0 0.0050660458399743365 -0.025260068141780615 0 0.00357785691699612 -0.025914091685725418 0 0.0045005413136960633 -0.025799440662208972 0 0.0039274151498009504 -0.025118636151419349 0 0.0039274151498009504 -0.025118636151419349 0 0.0044977593712640651 -0.024248691610237242 0 0.0050660458399743365 -0.025260068141780615 0 0.0044977593712640651 -0.024248691610237242 0 0.0048089540209096471 -0.02329808035639053 0 0.0055502195664877494 -0.02451493028333062 0 0.0039274151498009504 -0.025118636151419349 0 0.0044977593712640651 -0.024248691610237242 0 0.0034691690041392482 -0.02422090745268567 0 0.0044977593712640651 -0.024248691610237242 0 0.0034691690041392482 -0.02422090745268567 0 0.0041604549121129061 -0.02345923428660834 0 0.0034691690041392482 -0.02422090745268567 0 0.0041604549121129061 -0.02345923428660834 0 0.0031625973299995698 -0.023346251186648907 0 0.0034691690041392482 -0.02422090745268567 0 0.0022773358331459577 -0.024351429563485034 0 0.0031625973299995698 -0.023346251186648907 0 0.0039274151498009504 -0.025118636151419349 0 0.0034691690041392482 -0.02422090745268567 0 0.0025817850419058608 -0.02540342395364785 0 0.00357785691699612 -0.025914091685725418 0 0.0039274151498009504 -0.025118636151419349 0 0.0025817850419058608 -0.02540342395364785 0 0.0034691690041392482 -0.02422090745268567 0 0.0025817850419058608 -0.02540342395364785 0 0.0022773358331459577 -0.024351429563485034 0 0.0013093819171740792 -0.025576645249552218 0 0.0007797633121879318 -0.024027805257541612 0 0.0022773358331459577 -0.024351429563485034 0 0.0013093819171740792 -0.025576645249552218 0 0.0025817850419058608 -0.02540342395364785 0 0.0022773358331459577 -0.024351429563485034 0 -0.00027784148593639553 -0.025070689201050451 0 0.0013093819171740792 -0.025576645249552218 0 0.0007797633121879318 -0.024027805257541612 0 -0.00036469444467359801 -0.02356141519073782 0 0.0007797633121879318 -0.024027805257541612 0 0.00079963946618470216 -0.022353905868850492 0 0.0007797633121879318 -0.024027805257541612 0 0.0022773358331459577 -0.024351429563485034 0 0.0019884240168019959 -0.023237642651891436 0 0.0022773358331459577 -0.024351429563485034 0 0.0019884240168019959 -0.023237642651891436 0 0.0031625973299995698 -0.023346251186648907 0 0.0019884240168019959 -0.023237642651891436 0 0.0031625973299995698 -0.023346251186648907 0 0.0030226288095708815 -0.02216235057556494 0 0.0020810592655090272 -0.021679286303932382 0 0.0030116633326190681 -0.022054439668438071 0 0.0019884240168019959 -0.023237642651891436 0 0.00079963946618470216 -0.022353905868850492 0 0.0030226288095708815 -0.02216235057556494 0 0.0007797633121879318 -0.024027805257541612 0 0.0019884240168019959 -0.023237642651891436 0 0.00079963946618470216 -0.022353905868850492 0 0.0032379137543030166 -0.02135829641353916 0 0.0035536673359590062 -0.020753176708980116 0 0.0031843522460126721 -0.020979474599785133 0 0.0031356673019418469 -0.021714051790010378 0 0.0032379137543030166 -0.02135829641353916 0 0.0031843522460126721 -0.020979474599785133 0 0.0031356673019418469 -0.021714051790010378 0 0.0031843522460126721 -0.020979474599785133 0 0.0030226288095708815 -0.02216235057556494 0 0.0031356673019418469 -0.021714051790010378 0 0.0036944910765605386 -0.021956080112034801 0 0.0030226288095708815 -0.02216235057556494 0 0.0036944910765605386 -0.021956080112034801 0 0.0030226288095708815 -0.02216235057556494 0 0.0037901791127611323 -0.022664190894582308 0 0.0036944910765605386 -0.021956080112034801 0 0.0046504881794987869 -0.023000552708578523 0 0.0037901791127611323 -0.022664190894582308 0 -0.0069353084508289734 -0.041589674852636357 0 -0.0062736531741535333 -0.041860592333617899 0 -0.0063542104449660422 -0.042402476076258903 0 -0.0015629398207606905 -0.031687264517073988 0 -0.0015594305271713163 -0.033854960952954961 0 0.0044977593712640651 -0.024248691610237242 0 0.0048089540209096471 -0.02329808035639053 0 0.0041604549121129061 -0.02345923428660834 0 -0.0015594305271713163 -0.033854960952954961 0 0.0064197226418606576 -0.023998686290092709 0 0.0046504881794987869 -0.023000552708578523 0 0.0041604549121129061 -0.02345923428660834 0 0.0037901791127611323 -0.022664190894582308 0 0.0041604549121129061 -0.02345923428660834 0 0.0031625973299995698 -0.023346251186648907 0 0.0037901791127611323 -0.022664190894582308 0 0.0031625973299995698 -0.023346251186648907 0 0.0030226288095708815 -0.02216235057556494 0 0.0037901791127611323 -0.022664190894582308 0 -0.004057423707023289 -0.043010046439536299 0 -0.0044324075641836306 -0.042846255807794907 0 -0.0041474897681297281 -0.04317605145747621 0 -0.004057423707023289 -0.043010046439536299 0 -0.0044324075641836306 -0.042846255807794907 0 -0.0043294246085667995 -0.042675099436508601 0 -0.0048980740877633596 -0.042549272594850224 0 -0.0044324075641836306 -0.042846255807794907 0 -0.0045793662281813302 -0.043069146905216488 0 -0.0048980740877633596 -0.042549272594850224 0 -0.0044324075641836306 -0.042846255807794907 0 -0.0043294246085667995 -0.042675099436508601 0 -0.0015594305271713163 -0.033854960952954961 0 -0.0061647769969739724 -0.043881951516188289 0 -0.0062736531741535333 -0.041860592333617899 0 -0.0063542104449660422 -0.042402476076258903 0 -0.0056188482083789366 -0.042200233720781404 0 -0.0040340743150489057 -0.042121367283450381 0 -0.0061647769969739724 -0.043881951516188289 0 -0.004057423707023289 -0.043010046439536299 0 -0.0043294246085667995 -0.042675099436508601 0 -0.0038193895756467766 -0.04296995631102659 0 -0.0039687764266724389 -0.04266444843751039 0 -0.0043294246085667995 -0.042675099436508601 0 -0.0038193895756467766 -0.04296995631102659 0 -0.0039687764266724389 -0.04266444843751039 0 -0.0038193895756467766 -0.04296995631102659 0 -0.0033782572846711213 -0.043006637714264787 0 -0.0038193895756467766 -0.04296995631102659 0 -0.0033782572846711213 -0.043006637714264787 0 -0.00338031563475224 -0.043204495935638264 0 -0.0038193895756467766 -0.04296995631102659 0 -0.00338031563475224 -0.043204495935638264 0 -0.0037693493801244627 -0.043154610130461533 0 -0.00338031563475224 -0.043204495935638264 0 -0.0035695465445819523 -0.043345445732784968 0 -0.0028779711899697149 -0.043462024721291438 0 -0.00338031563475224 -0.043204495935638264 0 -0.0035695465445819523 -0.043345445732784968 0 -0.0037693493801244627 -0.043154610130461533 0 -0.004057423707023289 -0.043010046439536299 0 -0.0038193895756467766 -0.04296995631102659 0 -0.0037693493801244627 -0.043154610130461533 0 -0.0035695465445819523 -0.043345445732784968 0 -0.0037693493801244627 -0.043154610130461533 0 -0.0038383596852115619 -0.043249695547116621 0 -0.004057423707023289 -0.043010046439536299 0 -0.0037693493801244627 -0.043154610130461533 0 -0.0038383596852115619 -0.043249695547116621 0 -0.004057423707023289 -0.043010046439536299 0 -0.0038383596852115619 -0.043249695547116621 0 -0.0041474897681297281 -0.04317605145747621 0 -0.0027975585073760538 -0.04288645230678044 0 -0.0033740389343212573 -0.042046883747621729 0 -0.0038383596852115619 -0.043249695547116621 0 -0.0036479090044749612 -0.043356007171919508 0 -0.003892223821728001 -0.043408701549548449 0 -0.0038383596852115619 -0.043249695547116621 0 -0.003892223821728001 -0.043408701549548449 0 -0.0041474897681297281 -0.04317605145747621 0 -0.00070067874246774347 -0.044307308996311329 0 -0.00063394297441427396 -0.044378366501768747 0 -0.00056554482099407672 -0.044343043295718372 0 -0.0035695465445819523 -0.043345445732784968 0 -0.0035913303635586591 -0.043635148483279595 0 -0.0028779711899697149 -0.043462024721291438 0 -0.0033655686318516168 -0.04349433849358024 0 -0.0027975585073760538 -0.04288645230678044 0 -0.0035695465445819523 -0.043345445732784968 0 -0.0038383596852115619 -0.043249695547116621 0 -0.0036479090044749612 -0.043356007171919508 0 -0.0027975585073760538 -0.04288645230678044 0 -0.0019078758979637392 -0.041523333249138435 0 -0.00070067874246774347 -0.044307308996311329 0 -0.00067388587069208163 -0.044412157293823647 0 -0.00063394297441427396 -0.044378366501768747 0 -0.00067388587069208163 -0.044412157293823647 0 -0.00063394297441427396 -0.044378366501768747 0 -0.00059408523703484634 -0.044468522422710946 0 -0.0012819597380191072 -0.039659599866221189 0 0.00069026712339110305 -0.038365177235439023 0 -0.0013423795644013829 -0.037390595760485465 0 -0.0030654920801421064 -0.038278367638381092 0 -0.0012819597380191072 -0.039659599866221189 0 -0.0013423795644013829 -0.037390595760485465 0 -0.0032648735046382454 -0.040945263557233026 0 -0.0030654920801421064 -0.038278367638381092 0 -0.0012819597380191072 -0.039659599866221189 0 -0.003892223821728001 -0.043408701549548449 0 -0.0041962519311199093 -0.043542148993810467 0 -0.0041474897681297281 -0.04317605145747621 0 -0.0033740389343212573 -0.042046883747621729 0 0.00037545417911438164 -0.034205451050341902 0 -0.0044324075641836306 -0.042846255807794907 0 -0.0041474897681297281 -0.04317605145747621 0 -0.0045793662281813302 -0.043069146905216488 0 -0.0041962519311199093 -0.043542148993810467 0 -0.0041474897681297281 -0.04317605145747621 0 -0.0045793662281813302 -0.043069146905216488 0 -0.0015594305271713163 -0.033854960952954961 0 0.0006970381728104325 -0.033824647491777125 0 0.0044977593712640651 -0.024248691610237242 0 0.0055502195664877494 -0.02451493028333062 0 0.0050660458399743365 -0.025260068141780615 0 0.0062510233765978983 -0.025674763862091499 0 0.0050660458399743365 -0.025260068141780615 0 0.0054385757775009327 -0.026189252784390899 0 0.00037545417911438164 -0.034205451050341902 0 0.0006970381728104325 -0.033824647491777125 0 0.0062510233765978983 -0.025674763862091499 0 0.0055502195664877494 -0.02451493028333062 0 0.0050660458399743365 -0.025260068141780615 0 0.0045005413136960633 -0.025799440662208972 0 0.0050660458399743365 -0.025260068141780615 0 0.0054385757775009327 -0.026189252784390899 0 0.0041116066162028989 -0.036092613770027607 0 0.0024065600910226485 -0.037213850579134365 0 0.00085556574955226268 -0.035902821950229445 0 0.001517597141193324 -0.031619608378531575 0 -0.0006653348312621513 -0.036219127198403527 0 0.00037545417911438164 -0.034205451050341902 0 0.0046946070910708964 -0.031178395540695337 0 0.001517597141193324 -0.031619608378531575 0 0.0046946070910708964 -0.031178395540695337 0 0.00085556574955226268 -0.035902821950229445 0 -0.00036822722517512231 -0.03665450958522716 0 -0.0015769052321598402 -0.035868288707971034 0 0.00069026712339110305 -0.038365177235439023 0 0.00085556574955226268 -0.035902821950229445 0 -0.00036822722517512231 -0.03665450958522716 0 0.00069026712339110305 -0.038365177235439023 0 0.0024065600910226485 -0.037213850579134365 0 0.00085556574955226268 -0.035902821950229445 0 0.00069026712339110305 -0.038365177235439023 0 -0.00036822722517512231 -0.03665450958522716 0 -0.0013423795644013829 -0.037390595760485465 0 -0.0018431638000868794 -0.035891938143003871 0 -0.0026847801581347448 -0.036843382843105441 0 -0.001307441231269881 -0.037181084456786612 0 -0.0032498724759738697 -0.03589774328729859 0 -0.0018431638000868794 -0.035891938143003871 0 -0.0026847801581347448 -0.036843382843105441 0 -0.0034612831684631765 -0.037364298717469213 0 -0.0026847801581347448 -0.036843382843105441 0 -0.002296335063925055 -0.038143604616604633 0 -0.001307441231269881 -0.037181084456786612 0 -0.002296335063925055 -0.038143604616604633 0 -0.0010407410154021565 -0.038755609606479072 0 -0.0026847801581347448 -0.036843382843105441 0 -0.001307441231269881 -0.037181084456786612 0 -0.002296335063925055 -0.038143604616604633 0 -0.002296335063925055 -0.038143604616604633 0 -0.0010407410154021565 -0.038755609606479072 0 -0.0014497791598040331 -0.039949134370176061 0 -0.0033908377402972539 -0.038130999474199158 0 -0.002296335063925055 -0.038143604616604633 0 -0.002713848061891531 -0.03960453066786853 0 -0.0033908377402972539 -0.038130999474199158 0 -0.0034612831684631765 -0.037364298717469213 0 -0.002296335063925055 -0.038143604616604633 0 0.0005739015260597082 -0.040890124377068404 0 1.8229720517146802e-05 -0.040047807100987855 0 -1.9213083939295524e-05 -0.040729557775800847 0 0.00020989022916817945 -0.038634465553700266 0 -1.5259372945308676e-05 -0.040750100006487551 0 -0.0010407410154021565 -0.038755609606479072 0 -1.9213083939295524e-05 -0.040729557775800847 0 -0.0014497791598040331 -0.039949134370176061 0 -0.0010407410154021565 -0.038755609606479072 0 0.00029820213074837601 -0.037877283068785655 0 -1.9213083939295524e-05 -0.040729557775800847 0 -0.001307441231269881 -0.037181084456786612 0 -0.0010407410154021565 -0.038755609606479072 0 0.00029820213074837601 -0.037877283068785655 0 -0.001307441231269881 -0.037181084456786612 0 0.00029820213074837601 -0.037877283068785655 0 5.6898418939803167e-05 -0.035942338402552655 0 0.0005739015260597082 -0.040890124377068404 0 1.8229720517146802e-05 -0.040047807100987855 0 0.00098890497102146688 -0.039746672685810572 0 1.8229720517146802e-05 -0.040047807100987855 0 0.00056351669381617705 -0.039352983795545686 0 0.00098890497102146688 -0.039746672685810572 0 0.00056351669381617705 -0.039352983795545686 0 0.00011198426138357736 -0.03868702187347995 0 0.001048558813864576 -0.038931701989802718 0 -0.00029296756917127819 -0.038886273894120867 0 0.00038885850267369483 -0.041759977851932521 0 1.8229720517146802e-05 -0.040047807100987855 0 0.00056351669381617705 -0.039352983795545686 0 0.00011198426138357736 -0.03868702187347995 0 0.00020989022916817945 -0.038634465553700266 0 -0.00029296756917127819 -0.038886273894120867 0 0.00029820213074837601 -0.037877283068785655 0 0.00031360219911213293 -0.035965315992998223 0 5.6898418939803167e-05 -0.035942338402552655 0 -0.00029296756917127819 -0.038886273894120867 0 -0.0012431462853162776 -0.037151247989345187 0 0.00085556574955226268 -0.035902821950229445 0 -0.0024267553294387251 -0.035706188368993239 0 -0.0015769052321598402 -0.035868288707971034 0 -0.0018431638000868794 -0.035891938143003871 0 -0.001307441231269881 -0.037181084456786612 0 5.6898418939803167e-05 -0.035942338402552655 0 -0.0006653348312621513 -0.036219127198403527 0 -0.0012431462853162776 -0.037151247989345187 0 -0.0012431462853162776 -0.037151247989345187 0 -0.0018599381740540078 -0.03660856441334643 0 -0.0030654920801421064 -0.038278367638381092 0 -0.0024274983512553847 -0.035696747314251688 0 -0.0013423795644013829 -0.037390595760485465 0 -0.00036822722517512231 -0.03665450958522716 0 -0.0015769052321598402 -0.035868288707971034 0 -0.0013423795644013829 -0.037390595760485465 0 -0.0024274983512553847 -0.035696747314251688 0 -0.0015769052321598402 -0.035868288707971034 0 -0.0013423795644013829 -0.037390595760485465 0 -0.0030654920801421064 -0.038278367638381092 0 -0.0028559162193907816 -0.03566783557729148 0 -0.0024274983512553847 -0.035696747314251688 0 -0.00067388587069208163 -0.044412157293823647 0 -0.00066139004041052528 -0.044486628981110714 0 -0.00059408523703484634 -0.044468522422710946 0 -0.00066139004041052528 -0.044486628981110714 0 -0.00059408523703484634 -0.044468522422710946 0 -0.00056837332008473568 -0.044534182643935938 0 -0.0019078758979637392 -0.041523333249138435 0 -0.00029296756917127819 -0.038886273894120867 0 -0.00059408523703484634 -0.044468522422710946 0 -0.00049806558806529005 -0.044485916762418733 0 -0.00056112973022428994 -0.044420068421443672 0 -0.00059408523703484634 -0.044468522422710946 0 -0.00051216837553210077 -0.044518817561036893 0 -0.00049806558806529005 -0.044485916762418733 0 -0.00059408523703484634 -0.044468522422710946 0 -0.00051216837553210077 -0.044518817561036893 0 -0.00056837332008473568 -0.044534182643935938 0 -0.00049806558806529005 -0.044485916762418733 0 -0.00046114728829046964 -0.044517051930627341 0 -0.00039525738554712432 -0.04452327694059726 0 -0.00052764556104223327 -0.044915713059946252 0 -0.00037893953463382827 -0.044458060732657137 0 -0.00051216837553210077 -0.044518817561036893 0 -0.00049806558806529005 -0.044485916762418733 0 -0.00046114728829046964 -0.044517051930627341 0 0.00017894634947557481 -0.043239126134931451 0 0.00012467766467952993 -0.045128796337221312 0 -0.00045288643426311099 -0.044820617998034579 0 -0.00050240802663154178 -0.045039210472143695 0 -0.00027875298086462336 -0.044857819364838326 0 -0.00052764556104223327 -0.044915713059946252 0 0.00017894634947557481 -0.043239126134931451 0 -0.00051216837553210077 -0.044518817561036893 0 -0.00046114728829046964 -0.044517051930627341 0 -0.00048215655227078387 -0.044557185529497577 0 0.00017894634947557481 -0.043239126134931451 0 0.00038885850267369483 -0.041759977851932521 0 0.0019547201823698263 -0.039132579273421252 0 0.001048558813864576 -0.038931701989802718 0 0.00098890497102146688 -0.039746672685810572 0 -0.00051216837553210077 -0.044518817561036893 0 -0.00048215655227078387 -0.044557185529497577 0 -0.00056837332008473568 -0.044534182643935938 0 0.00056351669381617705 -0.039352983795545686 0 0.001048558813864576 -0.038931701989802718 0 0.00098890497102146688 -0.039746672685810572 0 0.0019547201823698263 -0.039132579273421252 0 0.00098890497102146688 -0.039746672685810572 0 0.0016569704100732529 -0.040322513492360983 0 0.00017894634947557481 -0.043239126134931451 0 0.0015753722134125624 -0.042156682143612623 0 0.00084114748412302367 -0.045340232130105317 0 0.00064920736919838438 -0.044797483071465263 0 0.00033415474833149928 -0.045178248536646592 0 0.00084114748412302367 -0.045340232130105317 0 0.00064920736919838438 -0.044797483071465263 0 0.001202277924987061 -0.044479743776518567 0 0.00064920736919838438 -0.044797483071465263 0 0.001202277924987061 -0.044479743776518567 0 0.00087626362151645317 -0.043713363412700129 0 0.00064920736919838438 -0.044797483071465263 0 0.00055476755993201846 -0.044056132044703905 0 0.00087626362151645317 -0.043713363412700129 0 0.0005739015260597082 -0.040890124377068404 0 0.0016569704100732529 -0.040322513492360983 0 0.0011599160802154872 -0.04260015405578247 0 0.0015753722134125624 -0.042156682143612623 0 0.0011325933785522183 -0.042759753040672463 0 0.001202277924987061 -0.044479743776518567 0 0.0011599160802154872 -0.04260015405578247 0 0.00087626362151645317 -0.043713363412700129 0 0.0005739015260597082 -0.040890124377068404 0 0.00098890497102146688 -0.039746672685810572 0 0.0016569704100732529 -0.040322513492360983 0 3.5815420566316152e-08 -0.045000319296779154 0 0.00019176653004897862 -0.04482417729137804 0 0.00014479197463340167 -0.044656684567041097 0 0.00019176653004897862 -0.04482417729137804 0 0.00055476755993201846 -0.044056132044703905 0 0.00014479197463340167 -0.044656684567041097 0 0.00064920736919838438 -0.044797483071465263 0 0.00019176653004897862 -0.04482417729137804 0 0.00055476755993201846 -0.044056132044703905 0 0.00064920736919838438 -0.044797483071465263 0 0.00019176653004897862 -0.04482417729137804 0 0.00033415474833149928 -0.045178248536646592 0 0.00019176653004897862 -0.04482417729137804 0 1.3921265279429615e-06 -0.045046567692265241 0 0.00033415474833149928 -0.045178248536646592 0 3.5815420566316152e-08 -0.045000319296779154 0 0.00019176653004897862 -0.04482417729137804 0 1.3921265279429615e-06 -0.045046567692265241 0 3.5815420566316152e-08 -0.045000319296779154 0 1.3921265279429615e-06 -0.045046567692265241 0 4.4461399149045984e-08 -0.044999896989333904 0 1.3921265279429615e-06 -0.045046567692265241 0 -0.00010415312353453921 -0.044964939709590257 0 4.4461399149045984e-08 -0.044999896989333904 0 -0.00010415312353453921 -0.044964939709590257 0 4.4461399149045984e-08 -0.044999896989333904 0 3.0157820615217262e-06 -0.04496099647680455 0 -0.00010415312353453921 -0.044964939709590257 0 -0.00023301538524590906 -0.045089186599739615 0 -0.00027875298086462336 -0.044857819364838326 0 1.3921265279429615e-06 -0.045046567692265241 0 -0.00010415312353453921 -0.044964939709590257 0 -0.00023301538524590906 -0.045089186599739615 0 -0.00050240802663154178 -0.045039210472143695 0 -0.00023301538524590906 -0.045089186599739615 0 -0.00027875298086462336 -0.044857819364838326 0 -2.2113235768641816e-05 -0.045067657993408686 0 0.00012467766467952993 -0.045128796337221312 0 -0.00045288643426311099 -0.044820617998034579 0 -0.00027875298086462336 -0.044857819364838326 0 -0.00039525738554712432 -0.04452327694059726 0 -0.00027875298086462336 -0.044857819364838326 0 -0.00018510117659393808 -0.044735117440027644 0 -0.00039525738554712432 -0.04452327694059726 0 -0.00010415312353453921 -0.044964939709590257 0 -0.00027875298086462336 -0.044857819364838326 0 -0.00018510117659393808 -0.044735117440027644 0 4.4461399149045984e-08 -0.044999896989333904 0 3.0157820615217262e-06 -0.04496099647680455 0 -2.5027312990971876e-08 -0.045000019237694935 0 -0.00018510117659393808 -0.044735117440027644 0 3.0157820615217262e-06 -0.04496099647680455 0 -8.294792005525299e-05 -0.044484928026529334 0 5.0050575429793641e-06 -0.044944758678322698 0 -6.6785602447598459e-05 -0.044738107862868227 0 -0.00010415312353453921 -0.044964939709590257 0 -0.00018510117659393808 -0.044735117440027644 0 3.0157820615217262e-06 -0.04496099647680455 0 3.0157820615217262e-06 -0.04496099647680455 0 -2.5027312990971876e-08 -0.045000019237694935 0 -7.5211091836701664e-06 -0.045014448434449933 0 -2.5027312990971876e-08 -0.045000019237694935 0 -7.5211091836701664e-06 -0.045014448434449933 0 -4.3966315307331228e-05 -0.045033019180880311 0 -6.6785602447598459e-05 -0.044738107862868227 0 -0.00014868872202724256 -0.044725037618479957 0 -7.5211091836701664e-06 -0.045014448434449933 0 -4.3966315307331228e-05 -0.045033019180880311 0 -0.00015896058322549972 -0.045085013085590167 0 -4.3966315307331228e-05 -0.045033019180880311 0 -0.00015896058322549972 -0.045085013085590167 0 -1.5889161921673036e-07 -0.044999963305820241 0 -2.5027312990971876e-08 -0.045000019237694935 0 -4.3966315307331228e-05 -0.045033019180880311 0 -1.5889161921673036e-07 -0.044999963305820241 0 -8.294792005525299e-05 -0.044484928026529334 0 -0.00022581964490141245 -0.044226551334354325 0 -0.00029284798235304922 -0.044377594588072167 0 -0.00022581964490141245 -0.044226551334354325 0 -0.00029284798235304922 -0.044377594588072167 0 -0.00037099750261851275 -0.044206798738169732 0 -0.00029284798235304922 -0.044377594588072167 0 -0.00023896216811657416 -0.044532457816390134 0 -0.00039525738554712432 -0.04452327694059726 0 -8.294792005525299e-05 -0.044484928026529334 0 -0.00029284798235304922 -0.044377594588072167 0 -0.00023896216811657416 -0.044532457816390134 0 -0.00018510117659393808 -0.044735117440027644 0 -8.294792005525299e-05 -0.044484928026529334 0 -0.00023896216811657416 -0.044532457816390134 0 -0.00018510117659393808 -0.044735117440027644 0 -0.00023896216811657416 -0.044532457816390134 0 -0.00039525738554712432 -0.04452327694059726 0 -0.00039525738554712432 -0.04452327694059726 0 -0.00048795484562508344 -0.044422086419451931 0 -0.00044091837533261476 -0.044330213064159747 0 -0.00029284798235304922 -0.044377594588072167 0 -0.00039525738554712432 -0.04452327694059726 0 -0.00044091837533261476 -0.044330213064159747 0 -0.00049806558806529005 -0.044485916762418733 0 -0.00039525738554712432 -0.04452327694059726 0 -0.00048795484562508344 -0.044422086419451931 0 -0.00063394297441427396 -0.044378366501768747 0 -0.00059408523703484634 -0.044468522422710946 0 -0.00056112973022428994 -0.044420068421443672 0 -0.00049806558806529005 -0.044485916762418733 0 -0.00048795484562508344 -0.044422086419451931 0 -0.00056112973022428994 -0.044420068421443672 0 -0.00048795484562508344 -0.044422086419451931 0 -0.00056112973022428994 -0.044420068421443672 0 -0.00056554482099407672 -0.044343043295718372 0 -0.00063394297441427396 -0.044378366501768747 0 -0.00056112973022428994 -0.044420068421443672 0 -0.00056554482099407672 -0.044343043295718372 0 -0.00056554482099407672 -0.044343043295718372 0 -0.00044091837533261476 -0.044330213064159747 0 -0.00054012117406179012 -0.044183611550928308 0 -0.0027975585073760538 -0.04288645230678044 0 -0.0016663193420148781 -0.043880377925845475 0 -0.00070067874246774347 -0.044307308996311329 0 -0.00056554482099407672 -0.044343043295718372 0 -0.00054012117406179012 -0.044183611550928308 0 -0.00048795484562508344 -0.044422086419451931 0 -0.00056554482099407672 -0.044343043295718372 0 -0.00044091837533261476 -0.044330213064159747 0 -0.00044091837533261476 -0.044330213064159747 0 -0.00037099750261851275 -0.044206798738169732 0 -0.00054012117406179012 -0.044183611550928308 0 -0.00029284798235304922 -0.044377594588072167 0 -0.00044091837533261476 -0.044330213064159747 0 -0.00037099750261851275 -0.044206798738169732 0 -0.0016663193420148781 -0.043880377925845475 0 -0.0010165481277130835 -0.044293204864220823 0 -0.00037099750261851275 -0.044206798738169732 0 -0.00054012117406179012 -0.044183611550928308 0 -0.00031327567001325501 -0.044024474337330435 0 -0.0033782572846711213 -0.043006637714264787 0 -0.00338031563475224 -0.043204495935638264 0 -0.0027418829547641568 -0.043271469893217625 0 -0.00338031563475224 -0.043204495935638264 0 -0.0028779711899697149 -0.043462024721291438 0 -0.0027418829547641568 -0.043271469893217625 0 -0.0028779711899697149 -0.043462024721291438 0 -0.0027418829547641568 -0.043271469893217625 0 -0.0024619159250950954 -0.043369443586434034 0 -0.0020665630401752251 -0.043477907872923098 0 -0.00064125470670514304 -0.045256440579678862 0 -0.00075346310940450619 -0.045328459820377032 0 -0.00052277865162698544 -0.044634088923995223 0 -0.00064125470670514304 -0.045256440579678862 0 -0.00031099222598549638 -0.045046084399767955 0 -0.0010210311319791816 -0.044335440401990618 0 -0.0010165481277130835 -0.044293204864220823 0 -0.00064125470670514304 -0.045256440579678862 0 -0.00039531012368555177 -0.0451589545938679 0 -0.00031099222598549638 -0.045046084399767955 0 -0.00064125470670514304 -0.045256440579678862 0 -0.00059673815308939845 -0.045222272038247933 0 -0.00039531012368555177 -0.0451589545938679 0 -0.00052277865162698544 -0.044634088923995223 0 -0.00031099222598549638 -0.045046084399767955 0 -4.0252462076844852e-07 -0.045001314789914766 0 -0.00031099222598549638 -0.045046084399767955 0 -4.0252462076844852e-07 -0.045001314789914766 0 -0.00018753791221735587 -0.045095699921420006 0 -0.00039531012368555177 -0.0451589545938679 0 -0.00031099222598549638 -0.045046084399767955 0 -0.00018753791221735587 -0.045095699921420006 0 -0.00015896058322549972 -0.045085013085590167 0 -0.00039531012368555177 -0.0451589545938679 0 -0.00018753791221735587 -0.045095699921420006 0 -4.0252462076844852e-07 -0.045001314789914766 0 -0.00018753791221735587 -0.045095699921420006 0 -1.5889161921673036e-07 -0.044999963305820241 0 -0.00015896058322549972 -0.045085013085590167 0 -0.00018753791221735587 -0.045095699921420006 0 -1.5889161921673036e-07 -0.044999963305820241 0 -0.00015896058322549972 -0.045085013085590167 0 -0.00059673815308939845 -0.045222272038247933 0 -0.00039531012368555177 -0.0451589545938679 0 -0.00022581964490141245 -0.044226551334354325 0 -0.00037099750261851275 -0.044206798738169732 0 -0.00031327567001325501 -0.044024474337330435 0 -0.00014868872202724256 -0.044725037618479957 0 -0.0010165481277130835 -0.044293204864220823 0 -9.9699645866994149e-06 -0.044874583263434444 0 3.0973049518034733e-06 -0.04484843790193533 0 -1.6484383998974376e-05 -0.044802565363184707 0 -9.9699645866994149e-06 -0.044874583263434444 0 -6.956831663851373e-05 -0.044811265390900502 0 -1.6484383998974376e-05 -0.044802565363184707 0 -0.00017222923885868279 -0.044496926641789059 0 -9.075470887858515e-06 -0.044944752321745107 0 5.5190594840713333e-05 -0.045028554754475356 0 6.1350776563768341e-05 -0.045030688922926991 0 2.094048129524575e-05 -0.045014851730011747 0 -6.2940179030434985e-05 -0.044576673921803582 0 -0.00017222923885868279 -0.044496926641789059 0 2.094048129524575e-05 -0.045014851730011747 0 8.9891882148416323e-08 -0.04500012155123178 0 -3.0645759930627179e-08 -0.044999974896146731 0 2.094048129524575e-05 -0.045014851730011747 0 8.9891882148416323e-08 -0.04500012155123178 0 2.4036738710908238e-05 -0.045012648864839841 0 5.5190594840713333e-05 -0.045028554754475356 0 2.094048129524575e-05 -0.045014851730011747 0 2.4036738710908238e-05 -0.045012648864839841 0 8.9891882148416323e-08 -0.04500012155123178 0 2.1621603096491003e-05 -0.044997061905579186 0 -1.913665346714265e-07 -0.04499966977840713 0 2.1621603096491003e-05 -0.044997061905579186 0 9.3451948085767185e-05 -0.044936427370417441 0 -1.913665346714265e-07 -0.04499966977840713 0 5.5190594840713333e-05 -0.045028554754475356 0 2.1621603096491003e-05 -0.044997061905579186 0 9.3451948085767185e-05 -0.044936427370417441 0 5.5190594840713333e-05 -0.045028554754475356 0 2.4036738710908238e-05 -0.045012648864839841 0 2.1621603096491003e-05 -0.044997061905579186 0 8.9891882148416323e-08 -0.04500012155123178 0 2.4036738710908238e-05 -0.045012648864839841 0 2.1621603096491003e-05 -0.044997061905579186 0 5.5190594840713333e-05 -0.045028554754475356 0 8.560611923878171e-05 -0.04503649925924888 0 9.3451948085767185e-05 -0.044936427370417441 0 8.560611923878171e-05 -0.04503649925924888 0 0.00028777254888687708 -0.04490985886325826 0 9.3451948085767185e-05 -0.044936427370417441 0 -0.00059330937306676193 -0.04369746658833043 0 -0.00025009164391990441 -0.043692481811551206 0 -0.00025129693347158624 -0.043326481638507004 0 -0.00017222923885868279 -0.044496926641789059 0 1.0883253109096827e-05 -0.044097630465553546 0 2.2444307627969831e-05 -0.043408191627692792 0 -0.00025009164391990441 -0.043692481811551206 0 -0.00025129693347158624 -0.043326481638507004 0 2.2444307627969831e-05 -0.043408191627692792 0 9.7041476203790384e-05 -0.043689675516715522 0 -0.00025009164391990441 -0.043692481811551206 0 -0.00016059039582194326 -0.042307202672260513 0 -0.00022247670305530965 -0.0432446011921815 0 -7.5874651033359938e-05 -0.042300541560529939 0 -0.00022247670305530965 -0.0432446011921815 0 -0.0001979498186325389 -0.043650353702394319 0 -7.5874651033359938e-05 -0.042300541560529939 0 -0.0001979498186325389 -0.043650353702394319 0 2.1735015838280633e-05 -0.043128813133979586 0 -0.00011558650600707233 -0.042688885083775018 0 -0.00041262711930495718 -0.044903838800361737 0 -0.0002850075161581177 -0.044822922307209946 0 -0.00036025625468354778 -0.044699685455773977 0 -0.0002031952291213246 -0.04352318989302071 0 -0.00018750839159433857 -0.042631441473387037 0 -0.00041262711930495718 -0.044903838800361737 0 -0.0002850075161581177 -0.044822922307209946 0 -0.00016038499156238373 -0.044901333246521076 0 -9.7819525899180469e-06 -0.043292578227105659 0 -0.00030250548104484979 -0.044014651235780328 0 -9.7819525899180469e-06 -0.043292578227105659 0 -0.00026037358427059045 -0.044336832185159221 0 -0.0002850075161581177 -0.044822922307209946 0 -0.00017180288807093976 -0.04475705083140305 0 -0.00036025625468354778 -0.044699685455773977 0 -0.00017222923885868279 -0.044496926641789059 0 -0.00026037358427059045 -0.044336832185159221 0 -9.9699645866994149e-06 -0.044874583263434444 0 -0.00016038499156238373 -0.044901333246521076 0 -6.956831663851373e-05 -0.044811265390900502 0 -0.0002850075161581177 -0.044822922307209946 0 -0.00016038499156238373 -0.044901333246521076 0 -0.00017180288807093976 -0.04475705083140305 0 -0.00016038499156238373 -0.044901333246521076 0 -0.00017180288807093976 -0.04475705083140305 0 -6.956831663851373e-05 -0.044811265390900502 0 -0.00017180288807093976 -0.04475705083140305 0 -6.956831663851373e-05 -0.044811265390900502 0 -7.0619571366946712e-05 -0.044677967733032363 0 -0.00017180288807093976 -0.04475705083140305 0 -7.0619571366946712e-05 -0.044677967733032363 0 -0.0001437327483291501 -0.044576730453047858 0 -7.0619571366946712e-05 -0.044677967733032363 0 -8.7267044394619264e-05 -0.044549254434869325 0 -4.4273125543638691e-05 -0.04472271477641903 0 -7.0619571366946712e-05 -0.044677967733032363 0 -0.0001437327483291501 -0.044576730453047858 0 -8.7267044394619264e-05 -0.044549254434869325 0 -0.00030250548104484979 -0.044014651235780328 0 -0.00021985595294672961 -0.044141383486900998 0 -0.00022247670305530965 -0.0432446011921815 0 -0.0001979498186325389 -0.043650353702394319 0 -0.00019553751926098457 -0.044228481319928702 0 -0.0001437327483291501 -0.044576730453047858 0 -0.00036025625468354778 -0.044699685455773977 0 -0.00019553751926098457 -0.044228481319928702 0 -0.0001979498186325389 -0.043650353702394319 0 5.2739983709910809e-05 -0.043537203829369826 0 2.1735015838280633e-05 -0.043128813133979586 0 -0.00017180288807093976 -0.04475705083140305 0 -0.0001437327483291501 -0.044576730453047858 0 -0.00036025625468354778 -0.044699685455773977 0 -0.0001979498186325389 -0.043650353702394319 0 4.7467832786153038e-05 -0.043871763717957479 0 5.2739983709910809e-05 -0.043537203829369826 0 4.7467832786153038e-05 -0.043871763717957479 0 -0.00019553751926098457 -0.044228481319928702 0 0.00025406108987614421 -0.044045354324968776 0 -0.0001979498186325389 -0.043650353702394319 0 4.7467832786153038e-05 -0.043871763717957479 0 -0.00019553751926098457 -0.044228481319928702 0 -8.7267044394619264e-05 -0.044549254434869325 0 -0.00010578073643052402 -0.044593279062322536 0 -4.4273125543638691e-05 -0.04472271477641903 0 -0.00019553751926098457 -0.044228481319928702 0 -8.7267044394619264e-05 -0.044549254434869325 0 -0.00010578073643052402 -0.044593279062322536 0 -0.0001437327483291501 -0.044576730453047858 0 -0.00019553751926098457 -0.044228481319928702 0 -8.7267044394619264e-05 -0.044549254434869325 0 -4.4273125543638691e-05 -0.04472271477641903 0 -2.1898666193453456e-05 -0.044876357848287703 0 -6.5367091030999442e-05 -0.044812603768708235 0 -0.00010578073643052402 -0.044593279062322536 0 -4.4273125543638691e-05 -0.04472271477641903 0 -6.5367091030999442e-05 -0.044812603768708235 0 -4.4273125543638691e-05 -0.04472271477641903 0 -8.0942716441953688e-06 -0.044860691565586801 0 -2.1898666193453456e-05 -0.044876357848287703 0 -4.4273125543638691e-05 -0.04472271477641903 0 -1.6484383998974376e-05 -0.044802565363184707 0 -8.0942716441953688e-06 -0.044860691565586801 0 -7.0619571366946712e-05 -0.044677967733032363 0 -4.4273125543638691e-05 -0.04472271477641903 0 -1.6484383998974376e-05 -0.044802565363184707 0 -6.956831663851373e-05 -0.044811265390900502 0 -7.0619571366946712e-05 -0.044677967733032363 0 -1.6484383998974376e-05 -0.044802565363184707 0 -9.075470887858515e-06 -0.044944752321745107 0 2.8387918631382309e-08 -0.04499993298657378 0 3.0973049518034733e-06 -0.04484843790193533 0 -1.6484383998974376e-05 -0.044802565363184707 0 -8.0942716441953688e-06 -0.044860691565586801 0 3.0973049518034733e-06 -0.04484843790193533 0 -4.2409063443729575e-08 -0.044999552181286033 0 -8.0942716441953688e-06 -0.044860691565586801 0 -4.2409063443729575e-08 -0.044999552181286033 0 -8.0942716441953688e-06 -0.044860691565586801 0 -2.1898666193453456e-05 -0.044876357848287703 0 -4.2409063443729575e-08 -0.044999552181286033 0 -1.7011122903242763e-08 -0.044999795860980414 0 -2.1898666193453456e-05 -0.044876357848287703 0 -1.7011122903242763e-08 -0.044999795860980414 0 -2.1898666193453456e-05 -0.044876357848287703 0 -6.5367091030999442e-05 -0.044812603768708235 0 -1.7011122903242763e-08 -0.044999795860980414 0 -6.5367091030999442e-05 -0.044812603768708235 0 -8.8452411580705353e-08 -0.044999823207624988 0 -6.5367091030999442e-05 -0.044812603768708235 0 -3.4730084592007587e-05 -0.044911079510483544 0 -6.625383505506625e-05 -0.044699043610576923 0 -6.5367091030999442e-05 -0.044812603768708235 0 -8.8452411580705353e-08 -0.044999823207624988 0 -3.4730084592007587e-05 -0.044911079510483544 0 -8.8452411580705353e-08 -0.044999823207624988 0 -3.4730084592007587e-05 -0.044911079510483544 0 3.6540071594400343e-08 -0.045000011234246622 0 0.00055669003951161369 -0.043509384583405378 0 0.00014479197463340167 -0.044656684567041097 0 -1.0257532922912374e-07 -0.044997052331604739 0 0.00029365113476086596 -0.044238279351873994 0 1.2729398128632354e-07 -0.044999657881061611 0 0.00055669003951161369 -0.043509384583405378 0 0.00055476755993201846 -0.044056132044703905 0 0.00014479197463340167 -0.044656684567041097 0 3.5815420566316152e-08 -0.045000319296779154 0 0.00014479197463340167 -0.044656684567041097 0 -1.0257532922912374e-07 -0.044997052331604739 0 0.0011599160802154872 -0.04260015405578247 0 0.00087626362151645317 -0.043713363412700129 0 0.00099230056215947153 -0.043155204605869107 0 0.00055476755993201846 -0.044056132044703905 0 0.00087626362151645317 -0.043713363412700129 0 0.00099230056215947153 -0.043155204605869107 0 0.00055669003951161369 -0.043509384583405378 0 0.00055476755993201846 -0.044056132044703905 0 0.00099230056215947153 -0.043155204605869107 0 0.0011599160802154872 -0.04260015405578247 0 0.00099230056215947153 -0.043155204605869107 0 0.00075836468364144172 -0.04289682491315109 0 0.00099230056215947153 -0.043155204605869107 0 0.00075836468364144172 -0.04289682491315109 0 0.00063941985665815426 -0.043393048878721044 0 0.0011599160802154872 -0.04260015405578247 0 0.00075836468364144172 -0.04289682491315109 0 0.00045523001716725182 -0.042002880930784275 0 0.00099230056215947153 -0.043155204605869107 0 0.00063941985665815426 -0.043393048878721044 0 0.00093199443669261871 -0.043460037503827008 0 0.00055669003951161369 -0.043509384583405378 0 0.00099230056215947153 -0.043155204605869107 0 0.00093199443669261871 -0.043460037503827008 0 0.00029365113476086596 -0.044238279351873994 0 0.00039378307027380206 -0.044084141672297177 0 -0.00010578073643052402 -0.044593279062322536 0 -6.5367091030999442e-05 -0.044812603768708235 0 -6.625383505506625e-05 -0.044699043610576923 0 -0.00019553751926098457 -0.044228481319928702 0 -0.00010578073643052402 -0.044593279062322536 0 -6.625383505506625e-05 -0.044699043610576923 0 -0.00019553751926098457 -0.044228481319928702 0 -6.625383505506625e-05 -0.044699043610576923 0 0.00025406108987614421 -0.044045354324968776 0 0.00063941985665815426 -0.043393048878721044 0 0.00093199443669261871 -0.043460037503827008 0 0.00025406108987614421 -0.044045354324968776 0 0.00039378307027380206 -0.044084141672297177 0 0.00026515591303105977 -0.0440706908534391 0 0.00063941985665815426 -0.043393048878721044 0 0.00023051727816526387 -0.043738964223312901 0 0.00025406108987614421 -0.044045354324968776 0 0.00023051727816526387 -0.043738964223312901 0 0.00025185360104621303 -0.0439327581043387 0 0.00025406108987614421 -0.044045354324968776 0 0.00023051727816526387 -0.043738964223312901 0 0.00025185360104621303 -0.0439327581043387 0 6.5191518210155132e-05 -0.043669043362172352 0 0.00023051727816526387 -0.043738964223312901 0 6.5191518210155132e-05 -0.043669043362172352 0 6.8799778224613525e-05 -0.043215944468928812 0 -0.00090868365638826435 -0.042809475208417873 0 -0.00017240297696035479 -0.04178628061033101 0 -0.0010278766272921065 -0.041862428511816027 0 -0.00054419495064525871 -0.043451378919299316 0 3.1244269550582763e-05 -0.042442215512494136 0 0.00063941985665815426 -0.043393048878721044 0 0.00023051727816526387 -0.043738964223312901 0 6.8799778224613525e-05 -0.043215944468928812 0 0.00075836468364144172 -0.04289682491315109 0 6.8799778224613525e-05 -0.043215944468928812 0 0.00045523001716725182 -0.042002880930784275 0 0.00075836468364144172 -0.04289682491315109 0 0.00063941985665815426 -0.043393048878721044 0 6.8799778224613525e-05 -0.043215944468928812 0 -0.00017240297696035479 -0.04178628061033101 0 -0.00012623965793689601 -0.041474456721540813 0 0.00045523001716725182 -0.042002880930784275 0 3.1244269550582763e-05 -0.042442215512494136 0 0.00042480169978567698 -0.041988575360680055 0 -0.00017240297696035479 -0.04178628061033101 0 -0.00086276751788017512 -0.041169856334178259 0 -0.0010278766272921065 -0.041862428511816027 0 -0.00017240297696035479 -0.04178628061033101 0 -0.00086276751788017512 -0.041169856334178259 0 -0.00012623965793689601 -0.041474456721540813 0 -0.00086276751788017512 -0.041169856334178259 0 -1.9213083939295524e-05 -0.040729557775800847 0 -0.0014497791598040331 -0.039949134370176061 0 -0.00086276751788017512 -0.041169856334178259 0 -0.00012623965793689601 -0.041474456721540813 0 -1.9213083939295524e-05 -0.040729557775800847 0 0.0005739015260597082 -0.040890124377068404 0 -1.9213083939295524e-05 -0.040729557775800847 0 0.00045523001716725182 -0.042002880930784275 0 0.0005739015260597082 -0.040890124377068404 0 0.0011599160802154872 -0.04260015405578247 0 0.00045523001716725182 -0.042002880930784275 0 -0.00012623965793689601 -0.041474456721540813 0 -1.9213083939295524e-05 -0.040729557775800847 0 0.00045523001716725182 -0.042002880930784275 0 -0.002296335063925055 -0.038143604616604633 0 -0.002713848061891531 -0.03960453066786853 0 -0.0014497791598040331 -0.039949134370176061 0 -0.002713848061891531 -0.03960453066786853 0 -0.0014497791598040331 -0.039949134370176061 0 -0.0018460212447074641 -0.041142460612624124 0 -0.00086276751788017512 -0.041169856334178259 0 -0.0014497791598040331 -0.039949134370176061 0 -0.0018460212447074641 -0.041142460612624124 0 -0.00086276751788017512 -0.041169856334178259 0 -0.0018460212447074641 -0.041142460612624124 0 -0.0010278766272921065 -0.041862428511816027 0 -0.002713848061891531 -0.03960453066786853 0 -0.0018460212447074641 -0.041142460612624124 0 -0.0028761912984463208 -0.041682929059609929 0 -0.002713848061891531 -0.03960453066786853 0 -0.0028761912984463208 -0.041682929059609929 0 -0.0041025529787014929 -0.041028084590609248 0 -0.0028761912984463208 -0.041682929059609929 0 -0.0022283396945583095 -0.042656599995323764 0 -0.0038286819319427244 -0.042743242858136757 0 -0.0018460212447074641 -0.041142460612624124 0 -0.0028761912984463208 -0.041682929059609929 0 -0.0022283396945583095 -0.042656599995323764 0 -0.0018460212447074641 -0.041142460612624124 0 -0.0022283396945583095 -0.042656599995323764 0 -0.0010278766272921065 -0.041862428511816027 0 -0.00090868365638826435 -0.042809475208417873 0 -0.0022283396945583095 -0.042656599995323764 0 -0.0010278766272921065 -0.041862428511816027 0 -0.00090868365638826435 -0.042809475208417873 0 -0.0022283396945583095 -0.042656599995323764 0 -0.0018046794141980337 -0.044035485484346035 0 -0.00054419495064525871 -0.043451378919299316 0 -0.00079263498476035037 -0.042611522817318767 0 0.00025185360104621303 -0.0439327581043387 0 6.5191518210155132e-05 -0.043669043362172352 0 -9.2094793453405927e-05 -0.043975824799975242 0 -0.0022283396945583095 -0.042656599995323764 0 -0.0027708078586548409 -0.043567155450901791 0 -0.0018046794141980337 -0.044035485484346035 0 -0.0022283396945583095 -0.042656599995323764 0 -0.0027708078586548409 -0.043567155450901791 0 -0.0038286819319427244 -0.042743242858136757 0 -0.0027708078586548409 -0.043567155450901791 0 -0.0029571253647765624 -0.044210312749728836 0 -0.0018046794141980337 -0.044035485484346035 0 -0.001706844696274361 -0.039588543160792369 0 -0.0016791745266720431 -0.03973477821039012 0 -0.00152813909609241 -0.039485903659185209 0 -0.0016791745266720431 -0.03973477821039012 0 -0.0014755695092564965 -0.039459139261889854 0 -0.00152813909609241 -0.039485903659185209 0 -0.0027708078586548409 -0.043567155450901791 0 -0.0029571253647765624 -0.044210312749728836 0 -0.0036463200273012977 -0.044210704210975886 0 -0.0016868838018423875 -0.039462453079374106 0 -0.001706844696274361 -0.039588543160792369 0 -0.00152813909609241 -0.039485903659185209 0 0.00023728055414534951 -0.041381027606853686 0 -0.00079263498476035037 -0.042611522817318767 0 -0.0016868838018423875 -0.039462453079374106 0 -0.001706844696274361 -0.039588543160792369 0 -0.0018259153423903487 -0.039440229907667892 0 -0.0022406016514753542 -0.040726633595170841 0 -0.00079263498476035037 -0.042611522817318767 0 -0.0022406016514753542 -0.040726633595170841 0 -0.00146399176765 -0.039846413144710907 0 -0.0016768067096583077 -0.039500005907366402 0 -0.0014755695092564965 -0.039459139261889854 0 -0.00152813909609241 -0.039485903659185209 0 0.0017342546115795519 -0.043146173553671355 0 0.00086981613246813133 -0.043163907826300411 0 0.0015748096389169169 -0.042320438298594387 0 0.0017342546115795519 -0.043146173553671355 0 0.00086981613246813133 -0.043163907826300411 0 0.00093106447298238666 -0.044000074213489088 0 -0.001706844696274361 -0.039588543160792369 0 -0.0016791745266720431 -0.03973477821039012 0 -0.0018584774222085295 -0.039863588382938707 0 0.00086981613246813133 -0.043163907826300411 0 0.00058469364327538018 -0.043663558350661928 0 0.00037451900455358296 -0.043538658669628805 0 0.00059190750323164757 -0.043848045558208287 0 -0.00079263498476035037 -0.042611522817318767 0 0.00025185360104621303 -0.0439327581043387 0 0.00058469364327538018 -0.043663558350661928 0 0.00093106447298238666 -0.044000074213489088 0 0.00086981613246813133 -0.043163907826300411 0 0.00058469364327538018 -0.043663558350661928 0 0.00093106447298238666 -0.044000074213489088 0 0.00025185360104621303 -0.0439327581043387 0 0.00058469364327538018 -0.043663558350661928 0 0.00037451900455358296 -0.043538658669628805 0 0.00025185360104621303 -0.0439327581043387 0 0.00021853310783476629 -0.043747605561365678 0 0.00037451900455358296 -0.043538658669628805 0 0.00025185360104621303 -0.0439327581043387 0 0.00025406108987614421 -0.044045354324968776 0 0.00021853310783476629 -0.043747605561365678 0 4.7467832786153038e-05 -0.043871763717957479 0 0.00025406108987614421 -0.044045354324968776 0 0.00021853310783476629 -0.043747605561365678 0 4.7467832786153038e-05 -0.043871763717957479 0 0.00021853310783476629 -0.043747605561365678 0 5.2739983709910809e-05 -0.043537203829369826 0 0.00021853310783476629 -0.043747605561365678 0 5.2739983709910809e-05 -0.043537203829369826 0 0.00019852177111644073 -0.043260404538593027 0 5.2739983709910809e-05 -0.043537203829369826 0 0.00019852177111644073 -0.043260404538593027 0 2.1735015838280633e-05 -0.043128813133979586 0 0.00086981613246813133 -0.043163907826300411 0 0.00037451900455358296 -0.043538658669628805 0 0.00045510038789278783 -0.042910578373124196 0 0.00021853310783476629 -0.043747605561365678 0 0.00019852177111644073 -0.043260404538593027 0 0.00037451900455358296 -0.043538658669628805 0 0.00019852177111644073 -0.043260404538593027 0 0.00037451900455358296 -0.043538658669628805 0 0.00045510038789278783 -0.042910578373124196 0 0.00045510038789278783 -0.042910578373124196 0 0.00035426367403196838 -0.042514290920612458 0 0.00085016232209201117 -0.041951909997578973 0 0.00019852177111644073 -0.043260404538593027 0 0.00045510038789278783 -0.042910578373124196 0 0.00035426367403196838 -0.042514290920612458 0 0.00017723354268877099 -0.04198888066467818 0 -0.00018750839159433857 -0.042631441473387037 0 0.00019852177111644073 -0.043260404538593027 0 0.00035426367403196838 -0.042514290920612458 0 2.1735015838280633e-05 -0.043128813133979586 0 0.00035426367403196838 -0.042514290920612458 0 2.1735015838280633e-05 -0.043128813133979586 0 -0.00011558650600707233 -0.042688885083775018 0 -9.7819525899180469e-06 -0.043292578227105659 0 -0.00018750839159433857 -0.042631441473387037 0 0.00026963437857428486 -0.043022918957295465 0 0.00027704122136967536 -0.04302282502746041 0 0.00032575721981337836 -0.042960936295255693 0 -9.7819525899180469e-06 -0.043292578227105659 0 0.00031697954926952917 -0.043103319361242599 0 -0.00018750839159433857 -0.042631441473387037 0 8.806107520185109e-05 -0.041792785991485421 0 -3.6949998934494579e-05 -0.041514685032028473 0 -0.00062986702816776445 -0.041486444418290129 0 -0.000210818981026495 -0.040729625801585588 0 0.00026963437857428486 -0.043022918957295465 0 0.00032575721981337836 -0.042960936295255693 0 0.00032229730718597954 -0.042947961624963317 0 2.2444307627969831e-05 -0.043408191627692792 0 9.7041476203790384e-05 -0.043689675516715522 0 0.00026297610377585949 -0.04324783548951381 0 -3.6949998934494579e-05 -0.041514685032028473 0 0.00023172856088916476 -0.040902577352450946 0 -0.000210818981026495 -0.040729625801585588 0 -3.6949998934494579e-05 -0.041514685032028473 0 0.00023172856088916476 -0.040902577352450946 0 0.00085016232209201117 -0.041951909997578973 0 0.00023172856088916476 -0.040902577352450946 0 0.00085016232209201117 -0.041951909997578973 0 0.00064001816106056279 -0.040421671187063052 0 0.0010970119266938087 -0.040401336701934909 0 0.0005884613982474362 -0.040291841934943978 0 0.0018435080309628735 -0.041273709378668935 0 0.00085016232209201117 -0.041951909997578973 0 0.00064001816106056279 -0.040421671187063052 0 0.0018435080309628735 -0.041273709378668935 0 0.0015748096389169169 -0.042320438298594387 0 0.00085016232209201117 -0.041951909997578973 0 0.00086981613246813133 -0.043163907826300411 0 0.00045510038789278783 -0.042910578373124196 0 0.00085016232209201117 -0.041951909997578973 0 0.00086981613246813133 -0.043163907826300411 0 0.0015748096389169169 -0.042320438298594387 0 0.00085016232209201117 -0.041951909997578973 0 0.00017723354268877099 -0.04198888066467818 0 0.00086948077859790376 -0.041973615654417984 0 -0.0022950864329676405 -0.039922948646136415 0 -0.0021237214964571101 -0.040321838253344219 0 -0.0028995026047864249 -0.039925262986514241 0 -0.00054426971201223715 -0.040188580713252563 0 -0.0026060984940359014 -0.038450601769700256 0 -0.00083654968546914056 -0.038672457052325596 0 -0.001563380080075596 -0.038735152831767469 0 -0.0018833509541867162 -0.037325376622218596 0 -0.00061247230008214736 -0.038370829231419643 0 -0.00083654968546914056 -0.038672457052325596 0 -0.0018833509541867162 -0.037325376622218596 0 0.00023728055414534951 -0.041381027606853686 0 -0.00054426971201223715 -0.040188580713252563 0 0.0018435080309628735 -0.041273709378668935 0 0.0015748096389169169 -0.042320438298594387 0 0.0027127789174982036 -0.041900634396209467 0 -0.0016791745266720431 -0.03973477821039012 0 -0.0021237214964571101 -0.040321838253344219 0 -0.0018584774222085295 -0.039863588382938707 0 0.0017342546115795519 -0.043146173553671355 0 0.0015748096389169169 -0.042320438298594387 0 0.0027127789174982036 -0.041900634396209467 0 -0.0022950864329676405 -0.039922948646136415 0 -0.0021237214964571101 -0.040321838253344219 0 -0.0018584774222085295 -0.039863588382938707 0 -0.00067479549380276903 -0.038481398940483288 0 -0.00083654968546914056 -0.038672457052325596 0 -0.00049132353001908472 -0.039316126521257218 0 2.761141850695667e-05 -0.039311274290733451 0 -0.00049132353001908472 -0.039316126521257218 0 -0.00011492844979284301 -0.040157781355627163 0 -0.00054426971201223715 -0.040188580713252563 0 -0.0003156515255707079 -0.039380110258313346 0 0.0010970119266938087 -0.040401336701934909 0 -0.00054426971201223715 -0.040188580713252563 0 2.761141850695667e-05 -0.039311274290733451 0 -0.00067479549380276903 -0.038481398940483288 0 -0.00049132353001908472 -0.039316126521257218 0 -0.00083654968546914056 -0.038672457052325596 0 -0.00049132353001908472 -0.039316126521257218 0 -0.00097163636725773627 -0.039065718010630204 0 -0.00049132353001908472 -0.039316126521257218 0 -0.00097163636725773627 -0.039065718010630204 0 -0.0010398451328536618 -0.039524200526802979 0 -0.00097163636725773627 -0.039065718010630204 0 -0.001563380080075596 -0.038735152831767469 0 -0.0010398451328536618 -0.039524200526802979 0 -0.001563380080075596 -0.038735152831767469 0 -0.0019441624388820103 -0.039402018423998875 0 -0.0010398451328536618 -0.039524200526802979 0 -0.00083654968546914056 -0.038672457052325596 0 -0.00097163636725773627 -0.039065718010630204 0 -0.001563380080075596 -0.038735152831767469 0 -0.0026859378268841078 -0.038305316083648573 0 -0.0027612398001343641 -0.03929544300449167 0 -0.0019441624388820103 -0.039402018423998875 0 -0.001563380080075596 -0.038735152831767469 0 -0.0026859378268841078 -0.038305316083648573 0 -0.0019441624388820103 -0.039402018423998875 0 -0.0026859378268841078 -0.038305316083648573 0 -0.0039498624252097912 -0.039039642940788322 0 -0.0027612398001343641 -0.03929544300449167 0 -0.0026859378268841078 -0.038305316083648573 0 -0.0039853684043549805 -0.037924749662855618 0 -0.0039498624252097912 -0.039039642940788322 0 -0.0026859378268841078 -0.038305316083648573 0 -0.0031940435884044798 -0.036404747666169482 0 -0.0039853684043549805 -0.037924749662855618 0 -0.001563380080075596 -0.038735152831767469 0 -0.0026859378268841078 -0.038305316083648573 0 -0.0018833509541867162 -0.037325376622218596 0 -0.0026859378268841078 -0.038305316083648573 0 -0.0018833509541867162 -0.037325376622218596 0 -0.0031940435884044798 -0.036404747666169482 0 -0.0028995026047864249 -0.039925262986514241 0 -0.0032299791151288635 -0.039421116939609063 0 -0.0027743924167967608 -0.039500374731001084 0 -0.0032299791151288635 -0.039421116939609063 0 -0.0038715850257979882 -0.039188567689464895 0 -0.003078569721100747 -0.039293487003671211 0 -0.0026060984940359014 -0.038450601769700256 0 -0.0034011193149918028 -0.037995453460102371 0 -0.0028995026047864249 -0.039925262986514241 0 -0.0032299791151288635 -0.039421116939609063 0 -0.0037367824459316932 -0.039381144310677504 0 -0.003078569721100747 -0.039293487003671211 0 -0.002780057978006466 -0.039310675899655867 0 -0.0027743924167967608 -0.039500374731001084 0 -0.0032299791151288635 -0.039421116939609063 0 -0.003078569721100747 -0.039293487003671211 0 -0.0027743924167967608 -0.039500374731001084 0 -0.0032299791151288635 -0.039421116939609063 0 -0.0037367824459316932 -0.039381144310677504 0 -0.0038715850257979882 -0.039188567689464895 0 -0.0036829618067054262 -0.0388921654810577 0 -0.0038715850257979882 -0.039188567689464895 0 -0.0030888792404967975 -0.039019563087334744 0 -0.0036829618067054262 -0.0388921654810577 0 -0.0038715850257979882 -0.039188567689464895 0 -0.0045056676581682348 -0.038840459293732185 0 -0.0036829618067054262 -0.0388921654810577 0 -0.0030888792404967975 -0.039019563087334744 0 -0.0030110912270796975 -0.038880326455245674 0 -0.0038737448915252236 -0.039208224139666827 0 -0.0028826135049182969 -0.038975719438468517 0 -0.0038715850257979882 -0.039188567689464895 0 -0.003078569721100747 -0.039293487003671211 0 -0.0028491836930891095 -0.039101056189076201 0 -0.0039786736325701918 -0.037734732144344904 0 -0.0039412958742884663 -0.03753175223044572 0 -0.003078569721100747 -0.039293487003671211 0 -0.0028491836930891095 -0.039101056189076201 0 -0.002780057978006466 -0.039310675899655867 0 -0.0028491836930891095 -0.039101056189076201 0 -0.0025301273159077015 -0.039316752122090258 0 -0.0019028609829781422 -0.038942727620661505 0 -0.0030888792404967975 -0.039019563087334744 0 -0.0030110912270796975 -0.038880326455245674 0 -0.0024015255686113111 -0.038876475325286902 0 -0.0028826135049182969 -0.038975719438468517 0 -0.0025461047092553636 -0.039490545718438623 0 -0.0044478058486486496 -0.036521223424636914 0 -0.0047403381684039559 -0.036547126004649058 0 -0.0045888271996811043 -0.03666303962808614 0 -0.0039412958742884663 -0.03753175223044572 0 -0.0025461047092553636 -0.039490545718438623 0 -0.0028491836930891095 -0.039101056189076201 0 -0.0025301273159077015 -0.039316752122090258 0 -0.002780057978006466 -0.039310675899655867 0 -0.0025301273159077015 -0.039316752122090258 0 -0.0027743924167967608 -0.039500374731001084 0 -0.0024835902481759337 -0.039628178527641604 0 -0.0022950864329676405 -0.039922948646136415 0 -0.0028995026047864249 -0.039925262986514241 0 -0.0024835902481759337 -0.039628178527641604 0 -0.0025301273159077015 -0.039316752122090258 0 -0.002780057978006466 -0.039310675899655867 0 -0.0027743924167967608 -0.039500374731001084 0 -0.0025301273159077015 -0.039316752122090258 0 -0.0023024860808655056 -0.039436002133038939 0 -0.0024835902481759337 -0.039628178527641604 0 -0.0023024860808655056 -0.039436002133038939 0 -0.0024835902481759337 -0.039628178527641604 0 -0.0021352211638825695 -0.039675392629120822 0 -0.0022950864329676405 -0.039922948646136415 0 -0.0024835902481759337 -0.039628178527641604 0 -0.0021352211638825695 -0.039675392629120822 0 -0.0028995026047864249 -0.039925262986514241 0 -0.0027743924167967608 -0.039500374731001084 0 -0.0024835902481759337 -0.039628178527641604 0 -0.0017133152679903901 -0.03971539676452418 0 -0.0025461047092553636 -0.039490545718438623 0 -0.0018584774222085295 -0.039863588382938707 0 -0.0021352211638825695 -0.039675392629120822 0 -0.0019028609829781422 -0.038942727620661505 0 -0.0022950864329676405 -0.039922948646136415 0 -0.0018584774222085295 -0.039863588382938707 0 -0.0021352211638825695 -0.039675392629120822 0 -0.0025301273159077015 -0.039316752122090258 0 -0.0023024860808655056 -0.039436002133038939 0 -0.0019028609829781422 -0.038942727620661505 0 -0.0023024860808655056 -0.039436002133038939 0 -0.0021352211638825695 -0.039675392629120822 0 -0.0019028609829781422 -0.038942727620661505 0 -0.001706844696274361 -0.039588543160792369 0 -0.0018584774222085295 -0.039863588382938707 0 -0.0018259153423903487 -0.039440229907667892 0 -0.0022406016514753542 -0.040726633595170841 0 -0.0025461047092553636 -0.039490545718438623 0 -0.0027708078586548409 -0.043567155450901791 0 -0.0036463200273012977 -0.044210704210975886 0 -0.0038286819319427244 -0.042743242858136757 0 -0.0025461047092553636 -0.039490545718438623 0 -0.0043750230475644979 -0.039940466838741653 0 -0.0047403381684039559 -0.036547126004649058 0 -0.0045888271996811043 -0.03666303962808614 0 -0.0047579283876524924 -0.036831644428077556 0 -0.0045888271996811043 -0.03666303962808614 0 -0.0044001095854825593 -0.036812994176835215 0 -0.0047579283876524924 -0.036831644428077556 0 -0.0044478058486486496 -0.036521223424636914 0 -0.0045888271996811043 -0.03666303962808614 0 -0.0044001095854825593 -0.036812994176835215 0 -0.0044001095854825593 -0.036812994176835215 0 -0.0047579283876524924 -0.036831644428077556 0 -0.0047134786238723957 -0.03733163554472399 0 -0.0043750230475644979 -0.039940466838741653 0 -0.0043601001227610821 -0.039112780400506988 0 -0.0028761912984463208 -0.041682929059609929 0 -0.0038286819319427244 -0.042743242858136757 0 -0.0041025529787014929 -0.041028084590609248 0 -0.0044001095854825593 -0.036812994176835215 0 -0.004289066758585201 -0.037641070586380804 0 -0.0043248396991715102 -0.037198343855177535 0 -0.0044001095854825593 -0.036812994176835215 0 -0.0047134786238723957 -0.03733163554472399 0 -0.004289066758585201 -0.037641070586380804 0 -0.004359707591765666 -0.037240556513368446 0 -0.0042171160786433686 -0.037530423072029154 0 -0.004289066758585201 -0.037641070586380804 0 -0.0042171160786433686 -0.037530423072029154 0 -0.004289066758585201 -0.037641070586380804 0 -0.0041991237259247846 -0.038402699972868118 0 -0.0043601001227610821 -0.039112780400506988 0 -0.0042713729995176551 -0.0384696538748499 0 -0.002713848061891531 -0.03960453066786853 0 -0.0041025529787014929 -0.041028084590609248 0 -0.0041991237259247846 -0.038402699972868118 0 -0.0047134786238723957 -0.03733163554472399 0 -0.004289066758585201 -0.037641070586380804 0 -0.0041991237259247846 -0.038402699972868118 0 -0.0033908377402972539 -0.038130999474199158 0 -0.002713848061891531 -0.03960453066786853 0 -0.0041991237259247846 -0.038402699972868118 0 -0.004385597267291476 -0.036892487570790382 0 -0.004359707591765666 -0.037240556513368446 0 -0.0043831602845889103 -0.036856440007733068 0 -0.004359707591765666 -0.037240556513368446 0 -0.004289066758585201 -0.037641070586380804 0 -0.0043248396991715102 -0.037198343855177535 0 -0.004359707591765666 -0.037240556513368446 0 -0.0043248396991715102 -0.037198343855177535 0 -0.0043831602845889103 -0.036856440007733068 0 -0.0044001095854825593 -0.036812994176835215 0 -0.0043248396991715102 -0.037198343855177535 0 -0.0043376882763148748 -0.036788159086230822 0 -0.0043831602845889103 -0.036856440007733068 0 -0.0043376882763148748 -0.036788159086230822 0 -0.0044018198230593841 -0.03646677319298048 0 -0.0043248396991715102 -0.037198343855177535 0 -0.0043831602845889103 -0.036856440007733068 0 -0.0043376882763148748 -0.036788159086230822 0 -0.0043376882763148748 -0.036788159086230822 0 -0.0043431867576314608 -0.036569647064292603 0 -0.0044018198230593841 -0.03646677319298048 0 -0.0043431867576314608 -0.036569647064292603 0 -0.0043917204835403085 -0.036278720606252604 0 -0.0044018198230593841 -0.03646677319298048 0 -0.0044001095854825593 -0.036812994176835215 0 -0.0043376882763148748 -0.036788159086230822 0 -0.0043431867576314608 -0.036569647064292603 0 -0.0044478058486486496 -0.036521223424636914 0 -0.0044001095854825593 -0.036812994176835215 0 -0.0043431867576314608 -0.036569647064292603 0 -0.0043380857155609354 -0.03644464642254773 0 -0.0044478058486486496 -0.036521223424636914 0 -0.0043431867576314608 -0.036569647064292603 0 -0.0043380857155609354 -0.03644464642254773 0 -0.0043431867576314608 -0.036569647064292603 0 -0.0043917204835403085 -0.036278720606252604 0 -0.0043917204835403085 -0.036278720606252604 0 -0.004558449765254392 -0.0360015545758628 0 -0.0044310707446112065 -0.036289603501169616 0 -0.0043380857155609354 -0.03644464642254773 0 -0.0043917204835403085 -0.036278720606252604 0 -0.0044310707446112065 -0.036289603501169616 0 -0.0043917204835403085 -0.036278720606252604 0 -0.004558449765254392 -0.0360015545758628 0 -0.0045120035168383791 -0.035940571139099417 0 -0.004558449765254392 -0.0360015545758628 0 -0.0045120035168383791 -0.035940571139099417 0 -0.0047700992948809052 -0.035717840461844667 0 -0.0043917204835403085 -0.036278720606252604 0 -0.0045120035168383791 -0.035940571139099417 0 -0.0044018198230593841 -0.03646677319298048 0 -0.0045120035168383791 -0.035940571139099417 0 -0.0044018198230593841 -0.03646677319298048 0 -0.0044480457644336486 -0.036469278350336615 0 -0.0043831602845889103 -0.036856440007733068 0 -0.0044018198230593841 -0.03646677319298048 0 -0.0044480457644336486 -0.036469278350336615 0 -0.0045120035168383791 -0.035940571139099417 0 -0.0044480457644336486 -0.036469278350336615 0 -0.0044950225988143588 -0.036051921797821067 0 -0.0044480457644336486 -0.036469278350336615 0 -0.0043886707973929953 -0.036503790568723667 0 -0.0044950225988143588 -0.036051921797821067 0 -0.0023416196389658981 -0.03274516338843135 0 -0.0030242918717237801 -0.033378109310717462 0 -0.004385597267291476 -0.036892487570790382 0 -0.0044480457644336486 -0.036469278350336615 0 -0.0043886707973929953 -0.036503790568723667 0 -0.004385597267291476 -0.036892487570790382 0 -0.0043831602845889103 -0.036856440007733068 0 -0.0044480457644336486 -0.036469278350336615 0 -0.0030844589029735249 -0.029114563032346035 0 -0.0017188577799817917 -0.029641918205270575 0 -0.003301187203029513 -0.030648135128229916 0 -0.0042793630868682162 -0.031213839945877082 0 -0.0043742922909884366 -0.026637713673967497 0 -0.0030844589029735249 -0.029114563032346035 0 -0.003301187203029513 -0.030648135128229916 0 -0.0042735687963362913 -0.029281953624827137 0 -0.0030242918717237801 -0.033378109310717462 0 -0.0042793630868682162 -0.031213839945877082 0 -0.0043886707973929953 -0.036503790568723667 0 -0.0044950225988143588 -0.036051921797821067 0 -0.0039429739302831376 -0.036100192695142252 0 -0.0044950225988143588 -0.036051921797821067 0 -0.0039429739302831376 -0.036100192695142252 0 -0.0046427740854359271 -0.035343759949300904 0 -0.0057194627280521227 -0.033489538657008815 0 -0.0058997873336770791 -0.034493020408208064 0 -0.0046427740854359271 -0.035343759949300904 0 -0.0042793630868682162 -0.031213839945877082 0 -0.0043882349023786254 -0.036391518627099571 0 -0.0058997873336770791 -0.034493020408208064 0 -0.0046427740854359271 -0.035343759949300904 0 -0.0053795233698456712 -0.035179387269619306 0 -0.0058997873336770791 -0.034493020408208064 0 -0.0053795233698456712 -0.035179387269619306 0 -0.0065700577262137452 -0.034422249844277587 0 -0.0045120035168383791 -0.035940571139099417 0 -0.0044950225988143588 -0.036051921797821067 0 -0.0046427740854359271 -0.035343759949300904 0 -0.0045120035168383791 -0.035940571139099417 0 -0.0046427740854359271 -0.035343759949300904 0 -0.0047700992948809052 -0.035717840461844667 0 -0.0047700992948809052 -0.035717840461844667 0 -0.005543897617785132 -0.035710634041499337 0 -0.0050259102406283122 -0.036028996951657129 0 -0.0046427740854359271 -0.035343759949300904 0 -0.0047700992948809052 -0.035717840461844667 0 -0.0053795233698456712 -0.035179387269619306 0 -0.004558449765254392 -0.0360015545758628 0 -0.0047700992948809052 -0.035717840461844667 0 -0.0050259102406283122 -0.036028996951657129 0 -0.0047700992948809052 -0.035717840461844667 0 -0.0053795233698456712 -0.035179387269619306 0 -0.005543897617785132 -0.035710634041499337 0 -0.0053795233698456712 -0.035179387269619306 0 -0.005543897617785132 -0.035710634041499337 0 -0.0065700577262137452 -0.034422249844277587 0 -0.005543897617785132 -0.035710634041499337 0 -0.0054039886875949595 -0.036125736808018748 0 -0.0061824532321532056 -0.035960557675677685 0 -0.005543897617785132 -0.035710634041499337 0 -0.0054039886875949595 -0.036125736808018748 0 -0.0050259102406283122 -0.036028996951657129 0 -0.0055026229223775975 -0.036322216439691246 0 -0.0051371357884542907 -0.036446657592912567 0 -0.0054678224362668679 -0.036460773856785735 0 -0.0054039886875949595 -0.036125736808018748 0 -0.0055026229223775975 -0.036322216439691246 0 -0.0051371357884542907 -0.036446657592912567 0 -0.0051371357884542907 -0.036446657592912567 0 -0.0050259102406283122 -0.036028996951657129 0 -0.0048227244014285766 -0.036263444460433676 0 -0.0054039886875949595 -0.036125736808018748 0 -0.0051371357884542907 -0.036446657592912567 0 -0.0050259102406283122 -0.036028996951657129 0 -0.004558449765254392 -0.0360015545758628 0 -0.0050259102406283122 -0.036028996951657129 0 -0.0042143048501704587 -0.036271866455666664 0 -0.0050259102406283122 -0.036028996951657129 0 -0.0043783429979297695 -0.035837433790725515 0 -0.0048227244014285766 -0.036263444460433676 0 -0.0049111832485022469 -0.035809558541631585 0 -0.004415809369418244 -0.036918352814684932 0 -0.0046232940522801125 -0.036084067300639899 0 -0.004415809369418244 -0.036918352814684932 0 -0.0039786736325701918 -0.037734732144344904 0 -0.004415809369418244 -0.036918352814684932 0 -0.0034011193149918028 -0.037995453460102371 0 -0.004415809369418244 -0.036918352814684932 0 -0.0037367824459316932 -0.039381144310677504 0 -0.0038715850257979882 -0.039188567689464895 0 -0.0045056676581682348 -0.038840459293732185 0 -0.0031940435884044798 -0.036404747666169482 0 -0.0046056440016921394 -0.036694408698051635 0 -0.0039853684043549805 -0.037924749662855618 0 -0.0031940435884044798 -0.036404747666169482 0 -0.0043783429979297695 -0.035837433790725515 0 -0.0046056440016921394 -0.036694408698051635 0 -0.0043783429979297695 -0.035837433790725515 0 -0.0048227244014285766 -0.036263444460433676 0 -0.0046056440016921394 -0.036694408698051635 0 -0.0051371357884542907 -0.036446657592912567 0 -0.0048227244014285766 -0.036263444460433676 0 -0.0046056440016921394 -0.036694408698051635 0 -0.0051371357884542907 -0.036446657592912567 0 -0.0046056440016921394 -0.036694408698051635 0 -0.0049601433031730667 -0.036675571229334472 0 -0.0046161695052556158 -0.03668710469052993 0 -0.0049745201084662261 -0.037402621542487746 0 -0.0046056440016921394 -0.036694408698051635 0 -0.0048974198486933448 -0.038073973267692206 0 -0.0039853684043549805 -0.037924749662855618 0 -0.0039853684043549805 -0.037924749662855618 0 -0.0045185150356353539 -0.038762569651638469 0 -0.0039498624252097912 -0.039039642940788322 0 -0.0048974198486933448 -0.038073973267692206 0 -0.0039853684043549805 -0.037924749662855618 0 -0.0045185150356353539 -0.038762569651638469 0 -0.0049745201084662261 -0.037402621542487746 0 -0.0042281531984957607 -0.037612809984627495 0 -0.0048974198486933448 -0.038073973267692206 0 -0.0045185150356353539 -0.038762569651638469 0 -0.0049527740785247788 -0.038965871436385816 0 -0.0049601433031730667 -0.036675571229334472 0 -0.005227727922808954 -0.036641981386785427 0 -0.0051771184003303224 -0.036671121352745327 0 -0.0049601433031730667 -0.036675571229334472 0 -0.0052613285594755891 -0.036580880159521829 0 -0.005227727922808954 -0.036641981386785427 0 -0.0052613285594755891 -0.036580880159521829 0 -0.0053413998475816769 -0.036609753107822655 0 -0.0054672110224138273 -0.036533202360718796 0 -0.0052613285594755891 -0.036580880159521829 0 -0.0054678224362668679 -0.036460773856785735 0 -0.0054672110224138273 -0.036533202360718796 0 -0.0052613285594755891 -0.036580880159521829 0 -0.005227727922808954 -0.036641981386785427 0 -0.0053413998475816769 -0.036609753107822655 0 -0.0053413998475816769 -0.036609753107822655 0 -0.0054672110224138273 -0.036533202360718796 0 -0.0054886826036874992 -0.036593104596625119 0 -0.0051371357884542907 -0.036446657592912567 0 -0.0052613285594755891 -0.036580880159521829 0 -0.0054678224362668679 -0.036460773856785735 0 -0.0051371357884542907 -0.036446657592912567 0 -0.0049601433031730667 -0.036675571229334472 0 -0.0052613285594755891 -0.036580880159521829 0 -0.0052314227205197518 -0.036623968953930573 0 -0.005229370009218642 -0.036627667002035506 0 -0.0052529561535208337 -0.036653103339031087 0 -0.0035067400190431633 -0.032293566090002314 0 -0.0042281531984957607 -0.037612809984627495 0 -0.0035067400190431633 -0.032293566090002314 0 -0.0045076343965429044 -0.034751764552300127 0 -0.0045076343965429044 -0.034751764552300127 0 -0.0054506530855090449 -0.0367598989286302 0 -0.0053796172031378275 -0.036475180608657447 0 -0.0053881311549567401 -0.036482739184178603 0 -0.0055086395244041755 -0.036591095952564823 0 -0.003644598701737728 -0.029965706624549036 0 -0.0034811716727385605 -0.029988779290581972 0 -0.0035076395581775132 -0.030066112767773795 0 -0.0028949477411478867 -0.027162317081909002 0 -0.0045076343965429044 -0.034751764552300127 0 -0.0045076343965429044 -0.034751764552300127 0 -0.0054554487082205064 -0.037248494548632105 0 -0.0053269081119213203 -0.03677832358973946 0 -0.0053933229400717382 -0.03663535722807678 0 -0.0055086395244041755 -0.036591095952564823 0 -0.0053269081119213203 -0.03677832358973946 0 -0.0052529561535208337 -0.036653103339031087 0 -0.0053933229400717382 -0.03663535722807678 0 -0.0053413998475816769 -0.036609753107822655 0 -0.0053933229400717382 -0.03663535722807678 0 -0.0054886826036874992 -0.036593104596625119 0 -0.005227727922808954 -0.036641981386785427 0 -0.0053413998475816769 -0.036609753107822655 0 -0.0052529561535208337 -0.036653103339031087 0 -0.0053413998475816769 -0.036609753107822655 0 -0.0052529561535208337 -0.036653103339031087 0 -0.0053933229400717382 -0.03663535722807678 0 -0.005227727922808954 -0.036641981386785427 0 -0.0052529561535208337 -0.036653103339031087 0 -0.0052146404533236022 -0.036658911476233312 0 -0.0052314227205197518 -0.036623968953930573 0 -0.0052529561535208337 -0.036653103339031087 0 -0.0052146404533236022 -0.036658911476233312 0 -0.0052314227205197518 -0.036623968953930573 0 -0.0052146404533236022 -0.036658911476233312 0 -0.0051771184003303224 -0.036671121352745327 0 -0.005227727922808954 -0.036641981386785427 0 -0.0052146404533236022 -0.036658911476233312 0 -0.0051771184003303224 -0.036671121352745327 0 -0.0042281531984957607 -0.037612809984627495 0 -0.0041846947199525447 -0.037591951242870347 0 -0.0045185150356353539 -0.038762569651638469 0 -0.0049527740785247788 -0.038965871436385816 0 -0.0042747877067400072 -0.039500838907564582 0 -0.0045185150356353539 -0.038762569651638469 0 -0.0039498624252097912 -0.039039642940788322 0 -0.0042747877067400072 -0.039500838907564582 0 -0.0039367289393526369 -0.039353458523015902 0 -0.0042747877067400072 -0.039500838907564582 0 -0.0038577501317810532 -0.039497874415523965 0 -0.0039498624252097912 -0.039039642940788322 0 -0.0039367289393526369 -0.039353458523015902 0 -0.0042747877067400072 -0.039500838907564582 0 -0.0020039842897794213 -0.033825824206808845 0 -0.002823524261638025 -0.036059225154410873 0 -0.0041065165836178322 -0.034171370839247747 0 -0.0025333713221255068 -0.025579990943430917 0 -0.0024617014153485123 -0.025422489923523969 0 -0.0021538235217728212 -0.025751607605379773 0 -0.0020039842897794213 -0.033825824206808845 0 -0.0041065165836178322 -0.034171370839247747 0 -0.0037528995307555026 -0.032692389502387731 0 -0.0042747877067400072 -0.039500838907564582 0 -0.0039399817798851577 -0.039637128606244798 0 -0.0038577501317810532 -0.039497874415523965 0 -0.0041846947199525447 -0.037591951242870347 0 -0.0030953249992401442 -0.031329927148990737 0 -0.0028699301680502262 -0.0275433410414146 0 -0.0030953249992401442 -0.031329927148990737 0 -0.0041065165836178322 -0.034171370839247747 0 -0.0037528995307555026 -0.032692389502387731 0 -0.0053585869554947452 -0.032296673780726072 0 -0.0023851970240985208 -0.025599274718886629 0 -0.0026439200395556172 -0.025480122648863304 0 -0.0026282615346337234 -0.025378662257817711 0 -0.0025333713221255068 -0.025579990943430917 0 -0.0026282615346337234 -0.025378662257817711 0 -0.002553937820529159 -0.025413762458923884 0 -0.0028699301680502262 -0.0275433410414146 0 -0.0027024373714976116 -0.025019898712190122 0 -0.0025786868173442732 -0.025329544662217193 0 -0.0026282615346337234 -0.025378662257817711 0 -0.002553937820529159 -0.025413762458923884 0 -0.0025786868173442732 -0.025329544662217193 0 -0.0026282615346337234 -0.025378662257817711 0 -0.0026102829644673157 -0.025274508925648018 0 -0.0025333713221255068 -0.025579990943430917 0 -0.0024617014153485123 -0.025422489923523969 0 -0.002553937820529159 -0.025413762458923884 0 -0.0024617014153485123 -0.025422489923523969 0 -0.002553937820529159 -0.025413762458923884 0 -0.0025012562097321122 -0.025334999710588672 0 -0.0025786868173442732 -0.025329544662217193 0 -0.002553937820529159 -0.025413762458923884 0 -0.0025012562097321122 -0.025334999710588672 0 -0.0024617014153485123 -0.025422489923523969 0 -0.0025012562097321122 -0.025334999710588672 0 -0.002397114364271328 -0.025364094464227025 0 -0.002397114364271328 -0.025364094464227025 0 -0.0022598819730074238 -0.025346751938212109 0 -0.0023349835232674763 -0.025484945779633891 0 -0.002397114364271328 -0.025364094464227025 0 -0.0022598819730074238 -0.025346751938212109 0 -0.0024279573145922673 -0.025246873737868058 0 -0.0022598819730074238 -0.025346751938212109 0 -0.0023349835232674763 -0.025484945779633891 0 -0.0022046267708973398 -0.025480761471459484 0 -0.0023349835232674763 -0.025484945779633891 0 -0.0022624605603258053 -0.025557725330259882 0 -0.0022046267708973398 -0.025480761471459484 0 -0.0024617014153485123 -0.025422489923523969 0 -0.002397114364271328 -0.025364094464227025 0 -0.0023349835232674763 -0.025484945779633891 0 -0.0035067400190431633 -0.032293566090002314 0 -0.0028699301680502262 -0.0275433410414146 0 -0.0022017526521306459 -0.025891217745811143 0 -0.0025333713221255068 -0.025579990943430917 0 -0.0021538235217728212 -0.025751607605379773 0 -0.0024145886706731954 -0.025190162348088935 0 -0.0026467516083546472 -0.02671215371683518 0 -0.0024617014153485123 -0.025422489923523969 0 -0.0023349835232674763 -0.025484945779633891 0 -0.0022629070623655639 -0.025674874984103788 0 -0.0022624605603258053 -0.025557725330259882 0 -0.0022370832643140099 -0.025621902868047327 0 -0.0022046267708973398 -0.025480761471459484 0 -0.0023349835232674763 -0.025484945779633891 0 -0.0022624605603258053 -0.025557725330259882 0 -0.0022629070623655639 -0.025674874984103788 0 -0.0022624605603258053 -0.025557725330259882 0 -0.0022370832643140099 -0.025621902868047327 0 -0.0022629070623655639 -0.025674874984103788 0 -0.003644598701737728 -0.029965706624549036 0 -0.0034811716727385605 -0.029988779290581972 0 -0.0036048893833057066 -0.029856425104407412 0 -0.0024527681975111309 -0.026189867144329863 0 -0.0026467516083546472 -0.02671215371683518 0 -0.0035067400190431633 -0.032293566090002314 0 -0.0026467516083546472 -0.02671215371683518 0 -0.00071440128010911335 -0.020725806292591676 0 -0.0008153017487831371 -0.021415009055955978 0 -0.0010994624346786005 -0.020938980414383569 0 -0.0021248115989212714 -0.025808872072856082 0 -0.0022370832643140099 -0.025621902868047327 0 -0.0019952387262234393 -0.025473074747926393 0 -0.0028949477411478867 -0.027162317081909002 0 -0.00109083570616774 -0.022610059910360646 0 -0.0028949477411478867 -0.027162317081909002 0 -0.0026467516083546472 -0.02671215371683518 0 -0.0021248115989212714 -0.025808872072856082 0 -0.0022370832643140099 -0.025621902868047327 0 -0.0022599615242720858 -0.025681917706592942 0 -0.0022370832643140099 -0.025621902868047327 0 -0.0019952387262234393 -0.025473074747926393 0 -0.0022046267708973398 -0.025480761471459484 0 -0.0022598819730074238 -0.025346751938212109 0 -0.0019952387262234393 -0.025473074747926393 0 -0.0021723404158315771 -0.025142418992871899 0 -0.0022598819730074238 -0.025346751938212109 0 -0.0019952387262234393 -0.025473074747926393 0 -0.0022046267708973398 -0.025480761471459484 0 -0.0019952387262234393 -0.025473074747926393 0 -0.0021723404158315771 -0.025142418992871899 0 -0.001806344345479673 -0.025130989548638967 0 -0.0022598819730074238 -0.025346751938212109 0 -0.0021723404158315771 -0.025142418992871899 0 -0.0024279573145922673 -0.025246873737868058 0 -0.0021723404158315771 -0.025142418992871899 0 -0.0024279573145922673 -0.025246873737868058 0 -0.0024729757854533956 -0.025061512167282616 0 -0.0021723404158315771 -0.025142418992871899 0 -0.0023519920316104263 -0.024869703098120748 0 -0.0024729757854533956 -0.025061512167282616 0 -0.0023519920316104263 -0.024869703098120748 0 -0.0025394586656693743 -0.024928346044700862 0 -0.0024729757854533956 -0.025061512167282616 0 -0.0021723404158315771 -0.025142418992871899 0 -0.0023519920316104263 -0.024869703098120748 0 -0.0020765623795568492 -0.024679945564205184 0 -0.0021723404158315771 -0.025142418992871899 0 -0.0020765623795568492 -0.024679945564205184 0 -0.001806344345479673 -0.025130989548638967 0 -0.0020765623795568492 -0.024679945564205184 0 -0.0023995456900760049 -0.024699903179040094 0 -0.0020840078418138848 -0.024190165121736922 0 -0.0023519920316104263 -0.024869703098120748 0 -0.0020765623795568492 -0.024679945564205184 0 -0.0023995456900760049 -0.024699903179040094 0 -0.0023995456900760049 -0.024699903179040094 0 -0.0026175402514731477 -0.024831378364375982 0 -0.0025394586656693743 -0.024928346044700862 0 -0.0023519920316104263 -0.024869703098120748 0 -0.0023995456900760049 -0.024699903179040094 0 -0.0025394586656693743 -0.024928346044700862 0 -0.0023995456900760049 -0.024699903179040094 0 -0.0026175402514731477 -0.024831378364375982 0 -0.0020840078418138848 -0.024190165121736922 0 -0.0026175402514731477 -0.024831378364375982 0 -0.0020840078418138848 -0.024190165121736922 0 -0.0025281521264333127 -0.024763157858000238 0 -0.0025915471896218512 -0.025156868538161091 0 -0.0025735144172729565 -0.025259113573739254 0 -0.0026132183322255102 -0.025175836043569468 0 -0.0025961931567775784 -0.02503613867955614 0 -0.0025915471896218512 -0.025156868538161091 0 -0.0026132183322255102 -0.025175836043569468 0 -0.0025961931567775784 -0.02503613867955614 0 -0.0025915471896218512 -0.025156868538161091 0 -0.0025882597670577206 -0.025151377461584752 0 -0.0026175402514731477 -0.024831378364375982 0 -0.0025961931567775784 -0.02503613867955614 0 -0.0025394586656693743 -0.024928346044700862 0 -0.0026175402514731477 -0.024831378364375982 0 -0.0025961931567775784 -0.02503613867955614 0 -0.0026132183322255102 -0.025175836043569468 0 -0.0025961931567775784 -0.02503613867955614 0 -0.0025394586656693743 -0.024928346044700862 0 -0.0025906935961487218 -0.025097419514081704 0 -0.0025961931567775784 -0.02503613867955614 0 -0.0025906935961487218 -0.025097419514081704 0 -0.0025882597670577206 -0.025151377461584752 0 -0.0025906935961487218 -0.025097419514081704 0 -0.0025900872676841167 -0.025181460798373693 0 -0.0025882597670577206 -0.025151377461584752 0 -0.0025906935961487218 -0.025097419514081704 0 -0.0026071564794593869 -0.025199062754829735 0 -0.0025633827046224831 -0.025109006878346489 0 -0.0025906935961487218 -0.025097419514081704 0 -0.0026071564794593869 -0.025199062754829735 0 -0.0025900872676841167 -0.025181460798373693 0 -0.0025394586656693743 -0.024928346044700862 0 -0.0025906935961487218 -0.025097419514081704 0 -0.0025633827046224831 -0.025109006878346489 0 -0.0025394586656693743 -0.024928346044700862 0 -0.0025633827046224831 -0.025109006878346489 0 -0.0024729757854533956 -0.025061512167282616 0 -0.0025633827046224831 -0.025109006878346489 0 -0.0024729757854533956 -0.025061512167282616 0 -0.0025608267747886937 -0.025243749532731927 0 -0.0024279573145922673 -0.025246873737868058 0 -0.0024729757854533956 -0.025061512167282616 0 -0.0025608267747886937 -0.025243749532731927 0 -0.0025012562097321122 -0.025334999710588672 0 -0.0024279573145922673 -0.025246873737868058 0 -0.0025608267747886937 -0.025243749532731927 0 -0.0025786868173442732 -0.025329544662217193 0 -0.0025012562097321122 -0.025334999710588672 0 -0.0025608267747886937 -0.025243749532731927 0 -0.0025012562097321122 -0.025334999710588672 0 -0.002397114364271328 -0.025364094464227025 0 -0.0024279573145922673 -0.025246873737868058 0 -0.0026071564794593869 -0.025199062754829735 0 -0.0025608267747886937 -0.025243749532731927 0 -0.0026102829644673157 -0.025274508925648018 0 -0.0026071564794593869 -0.025199062754829735 0 -0.0025633827046224831 -0.025109006878346489 0 -0.0025608267747886937 -0.025243749532731927 0 -0.0025786868173442732 -0.025329544662217193 0 -0.0025608267747886937 -0.025243749532731927 0 -0.0026102829644673157 -0.025274508925648018 0 -0.0026071564794593869 -0.025199062754829735 0 -0.0026496208153132185 -0.025250056322728625 0 -0.0025878343590435161 -0.025237947470130927 0 -0.0026496208153132185 -0.025250056322728625 0 -0.0024994521561755301 -0.025297734015088062 0 -0.0025878343590435161 -0.025237947470130927 0 -0.0026071564794593869 -0.025199062754829735 0 -0.0026102829644673157 -0.025274508925648018 0 -0.0026496208153132185 -0.025250056322728625 0 -0.0017404204678081669 -0.026190300051349577 0 -0.0023597484589502654 -0.026014745215775629 0 -0.0024994521561755301 -0.025297734015088062 0 -0.0023597484589502654 -0.026014745215775629 0 -0.0027769424448397697 -0.025415165032659979 0 -0.0025171554781314907 -0.026841497725032078 0 -0.0013438763797722895 -0.027378429644417206 0 -0.0024199526422691566 -0.034094827012000298 0 -0.0023966303005118154 -0.025028205152011367 0 -0.0023385670475536509 -0.025574917954572635 0 -0.0017404204678081669 -0.026190300051349577 0 -0.0023597484589502654 -0.026014745215775629 0 -0.002101593776852758 -0.026474469071926434 0 -0.0023597484589502654 -0.026014745215775629 0 -0.0024994521561755301 -0.025297734015088062 0 -0.0027769424448397697 -0.025415165032659979 0 -0.0024994521561755301 -0.025297734015088062 0 -0.0025961647456331652 -0.025274049014816447 0 -0.0027769424448397697 -0.025415165032659979 0 -0.0024994521561755301 -0.025297734015088062 0 -0.0025961647456331652 -0.025274049014816447 0 -0.0025559785473586185 -0.025228652232171564 0 -0.0024994521561755301 -0.025297734015088062 0 -0.0025878343590435161 -0.025237947470130927 0 -0.0025559785473586185 -0.025228652232171564 0 -0.0026071564794593869 -0.025199062754829735 0 -0.0025878343590435161 -0.025237947470130927 0 -0.0025900872676841167 -0.025181460798373693 0 -0.0025878343590435161 -0.025237947470130927 0 -0.0025900872676841167 -0.025181460798373693 0 -0.0025559785473586185 -0.025228652232171564 0 -0.0025882597670577206 -0.025151377461584752 0 -0.0025559785473586185 -0.025228652232171564 0 -0.0025657226590850781 -0.02522797700726425 0 -0.0025900872676841167 -0.025181460798373693 0 -0.0025882597670577206 -0.025151377461584752 0 -0.0025559785473586185 -0.025228652232171564 0 -0.0025611647198350179 -0.025242868304444901 0 -0.0025657226590850781 -0.02522797700726425 0 -0.002530019257296658 -0.025297148507537583 0 -0.0025559785473586185 -0.025228652232171564 0 -0.0025611647198350179 -0.025242868304444901 0 -0.0025657226590850781 -0.02522797700726425 0 -0.0025961647456331652 -0.025274049014816447 0 -0.0025611647198350179 -0.025242868304444901 0 -0.0025381182749157709 -0.025248458934258651 0 -0.0025961647456331652 -0.025274049014816447 0 -0.0025559785473586185 -0.025228652232171564 0 -0.0025611647198350179 -0.025242868304444901 0 -0.0025611647198350179 -0.025242868304444901 0 -0.002530019257296658 -0.025297148507537583 0 -0.0025381182749157709 -0.025248458934258651 0 -0.002539279568581714 -0.025320282796292344 0 -0.0025657226590850781 -0.02522797700726425 0 -0.002530019257296658 -0.025297148507537583 0 -0.002539279568581714 -0.025320282796292344 0 -0.0024877860775748876 -0.025400169468242018 0 -0.002530019257296658 -0.025297148507537583 0 -0.0025915471896218512 -0.025156868538161091 0 -0.0025882597670577206 -0.025151377461584752 0 -0.0025657226590850781 -0.02522797700726425 0 -0.002539279568581714 -0.025320282796292344 0 -0.0025735144172729565 -0.025259113573739254 0 -0.0025657226590850781 -0.02522797700726425 0 -0.0025915471896218512 -0.025156868538161091 0 -0.0025735144172729565 -0.025259113573739254 0 -0.0025657226590850781 -0.02522797700726425 0 -0.0022487734146100619 -0.02704091005053455 0 -0.0027189712988378583 -0.025937429138099519 0 -0.0023716693795932959 -0.025674956932724723 0 -0.0018458014269214895 -0.026749593549554383 0 -0.0023261530486802327 -0.025647478438165571 0 -0.0027189712988378583 -0.025937429138099519 0 -0.0027829376766189502 -0.027603898467579862 0 -0.0035746106758501217 -0.027619638248329203 0 -0.0022487734146100619 -0.02704091005053455 0 -0.0027189712988378583 -0.025937429138099519 0 -0.0027829376766189502 -0.027603898467579862 0 -0.0022487734146100619 -0.02704091005053455 0 -0.0011978116224803377 -0.027889644619051978 0 -0.0023716693795932959 -0.025674956932724723 0 -0.0024592978219409966 -0.025424320108868807 0 -0.0024641110442241258 -0.025224119571657523 0 -0.0023716693795932959 -0.025674956932724723 0 -0.0024592978219409966 -0.025424320108868807 0 -0.0024877860775748876 -0.025400169468242018 0 -0.0024101049308360026 -0.025516340783957668 0 -0.0024592978219409966 -0.025424320108868807 0 -0.0024877860775748876 -0.025400169468242018 0 -0.002530019257296658 -0.025297148507537583 0 -0.0024592978219409966 -0.025424320108868807 0 -0.002530019257296658 -0.025297148507537583 0 -0.0024641110442241258 -0.025224119571657523 0 -0.0011978116224803377 -0.027889644619051978 0 -0.0017265207576977852 -0.029293244878553507 0 -0.0012359656117538174 -0.029996957565153831 0 -0.002530019257296658 -0.025297148507537583 0 -0.0024641110442241258 -0.025224119571657523 0 -0.0025381182749157709 -0.025248458934258651 0 -0.0025961647456331652 -0.025274049014816447 0 -0.0024641110442241258 -0.025224119571657523 0 -0.0025381182749157709 -0.025248458934258651 0 -0.0011978116224803377 -0.027889644619051978 0 -0.0023156424631812613 -0.028301468698057369 0 -0.0017265207576977852 -0.029293244878553507 0 -0.0023156424631812613 -0.028301468698057369 0 -0.002299747499619332 -0.029334154055763888 0 -0.0017265207576977852 -0.029293244878553507 0 -0.0022487734146100619 -0.02704091005053455 0 -0.0011978116224803377 -0.027889644619051978 0 -0.0023156424631812613 -0.028301468698057369 0 -0.0027829376766189502 -0.027603898467579862 0 -0.0030794393820765356 -0.029117609323855889 0 -0.0035746106758501217 -0.027619638248329203 0 -0.0022487734146100619 -0.02704091005053455 0 -0.0023156424631812613 -0.028301468698057369 0 -0.0027829376766189502 -0.027603898467579862 0 -0.0023156424631812613 -0.028301468698057369 0 -0.0027829376766189502 -0.027603898467579862 0 -0.0030794393820765356 -0.029117609323855889 0 -0.002158359440935502 -0.028737827147735127 0 -0.0025119745211422935 -0.030504171408941048 0 -0.0023156424631812613 -0.028301468698057369 0 -0.0032926395860958294 -0.029278553927143468 0 -0.002299747499619332 -0.029334154055763888 0 -0.0025119745211422935 -0.030504171408941048 0 -0.0023412493016593114 -0.032180063810906809 0 -0.0032926395860958294 -0.029278553927143468 0 -0.002299747499619332 -0.029334154055763888 0 -0.0018598354925521221 -0.030469067408161989 0 -0.0032926395860958294 -0.029278553927143468 0 -0.0021348422576886092 -0.030914400132814275 0 -0.0021381835119822462 -0.032403865701953097 0 -0.0027165424325587685 -0.031198227268927178 0 -0.0025838762426095927 -0.031934534352603926 0 -0.0027735818783620374 -0.031698789470676995 0 -0.0017265207576977852 -0.029293244878553507 0 -0.0018598354925521221 -0.030469067408161989 0 -0.0012359656117538174 -0.029996957565153831 0 -0.002299747499619332 -0.029334154055763888 0 -0.0017265207576977852 -0.029293244878553507 0 -0.0018598354925521221 -0.030469067408161989 0 -0.0032926395860958294 -0.029278553927143468 0 -0.0018598354925521221 -0.030469067408161989 0 -0.0021348422576886092 -0.030914400132814275 0 -0.0025961647456331652 -0.025274049014816447 0 -0.0024641110442241258 -0.025224119571657523 0 -0.0027769424448397697 -0.025415165032659979 0 -0.0011978116224803377 -0.027889644619051978 0 -0.0012359656117538174 -0.029996957565153831 0 -0.00010828509710916808 -0.030827896731713145 0 -0.0018458014269214895 -0.026749593549554383 0 -0.0013438763797722895 -0.027378429644417206 0 -0.0012359656117538174 -0.029996957565153831 0 -0.00010828509710916808 -0.030827896731713145 0 -0.0012904808835325385 -0.031493810667677806 0 -0.0018598354925521221 -0.030469067408161989 0 -0.0012359656117538174 -0.029996957565153831 0 -0.0012904808835325385 -0.031493810667677806 0 -0.00010828509710916808 -0.030827896731713145 0 -0.0011176756374120344 -0.033104571553843699 0 0.00084615958949045209 -0.033573752524209639 0 -0.00010828509710916808 -0.030827896731713145 0 -0.0012904808835325385 -0.031493810667677806 0 -0.0011176756374120344 -0.033104571553843699 0 -0.0012904808835325385 -0.031493810667677806 0 -0.0021381835119822462 -0.032403865701953097 0 -0.0011176756374120344 -0.033104571553843699 0 -0.0027165424325587685 -0.031198227268927178 0 -0.0025838762426095927 -0.031934534352603926 0 -0.0021381835119822462 -0.032403865701953097 0 -0.0025838762426095927 -0.031934534352603926 0 -0.0026277015382138403 -0.032270265112133413 0 -0.0028091167873367175 -0.032024132499870267 0 -0.0012904808835325385 -0.031493810667677806 0 -0.0021348422576886092 -0.030914400132814275 0 -0.0021381835119822462 -0.032403865701953097 0 -0.0018598354925521221 -0.030469067408161989 0 -0.0012904808835325385 -0.031493810667677806 0 -0.0021348422576886092 -0.030914400132814275 0 -0.0025838762426095927 -0.031934534352603926 0 -0.0021381835119822462 -0.032403865701953097 0 -0.0026277015382138403 -0.032270265112133413 0 -0.0021381835119822462 -0.032403865701953097 0 -0.0026277015382138403 -0.032270265112133413 0 -0.0027066400332735841 -0.03263299568911078 0 -0.001780448317812994 -0.038976174488413819 0 -0.0021163816133898442 -0.038796193348172171 0 -0.00034719334507700043 -0.041543875505933775 0 -0.00039631460606362842 -0.041548292395054892 0 -0.0003332908516226464 -0.041490079142526545 0 -0.00035116033062165353 -0.041380277981360306 0 -0.00033003433888829025 -0.041146130750933707 0 -0.0011760629374525549 -0.041213686993759144 0 -0.0021163816133898442 -0.038796193348172171 0 -0.0021978316655426261 -0.036409055712097849 0 -0.00039631460606362842 -0.041548292395054892 0 -0.00035116033062165353 -0.041380277981360306 0 -0.0003332908516226464 -0.041490079142526545 0 -0.00039631460606362842 -0.041548292395054892 0 -0.00035116033062165353 -0.041380277981360306 0 -0.0011760629374525549 -0.041213686993759144 0 -0.0021163816133898442 -0.038796193348172171 0 -0.0021722824742087922 -0.040726037486157357 0 -0.0021381835119822462 -0.032403865701953097 0 -0.0027066400332735841 -0.03263299568911078 0 -0.0011176756374120344 -0.033104571553843699 0 -0.00047466530387855099 -0.040851918062791426 0 -0.0011760629374525549 -0.041213686993759144 0 -0.00091501858525019127 -0.040637463544052836 0 -0.00033003433888829025 -0.041146130750933707 0 -0.00047466530387855099 -0.040851918062791426 0 -0.0011760629374525549 -0.041213686993759144 0 -0.0011760629374525549 -0.041213686993759144 0 -0.00091501858525019127 -0.040637463544052836 0 -0.0014986653102078502 -0.040546667515948834 0 -0.0021978316655426261 -0.036409055712097849 0 -0.0024199526422691566 -0.034094827012000298 0 -0.0034357296865939499 -0.03954187452080149 0 -0.003378371044316411 -0.039712662642540461 0 -0.0035444037238355152 -0.039584772142199631 0 -0.003378371044316411 -0.039712662642540461 0 -0.0036100209149254061 -0.039663391887680331 0 -0.0035444037238355152 -0.039584772142199631 0 -0.0031319986934564789 -0.039748407154532442 0 -0.0034357296865939499 -0.03954187452080149 0 -0.003378371044316411 -0.039712662642540461 0 -0.0023597484589502654 -0.026014745215775629 0 -0.002101593776852758 -0.026474469071926434 0 -0.0025171554781314907 -0.026841497725032078 0 -0.0024199526422691566 -0.034094827012000298 0 -0.0022169207672644714 -0.039189637568717496 0 -0.0036100209149254061 -0.039663391887680331 0 -0.0035444037238355152 -0.039584772142199631 0 -0.0036555183841068422 -0.039585681803220751 0 -0.0026439200395556172 -0.025480122648863304 0 -0.0026282615346337234 -0.025378662257817711 0 -0.0026496208153132185 -0.025250056322728625 0 -0.0030953249992401442 -0.031329927148990737 0 -0.0024199526422691566 -0.034094827012000298 0 -0.0039399817798851577 -0.039637128606244798 0 -0.0036127731189245392 -0.039653434802367916 0 -0.0036555183841068422 -0.039585681803220751 0 -0.0030953249992401442 -0.031329927148990737 0 -0.0023966303005118154 -0.025028205152011367 0 -0.0010338362870990182 -0.02727721342558868 0 -0.002101593776852758 -0.026474469071926434 0 -0.0025171554781314907 -0.026841497725032078 0 -0.0010338362870990182 -0.02727721342558868 0 -0.0017404204678081669 -0.026190300051349577 0 -0.002101593776852758 -0.026474469071926434 0 -0.0026282615346337234 -0.025378662257817711 0 -0.0026102829644673157 -0.025274508925648018 0 -0.0026496208153132185 -0.025250056322728625 0 -0.0038577501317810532 -0.039497874415523965 0 -0.0036555183841068422 -0.039585681803220751 0 -0.0037030420544307352 -0.039368321108579546 0 -0.0039399817798851577 -0.039637128606244798 0 -0.0038577501317810532 -0.039497874415523965 0 -0.0036555183841068422 -0.039585681803220751 0 -0.0021722824742087922 -0.040726037486157357 0 -0.0031436662442575446 -0.03980682192970076 0 -0.0034357296865939499 -0.03954187452080149 0 -0.0035444037238355152 -0.039584772142199631 0 -0.0037030420544307352 -0.039368321108579546 0 -0.0035444037238355152 -0.039584772142199631 0 -0.0036555183841068422 -0.039585681803220751 0 -0.0037030420544307352 -0.039368321108579546 0 -0.0011760629374525549 -0.041213686993759144 0 -0.0024826525842817247 -0.040461313899068763 0 -0.0014986653102078502 -0.040546667515948834 0 -0.0024826525842817247 -0.040461313899068763 0 -0.0013267745010017336 -0.039936177991959497 0 -0.0014986653102078502 -0.040546667515948834 0 -0.0039367289393526369 -0.039353458523015902 0 -0.0038577501317810532 -0.039497874415523965 0 -0.0037030420544307352 -0.039368321108579546 0 -0.0039498624252097912 -0.039039642940788322 0 -0.0039367289393526369 -0.039353458523015902 0 -0.0037030420544307352 -0.039368321108579546 0 -0.0039498624252097912 -0.039039642940788322 0 -0.0024826525842817247 -0.040461313899068763 0 -0.0027612398001343641 -0.03929544300449167 0 -0.0038930535370895994 -0.039121684261065048 0 -0.0031436662442575446 -0.03980682192970076 0 -0.0024826525842817247 -0.040461313899068763 0 -0.0019441624388820103 -0.039402018423998875 0 -0.0013267745010017336 -0.039936177991959497 0 -0.0024826525842817247 -0.040461313899068763 0 -0.0027612398001343641 -0.03929544300449167 0 -0.0019441624388820103 -0.039402018423998875 0 -0.0019441624388820103 -0.039402018423998875 0 -0.0013267745010017336 -0.039936177991959497 0 -0.0010398451328536618 -0.039524200526802979 0 -0.0013267745010017336 -0.039936177991959497 0 -0.0010398451328536618 -0.039524200526802979 0 -0.0007646249039840109 -0.040197538144341273 0 -0.00049132353001908472 -0.039316126521257218 0 -0.0010398451328536618 -0.039524200526802979 0 -0.00060357652480549733 -0.03980655726077801 0 -0.00049132353001908472 -0.039316126521257218 0 -0.00060357652480549733 -0.03980655726077801 0 -0.00011492844979284301 -0.040157781355627163 0 -0.00060357652480549733 -0.03980655726077801 0 -0.0007646249039840109 -0.040197538144341273 0 -0.00011492844979284301 -0.040157781355627163 0 -0.0010398451328536618 -0.039524200526802979 0 -0.00060357652480549733 -0.03980655726077801 0 -0.0007646249039840109 -0.040197538144341273 0 -0.0007646249039840109 -0.040197538144341273 0 -0.00044295918585869192 -0.040532502127047801 0 -0.00091501858525019127 -0.040637463544052836 0 -0.0007646249039840109 -0.040197538144341273 0 -0.00044295918585869192 -0.040532502127047801 0 -0.00011492844979284301 -0.040157781355627163 0 -0.00047466530387855099 -0.040851918062791426 0 -0.00044295918585869192 -0.040532502127047801 0 -4.9856266100791479e-05 -0.040635087261548949 0 -0.00047466530387855099 -0.040851918062791426 0 -0.00044295918585869192 -0.040532502127047801 0 -0.00091501858525019127 -0.040637463544052836 0 -0.0013267745010017336 -0.039936177991959497 0 -0.00091501858525019127 -0.040637463544052836 0 -0.0014986653102078502 -0.040546667515948834 0 -0.0013267745010017336 -0.039936177991959497 0 -0.0007646249039840109 -0.040197538144341273 0 -0.00091501858525019127 -0.040637463544052836 0 0.00024239220187381686 -0.040683582880186385 0 0.00033647560877129984 -0.040504093778259628 0 0.00031777942102376991 -0.040534716169602324 0 0.00030245944696927934 -0.040477259264652898 0 0.00024239220187381686 -0.040683582880186385 0 0.00033647560877129984 -0.040504093778259628 0 0.00030245944696927934 -0.040477259264652898 0 -4.9856266100791479e-05 -0.040635087261548949 0 -0.00011492844979284301 -0.040157781355627163 0 0.00030245944696927934 -0.040477259264652898 0 0.00024239220187381686 -0.040683582880186385 0 -4.9856266100791479e-05 -0.040635087261548949 0 -0.00044295918585869192 -0.040532502127047801 0 -4.9856266100791479e-05 -0.040635087261548949 0 -0.00011492844979284301 -0.040157781355627163 0 0.00030245944696927934 -0.040477259264652898 0 -0.00011492844979284301 -0.040157781355627163 0 0.00064001816106056279 -0.040421671187063052 0 2.761141850695667e-05 -0.039311274290733451 0 -0.00011492844979284301 -0.040157781355627163 0 0.00064001816106056279 -0.040421671187063052 0 0.00023172856088916476 -0.040902577352450946 0 0.00064001816106056279 -0.040421671187063052 0 0.00033647560877129984 -0.040504093778259628 0 0.00030245944696927934 -0.040477259264652898 0 0.00064001816106056279 -0.040421671187063052 0 0.00033647560877129984 -0.040504093778259628 0 0.00033647560877129984 -0.040504093778259628 0 -0.000210818981026495 -0.040729625801585588 0 0.00031777942102376991 -0.040534716169602324 0 8.806107520185109e-05 -0.041792785991485421 0 0.00031917016005941095 -0.0417614967017211 0 0.00023172856088916476 -0.040902577352450946 0 0.00033647560877129984 -0.040504093778259628 0 -0.000210818981026495 -0.040729625801585588 0 0.00032575721981337836 -0.042960936295255693 0 0.00032229730718597954 -0.042947961624963317 0 0.00039233864620801667 -0.042878009530615463 0 2.2444307627969831e-05 -0.043408191627692792 0 0.00026297610377585949 -0.04324783548951381 0 9.7679473233181724e-05 -0.042958895945207722 0 0.00031697954926952917 -0.043103319361242599 0 0.00037781352327642762 -0.042845524055641425 0 0.00026297610377585949 -0.04324783548951381 0 0.00038900677551186573 -0.042829600102139133 0 9.7679473233181724e-05 -0.042958895945207722 0 0.00032229730718597954 -0.042947961624963317 0 0.00039233864620801667 -0.042878009530615463 0 0.00038900677551186573 -0.042829600102139133 0 0.00031917016005941095 -0.0417614967017211 0 0.00046368182246755486 -0.041770593155395448 0 0.00024239220187381686 -0.040683582880186385 0 0.00031777942102376991 -0.040534716169602324 0 0.00035853109405077735 -0.041021573705465074 0 0.00039233864620801667 -0.042878009530615463 0 0.00038900677551186573 -0.042829600102139133 0 0.00049231233231465373 -0.042691077335517524 0 0.00038900677551186573 -0.042829600102139133 0 0.00049231233231465373 -0.042691077335517524 0 0.00039121179021084661 -0.042682192044747706 0 0.000664885150998916 -0.043704209156539074 0 0.00029855878426028555 -0.04379702873071456 0 0.00038900677551186573 -0.042829600102139133 0 0.00039121179021084661 -0.042682192044747706 0 9.7679473233181724e-05 -0.042958895945207722 0 0.00076245141216556343 -0.044409661493952077 0 0.00045221272569513735 -0.044445735908156973 0 0.00051858221974255181 -0.044676040479520916 0 0.00076245141216556343 -0.044409661493952077 0 0.00052647745286128289 -0.044193127084216896 0 0.00069000951800534402 -0.044118848804954945 0 0.00076245141216556343 -0.044409661493952077 0 0.00052647745286128289 -0.044193127084216896 0 0.00045221272569513735 -0.044445735908156973 0 0.000664885150998916 -0.043704209156539074 0 6.9679403293765674e-05 -0.042288458467304002 0 0.00049231233231465373 -0.042691077335517524 0 0.00039121179021084661 -0.042682192044747706 0 0.00057742456797342447 -0.042497775783147743 0 0.00046368182246755486 -0.041770593155395448 0 6.9679403293765674e-05 -0.042288458467304002 0 0.00035853109405077735 -0.041021573705465074 0 0.000102083028234852 -0.041070954452976011 0 0.00018176566768777277 -0.041395076733135507 0 0.00024239220187381686 -0.040683582880186385 0 0.00035853109405077735 -0.041021573705465074 0 0.000102083028234852 -0.041070954452976011 0 0.00024239220187381686 -0.040683582880186385 0 0.000102083028234852 -0.041070954452976011 0 -7.9433673584934774e-05 -0.040901386823326905 0 -0.00033003433888829025 -0.041146130750933707 0 0.000102083028234852 -0.041070954452976011 0 -7.9433673584934774e-05 -0.040901386823326905 0 -0.00047466530387855099 -0.040851918062791426 0 -4.9856266100791479e-05 -0.040635087261548949 0 -7.9433673584934774e-05 -0.040901386823326905 0 0.00024239220187381686 -0.040683582880186385 0 -4.9856266100791479e-05 -0.040635087261548949 0 -7.9433673584934774e-05 -0.040901386823326905 0 -0.00033003433888829025 -0.041146130750933707 0 -0.00047466530387855099 -0.040851918062791426 0 -7.9433673584934774e-05 -0.040901386823326905 0 0.000102083028234852 -0.041070954452976011 0 -0.00017795910644552838 -0.0413284794382342 0 -0.00014113380771014222 -0.041514914993246124 0 0.00035603419082811516 -0.041954285545920275 0 -0.00094831557026244732 -0.039723096792334052 0 -0.00035116033062165353 -0.041380277981360306 0 -0.00033003433888829025 -0.041146130750933707 0 -0.00017795910644552838 -0.0413284794382342 0 0.000102083028234852 -0.041070954452976011 0 -0.00014113380771014222 -0.041514914993246124 0 -1.5895659051868488e-05 -0.04189604064185154 0 -0.00033003433888829025 -0.041146130750933707 0 0.000102083028234852 -0.041070954452976011 0 -0.00017795910644552838 -0.0413284794382342 0 -0.00017795910644552838 -0.0413284794382342 0 -0.0002465753450894032 -0.04148492228913149 0 -0.00014113380771014222 -0.041514914993246124 0 -0.00035116033062165353 -0.041380277981360306 0 -0.00017795910644552838 -0.0413284794382342 0 -0.0002465753450894032 -0.04148492228913149 0 -0.00035116033062165353 -0.041380277981360306 0 -0.0002465753450894032 -0.04148492228913149 0 -0.0003332908516226464 -0.041490079142526545 0 -0.00034719334507700043 -0.041543875505933775 0 -0.0002465753450894032 -0.04148492228913149 0 -0.0003332908516226464 -0.041490079142526545 0 -0.00034719334507700043 -0.041543875505933775 0 -0.0002465753450894032 -0.04148492228913149 0 -0.00027547791753179462 -0.041589163619630866 0 -0.00027547791753179462 -0.041589163619630866 0 -0.00014113380771014222 -0.041514914993246124 0 -0.000192310290056768 -0.041721603875012808 0 -0.00034719334507700043 -0.041543875505933775 0 -0.00038491010760307041 -0.041538068826100644 0 -0.00027547791753179462 -0.041589163619630866 0 -0.0021163816133898442 -0.038796193348172171 0 -0.0015086028713629154 -0.038308734412650765 0 -0.00038491010760307041 -0.041538068826100644 0 -0.00027547791753179462 -0.041589163619630866 0 -0.00021437280715546708 -0.041655126796752547 0 -0.0026277015382138403 -0.032270265112133413 0 -0.0027066400332735841 -0.03263299568911078 0 -0.0030199203695033877 -0.032193771417513797 0 -0.00033217638542306889 -0.040454513503948929 0 -0.0015086028713629154 -0.038308734412650765 0 -0.0002465753450894032 -0.04148492228913149 0 -0.00027547791753179462 -0.041589163619630866 0 -0.00014113380771014222 -0.041514914993246124 0 -0.00014113380771014222 -0.041514914993246124 0 -1.5895659051868488e-05 -0.04189604064185154 0 -0.000192310290056768 -0.041721603875012808 0 -0.00094831557026244732 -0.039723096792334052 0 -0.0015086028713629154 -0.038308734412650765 0 -0.00113664358513219 -0.038957036873552148 0 -0.0018381757720133804 -0.038315878375682365 0 -0.0012940163868611092 -0.039118936012624117 0 -0.0029997991009509534 -0.031901250991835051 0 -0.0030199203695033877 -0.032193771417513797 0 -0.0032433212041938055 -0.031843173367502302 0 -0.0015086028713629154 -0.038308734412650765 0 -0.0013767804386868312 -0.03682671837438347 0 -0.00094831557026244732 -0.039723096792334052 0 -0.0013767804386868312 -0.03682671837438347 0 -0.0026277015382138403 -0.032270265112133413 0 -0.0028091167873367175 -0.032024132499870267 0 -0.0030199203695033877 -0.032193771417513797 0 -0.0025838762426095927 -0.031934534352603926 0 -0.0028091167873367175 -0.032024132499870267 0 -0.0027735818783620374 -0.031698789470676995 0 -0.0029997991009509534 -0.031901250991835051 0 -0.0028091167873367175 -0.032024132499870267 0 -0.0027735818783620374 -0.031698789470676995 0 -0.0029997991009509534 -0.031901250991835051 0 -0.0028091167873367175 -0.032024132499870267 0 -0.0030199203695033877 -0.032193771417513797 0 0.000102083028234852 -0.041070954452976011 0 5.8866333121447306e-05 -0.041513264812937212 0 0.00018176566768777277 -0.041395076733135507 0 1.5826082430746745e-05 -0.040571131019987557 0 -0.00082385314047089093 -0.041453822628094751 0 -0.00029968965535215846 -0.04028047138781831 0 0.0010242858728261692 -0.044101642407001332 0 0.00096627871819491553 -0.043987825974228921 0 0.001097924729107166 -0.043925574898055257 0 -0.00094831557026244732 -0.039723096792334052 0 6.9679403293765674e-05 -0.042288458467304002 0 6.9679403293765674e-05 -0.042288458467304002 0 -0.00077284609667577914 -0.040106766353805605 0 0.0010242858728261692 -0.044101642407001332 0 0.00096627871819491553 -0.043987825974228921 0 0.00084860376306529787 -0.044044599224117277 0 -0.00062101825782413008 -0.041421183155884063 0 -0.00019789945473541168 -0.04182073299046804 0 -1.7137289817792817e-05 -0.041448892767534308 0 0.00096627871819491553 -0.043987825974228921 0 0.0010722721634652945 -0.043902972394058985 0 0.0007481625793043196 -0.043912782883424054 0 -0.0011318655283429819 -0.037472076127547299 0 -0.0015087629424630918 -0.037306549189170035 0 -0.001511373694012972 -0.036002051831401281 0 -0.0014875817851824013 -0.03594389796031891 0 -0.0016043888153261434 -0.035858273070039776 0 -0.0013761214768357364 -0.038666041954867905 0 -0.0015351930242278604 -0.038745621598368946 0 -0.00093128876218354431 -0.039664562358851567 0 -0.00045746005873586201 -0.040086736754771618 0 -0.00053930667808114432 -0.040418168505620779 0 -0.00045746005873586201 -0.040086736754771618 0 0.00043367110078836062 -0.043139723074802828 0 -0.0013761214768357364 -0.038666041954867905 0 -0.00093128876218354431 -0.039664562358851567 0 -0.00062986668726828935 -0.039363503820907801 0 0.00096627871819491553 -0.043987825974228921 0 0.0010722721634652945 -0.043902972394058985 0 0.001097924729107166 -0.043925574898055257 0 -0.00062442592102157754 -0.039476808090192501 0 -0.0013837731786246552 -0.038778034792958632 0 -0.0016912093086790714 -0.039454276191222291 0 -0.00045746005873586201 -0.040086736754771618 0 -0.00094266241133329461 -0.038698295787104105 0 -0.00077284609667577914 -0.040106766353805605 0 -0.00094266241133329461 -0.038698295787104105 0 -0.00055628417534292279 -0.038267755231393433 0 -0.00074393325253358314 -0.038679416043951656 0 -0.0010358626339705967 -0.038246392305788343 0 -0.00045746005873586201 -0.040086736754771618 0 -0.00077284609667577914 -0.040106766353805605 0 -0.0013761214768357364 -0.038666041954867905 0 -0.0014966863939706069 -0.038662488114725002 0 -0.0015351930242278604 -0.038745621598368946 0 -0.0029997991009509534 -0.031901250991835051 0 -0.0027735818783620374 -0.031698789470676995 0 -0.0031358947667730441 -0.031724440261363909 0 -0.0028995577586513918 -0.033476141669100942 0 -0.0019856549468460754 -0.035081328954267181 0 -0.0027165424325587685 -0.031198227268927178 0 -0.0027735818783620374 -0.031698789470676995 0 -0.0031363788269180206 -0.031704657460975949 0 -0.0029997991009509534 -0.031901250991835051 0 -0.0031358947667730441 -0.031724440261363909 0 -0.0032433212041938055 -0.031843173367502302 0 -0.0015441339767569232 -0.037175059982608234 0 -0.0020433357607528226 -0.036782059595935793 0 -0.0013532060513645147 -0.03525796864730945 0 -0.0025802021565283742 -0.034533582866129349 0 -0.0031892189101162781 -0.034523980774283418 0 -0.0030259669027079147 -0.032842469370953711 0 -0.0019856549468460754 -0.035081328954267181 0 -0.0013767804386868312 -0.03682671837438347 0 -0.0017780019591431954 -0.03586293580070074 0 -0.0017946131006251894 -0.035882488274948422 0 -0.0017992280023609105 -0.035864011274887968 0 -0.0019856549468460754 -0.035081328954267181 0 -0.0015576738974520537 -0.036699910952445271 0 -0.00094831557026244732 -0.039723096792334052 0 -0.00077284609667577914 -0.040106766353805605 0 -0.001330934128370621 -0.037554378938865263 0 -0.00055628417534292279 -0.038267755231393433 0 -0.0010358626339705967 -0.038246392305788343 0 -0.001330934128370621 -0.037554378938865263 0 -0.0010358626339705967 -0.038246392305788343 0 -0.001732101331961627 -0.037968242855533928 0 -0.0010358626339705967 -0.038246392305788343 0 -0.001732101331961627 -0.037968242855533928 0 -0.0015494798823984628 -0.03866086270323852 0 -0.0013767804386868312 -0.03682671837438347 0 -0.0015576738974520537 -0.036699910952445271 0 -0.00074393325253358314 -0.038679416043951656 0 -0.0010358626339705967 -0.038246392305788343 0 -0.0015494798823984628 -0.03866086270323852 0 -0.00094266241133329461 -0.038698295787104105 0 -0.0015576738974520537 -0.036699910952445271 0 -0.0015576738974520537 -0.036699910952445271 0 -0.0011318655283429819 -0.037472076127547299 0 -0.00041645290057914852 -0.037620311539983353 0 -0.0012254110035624845 -0.037602026848515803 0 -0.00062350641830975729 -0.038075541033674783 0 -0.00094266241133329461 -0.038698295787104105 0 -0.0011318655283429819 -0.037472076127547299 0 -0.0015576738974520537 -0.036699910952445271 0 -0.0018475956159727358 -0.034753404390119931 0 -0.0011318655283429819 -0.037472076127547299 0 -0.0018475956159727358 -0.034753404390119931 0 -0.0025119745211422935 -0.030504171408941048 0 -0.0019856549468460754 -0.035081328954267181 0 -0.00065551571102635592 -0.032517587263589921 0 -0.0025802021565283742 -0.034533582866129349 0 -0.0030259669027079147 -0.032842469370953711 0 -0.0018475956159727358 -0.034753404390119931 0 -0.0021953406313249273 -0.02880709988038101 0 -0.0025574363209326552 -0.034349175664315633 0 -0.0012220297239193361 -0.031400408200011304 0 -0.0022902485546323361 -0.031683489356440928 0 -0.0025119745211422935 -0.030504171408941048 0 -0.0021953406313249273 -0.02880709988038101 0 -0.00065551571102635592 -0.032517587263589921 0 -0.0030259669027079147 -0.032842469370953711 0 -0.0016086644106370791 -0.029690792951502214 0 -0.0018475956159727358 -0.034753404390119931 0 -0.0019677443046032953 -0.034299087588702683 0 -0.0014800082343357718 -0.035820122699518862 0 -0.0016043888153261434 -0.035858273070039776 0 -0.0015838605570335739 -0.035743033901983717 0 -0.0014875817851824013 -0.03594389796031891 0 -0.0014800082343357718 -0.035820122699518862 0 -0.0016043888153261434 -0.035858273070039776 0 -0.0015838605570335739 -0.035743033901983717 0 -0.0014719400944482089 -0.035697144000762973 0 -0.0016150316822493144 -0.035634159355102293 0 -0.0023922587354346862 -0.025644538570957318 0 -0.0021953406313249273 -0.02880709988038101 0 -0.0022057928774434458 -0.025787610944531837 0 -0.0022797909441968243 -0.026055858299009593 0 -0.0023348325857762533 -0.0258487177845051 0 -0.0014800082343357718 -0.035820122699518862 0 -0.0015838605570335739 -0.035743033901983717 0 -0.0014719400944482089 -0.035697144000762973 0 -0.0021953406313249273 -0.02880709988038101 0 -0.0021920591671515249 -0.028926838532320542 0 -0.0012220297239193361 -0.031400408200011304 0 -0.0022902485546323361 -0.031683489356440928 0 -0.002019242059688653 -0.029020330469497722 0 -0.0019677443046032953 -0.034299087588702683 0 -0.0021920591671515249 -0.028926838532320542 0 -2.4675018831723266e-06 -0.042313894642795419 0 0.00032653699477442244 -0.044485217393628214 0 -0.00031256665997667456 -0.043149529776694361 0 0.00032723065242458481 -0.043304964876721821 0 0.00050716026266545708 -0.043916508184088293 0 2.4480402788576953e-05 -0.044142998900448538 0 4.6933121810532302e-05 -0.044301541233774333 0 0.00026283797138953758 -0.044416466476349642 0 2.4480402788576953e-05 -0.044142998900448538 0 4.6933121810532302e-05 -0.044301541233774333 0 -8.628471687304571e-05 -0.044280429306660159 0 -0.0016043888153261434 -0.035858273070039776 0 -0.0015838605570335739 -0.035743033901983717 0 -0.0016884437585031479 -0.035748375200611186 0 -0.0015087629424630918 -0.037306549189170035 0 -0.00048619499639017915 -0.040546578110137427 0 -0.00093128876218354431 -0.039664562358851567 0 0.00013293000177162954 -0.040078498971883751 0 -0.0003107607538052393 -0.040606700130614036 0 -2.4675018831723266e-06 -0.042313894642795419 0 -0.00048619499639017915 -0.040546578110137427 0 -2.4675018831723266e-06 -0.042313894642795419 0 -0.00053930667808114432 -0.040418168505620779 0 -0.00093128876218354431 -0.039664562358851567 0 0.00013293000177162954 -0.040078498971883751 0 -0.00062986668726828935 -0.039363503820907801 0 0.00022257755855440518 -0.04221640769874168 0 -0.00019789945473541168 -0.04182073299046804 0 0.00040495333584382931 -0.042000170004252907 0 -0.00031256665997667456 -0.043149529776694361 0 -4.2921928640341109e-05 -0.042825388147594068 0 0.00032723065242458481 -0.043304964876721821 0 -2.4675018831723266e-06 -0.042313894642795419 0 3.0689274304330562e-05 -0.042904906143309232 0 3.0689274304330562e-05 -0.042904906143309232 0 0.00024801038318308184 -0.043650039655133206 0 0.0002429110077850238 -0.043151601025185865 0 0.00024152105611387504 -0.043385005790459202 0 5.5741630687262595e-05 -0.043383496661773699 0 0.0002429110077850238 -0.043151601025185865 0 0.00024152105611387504 -0.043385005790459202 0 0.00042748281615500032 -0.043387014863877783 0 0.00044034333224660181 -0.043664446099350128 0 0.00043367110078836062 -0.043139723074802828 0 3.0689274304330562e-05 -0.042904906143309232 0 0.00043367110078836062 -0.043139723074802828 0 -0.00019789945473541168 -0.04182073299046804 0 0.00040495333584382931 -0.042000170004252907 0 -1.7137289817792817e-05 -0.041448892767534308 0 0.00076245141216556343 -0.044409661493952077 0 0.00084860376306529787 -0.044044599224117277 0 0.00069000951800534402 -0.044118848804954945 0 0.00076245141216556343 -0.044409661493952077 0 0.0010242858728261692 -0.044101642407001332 0 0.00084860376306529787 -0.044044599224117277 0 0.00096627871819491553 -0.043987825974228921 0 0.0007481625793043196 -0.043912782883424054 0 0.00084860376306529787 -0.044044599224117277 0 0.00043367110078836062 -0.043139723074802828 0 0.00095163360875644674 -0.044038551705982823 0 0.00077489970608348553 -0.043958931729171223 0 0.00084860376306529787 -0.044044599224117277 0 0.00069000951800534402 -0.044118848804954945 0 0.0005780601824743847 -0.043962294174418562 0 0.00052647745286128289 -0.044193127084216896 0 0.00069000951800534402 -0.044118848804954945 0 0.0005780601824743847 -0.043962294174418562 0 0.00077489970608348553 -0.043958931729171223 0 0.00069000951800534402 -0.044118848804954945 0 0.0005780601824743847 -0.043962294174418562 0 0.00052647745286128289 -0.044193127084216896 0 0.00043008793028003947 -0.044053971004394836 0 0.00051268188073126555 -0.044162610785717087 0 0.00015917689662538109 -0.044201328232856753 0 0.00043008793028003947 -0.044053971004394836 0 0.00013091319337314735 -0.044076696604532214 0 0.00033060600378517286 -0.043989475210750348 0 0.00052647745286128289 -0.044193127084216896 0 0.00021062628683546085 -0.044124527430553062 0 0.00036156191029068977 -0.044291971541734733 0 0.00052647745286128289 -0.044193127084216896 0 0.00043008793028003947 -0.044053971004394836 0 0.00013091319337314735 -0.044076696604532214 0 0.00021958567299808722 -0.044212061790574804 0 0.00014641546594120671 -0.044309309960692878 0 0.00024356627821656276 -0.044402768951079821 0 0.00015917689662538109 -0.044201328232856753 0 0.00024874510108703829 -0.044374855098406954 0 0.0002348957936001146 -0.043807842934565432 0 0.00016052931950920235 -0.043803753347170106 0 0.00018944730451196968 -0.043878766277125919 0 0.00015862591926194661 -0.044098893962100566 0 0.00018485666830638249 -0.043789367024894721 0 0.00011986786444464511 -0.043953252525189265 0 0.00033060600378517286 -0.043989475210750348 0 0.0003572588849389902 -0.043957010312942288 0 0.00015917689662538109 -0.044201328232856753 0 0.00015862591926194661 -0.044098893962100566 0 0.00013091319337314735 -0.044076696604532214 0 0.00011986786444464511 -0.043953252525189265 0 0.00033060600378517286 -0.043989475210750348 0 3.0689274304330562e-05 -0.042904906143309232 0 0.00018485666830638249 -0.043789367024894721 0 0.0005780601824743847 -0.043962294174418562 0 0.00043008793028003947 -0.044053971004394836 0 0.00035773883559137801 -0.043957762634590815 0 0.00044034333224660181 -0.043664446099350128 0 0.00018485666830638249 -0.043789367024894721 0 0.00043008793028003947 -0.044053971004394836 0 0.00033060600378517286 -0.043989475210750348 0 0.00035773883559137801 -0.043957762634590815 0 0.00019161605895236998 -0.043812612124370098 0 0.00018485666830638249 -0.043789367024894721 0 8.6571953196354335e-05 -0.043886775839061282 0 0.00016052931950920235 -0.043803753347170106 0 0.00014586270284438631 -0.043891270695871572 0 0.00016052931950920235 -0.043803753347170106 0 0.00014586270284438631 -0.043891270695871572 0 0.00018944730451196968 -0.043878766277125919 0 8.6571953196354335e-05 -0.043886775839061282 0 0.00014586270284438631 -0.043891270695871572 0 0.0001283446249180382 -0.043945381138821786 0 0.00014586270284438631 -0.043891270695871572 0 0.00018944730451196968 -0.043878766277125919 0 0.00018575239232602661 -0.043935690576624775 0 0.0002348957936001146 -0.043807842934565432 0 0.00018944730451196968 -0.043878766277125919 0 0.00024733019826609189 -0.043936772923177443 0 0.00015862591926194661 -0.044098893962100566 0 0.00015243348362635779 -0.044507875434762693 0 0.00018944730451196968 -0.043878766277125919 0 0.00018575239232602661 -0.043935690576624775 0 0.00024733019826609189 -0.043936772923177443 0 0.00011265859451712739 -0.04508238212320579 0 0.00010253896897347088 -0.045089192880641102 0 9.152631687739141e-05 -0.044981483544160449 0 0.00022195027244898465 -0.044556768427072652 0 0.00030099483752680926 -0.044162677192452524 0 0.0001308934173775157 -0.044741030710552028 0 0.00010030850861655281 -0.045079461517741448 0 0.00022195027244898465 -0.044556768427072652 0 0.00022730551344915986 -0.044752616023302966 0 0.00018575239232602661 -0.043935690576624775 0 0.0002420728765731172 -0.043954984820449072 0 0.00017125956533587593 -0.04400307374958673 0 0.00018575239232602661 -0.043935690576624775 0 0.00024733019826609189 -0.043936772923177443 0 0.0002420728765731172 -0.043954984820449072 0 0.00015243348362635779 -0.044507875434762693 0 0.0001308934173775157 -0.044741030710552028 0 0.00015243348362635779 -0.044507875434762693 0 0.00022195027244898465 -0.044556768427072652 0 0.00014446294396550606 -0.044575541073847404 0 0.00011341583110533379 -0.044682332297536653 0 0.00015206645303812423 -0.044655465096812723 0 0.00022195027244898465 -0.044556768427072652 0 0.0001308934173775157 -0.044741030710552028 0 0.00018575239232602661 -0.043935690576624775 0 0.0001283446249180382 -0.043945381138821786 0 0.00017125956533587593 -0.04400307374958673 0 0.00032723065242458481 -0.043304964876721821 0 0.00050716026266545708 -0.043916508184088293 0 0.00069681412728166841 -0.043785855905295566 0 0.00024801038318308184 -0.043650039655133206 0 0.00030099483752680926 -0.044162677192452524 0 0.00014586270284438631 -0.043891270695871572 0 0.00018575239232602661 -0.043935690576624775 0 0.0001283446249180382 -0.043945381138821786 0 1.3862322927372585e-08 -0.04500000576429352 0 3.4030937821359969e-05 -0.044997056809431273 0 2.4069781879507244e-05 -0.045013706104272209 0 9.587628610778864e-05 -0.044919225734190625 0 9.4938492346343387e-05 -0.044908295950072147 0 3.9530728500826127e-05 -0.044949532948874389 0 6.818665503691566e-05 -0.045010558328459328 0 3.4030937821359969e-05 -0.044997056809431273 0 2.4069781879507244e-05 -0.045013706104272209 0 6.818665503691566e-05 -0.045010558328459328 0 5.9933613293972942e-05 -0.044994134249914476 0 9.152631687739141e-05 -0.044981483544160449 0 6.818665503691566e-05 -0.045010558328459328 0 3.4030937821359969e-05 -0.044997056809431273 0 5.9933613293972942e-05 -0.044994134249914476 0 0.0001308934173775157 -0.044741030710552028 0 1.3956481973929563e-05 -0.045001897583130578 0 9.587628610778864e-05 -0.044919225734190625 0 3.9530728500826127e-05 -0.044949532948874389 0 4.0881950889898631e-05 -0.044986268781590996 0 9.587628610778864e-05 -0.044919225734190625 0 4.0881950889898631e-05 -0.044986268781590996 0 6.4819866577873835e-05 -0.045014071831383812 0 0.00015243348362635779 -0.044507875434762693 0 7.5419512805991197e-05 -0.044680139522694028 0 3.9530728500826127e-05 -0.044949532948874389 0 1.2360545616186685e-09 -0.044999931402905258 0 1.7554146309663683e-05 -0.044993288217525122 0 1.3956481973929563e-05 -0.045001897583130578 0 3.9493384100874098e-08 -0.044999973517089571 0 3.9530728500826127e-05 -0.044949532948874389 0 1.7554146309663683e-05 -0.044993288217525122 0 4.0881950889898631e-05 -0.044986268781590996 0 1.3862322927372585e-08 -0.04500000576429352 0 2.4069781879507244e-05 -0.045013706104272209 0 9.6778496182504985e-09 -0.045000034052601855 0 1.7554146309663683e-05 -0.044993288217525122 0 1.0071703824386655e-09 -0.045000057599416041 0 1.5415430304720842e-05 -0.045011299830696405 0 1.2360545616186685e-09 -0.044999931402905258 0 1.7554146309663683e-05 -0.044993288217525122 0 1.0071703824386655e-09 -0.045000057599416041 0 2.8106199308925411e-05 -0.044907976066851686 0 7.5419512805991197e-05 -0.044680139522694028 0 1.7554146309663683e-05 -0.044993288217525122 0 1.5415430304720842e-05 -0.045011299830696405 0 4.0881950889898631e-05 -0.044986268781590996 0 2.8106199308925411e-05 -0.044907976066851686 0 9.7875975013342505e-05 -0.044601300564088883 0 5.8931445755944353e-10 -0.044999994657764976 0 4.3532323675861181e-07 -0.044998648693596717 0 4.3007568699477071e-07 -0.044998715766140257 0 3.6149739342305869e-08 -0.044999903047398163 0 2.8106199308925411e-05 -0.044907976066851686 0 4.7010817524946969e-05 -0.044752706729825002 0 8.1832695203532015e-05 -0.04476159037748792 0 8.5207519289668204e-05 -0.044750257629022308 0 0.00013257248773493788 -0.044405244252910425 0 0.00014076701190425135 -0.044488571448505598 0 0.00016415196024606245 -0.044406831545343736 0 1.5415430304720842e-05 -0.045011299830696405 0 4.0881950889898631e-05 -0.044986268781590996 0 6.4819866577873835e-05 -0.045014071831383812 0 9.7875975013342505e-05 -0.044601300564088883 0 7.5419512805991197e-05 -0.044680139522694028 0 9.8140850401153297e-05 -0.044377386508301038 0 0.00010805081703762951 -0.044374982226351306 0 0.00010684449836866316 -0.044378932272156453 0 9.7563822452710416e-05 -0.044370121399916966 0 9.8140850401153297e-05 -0.044377386508301038 0 0.00010805081703762951 -0.044374982226351306 0 0.00015862591926194661 -0.044098893962100566 0 7.5419512805991197e-05 -0.044680139522694028 0 0.0001009722985694965 -0.044173513197902754 0 0.00014641546594120671 -0.044309309960692878 0 2.8357511507935519e-05 -0.044408789746770018 0 9.7875975013342505e-05 -0.044601300564088883 0 1.0204953875366394e-05 -0.044702416127980697 0 0.00021958567299808722 -0.044212061790574804 0 0.0001009722985694965 -0.044173513197902754 0 0.00014641546594120671 -0.044309309960692878 0 0.00015917689662538109 -0.044201328232856753 0 9.7875975013342505e-05 -0.044601300564088883 0 1.8611341993367597e-06 -0.044996101266244509 0 4.3007568699477071e-07 -0.044998715766140257 0 7.3423534260454698e-07 -0.044998481477662715 0 5.8931445755944353e-10 -0.044999994657764976 0 4.3007568699477071e-07 -0.044998715766140257 0 6.7052405071414403e-10 -0.044999996836238579 0 4.3532323675861181e-07 -0.044998648693596717 0 1.8611341993367597e-06 -0.044996101266244509 0 4.3007568699477071e-07 -0.044998715766140257 0 4.3007568699477071e-07 -0.044998715766140257 0 6.7052405071414403e-10 -0.044999996836238579 0 7.3423534260454698e-07 -0.044998481477662715 0 6.7052405071414403e-10 -0.044999996836238579 0 7.3423534260454698e-07 -0.044998481477662715 0 1.0804302605562585e-10 -0.044999998336768918 0 1.0204953875366394e-05 -0.044702416127980697 0 -6.8126983943393814e-06 -0.044845401975211592 0 7.3423534260454698e-07 -0.044998481477662715 0 1.0804302605562585e-10 -0.044999998336768918 0 1.6731116531378666e-07 -0.044999561850516907 0 2.8357511507935519e-05 -0.044408789746770018 0 0.00021928445774204369 -0.04464627189267191 0 -2.4293924002016416e-05 -0.044698583766207181 0 2.8357511507935519e-05 -0.044408789746770018 0 0.00024356627821656276 -0.044402768951079821 0 0.00021928445774204369 -0.04464627189267191 0 0.00014641546594120671 -0.044309309960692878 0 2.8357511507935519e-05 -0.044408789746770018 0 0.00024356627821656276 -0.044402768951079821 0 0.00021062628683546085 -0.044124527430553062 0 0.00024356627821656276 -0.044402768951079821 0 0.00036156191029068977 -0.044291971541734733 0 0.00052647745286128289 -0.044193127084216896 0 0.00036156191029068977 -0.044291971541734733 0 0.00045221272569513735 -0.044445735908156973 0 0.00024356627821656276 -0.044402768951079821 0 0.00036156191029068977 -0.044291971541734733 0 0.00045221272569513735 -0.044445735908156973 0 0.00045221272569513735 -0.044445735908156973 0 0.00021928445774204369 -0.04464627189267191 0 0.00051858221974255181 -0.044676040479520916 0 0.00024356627821656276 -0.044402768951079821 0 0.00045221272569513735 -0.044445735908156973 0 0.00021928445774204369 -0.04464627189267191 0 0.00021928445774204369 -0.04464627189267191 0 0.00051858221974255181 -0.044676040479520916 0 0.00028777254888687708 -0.04490985886325826 0 0.00029855878426028555 -0.04379702873071456 0 1.0883253109096827e-05 -0.044097630465553546 0 2.2444307627969831e-05 -0.043408191627692792 0 9.7679473233181724e-05 -0.042958895945207722 0 -0.00025129693347158624 -0.043326481638507004 0 0.00021928445774204369 -0.04464627189267191 0 0.00028777254888687708 -0.04490985886325826 0 9.3451948085767185e-05 -0.044936427370417441 0 9.3451948085767185e-05 -0.044936427370417441 0 -1.913665346714265e-07 -0.04499966977840713 0 -2.4293924002016416e-05 -0.044698583766207181 0 -1.3582723887206127e-10 -0.044999999929520251 0 1.0804302605562585e-10 -0.044999998336768918 0 1.6731116531378666e-07 -0.044999561850516907 0 -8.7029997728395281e-09 -0.044999948324063406 0 -6.8126983943393814e-06 -0.044845401975211592 0 0.00021928445774204369 -0.04464627189267191 0 9.3451948085767185e-05 -0.044936427370417441 0 -2.4293924002016416e-05 -0.044698583766207181 0 9.388332708209647e-05 -0.014813890582290845 0 -0.00028005569750559167 -0.015153733859639253 0 -0.00036959382252292578 -0.014538911942978993 0 -0.00021707663375196391 -0.015216612734168074 0 -0.00025256889650922271 -0.017511616977738127 0 9.388332708209647e-05 -0.014813890582290845 0 -0.00014218677556781145 -0.014773285952652896 0 -0.00031774836306959503 -0.015179164673437303 0 9.388332708209647e-05 -0.014813890582290845 0 -0.00014218677556781145 -0.014773285952652896 0 8.3476984312057844e-05 -0.014986463981252647 0 -0.00014218677556781145 -0.014773285952652896 0 8.3476984312057844e-05 -0.014986463981252647 0 -0.00048895345303890812 -0.014285965984072254 0 -0.00014218677556781145 -0.014773285952652896 0 -0.00031774836306959503 -0.015179164673437303 0 -0.00048895345303890812 -0.014285965984072254 0 0.0014555639919890881 -0.012988726826994906 0 -0.00048895345303890812 -0.014285965984072254 0 0.00036882658589860453 -0.011848034216663944 0 0.00059708065387738599 -0.014068440224417221 0 -0.00035598761434898492 -0.014321201003683288 0 9.388332708209647e-05 -0.014813890582290845 0 8.3476984312057844e-05 -0.014986463981252647 0 -0.00028005569750559167 -0.015153733859639253 0 8.3476984312057844e-05 -0.014986463981252647 0 -0.00028005569750559167 -0.015153733859639253 0 -0.00023614294622304166 -0.015947989931779174 0 0.00059708065387738599 -0.014068440224417221 0 0.0016628148775431311 -0.013637090509059186 0 -0.00028005569750559167 -0.015153733859639253 0 -0.00094847373523248581 -0.015892603503482924 0 -0.00023614294622304166 -0.015947989931779174 0 -0.00028005569750559167 -0.015153733859639253 0 -0.00093270373803409868 -0.014885992030099731 0 -0.00094847373523248581 -0.015892603503482924 0 -0.0016646488010416374 -0.015393609471216705 0 -0.00093270373803409868 -0.014885992030099731 0 -0.00094847373523248581 -0.015892603503482924 0 -0.0014487160599893905 -0.020607537953655233 0 -0.00084261984342617847 -0.018144034720057885 0 -0.0012103530062515277 -0.021745173301121398 0 -0.00098181152206662753 -0.021551149094065056 0 -0.00092591064301926539 -0.021295417291864262 0 -0.0014487160599893905 -0.020607537953655233 0 -0.0010439732223640034 -0.02194422817586774 0 -0.0017841042613580165 -0.021727142811668872 0 -0.00092591064301926539 -0.021295417291864262 0 -0.0014529221428420016 -0.021286084700845344 0 -0.0016278720065134621 -0.022556190616267152 0 -0.0017841042613580165 -0.021727142811668872 0 -0.00092591064301926539 -0.021295417291864262 0 -0.00028005569750559167 -0.015153733859639253 0 -0.00093270373803409868 -0.014885992030099731 0 -0.00036959382252292578 -0.014538911942978993 0 -0.00084261984342617847 -0.018144034720057885 0 -0.00025256889650922271 -0.017511616977738127 0 -0.00098181152206662753 -0.021551149094065056 0 -0.00062881899932299833 -0.021363311939848847 0 -0.00092591064301926539 -0.021295417291864262 0 -0.00079927847545316507 -0.017452499519508124 0 -0.00082429459353903156 -0.01767822876263651 0 -0.0004203002711819542 -0.017508019897722923 0 -0.00082429459353903156 -0.01767822876263651 0 -0.0004203002711819542 -0.017508019897722923 0 -0.000797996122647314 -0.018327930507966037 0 -0.00062881899932299833 -0.021363311939848847 0 -0.00092591064301926539 -0.021295417291864262 0 -0.0011261409942667144 -0.021180229436187421 0 -0.00025256889650922271 -0.017511616977738127 0 -0.00093500863416498537 -0.019254664373022291 0 -0.0004203002711819542 -0.017508019897722923 0 -0.000797996122647314 -0.018327930507966037 0 0.0001561668641099539 -0.017776271736924979 0 -0.0017841042613580165 -0.021727142811668872 0 -0.0014529221428420016 -0.021286084700845344 0 -0.0018162022502454472 -0.020889469944307629 0 -0.0014529221428420016 -0.021286084700845344 0 -0.0011261409942667144 -0.021180229436187421 0 -0.0018162022502454472 -0.020889469944307629 0 -0.00092591064301926539 -0.021295417291864262 0 -0.0014529221428420016 -0.021286084700845344 0 -0.0011261409942667144 -0.021180229436187421 0 -0.00093500863416498537 -0.019254664373022291 0 0.00027508397159322002 -0.020714846118476134 0 -0.00094218432442967149 -0.017834194268201143 0 0.00027508397159322002 -0.020714846118476134 0 -0.000797996122647314 -0.018327930507966037 0 -0.0011663116670631777 -0.019544271535356667 0 -0.0012482387382232423 -0.019510844854500276 0 -0.00082429459353903156 -0.01767822876263651 0 -0.000797996122647314 -0.018327930507966037 0 -0.00083221084681381764 -0.017550305998175864 0 -0.000797996122647314 -0.018327930507966037 0 -0.00083221084681381764 -0.017550305998175864 0 -0.00079756289415287406 -0.017599314151106837 0 -0.00083221084681381764 -0.017550305998175864 0 -0.00051299136624805713 -0.016740585461654134 0 -0.00079756289415287406 -0.017599314151106837 0 -0.00083221084681381764 -0.017550305998175864 0 -0.00082143447229499858 -0.017612390538797335 0 -0.00051299136624805713 -0.016740585461654134 0 -0.00082429459353903156 -0.01767822876263651 0 -0.00083221084681381764 -0.017550305998175864 0 -0.00082143447229499858 -0.017612390538797335 0 -0.00014736981820149549 -0.016559869475671309 0 -0.00053810509525952974 -0.016825173121766516 0 9.388332708209647e-05 -0.014813890582290845 0 0.00032494723472422402 -0.015712020925226833 0 -0.00031774836306959503 -0.015179164673437303 0 9.388332708209647e-05 -0.014813890582290845 0 0.00085660330618251711 -0.015130350346824277 0 0.00032494723472422402 -0.015712020925226833 0 -0.00025256889650922271 -0.017511616977738127 0 -0.00014736981820149549 -0.016559869475671309 0 -0.00079927847545316507 -0.017452499519508124 0 -0.00082429459353903156 -0.01767822876263651 0 -0.00082143447229499858 -0.017612390538797335 0 0.00032494723472422402 -0.015712020925226833 0 -0.00031774836306959503 -0.015179164673437303 0 -0.00051299136624805713 -0.016740585461654134 0 -0.00031774836306959503 -0.015179164673437303 0 -0.00051299136624805713 -0.016740585461654134 0 -0.00093237877806324251 -0.015673704681597379 0 -0.00051299136624805713 -0.016740585461654134 0 -0.00098753639024733077 -0.016528563756761497 0 -0.00093237877806324251 -0.015673704681597379 0 -0.00051299136624805713 -0.016740585461654134 0 -0.00084567172816414399 -0.017096125325108721 0 -0.00079756289415287406 -0.017599314151106837 0 -0.00051299136624805713 -0.016740585461654134 0 -0.00098753639024733077 -0.016528563756761497 0 -0.00084567172816414399 -0.017096125325108721 0 -0.00098753639024733077 -0.016528563756761497 0 -0.0015316860878995294 -0.016095284949976692 0 -0.001210687301671072 -0.017008832479683 0 -0.00098753639024733077 -0.016528563756761497 0 -0.0015316860878995294 -0.016095284949976692 0 -0.00093237877806324251 -0.015673704681597379 0 -0.0015316860878995294 -0.016095284949976692 0 -0.0020103032183424329 -0.015595829179117048 0 -0.001508653933119321 -0.015146694852614535 0 -0.0015316860878995294 -0.016095284949976692 0 -0.0020103032183424329 -0.015595829179117048 0 -0.0020780679993203819 -0.016147675665811424 0 -0.001508653933119321 -0.015146694852614535 0 -0.0022704130874824087 -0.014870339810456976 0 -0.0017156818188605938 -0.014002228449921916 0 -0.0020103032183424329 -0.015595829179117048 0 -0.001508653933119321 -0.015146694852614535 0 -0.0022704130874824087 -0.014870339810456976 0 -0.0015316860878995294 -0.016095284949976692 0 -0.001508653933119321 -0.015146694852614535 0 -0.00093237877806324251 -0.015673704681597379 0 -0.00031774836306959503 -0.015179164673437303 0 -0.00093237877806324251 -0.015673704681597379 0 -0.00048895345303890812 -0.014285965984072254 0 -0.001508653933119321 -0.015146694852614535 0 -0.00093237877806324251 -0.015673704681597379 0 -0.00048895345303890812 -0.014285965984072254 0 -0.0032553146616583254 -0.015185348272608971 0 -0.0026362470904399116 -0.015621235401413252 0 -0.0029999283942057447 -0.014579386935334775 0 -0.0036455475419171681 -0.014303574590157072 0 -0.0032553146616583254 -0.015185348272608971 0 -0.0029999283942057447 -0.014579386935334775 0 -0.0020103032183424329 -0.015595829179117048 0 -0.0026362470904399116 -0.015621235401413252 0 -0.0022704130874824087 -0.014870339810456976 0 -0.0026362470904399116 -0.015621235401413252 0 -0.0022704130874824087 -0.014870339810456976 0 -0.0029999283942057447 -0.014579386935334775 0 -0.0020103032183424329 -0.015595829179117048 0 -0.0026362470904399116 -0.015621235401413252 0 -0.0020780679993203819 -0.016147675665811424 0 -0.0022704130874824087 -0.014870339810456976 0 -0.0029999283942057447 -0.014579386935334775 0 -0.0027202932154547243 -0.013638813047899304 0 -0.0034034402279943259 -0.013670982112376058 0 -0.0029999283942057447 -0.014579386935334775 0 -0.0027202932154547243 -0.013638813047899304 0 -0.0036455475419171681 -0.014303574590157072 0 -0.0034034402279943259 -0.013670982112376058 0 -0.0029999283942057447 -0.014579386935334775 0 -0.0034034402279943259 -0.013670982112376058 0 -0.0035557580505807536 -0.012440991824435562 0 -0.0027202932154547243 -0.013638813047899304 0 -0.0027202932154547243 -0.013638813047899304 0 -0.0020989132293596485 -0.012642004379372435 0 -0.0017156818188605938 -0.014002228449921916 0 -0.0022704130874824087 -0.014870339810456976 0 -0.0027202932154547243 -0.013638813047899304 0 -0.0017156818188605938 -0.014002228449921916 0 -0.0035557580505807536 -0.012440991824435562 0 -0.0027202932154547243 -0.013638813047899304 0 -0.0020989132293596485 -0.012642004379372435 0 -0.0035557580505807536 -0.012440991824435562 0 -0.0020989132293596485 -0.012642004379372435 0 -0.002663840560276323 -0.011485365905651973 0 -0.00048895345303890812 -0.014285965984072254 0 -0.0017156818188605938 -0.014002228449921916 0 -0.0010515231255740047 -0.012455557408601605 0 -0.001508653933119321 -0.015146694852614535 0 -0.00048895345303890812 -0.014285965984072254 0 -0.0017156818188605938 -0.014002228449921916 0 -0.0020989132293596485 -0.012642004379372435 0 -0.0017156818188605938 -0.014002228449921916 0 -0.0010515231255740047 -0.012455557408601605 0 -0.00048895345303890812 -0.014285965984072254 0 -0.0010515231255740047 -0.012455557408601605 0 0.00036882658589860453 -0.011848034216663944 0 -0.0010515231255740047 -0.012455557408601605 0 0.00036882658589860453 -0.011848034216663944 0 -0.00045075285149785135 -0.010851518498913554 0 -0.0020989132293596485 -0.012642004379372435 0 -0.0010515231255740047 -0.012455557408601605 0 -0.0016654881001986646 -0.011250628580911894 0 -0.0010515231255740047 -0.012455557408601605 0 -0.00045075285149785135 -0.010851518498913554 0 -0.0016654881001986646 -0.011250628580911894 0 -0.00045075285149785135 -0.010851518498913554 0 -0.0016654881001986646 -0.011250628580911894 0 -0.00122264994235385 -0.0099118686995939096 0 -0.00045075285149785135 -0.010851518498913554 0 -0.00010730985948620755 -0.0095505541832301439 0 -0.00122264994235385 -0.0099118686995939096 0 -0.00045075285149785135 -0.010851518498913554 0 -0.00010730985948620755 -0.0095505541832301439 0 0.00077677467961765722 -0.010458960885965535 0 0.00036882658589860453 -0.011848034216663944 0 -0.00045075285149785135 -0.010851518498913554 0 0.00077677467961765722 -0.010458960885965535 0 -0.0035557580505807536 -0.012440991824435562 0 -0.0034370617737481137 -0.010671464732638379 0 -0.002663840560276323 -0.011485365905651973 0 -0.0020989132293596485 -0.012642004379372435 0 -0.002663840560276323 -0.011485365905651973 0 -0.0016654881001986646 -0.011250628580911894 0 -0.0016654881001986646 -0.011250628580911894 0 -0.0023969284261091319 -0.010113491896920637 0 -0.00122264994235385 -0.0099118686995939096 0 -0.002663840560276323 -0.011485365905651973 0 -0.0016654881001986646 -0.011250628580911894 0 -0.0023969284261091319 -0.010113491896920637 0 -0.0034370617737481137 -0.010671464732638379 0 -0.002663840560276323 -0.011485365905651973 0 -0.0023969284261091319 -0.010113491896920637 0 -0.0034370617737481137 -0.010671464732638379 0 -0.0023969284261091319 -0.010113491896920637 0 -0.0031813530021204801 -0.0090014800122962882 0 -0.0023969284261091319 -0.010113491896920637 0 -0.0031813530021204801 -0.0090014800122962882 0 -0.0020495554021024397 -0.0087362667877394686 0 -0.0020495554021024397 -0.0087362667877394686 0 -0.00122264994235385 -0.0099118686995939096 0 -0.0010062498368574343 -0.0088226876142673966 0 -0.0023969284261091319 -0.010113491896920637 0 -0.0020495554021024397 -0.0087362667877394686 0 -0.00122264994235385 -0.0099118686995939096 0 -0.0030095974734589128 -0.0073688889974233536 0 -0.0015207407289447531 -0.0072839783394287221 0 -0.0020495554021024397 -0.0087362667877394686 0 -0.0015207407289447531 -0.0072839783394287221 0 -0.0020495554021024397 -0.0087362667877394686 0 -0.0010062498368574343 -0.0088226876142673966 0 -0.0030095974734589128 -0.0073688889974233536 0 -0.0031813530021204801 -0.0090014800122962882 0 -0.0020495554021024397 -0.0087362667877394686 0 -0.00010730985948620755 -0.0095505541832301439 0 0.0010305647255643906 -0.0089673001602038876 0 0.00077677467961765722 -0.010458960885965535 0 -0.00010730985948620755 -0.0095505541832301439 0 -0.00122264994235385 -0.0099118686995939096 0 -0.0010062498368574343 -0.0088226876142673966 0 -0.0015207407289447531 -0.0072839783394287221 0 -0.0010062498368574343 -0.0088226876142673966 0 -9.9695514286994298e-05 -0.0081653576266391102 0 -0.00010730985948620755 -0.0095505541832301439 0 -0.0010062498368574343 -0.0088226876142673966 0 -9.9695514286994298e-05 -0.0081653576266391102 0 0.0013119721345416216 -0.0072056115674939379 0 -9.9695514286994298e-05 -0.0081653576266391102 0 0.0010305647255643906 -0.0089673001602038876 0 -0.00010730985948620755 -0.0095505541832301439 0 -9.9695514286994298e-05 -0.0081653576266391102 0 0.0010305647255643906 -0.0089673001602038876 0 0.0013119721345416216 -0.0072056115674939379 0 0.0021946122076875792 -0.0083790744947628299 0 0.0010305647255643906 -0.0089673001602038876 0 0.00049798543785942737 -0.014086973466999973 0 0.00093277449328208937 -0.014333330461804497 0 0.0021946122076875792 -0.0083790744947628299 0 0.0019913917506341485 -0.0098938085330364869 0 0.0031806816574142917 -0.0096311624562119749 0 0.0019913917506341485 -0.0098938085330364869 0 0.0030746095116645131 -0.010747773332902182 0 0.0031806816574142917 -0.0096311624562119749 0 0.0021946122076875792 -0.0083790744947628299 0 0.0019913917506341485 -0.0098938085330364869 0 0.0010305647255643906 -0.0089673001602038876 0 0.0019913917506341485 -0.0098938085330364869 0 0.0010305647255643906 -0.0089673001602038876 0 0.00077677467961765722 -0.010458960885965535 0 0.0019913917506341485 -0.0098938085330364869 0 0.00077677467961765722 -0.010458960885965535 0 0.0016834148595238812 -0.011539259029854887 0 0.0019913917506341485 -0.0098938085330364869 0 0.0016834148595238812 -0.011539259029854887 0 0.0030746095116645131 -0.010747773332902182 0 0.0014555639919890881 -0.012988726826994906 0 0.0016834148595238812 -0.011539259029854887 0 0.0028489807501661775 -0.011861472782111965 0 0.0016834148595238812 -0.011539259029854887 0 0.0028489807501661775 -0.011861472782111965 0 0.0030746095116645131 -0.010747773332902182 0 0.00036882658589860453 -0.011848034216663944 0 0.00077677467961765722 -0.010458960885965535 0 0.0016834148595238812 -0.011539259029854887 0 0.0014555639919890881 -0.012988726826994906 0 0.00036882658589860453 -0.011848034216663944 0 0.0016834148595238812 -0.011539259029854887 0 -0.001556674486859051 -0.016719281012293006 0 -0.00094847373523248581 -0.015892603503482924 0 -0.00121265317497636 -0.017058555889135137 0 -0.0016646488010416374 -0.015393609471216705 0 -0.001556674486859051 -0.016719281012293006 0 -0.00094847373523248581 -0.015892603503482924 0 0.0016628148775431311 -0.013637090509059186 0 -0.00031702014537275533 -0.015339278821000788 0 -0.00094847373523248581 -0.015892603503482924 0 -0.00023614294622304166 -0.015947989931779174 0 -0.00121265317497636 -0.017058555889135137 0 0.0028489807501661775 -0.011861472782111965 0 0.0030746095116645131 -0.010747773332902182 0 0.0041523808289293642 -0.010908359046755804 0 -0.00031702014537275533 -0.015339278821000788 0 0.00093277449328208937 -0.014333330461804497 0 0.0030746095116645131 -0.010747773332902182 0 0.0041523808289293642 -0.010908359046755804 0 0.0031806816574142917 -0.0096311624562119749 0 -0.0020716599225880854 -0.018401911419944145 0 -0.0022594840985712323 -0.019040275420989655 0 -0.0029036052954884593 -0.01890406426175311 0 -0.001556674486859051 -0.016719281012293006 0 -0.0010521702605697943 -0.017346796309040385 0 -0.0027722702954120328 -0.016961587568563342 0 -0.00074958604937894657 -0.016362277655323276 0 -0.00031702014537275533 -0.015339278821000788 0 -0.0020716599225880854 -0.018401911419944145 0 -0.0022594840985712323 -0.019040275420989655 0 -0.0015788806641268754 -0.019100948157120386 0 -0.0022594840985712323 -0.019040275420989655 0 -0.0022787504210223025 -0.019660856282582441 0 -0.0026367141592830313 -0.019488137552572036 0 -0.0022594840985712323 -0.019040275420989655 0 -0.0015788806641268754 -0.019100948157120386 0 -0.0017885384660965211 -0.019623280064985801 0 -0.0011747124196957817 -0.019814626314164092 0 -0.0015788806641268754 -0.019100948157120386 0 -0.0017885384660965211 -0.019623280064985801 0 -0.0018857423350302801 -0.02019142654473954 0 -0.0011747124196957817 -0.019814626314164092 0 -0.0017885384660965211 -0.019623280064985801 0 -0.0026710483038754865 -0.0201273156518165 0 -0.0018857423350302801 -0.02019142654473954 0 -0.0022787504210223025 -0.019660856282582441 0 -0.0022594840985712323 -0.019040275420989655 0 -0.0017885384660965211 -0.019623280064985801 0 -0.0022787504210223025 -0.019660856282582441 0 -0.0018857423350302801 -0.02019142654473954 0 -0.0017885384660965211 -0.019623280064985801 0 -0.0022787504210223025 -0.019660856282582441 0 -0.0026710483038754865 -0.0201273156518165 0 -0.0022787504210223025 -0.019660856282582441 0 -0.0026367141592830313 -0.019488137552572036 0 -0.0026710483038754865 -0.0201273156518165 0 -0.0031490224282180739 -0.019697410187800055 0 -0.0026367141592830313 -0.019488137552572036 0 -0.0031490224282180739 -0.019697410187800055 0 -0.0026367141592830313 -0.019488137552572036 0 -0.0029036052954884593 -0.01890406426175311 0 -0.0022594840985712323 -0.019040275420989655 0 -0.0026367141592830313 -0.019488137552572036 0 -0.0029036052954884593 -0.01890406426175311 0 -0.0031490224282180739 -0.019697410187800055 0 -0.0029036052954884593 -0.01890406426175311 0 -0.0036230118879107781 -0.018951486027936053 0 -0.0030561852227471683 -0.02434868106246971 0 -0.0035352194435648021 -0.024443721146655002 0 -0.0034269230655251631 -0.024093279683476694 0 -0.0031490224282180739 -0.019697410187800055 0 -0.0036230118879107781 -0.018951486027936053 0 -0.0039654355913548425 -0.020016047590994068 0 -0.0033441535057098025 -0.021667211842149366 0 -0.0038449695776758774 -0.022421308368639533 0 -0.0030872794214769099 -0.020594697494464579 0 -0.0031490224282180739 -0.019697410187800055 0 -0.0039654355913548425 -0.020016047590994068 0 -0.0037538154000334662 -0.02490749363909505 0 -0.0042627095248269336 -0.024864627783163777 0 -0.0038836848290601986 -0.024378071042905795 0 -0.0042627095248269336 -0.024864627783163777 0 -0.0042599533813973689 -0.024379152434360819 0 -0.0038836848290601986 -0.024378071042905795 0 -0.0042627095248269336 -0.024864627783163777 0 -0.0042599533813973689 -0.024379152434360819 0 -0.0044553105814090751 -0.024642378877725746 0 -0.0042599533813973689 -0.024379152434360819 0 -0.0038836848290601986 -0.024378071042905795 0 -0.0040747651699925592 -0.023885279787716533 0 -0.0037538154000334662 -0.02490749363909505 0 -0.0035352194435648021 -0.024443721146655002 0 -0.0038836848290601986 -0.024378071042905795 0 -0.0030561852227471683 -0.02434868106246971 0 -0.0037538154000334662 -0.02490749363909505 0 -0.0035352194435648021 -0.024443721146655002 0 -0.0035352194435648021 -0.024443721146655002 0 -0.0038836848290601986 -0.024378071042905795 0 -0.0034269230655251631 -0.024093279683476694 0 -0.0034269230655251631 -0.024093279683476694 0 -0.0037186127207590632 -0.023930696233737274 0 -0.0033198279567973814 -0.023748917012105394 0 -0.0038836848290601986 -0.024378071042905795 0 -0.0034269230655251631 -0.024093279683476694 0 -0.0037186127207590632 -0.023930696233737274 0 -0.0037186127207590632 -0.023930696233737274 0 -0.0040747651699925592 -0.023885279787716533 0 -0.0035924295125325683 -0.023536962257818698 0 -0.0037186127207590632 -0.023930696233737274 0 -0.0033198279567973814 -0.023748917012105394 0 -0.0035924295125325683 -0.023536962257818698 0 -0.0033198279567973814 -0.023748917012105394 0 -0.0035924295125325683 -0.023536962257818698 0 -0.0032289758741446454 -0.0234546604158886 0 -0.0038836848290601986 -0.024378071042905795 0 -0.0037186127207590632 -0.023930696233737274 0 -0.0040747651699925592 -0.023885279787716533 0 -0.0039872138448302985 -0.023337516298236077 0 -0.003683074497073959 -0.023077614856119893 0 -0.0041139750019730473 -0.022560246662144449 0 -0.0039872138448302985 -0.023337516298236077 0 -0.0044770965411791855 -0.023451133233634219 0 -0.0041139750019730473 -0.022560246662144449 0 -0.0048727820086958227 -0.024343354529110111 0 -0.0026806388443088715 -0.026315892592190769 0 -0.0040747651699925592 -0.023885279787716533 0 -0.0039872138448302985 -0.023337516298236077 0 -0.0044770965411791855 -0.023451133233634219 0 -0.0040747651699925592 -0.023885279787716533 0 -0.0039872138448302985 -0.023337516298236077 0 -0.0035924295125325683 -0.023536962257818698 0 -0.0035924295125325683 -0.023536962257818698 0 -0.0033516158981933761 -0.023153606810529401 0 -0.0032289758741446454 -0.0234546604158886 0 -0.0039872138448302985 -0.023337516298236077 0 -0.0035924295125325683 -0.023536962257818698 0 -0.003683074497073959 -0.023077614856119893 0 -0.0035924295125325683 -0.023536962257818698 0 -0.003683074497073959 -0.023077614856119893 0 -0.0033516158981933761 -0.023153606810529401 0 -0.003683074497073959 -0.023077614856119893 0 -0.0033516158981933761 -0.023153606810529401 0 -0.003500639870843624 -0.02279593443898071 0 -0.0033516158981933761 -0.023153606810529401 0 -0.0029398696083118053 -0.023225886691946977 0 -0.00316753367927693 -0.022822189592589595 0 -0.0029398696083118053 -0.023225886691946977 0 -0.002745136751584313 -0.022872264946196361 0 -0.00316753367927693 -0.022822189592589595 0 -0.0029398696083118053 -0.023225886691946977 0 -0.0032289758741446454 -0.0234546604158886 0 -0.0030423248026139496 -0.023595346606559181 0 -0.0033516158981933761 -0.023153606810529401 0 -0.0029398696083118053 -0.023225886691946977 0 -0.0032289758741446454 -0.0234546604158886 0 -0.0029398696083118053 -0.023225886691946977 0 -0.0027672203503677838 -0.023525423734332529 0 -0.0024750968182946438 -0.023227171847455708 0 -0.0029398696083118053 -0.023225886691946977 0 -0.0027672203503677838 -0.023525423734332529 0 -0.0030423248026139496 -0.023595346606559181 0 -0.0029398696083118053 -0.023225886691946977 0 -0.0024750968182946438 -0.023227171847455708 0 -0.002745136751584313 -0.022872264946196361 0 -0.0014487160599893905 -0.020607537953655233 0 -0.0024764276114049048 -0.019935694136537511 0 -0.0016646488010416374 -0.015393609471216705 0 -0.001556674486859051 -0.016719281012293006 0 -0.0027722702954120328 -0.016961587568563342 0 -0.001598876550843164 -0.0224083823055688 0 -0.0024750968182946438 -0.023227171847455708 0 -0.0023216302396613471 -0.023533779174693445 0 -0.0014487160599893905 -0.020607537953655233 0 -0.0026771719126623423 -0.023698188209008115 0 -0.0027672203503677838 -0.023525423734332529 0 -0.0024750968182946438 -0.023227171847455708 0 -0.0023216302396613471 -0.023533779174693445 0 -0.0010521702605697943 -0.017346796309040385 0 -0.0029036052954884593 -0.01890406426175311 0 -0.0027722702954120328 -0.016961587568563342 0 -0.00031702014537275533 -0.015339278821000788 0 -0.0035324684855482054 -0.019763900117336267 0 -0.0029036052954884593 -0.01890406426175311 0 -0.0036230118879107781 -0.018951486027936053 0 -0.0027722702954120328 -0.016961587568563342 0 -0.0033441535057098025 -0.021667211842149366 0 -0.0024764276114049048 -0.019935694136537511 0 -0.0030561852227471683 -0.02434868106246971 0 -0.0023216302396613471 -0.023533779174693445 0 -0.0029962034742707197 -0.023811810083648414 0 -0.0030561852227471683 -0.02434868106246971 0 -0.0034269230655251631 -0.024093279683476694 0 -0.0029962034742707197 -0.023811810083648414 0 -0.0034269230655251631 -0.024093279683476694 0 -0.0033198279567973814 -0.023748917012105394 0 -0.0029962034742707197 -0.023811810083648414 0 -0.0033198279567973814 -0.023748917012105394 0 -0.0029962034742707197 -0.023811810083648414 0 -0.0030423248026139496 -0.023595346606559181 0 -0.0033198279567973814 -0.023748917012105394 0 -0.0032289758741446454 -0.0234546604158886 0 -0.0030423248026139496 -0.023595346606559181 0 -0.0027672203503677838 -0.023525423734332529 0 -0.0023216302396613471 -0.023533779174693445 0 -0.0029962034742707197 -0.023811810083648414 0 -0.0027672203503677838 -0.023525423734332529 0 -0.0029962034742707197 -0.023811810083648414 0 -0.0030423248026139496 -0.023595346606559181 0 -0.0042793630868682162 -0.031213839945877082 0 -0.0054313528615357294 -0.029689583818646729 0 -0.003965251874627488 -0.025319535008572598 0 -0.0042262659390947749 -0.025274006438108149 0 -0.0042027799801916165 -0.024966103816735127 0 -0.003965251874627488 -0.025319535008572598 0 -0.0042262659390947749 -0.025274006438108149 0 -0.0042870275246515918 -0.025498240580953364 0 -0.0042262659390947749 -0.025274006438108149 0 -0.0044478299898087596 -0.025353794473439401 0 -0.0042870275246515918 -0.025498240580953364 0 -0.0042262659390947749 -0.025274006438108149 0 -0.0042027799801916165 -0.024966103816735127 0 -0.004403676100185141 -0.025165579699319849 0 -0.0044334676135193282 -0.024876056334415 0 -0.0042027799801916165 -0.024966103816735127 0 -0.0045245450455832772 -0.024986690788065435 0 -0.0042027799801916165 -0.024966103816735127 0 -0.0045245450455832772 -0.024986690788065435 0 -0.004403676100185141 -0.025165579699319849 0 -0.004604681136988675 -0.024876166413686465 0 -0.0044334676135193282 -0.024876056334415 0 -0.0045245450455832772 -0.024986690788065435 0 -0.0045245450455832772 -0.024986690788065435 0 -0.0045407267237160751 -0.025139317321668908 0 -0.004403676100185141 -0.025165579699319849 0 -0.0045407267237160751 -0.025139317321668908 0 -0.004403676100185141 -0.025165579699319849 0 -0.0044478299898087596 -0.025353794473439401 0 -0.0042262659390947749 -0.025274006438108149 0 -0.004403676100185141 -0.025165579699319849 0 -0.0044478299898087596 -0.025353794473439401 0 -0.0045407267237160751 -0.025139317321668908 0 -0.0044478299898087596 -0.025353794473439401 0 -0.004635178038959493 -0.02533381914599089 0 -0.004635178038959493 -0.02533381914599089 0 -0.0046814465882871236 -0.024956382188135551 0 -0.0049201500928203719 -0.025436690177700779 0 -0.0047000064154921022 -0.024904012541698786 0 -0.0047875389055169653 -0.024879412704937227 0 -0.0045407267237160751 -0.025139317321668908 0 -0.004635178038959493 -0.02533381914599089 0 -0.0046814465882871236 -0.024956382188135551 0 -0.0046814465882871236 -0.024956382188135551 0 -0.0046043741879891924 -0.024946148266226854 0 -0.0047019072879039394 -0.024263041901779796 0 -0.0045245450455832772 -0.024986690788065435 0 -0.0045407267237160751 -0.025139317321668908 0 -0.0046814465882871236 -0.024956382188135551 0 -0.0043577105143072616 -0.024839384430365423 0 -0.0045940105256214179 -0.024992821928696566 0 -0.004604681136988675 -0.024876166413686465 0 -0.0046814465882871236 -0.024956382188135551 0 -0.0046043741879891924 -0.024946148266226854 0 -0.004604681136988675 -0.024876166413686465 0 -0.0045245450455832772 -0.024986690788065435 0 -0.0046814465882871236 -0.024956382188135551 0 -0.0044696250730981895 -0.025041016601248581 0 -0.0043578281733533484 -0.025099942581440965 0 -0.0046043741879891924 -0.024946148266226854 0 -0.0044496152213595163 -0.025041707686602611 0 -0.0042627095248269336 -0.024864627783163777 0 -0.0044635826356855491 -0.024945004443743431 0 -0.0046043741879891924 -0.024946148266226854 0 -0.0044635826356855491 -0.024945004443743431 0 -0.0044553105814090751 -0.024642378877725746 0 -0.0044696250730981895 -0.025041016601248581 0 -0.0046043741879891924 -0.024946148266226854 0 -0.0044635826356855491 -0.024945004443743431 0 -0.0042627095248269336 -0.024864627783163777 0 -0.0044635826356855491 -0.024945004443743431 0 -0.0044553105814090751 -0.024642378877725746 0 -0.0046043741879891924 -0.024946148266226854 0 -0.0044553105814090751 -0.024642378877725746 0 -0.0047019072879039394 -0.024263041901779796 0 -0.0042599533813973689 -0.024379152434360819 0 -0.0044553105814090751 -0.024642378877725746 0 -0.0047019072879039394 -0.024263041901779796 0 -0.0047875389055169653 -0.024879412704937227 0 -0.0048727820086958227 -0.024343354529110111 0 -0.0042599533813973689 -0.024379152434360819 0 -0.0040747651699925592 -0.023885279787716533 0 -0.0047019072879039394 -0.024263041901779796 0 -0.0040747651699925592 -0.023885279787716533 0 -0.0047019072879039394 -0.024263041901779796 0 -0.0044770965411791855 -0.023451133233634219 0 -0.0049201500928203719 -0.025436690177700779 0 -0.0048660446187221047 -0.025689992079535266 0 -0.0050421362864442225 -0.02579222633010133 0 -0.0050421362864442225 -0.02579222633010133 0 -0.0049349010739261423 -0.025898606769318561 0 -0.0051200213521251665 -0.026033763565119356 0 -0.0048660446187221047 -0.025689992079535266 0 -0.0050421362864442225 -0.02579222633010133 0 -0.0049349010739261423 -0.025898606769318561 0 -0.0028687210783411811 -0.031159617170653877 0 -0.004845959622758125 -0.031165194424592757 0 -0.005112634765667568 -0.033183198391071062 0 -0.0040200857073810006 -0.028710766542733177 0 -0.0048706672505139216 -0.02944260231746585 0 -0.0048660446187221047 -0.025689992079535266 0 -0.0049349010739261423 -0.025898606769318561 0 -0.0046186917330001756 -0.025722530255897026 0 -0.004635178038959493 -0.02533381914599089 0 -0.0049201500928203719 -0.025436690177700779 0 -0.0046186917330001756 -0.025722530255897026 0 -0.0049201500928203719 -0.025436690177700779 0 -0.0048660446187221047 -0.025689992079535266 0 -0.0046186917330001756 -0.025722530255897026 0 -0.005112634765667568 -0.033183198391071062 0 -0.0062248746709617706 -0.033013510555651951 0 -0.0066344175256506151 -0.034353137885468614 0 -0.0044478299898087596 -0.025353794473439401 0 -0.004635178038959493 -0.02533381914599089 0 -0.0046186917330001756 -0.025722530255897026 0 -0.0044478299898087596 -0.025353794473439401 0 -0.0046186917330001756 -0.025722530255897026 0 -0.0042870275246515918 -0.025498240580953364 0 -0.0048706672505139216 -0.02944260231746585 0 -0.0054313528615357294 -0.029689583818646729 0 -0.004845959622758125 -0.031165194424592757 0 -0.005112634765667568 -0.033183198391071062 0 -0.0062248746709617706 -0.033013510555651951 0 -0.004845959622758125 -0.031165194424592757 0 -0.0062248746709617706 -0.033013510555651951 0 -0.0073079534138036908 -0.03074527695100588 0 -0.005543897617785132 -0.035710634041499337 0 -0.0065700577262137452 -0.034422249844277587 0 -0.0061824532321532056 -0.035960557675677685 0 -0.0066235937880486599 -0.034228380309252571 0 -0.0065839355089177256 -0.033114490239288391 0 -0.0062248746709617706 -0.033013510555651951 0 -0.0065700577262137452 -0.034422249844277587 0 -0.0073079534138036908 -0.03074527695100588 0 -0.0058997873336770791 -0.034493020408208064 0 -0.0065700577262137452 -0.034422249844277587 0 -0.0066344175256506151 -0.034353137885468614 0 -0.0062248746709617706 -0.033013510555651951 0 -0.0065700577262137452 -0.034422249844277587 0 -0.0066344175256506151 -0.034353137885468614 0 -0.0057194627280521227 -0.033489538657008815 0 -0.0058997873336770791 -0.034493020408208064 0 -0.0066344175256506151 -0.034353137885468614 0 -0.0055026229223775975 -0.036322216439691246 0 -0.0061824532321532056 -0.035960557675677685 0 -0.0057026210776761734 -0.03633240644836809 0 -0.0054039886875949595 -0.036125736808018748 0 -0.0055026229223775975 -0.036322216439691246 0 -0.0061824532321532056 -0.035960557675677685 0 -0.004845959622758125 -0.031165194424592757 0 -0.0073079534138036908 -0.03074527695100588 0 -0.0049850950394940766 -0.028789389734202676 0 -0.0065839355089177256 -0.033114490239288391 0 -0.0065459023386959334 -0.032211373954997825 0 -0.0061824532321532056 -0.035960557675677685 0 -0.0058438125019456486 -0.036218073581649454 0 -0.0057026210776761734 -0.03633240644836809 0 -0.0073079534138036908 -0.03074527695100588 0 -0.0066430685857041772 -0.027048268872929975 0 -0.0049850950394940766 -0.028789389734202676 0 -0.0066430685857041772 -0.027048268872929975 0 -0.0046396321757598575 -0.026843309381944756 0 -0.0049850950394940766 -0.028789389734202676 0 -0.0046396321757598575 -0.026843309381944756 0 -0.0035375376501274869 -0.027663421260208203 0 -0.0035518441204445772 -0.025911992178884475 0 -0.0049850950394940766 -0.028789389734202676 0 -0.003700688711935702 -0.029456466887866711 0 -0.0035375376501274869 -0.027663421260208203 0 -0.0046396321757598575 -0.026843309381944756 0 -0.0049850950394940766 -0.028789389734202676 0 -0.0035375376501274869 -0.027663421260208203 0 -0.004845959622758125 -0.031165194424592757 0 -0.0049850950394940766 -0.028789389734202676 0 -0.003700688711935702 -0.029456466887866711 0 -0.0028687210783411811 -0.031159617170653877 0 -0.004845959622758125 -0.031165194424592757 0 -0.003700688711935702 -0.029456466887866711 0 -0.0028687210783411811 -0.031159617170653877 0 -0.0022914505604827054 -0.028445378031516394 0 -0.00055627183108164144 -0.029098812842883629 0 -0.0028687210783411811 -0.031159617170653877 0 -0.003700688711935702 -0.029456466887866711 0 -0.0022914505604827054 -0.028445378031516394 0 -0.0040200857073810006 -0.028710766542733177 0 -0.0026806388443088715 -0.026315892592190769 0 -0.0022914505604827054 -0.028445378031516394 0 -0.0035375376501274869 -0.027663421260208203 0 -0.0025464193541561739 -0.026430506552492242 0 -0.003700688711935702 -0.029456466887866711 0 -0.0022914505604827054 -0.028445378031516394 0 -0.0035375376501274869 -0.027663421260208203 0 -0.0035375376501274869 -0.027663421260208203 0 -0.0025464193541561739 -0.026430506552492242 0 -0.0035518441204445772 -0.025911992178884475 0 -0.0022914505604827054 -0.028445378031516394 0 -0.0025464193541561739 -0.026430506552492242 0 -0.0012236482341432607 -0.026803571261622857 0 -0.0025464193541561739 -0.026430506552492242 0 -0.0035518441204445772 -0.025911992178884475 0 -0.0024452530514535811 -0.024881053091924746 0 -0.0025464193541561739 -0.026430506552492242 0 -0.0024452530514535811 -0.024881053091924746 0 -0.0017618571211701949 -0.025719950408412594 0 -0.0035518441204445772 -0.025911992178884475 0 -0.0034878488747187536 -0.024546305034720516 0 -0.0024452530514535811 -0.024881053091924746 0 -0.0024452530514535811 -0.024881053091924746 0 -0.0024855219821807184 -0.022981986983959229 0 -0.0013351412971660697 -0.024546289016040564 0 -0.0034878488747187536 -0.024546305034720516 0 -0.0024452530514535811 -0.024881053091924746 0 -0.0024855219821807184 -0.022981986983959229 0 -0.0024855219821807184 -0.022981986983959229 0 -0.0041029863551314627 -0.022714564339253191 0 -0.0029758391482010253 -0.02190330220231599 0 -0.0024855219821807184 -0.022981986983959229 0 -0.0038663312239187605 -0.023668232180722851 0 -0.0041029863551314627 -0.022714564339253191 0 -0.0034878488747187536 -0.024546305034720516 0 -0.0024855219821807184 -0.022981986983959229 0 -0.0038663312239187605 -0.023668232180722851 0 -0.0038663312239187605 -0.023668232180722851 0 -0.0050407235346460449 -0.023845726145076542 0 -0.0042406368256270519 -0.024367617553509916 0 -0.0020770544790003117 -0.01971291839351608 0 -0.0018891323811508309 -0.020062441116343796 0 -0.0022741400562763725 -0.020092058317576926 0 -0.0041029863551314627 -0.022714564339253191 0 -0.0053045447347974742 -0.023543784731135962 0 -0.0038903420738537029 -0.021574610267510563 0 -0.0038663312239187605 -0.023668232180722851 0 -0.0041029863551314627 -0.022714564339253191 0 -0.0050407235346460449 -0.023845726145076542 0 -0.0038276964611082902 -0.027281004792180499 0 -0.0027579626784602226 -0.01994962675325879 0 -0.0041029863551314627 -0.022714564339253191 0 -0.0053045447347974742 -0.023543784731135962 0 -0.0050407235346460449 -0.023845726145076542 0 -0.0038276964611082902 -0.027281004792180499 0 -0.0044583745384793698 -0.026498092979370384 0 -0.0066430685857041772 -0.027048268872929975 0 -0.005382279385341842 -0.023554892671789538 0 -0.0050407235346460449 -0.023845726145076542 0 -0.0066430685857041772 -0.027048268872929975 0 -0.0050407235346460449 -0.023845726145076542 0 -0.0046153554384208003 -0.025393941698293211 0 -0.0050407235346460449 -0.023845726145076542 0 -0.0042406368256270519 -0.024367617553509916 0 -0.0046153554384208003 -0.025393941698293211 0 -0.0034878488747187536 -0.024546305034720516 0 -0.0042406368256270519 -0.024367617553509916 0 -0.0046153554384208003 -0.025393941698293211 0 -0.0034878488747187536 -0.024546305034720516 0 -0.0038663312239187605 -0.023668232180722851 0 -0.0042406368256270519 -0.024367617553509916 0 -0.0046396321757598575 -0.026843309381944756 0 -0.0035518441204445772 -0.025911992178884475 0 -0.0046153554384208003 -0.025393941698293211 0 -0.0035518441204445772 -0.025911992178884475 0 -0.0034878488747187536 -0.024546305034720516 0 -0.0046153554384208003 -0.025393941698293211 0 -0.0066430685857041772 -0.027048268872929975 0 -0.0046396321757598575 -0.026843309381944756 0 -0.0046153554384208003 -0.025393941698293211 0 -0.0058438125019456486 -0.036218073581649454 0 -0.0056857848446468396 -0.036413141614099108 0 -0.0056342795821672734 -0.036419343850957804 0 -0.0058438125019456486 -0.036218073581649454 0 -0.0058003685403309633 -0.036327676339255377 0 -0.0056857848446468396 -0.036413141614099108 0 -0.0065459023386959334 -0.032211373954997825 0 -0.0038276964611082902 -0.027281004792180499 0 -0.0058003685403309633 -0.036327676339255377 0 -0.0056857848446468396 -0.036413141614099108 0 -0.005562342376748357 -0.036621766443193079 0 -0.0038276964611082902 -0.027281004792180499 0 -0.0034529664876206678 -0.028753913999395683 0 -0.0056857848446468396 -0.036413141614099108 0 -0.0055722819517976859 -0.036514090046136517 0 -0.005562342376748357 -0.036621766443193079 0 -0.0056857848446468396 -0.036413141614099108 0 -0.0055722819517976859 -0.036514090046136517 0 -0.0056342795821672734 -0.036419343850957804 0 -0.0055722819517976859 -0.036514090046136517 0 -0.0054672110224138273 -0.036533202360718796 0 -0.0054886826036874992 -0.036593104596625119 0 -0.0055722819517976859 -0.036514090046136517 0 -0.0054672110224138273 -0.036533202360718796 0 -0.0056342795821672734 -0.036419343850957804 0 -0.0054678224362668679 -0.036460773856785735 0 -0.0054672110224138273 -0.036533202360718796 0 -0.0056342795821672734 -0.036419343850957804 0 -0.0058438125019456486 -0.036218073581649454 0 -0.0056342795821672734 -0.036419343850957804 0 -0.0057026210776761734 -0.03633240644836809 0 -0.0054678224362668679 -0.036460773856785735 0 -0.0056342795821672734 -0.036419343850957804 0 -0.0057026210776761734 -0.03633240644836809 0 -0.0055026229223775975 -0.036322216439691246 0 -0.0054678224362668679 -0.036460773856785735 0 -0.0057026210776761734 -0.03633240644836809 0 -0.0025391461336278722 -0.021958843267512414 0 -0.0029608827896267613 -0.022295276774660328 0 -0.0034097066952653945 -0.022005549814973213 0 -0.0025391461336278722 -0.021958843267512414 0 -0.0034097066952653945 -0.022005549814973213 0 -0.0026300960022840937 -0.02143313639819739 0 0.00098141507406397481 -0.02671936424891495 0 0.0014274623190936272 -0.025336410733964684 0 0.0031047011900027354 -0.025419007243146146 0 -0.0011302752407261845 -0.024253831167684752 0 0.00031848430511955328 -0.023510040926356678 0 -0.0017841042613580165 -0.021727142811668872 0 -0.0025391461336278722 -0.021958843267512414 0 -0.0024236234030958499 -0.022473858042659806 0 -0.0017841042613580165 -0.021727142811668872 0 -0.0025391461336278722 -0.021958843267512414 0 -0.0026300960022840937 -0.02143313639819739 0 -0.0016278720065134621 -0.022556190616267152 0 -0.0017841042613580165 -0.021727142811668872 0 -0.0024236234030958499 -0.022473858042659806 0 -0.0024750968182946438 -0.023227171847455708 0 -0.0024236234030958499 -0.022473858042659806 0 -0.002745136751584313 -0.022872264946196361 0 -0.0016278720065134621 -0.022556190616267152 0 -0.0024750968182946438 -0.023227171847455708 0 -0.0024236234030958499 -0.022473858042659806 0 -0.0024236234030958499 -0.022473858042659806 0 -0.002745136751584313 -0.022872264946196361 0 -0.0028745281484986564 -0.022624326754084174 0 -0.0025391461336278722 -0.021958843267512414 0 -0.0024236234030958499 -0.022473858042659806 0 -0.0029608827896267613 -0.022295276774660328 0 -0.0024236234030958499 -0.022473858042659806 0 -0.0028745281484986564 -0.022624326754084174 0 -0.0029608827896267613 -0.022295276774660328 0 -0.0028745281484986564 -0.022624326754084174 0 -0.0029608827896267613 -0.022295276774660328 0 -0.0033794254084757911 -0.02245752746486096 0 -0.0028745281484986564 -0.022624326754084174 0 -0.00316753367927693 -0.022822189592589595 0 -0.0033794254084757911 -0.02245752746486096 0 -0.002745136751584313 -0.022872264946196361 0 -0.0028745281484986564 -0.022624326754084174 0 -0.00316753367927693 -0.022822189592589595 0 -0.0026806388443088715 -0.026315892592190769 0 -0.0011302752407261845 -0.024253831167684752 0 -0.0033516158981933761 -0.023153606810529401 0 -0.00316753367927693 -0.022822189592589595 0 -0.003500639870843624 -0.02279593443898071 0 -0.0033794254084757911 -0.02245752746486096 0 -0.0041139750019730473 -0.022560246662144449 0 -0.0034097066952653945 -0.022005549814973213 0 -0.00316753367927693 -0.022822189592589595 0 -0.003500639870843624 -0.02279593443898071 0 -0.0033794254084757911 -0.02245752746486096 0 -0.003500639870843624 -0.02279593443898071 0 -0.0033794254084757911 -0.02245752746486096 0 -0.0041139750019730473 -0.022560246662144449 0 -0.003683074497073959 -0.023077614856119893 0 -0.003500639870843624 -0.02279593443898071 0 -0.0041139750019730473 -0.022560246662144449 0 -0.0029608827896267613 -0.022295276774660328 0 -0.0033794254084757911 -0.02245752746486096 0 -0.0034097066952653945 -0.022005549814973213 0 -0.0022914505604827054 -0.028445378031516394 0 -0.00055627183108164144 -0.029098812842883629 0 -0.0012236482341432607 -0.026803571261622857 0 -0.0026806388443088715 -0.026315892592190769 0 0.00024656817318043984 -0.026460158088804975 0 -0.00055627183108164144 -0.029098812842883629 0 -0.0012236482341432607 -0.026803571261622857 0 0.00038942085968986359 -0.026521139395359172 0 -0.0012236482341432607 -0.026803571261622857 0 0.00038942085968986359 -0.026521139395359172 0 -0.00070712690082313796 -0.02571485797151786 0 -0.0012236482341432607 -0.026803571261622857 0 -0.0017618571211701949 -0.025719950408412594 0 -0.00070712690082313796 -0.02571485797151786 0 -0.0025464193541561739 -0.026430506552492242 0 -0.0012236482341432607 -0.026803571261622857 0 -0.0017618571211701949 -0.025719950408412594 0 -0.0010632292006210096 -0.027964690197437917 0 0.00098141507406397481 -0.02671936424891495 0 0.0001071335788429895 -0.025951020127360537 0 0.00098141507406397481 -0.02671936424891495 0 0.0001071335788429895 -0.025951020127360537 0 0.0014274623190936272 -0.025336410733964684 0 0.0001071335788429895 -0.025951020127360537 0 0.0014274623190936272 -0.025336410733964684 0 0.0012470733752577054 -0.023916943862954027 0 0.00024656817318043984 -0.026460158088804975 0 0.001209361939147302 -0.024113248055837946 0 0.00038942085968986359 -0.026521139395359172 0 -0.00022217716505716986 -0.024789597831307627 0 0.0012470733752577054 -0.023916943862954027 0 0.00038942085968986359 -0.026521139395359172 0 -0.00022217716505716986 -0.024789597831307627 0 -0.00070712690082313796 -0.02571485797151786 0 -0.00022217716505716986 -0.024789597831307627 0 0.0012470733752577054 -0.023916943862954027 0 -0.00081823744982875712 -0.02331348112305804 0 -0.0024452530514535811 -0.024881053091924746 0 -0.0017618571211701949 -0.025719950408412594 0 -0.0013351412971660697 -0.024546289016040564 0 -0.0017618571211701949 -0.025719950408412594 0 -0.00070712690082313796 -0.02571485797151786 0 -0.0013351412971660697 -0.024546289016040564 0 -0.00022217716505716986 -0.024789597831307627 0 -0.00070712690082313796 -0.02571485797151786 0 -0.0013351412971660697 -0.024546289016040564 0 -0.00022217716505716986 -0.024789597831307627 0 -0.0013351412971660697 -0.024546289016040564 0 -0.00081823744982875712 -0.02331348112305804 0 -0.0024855219821807184 -0.022981986983959229 0 -0.00081823744982875712 -0.02331348112305804 0 -0.00084005859260598151 -0.021313560008720145 0 -0.0024855219821807184 -0.022981986983959229 0 -0.00084005859260598151 -0.021313560008720145 0 -0.0020713535596089995 -0.021058314697327371 0 -0.0024855219821807184 -0.022981986983959229 0 -0.0013351412971660697 -0.024546289016040564 0 -0.00081823744982875712 -0.02331348112305804 0 0.0012470733752577054 -0.023916943862954027 0 -0.00084005859260598151 -0.021313560008720145 0 0.0026648788756247445 -0.022885384364026831 0 -0.00092720077482244024 -0.021124496950467062 0 0.0010102286255645786 -0.021591332058279795 0 0.0012470733752577054 -0.023916943862954027 0 -0.00081823744982875712 -0.02331348112305804 0 -0.00084005859260598151 -0.021313560008720145 0 -0.0012640911244103208 -0.019826999648668905 0 -0.0012482387382232423 -0.019510844854500276 0 -0.0012770879622085657 -0.020251685237827263 0 -0.00084005859260598151 -0.021313560008720145 0 -0.0012640911244103208 -0.019826999648668905 0 -0.0012770879622085657 -0.020251685237827263 0 0.0014274623190936272 -0.025336410733964684 0 0.0012470733752577054 -0.023916943862954027 0 0.0026513794161748868 -0.024298735355848321 0 0.0012470733752577054 -0.023916943862954027 0 0.0026648788756247445 -0.022885384364026831 0 0.0026513794161748868 -0.024298735355848321 0 0.0014274623190936272 -0.025336410733964684 0 0.0026513794161748868 -0.024298735355848321 0 0.0031047011900027354 -0.025419007243146146 0 -0.0017841042613580165 -0.021727142811668872 0 -0.0026300960022840937 -0.02143313639819739 0 -0.0018162022502454472 -0.020889469944307629 0 0.0026648788756247445 -0.022885384364026831 0 0.0026513794161748868 -0.024298735355848321 0 0.0051605329331622912 -0.024078176368313411 0 0.00031848430511955328 -0.023510040926356678 0 0.00027508397159322002 -0.020714846118476134 0 0.0026513794161748868 -0.024298735355848321 0 0.0031047011900027354 -0.025419007243146146 0 0.0051605329331622912 -0.024078176368313411 0 0.0010102286255645786 -0.021591332058279795 0 0.00027508397159322002 -0.020714846118476134 0 -0.0012640911244103208 -0.019826999648668905 0 -0.0011663116670631777 -0.019544271535356667 0 -0.0012482387382232423 -0.019510844854500276 0 -0.0012482387382232423 -0.019510844854500276 0 -0.0012376085763351507 -0.019462845332035961 0 -0.0012770879622085657 -0.020251685237827263 0 -0.0012376085763351507 -0.019462845332035961 0 -0.0016324853783655244 -0.020129844770175535 0 -0.0014268953042095016 -0.019431107864707569 0 -0.0012376085763351507 -0.019462845332035961 0 -0.0016324853783655244 -0.020129844770175535 0 -0.0012770879622085657 -0.020251685237827263 0 -0.0016324853783655244 -0.020129844770175535 0 -0.0012770879622085657 -0.020251685237827263 0 -0.0015205752360115652 -0.020552877175160883 0 -0.00084005859260598151 -0.021313560008720145 0 -0.0012770879622085657 -0.020251685237827263 0 -0.0015205752360115652 -0.020552877175160883 0 -0.00084005859260598151 -0.021313560008720145 0 -0.0020713535596089995 -0.021058314697327371 0 -0.0015205752360115652 -0.020552877175160883 0 -0.0020713535596089995 -0.021058314697327371 0 -0.0021855043271387545 -0.020578945745154845 0 -0.0015205752360115652 -0.020552877175160883 0 -0.0021855043271387545 -0.020578945745154845 0 -0.0015205752360115652 -0.020552877175160883 0 -0.0021746993430283748 -0.020536033512525413 0 -0.0016324853783655244 -0.020129844770175535 0 -0.0015205752360115652 -0.020552877175160883 0 -0.0021746993430283748 -0.020536033512525413 0 -0.0017201827688272636 -0.020181107154826041 0 -0.0023265609445988172 -0.020217302285254275 0 -0.0025616241914962344 -0.019852302199430669 0 -0.0025413559576017495 -0.019765096507619519 0 -0.0019049050109436144 -0.019563938160716669 0 -0.0016324853783655244 -0.020129844770175535 0 -0.0025616241914962344 -0.019852302199430669 0 -0.0019049050109436144 -0.019563938160716669 0 -0.0021855043271387545 -0.020578945745154845 0 -0.0021746993430283748 -0.020536033512525413 0 -0.0024388486980291206 -0.020792595475250534 0 -0.0023265609445988172 -0.020217302285254275 0 -0.0025814482714517847 -0.020746750263012384 0 -0.0025616241914962344 -0.019852302199430669 0 -0.0025899947510104378 -0.020079836137318088 0 -0.0028218740261785414 -0.02008226277998271 0 -0.0025616241914962344 -0.019852302199430669 0 -0.0025413559576017495 -0.019765096507619519 0 -0.0028218740261785414 -0.02008226277998271 0 -0.0019049050109436144 -0.019563938160716669 0 -0.0017750669878952787 -0.019274699784319674 0 -0.0012971196281619819 -0.019043999290421876 0 -0.0019049050109436144 -0.019563938160716669 0 -0.0014268953042095016 -0.019431107864707569 0 -0.0012971196281619819 -0.019043999290421876 0 -0.0016324853783655244 -0.020129844770175535 0 -0.0019049050109436144 -0.019563938160716669 0 -0.0014268953042095016 -0.019431107864707569 0 -0.0012296928940167412 -0.020601482946387438 0 -0.0014322606761554616 -0.02016310340313994 0 -0.0015515267662383088 -0.020458687278240281 0 -0.00071440128010911335 -0.020725806292591676 0 -0.0012296928940167412 -0.020601482946387438 0 -0.0010994624346786005 -0.020938980414383569 0 -0.00071440128010911335 -0.020725806292591676 0 -0.0012296928940167412 -0.020601482946387438 0 -0.0014322606761554616 -0.02016310340313994 0 -0.0053796172031378275 -0.036475180608657447 0 -0.0055086395244041755 -0.036591095952564823 0 -0.005562342376748357 -0.036621766443193079 0 -0.0028949477411478867 -0.027162317081909002 0 -0.0034529664876206678 -0.028753913999395683 0 -0.0012296928940167412 -0.020601482946387438 0 -0.0014973682074591029 -0.020814381441174201 0 -0.0010994624346786005 -0.020938980414383569 0 -0.0012296928940167412 -0.020601482946387438 0 -0.0015515267662383088 -0.020458687278240281 0 -0.0014973682074591029 -0.020814381441174201 0 -0.0053933229400717382 -0.03663535722807678 0 -0.0055086395244041755 -0.036591095952564823 0 -0.0054886826036874992 -0.036593104596625119 0 -0.0055086395244041755 -0.036591095952564823 0 -0.0054886826036874992 -0.036593104596625119 0 -0.005562342376748357 -0.036621766443193079 0 -0.0055722819517976859 -0.036514090046136517 0 -0.0054886826036874992 -0.036593104596625119 0 -0.005562342376748357 -0.036621766443193079 0 -0.0014322606761554616 -0.02016310340313994 0 -0.0017566655884981193 -0.020278247448550692 0 -0.0015515267662383088 -0.020458687278240281 0 -0.0020770544790003117 -0.01971291839351608 0 -0.0014322606761554616 -0.02016310340313994 0 -0.0018891323811508309 -0.020062441116343796 0 -0.0014322606761554616 -0.02016310340313994 0 -0.0018891323811508309 -0.020062441116343796 0 -0.0017566655884981193 -0.020278247448550692 0 -0.0018891323811508309 -0.020062441116343796 0 -0.0017566655884981193 -0.020278247448550692 0 -0.0020422782593440942 -0.020250811431080137 0 -0.0017566655884981193 -0.020278247448550692 0 -0.0018914263141814368 -0.020509686691344987 0 -0.0020422782593440942 -0.020250811431080137 0 -0.0018914263141814368 -0.020509686691344987 0 -0.0020946437955073637 -0.020873388383279536 0 -0.0014973682074591029 -0.020814381441174201 0 -0.0017566655884981193 -0.020278247448550692 0 -0.0018914263141814368 -0.020509686691344987 0 -0.0015515267662383088 -0.020458687278240281 0 -0.0018914263141814368 -0.020509686691344987 0 -0.0015515267662383088 -0.020458687278240281 0 -0.0014973682074591029 -0.020814381441174201 0 -0.0018914263141814368 -0.020509686691344987 0 -0.0026003181723487875 -0.020537462358899389 0 -0.0020946437955073637 -0.020873388383279536 0 -0.0018914263141814368 -0.020509686691344987 0 -0.0020422782593440942 -0.020250811431080137 0 -0.0026003181723487875 -0.020537462358899389 0 -0.0020422782593440942 -0.020250811431080137 0 -0.0022741400562763725 -0.020092058317576926 0 -0.0026003181723487875 -0.020537462358899389 0 -0.0027579626784602226 -0.01994962675325879 0 -0.0028670283872980536 -0.020925117598226985 0 -0.0018891323811508309 -0.020062441116343796 0 -0.0020422782593440942 -0.020250811431080137 0 -0.0022741400562763725 -0.020092058317576926 0 -0.0041029863551314627 -0.022714564339253191 0 -0.0038903420738537029 -0.021574610267510563 0 -0.0029758391482010253 -0.02190330220231599 0 -0.0038903420738537029 -0.021574610267510563 0 -0.0029758391482010253 -0.02190330220231599 0 -0.0026003181723487875 -0.020537462358899389 0 -0.0024855219821807184 -0.022981986983959229 0 -0.0020713535596089995 -0.021058314697327371 0 -0.0029758391482010253 -0.02190330220231599 0 -0.0020713535596089995 -0.021058314697327371 0 -0.0029758391482010253 -0.02190330220231599 0 -0.0026003181723487875 -0.020537462358899389 0 -0.0020713535596089995 -0.021058314697327371 0 -0.0021855043271387545 -0.020578945745154845 0 -0.0026003181723487875 -0.020537462358899389 0 -0.0021855043271387545 -0.020578945745154845 0 -0.0026003181723487875 -0.020537462358899389 0 -0.0024388486980291206 -0.020792595475250534 0 -0.0024388486980291206 -0.020792595475250534 0 -0.0026328808662025483 -0.021362642603825442 0 -0.002234799293025066 -0.021266115454918542 0 -0.0021746993430283748 -0.020536033512525413 0 -0.0024388486980291206 -0.020792595475250534 0 -0.0026328808662025483 -0.021362642603825442 0 -0.002234799293025066 -0.021266115454918542 0 -0.0020946437955073637 -0.020873388383279536 0 -0.0016436320408403447 -0.021532811043372631 0 -0.0024388486980291206 -0.020792595475250534 0 -0.002234799293025066 -0.021266115454918542 0 -0.0020946437955073637 -0.020873388383279536 0 -0.0026003181723487875 -0.020537462358899389 0 -0.0024388486980291206 -0.020792595475250534 0 -0.0020946437955073637 -0.020873388383279536 0 -0.0014973682074591029 -0.020814381441174201 0 -0.0016436320408403447 -0.021532811043372631 0 -0.0012398782933558492 -0.021177631754162957 0 -0.0020946437955073637 -0.020873388383279536 0 -0.0014973682074591029 -0.020814381441174201 0 -0.0016436320408403447 -0.021532811043372631 0 -0.0008153017487831371 -0.021415009055955978 0 -0.0016436320408403447 -0.021532811043372631 0 -0.0012398782933558492 -0.021177631754162957 0 -0.0008153017487831371 -0.021415009055955978 0 -0.0016436320408403447 -0.021532811043372631 0 -0.00088473221024641701 -0.022478919446245298 0 -0.0008153017487831371 -0.021415009055955978 0 -0.0012398782933558492 -0.021177631754162957 0 -0.0010994624346786005 -0.020938980414383569 0 -0.0014973682074591029 -0.020814381441174201 0 -0.0012398782933558492 -0.021177631754162957 0 -0.0010994624346786005 -0.020938980414383569 0 -0.0014335369689964326 -0.024010954669673221 0 -0.0014487569265531634 -0.024200959491534169 0 -0.0020765623795568492 -0.024679945564205184 0 -0.001806344345479673 -0.025130989548638967 0 -0.0014854527987588615 -0.02431856247540682 0 -0.00088473221024641701 -0.022478919446245298 0 -0.0016404771852642944 -0.023013003620767372 0 -0.0014854527987588615 -0.02431856247540682 0 -0.00109083570616774 -0.022610059910360646 0 -0.0014335369689964326 -0.024010954669673221 0 -0.0016436320408403447 -0.021532811043372631 0 -0.00088473221024641701 -0.022478919446245298 0 -0.0016404771852642944 -0.023013003620767372 0 -0.0016436320408403447 -0.021532811043372631 0 -0.0016404771852642944 -0.023013003620767372 0 -0.0023641865709584783 -0.022597074451702427 0 -0.0022587394219054052 -0.021779354357718821 0 -0.001694607220152602 -0.0232845235672554 0 -0.0021888678175229666 -0.020908441116142255 0 -0.0020740778800931487 -0.022011139767017848 0 -0.0017430115636175897 -0.022291301202515972 0 -0.0016404771852642944 -0.023013003620767372 0 -0.0023641865709584783 -0.022597074451702427 0 -0.0014831677155438656 -0.02430242196340443 0 -0.0016404771852642944 -0.023013003620767372 0 -0.0014831677155438656 -0.02430242196340443 0 -0.0014854527987588615 -0.02431856247540682 0 -0.0021888678175229666 -0.020908441116142255 0 -0.0023251239592938355 -0.021861186473580249 0 -0.0020740778800931487 -0.022011139767017848 0 -0.0021888678175229666 -0.020908441116142255 0 -0.002628816463268133 -0.021371192002647661 0 -0.0023251239592938355 -0.021861186473580249 0 -0.0025814482714517847 -0.020746750263012384 0 -0.0022587394219054052 -0.021779354357718821 0 -0.0026328808662025483 -0.021362642603825442 0 -0.002234799293025066 -0.021266115454918542 0 -0.0023641865709584783 -0.022597074451702427 0 -0.002234799293025066 -0.021266115454918542 0 -0.0016436320408403447 -0.021532811043372631 0 -0.0023641865709584783 -0.022597074451702427 0 -0.0025899947510104378 -0.020079836137318088 0 -0.0021888678175229666 -0.020908441116142255 0 -0.0027723840812043147 -0.020654202581120076 0 -0.002628816463268133 -0.021371192002647661 0 -0.0027723840812043147 -0.020654202581120076 0 -0.0030053191133687035 -0.021130607031736467 0 -0.0021888678175229666 -0.020908441116142255 0 -0.002628816463268133 -0.021371192002647661 0 -0.0027723840812043147 -0.020654202581120076 0 -0.002628816463268133 -0.021371192002647661 0 -0.0027736827975833435 -0.02167291016332511 0 -0.0030053191133687035 -0.021130607031736467 0 -0.002628816463268133 -0.021371192002647661 0 -0.0025530112185486757 -0.021950488850064037 0 -0.0027736827975833435 -0.02167291016332511 0 -0.0025530112185486757 -0.021950488850064037 0 -0.0027736827975833435 -0.02167291016332511 0 -0.0027079875661010569 -0.022145487227131708 0 -0.0027736827975833435 -0.02167291016332511 0 -0.0027079875661010569 -0.022145487227131708 0 -0.002970945033244059 -0.021962613547265454 0 -0.0027941219082847526 -0.022414722822393329 0 -0.0027079875661010569 -0.022145487227131708 0 -0.002970945033244059 -0.021962613547265454 0 -0.0027941219082847526 -0.022414722822393329 0 -0.002940427474349762 -0.022374986547033876 0 -0.002970945033244059 -0.021962613547265454 0 -0.0027941219082847526 -0.022414722822393329 0 -0.0026750267755762959 -0.022758211335980844 0 -0.0028581671105284831 -0.022678470637737782 0 -0.0027941219082847526 -0.022414722822393329 0 -0.002940427474349762 -0.022374986547033876 0 -0.0028581671105284831 -0.022678470637737782 0 -0.0026750267755762959 -0.022758211335980844 0 -0.0026397415264066098 -0.022492148166895824 0 -0.0025052711953122164 -0.022753212039785149 0 -0.0027941219082847526 -0.022414722822393329 0 -0.0026750267755762959 -0.022758211335980844 0 -0.0026397415264066098 -0.022492148166895824 0 -0.0027941219082847526 -0.022414722822393329 0 -0.0026397415264066098 -0.022492148166895824 0 -0.0027079875661010569 -0.022145487227131708 0 -0.0025530112185486757 -0.021950488850064037 0 -0.0027079875661010569 -0.022145487227131708 0 -0.0025300886010786124 -0.022385436914654281 0 -0.0026397415264066098 -0.022492148166895824 0 -0.0027079875661010569 -0.022145487227131708 0 -0.0025300886010786124 -0.022385436914654281 0 -0.0025530112185486757 -0.021950488850064037 0 -0.0025300886010786124 -0.022385436914654281 0 -0.0023773861474606977 -0.022343795014353646 0 -0.0024222227195385081 -0.02259536348359879 0 -0.0025300886010786124 -0.022385436914654281 0 -0.0023773861474606977 -0.022343795014353646 0 -0.0024222227195385081 -0.02259536348359879 0 -0.0025300886010786124 -0.022385436914654281 0 -0.0025052711953122164 -0.022753212039785149 0 -0.0025052711953122164 -0.022753212039785149 0 -0.002373565569457105 -0.023151172244388236 0 -0.0025429709958541963 -0.023029154242952612 0 -0.0026397415264066098 -0.022492148166895824 0 -0.0025300886010786124 -0.022385436914654281 0 -0.0025052711953122164 -0.022753212039785149 0 -0.0024222227195385081 -0.02259536348359879 0 -0.0025052711953122164 -0.022753212039785149 0 -0.0023667770918681507 -0.02285628861668609 0 -0.0026750267755762959 -0.022758211335980844 0 -0.0025052711953122164 -0.022753212039785149 0 -0.0025429709958541963 -0.023029154242952612 0 -0.0022652505825379783 -0.023039615237957573 0 -0.0022451933744690551 -0.023343632461234307 0 -0.002373565569457105 -0.023151172244388236 0 -0.0023667770918681507 -0.02285628861668609 0 -0.0022652505825379783 -0.023039615237957573 0 -0.002373565569457105 -0.023151172244388236 0 -0.0025052711953122164 -0.022753212039785149 0 -0.0023667770918681507 -0.02285628861668609 0 -0.002373565569457105 -0.023151172244388236 0 -0.0023667770918681507 -0.02285628861668609 0 -0.0022940505181658737 -0.022725926077268095 0 -0.0022652505825379783 -0.023039615237957573 0 -0.0022940505181658737 -0.022725926077268095 0 -0.0023773861474606977 -0.022343795014353646 0 -0.0021486266892702705 -0.022564006637718983 0 -0.0024222227195385081 -0.02259536348359879 0 -0.0023667770918681507 -0.02285628861668609 0 -0.0022940505181658737 -0.022725926077268095 0 -0.0024222227195385081 -0.02259536348359879 0 -0.0022940505181658737 -0.022725926077268095 0 -0.0023773861474606977 -0.022343795014353646 0 -0.0023773861474606977 -0.022343795014353646 0 -0.0023251239592938355 -0.021861186473580249 0 -0.0021486266892702705 -0.022564006637718983 0 -0.0025530112185486757 -0.021950488850064037 0 -0.0023773861474606977 -0.022343795014353646 0 -0.0023251239592938355 -0.021861186473580249 0 -0.002628816463268133 -0.021371192002647661 0 -0.0025530112185486757 -0.021950488850064037 0 -0.0023251239592938355 -0.021861186473580249 0 -0.0023251239592938355 -0.021861186473580249 0 -0.0020740778800931487 -0.022011139767017848 0 -0.0021486266892702705 -0.022564006637718983 0 -0.0020740778800931487 -0.022011139767017848 0 -0.0017430115636175897 -0.022291301202515972 0 -0.0020030568247013519 -0.022426283830408855 0 -0.0017430115636175897 -0.022291301202515972 0 -0.0020029472773451448 -0.022804502057841753 0 -0.0019865662530905584 -0.023345399123708442 0 -0.0017430115636175897 -0.022291301202515972 0 -0.0020029472773451448 -0.022804502057841753 0 -0.0020030568247013519 -0.022426283830408855 0 -0.0020029472773451448 -0.022804502057841753 0 -0.0021486266892702705 -0.022564006637718983 0 -0.0020997969258899026 -0.022898520859288198 0 -0.0020029472773451448 -0.022804502057841753 0 -0.0020030568247013519 -0.022426283830408855 0 -0.0021486266892702705 -0.022564006637718983 0 -0.0020740778800931487 -0.022011139767017848 0 -0.0020030568247013519 -0.022426283830408855 0 -0.0021486266892702705 -0.022564006637718983 0 -0.0022940505181658737 -0.022725926077268095 0 -0.0021486266892702705 -0.022564006637718983 0 -0.0021780450931484221 -0.022956367333431999 0 -0.0021486266892702705 -0.022564006637718983 0 -0.0020997969258899026 -0.022898520859288198 0 -0.0021780450931484221 -0.022956367333431999 0 -0.0022940505181658737 -0.022725926077268095 0 -0.0021780450931484221 -0.022956367333431999 0 -0.0022652505825379783 -0.023039615237957573 0 -0.0021780450931484221 -0.022956367333431999 0 -0.0022652505825379783 -0.023039615237957573 0 -0.0021647637241417727 -0.023287322257285165 0 -0.0022652505825379783 -0.023039615237957573 0 -0.0021647637241417727 -0.023287322257285165 0 -0.0022451933744690551 -0.023343632461234307 0 -0.0021647637241417727 -0.023287322257285165 0 -0.00214076442320176 -0.023670207558718077 0 -0.0022451933744690551 -0.023343632461234307 0 -0.0021647637241417727 -0.023287322257285165 0 -0.0020751252812170684 -0.023258937230428278 0 -0.00214076442320176 -0.023670207558718077 0 -0.0020029472773451448 -0.022804502057841753 0 -0.0020751252812170684 -0.023258937230428278 0 -0.0019865662530905584 -0.023345399123708442 0 -0.0021780450931484221 -0.022956367333431999 0 -0.0021647637241417727 -0.023287322257285165 0 -0.0020751252812170684 -0.023258937230428278 0 -0.0020029472773451448 -0.022804502057841753 0 -0.0020997969258899026 -0.022898520859288198 0 -0.0020751252812170684 -0.023258937230428278 0 -0.0020997969258899026 -0.022898520859288198 0 -0.0021780450931484221 -0.022956367333431999 0 -0.0020751252812170684 -0.023258937230428278 0 -0.0020751252812170684 -0.023258937230428278 0 -0.0020823639658179229 -0.02390152041552436 0 -0.00214076442320176 -0.023670207558718077 0 -0.0020751252812170684 -0.023258937230428278 0 -0.0019865662530905584 -0.023345399123708442 0 -0.0020823639658179229 -0.02390152041552436 0 -0.0020840078418138848 -0.024190165121736922 0 -0.0019865662530905584 -0.023345399123708442 0 -0.0020823639658179229 -0.02390152041552436 0 -0.0020840078418138848 -0.024190165121736922 0 -0.0017430115636175897 -0.022291301202515972 0 -0.0019865662530905584 -0.023345399123708442 0 -0.0020765623795568492 -0.024679945564205184 0 -0.0020840078418138848 -0.024190165121736922 0 -0.0014854527987588615 -0.02431856247540682 0 -0.0020840078418138848 -0.024190165121736922 0 -0.0014831677155438656 -0.02430242196340443 0 -0.0014854527987588615 -0.02431856247540682 0 -0.0020120315545154106 -0.024013094977469344 0 -0.001694607220152602 -0.0232845235672554 0 -0.0028727939723561624 -0.019704679529422731 0 -0.0031566911725160506 -0.02042817442754076 0 -0.0033759383768228496 -0.020319850822961418 0 -0.0034472433217424504 -0.020417750030737637 0 -0.0028727939723561624 -0.019704679529422731 0 -0.0033759383768228496 -0.020319850822961418 0 -0.0026059830947360398 -0.019689687418841247 0 -0.0028229099954600817 -0.019648942847319752 0 -0.0018796033302085418 -0.018735391965660233 0 -0.0017750669878952787 -0.019274699784319674 0 -0.0028727939723561624 -0.019704679529422731 0 -0.0018796033302085418 -0.018735391965660233 0 -0.0017750669878952787 -0.019274699784319674 0 -0.0015208043633800749 -0.018820748727112313 0 -0.0019049050109436144 -0.019563938160716669 0 -0.0017750669878952787 -0.019274699784319674 0 -0.0028727939723561624 -0.019704679529422731 0 -0.0025413559576017495 -0.019765096507619519 0 -0.0019049050109436144 -0.019563938160716669 0 -0.0028727939723561624 -0.019704679529422731 0 -0.0025413559576017495 -0.019765096507619519 0 -0.0028727939723561624 -0.019704679529422731 0 -0.0028218740261785414 -0.02008226277998271 0 -0.0025899947510104378 -0.020079836137318088 0 -0.0028218740261785414 -0.02008226277998271 0 -0.0027723840812043147 -0.020654202581120076 0 -0.0027723840812043147 -0.020654202581120076 0 -0.0031566911725160506 -0.02042817442754076 0 -0.0030053191133687035 -0.021130607031736467 0 -0.0028218740261785414 -0.02008226277998271 0 -0.0027723840812043147 -0.020654202581120076 0 -0.0031566911725160506 -0.02042817442754076 0 -0.0028727939723561624 -0.019704679529422731 0 -0.0028218740261785414 -0.02008226277998271 0 -0.0031566911725160506 -0.02042817442754076 0 -0.0031566911725160506 -0.02042817442754076 0 -0.0033172396175557943 -0.02079299266475167 0 -0.0030053191133687035 -0.021130607031736467 0 -0.0031566911725160506 -0.02042817442754076 0 -0.0033172396175557943 -0.02079299266475167 0 -0.0037328608053671273 -0.020604873595327436 0 -0.0031566911725160506 -0.02042817442754076 0 -0.0037328608053671273 -0.020604873595327436 0 -0.0033759383768228496 -0.020319850822961418 0 -0.0033172396175557943 -0.02079299266475167 0 -0.0030053191133687035 -0.021130607031736467 0 -0.0032176905913509574 -0.021550928214108686 0 -0.0027736827975833435 -0.02167291016332511 0 -0.0030053191133687035 -0.021130607031736467 0 -0.002970945033244059 -0.021962613547265454 0 -0.0030053191133687035 -0.021130607031736467 0 -0.002970945033244059 -0.021962613547265454 0 -0.0032176905913509574 -0.021550928214108686 0 -0.002970945033244059 -0.021962613547265454 0 -0.0032176905913509574 -0.021550928214108686 0 -0.0032555202346858094 -0.022073919013538904 0 -0.0032176905913509574 -0.021550928214108686 0 -0.0032555202346858094 -0.022073919013538904 0 -0.0037006357903366788 -0.0219967908409208 0 -0.0032555202346858094 -0.022073919013538904 0 -0.0037006357903366788 -0.0219967908409208 0 -0.0033656033825640828 -0.022444194979975927 0 -0.0032555202346858094 -0.022073919013538904 0 -0.0031321012268766407 -0.022445058184957328 0 -0.0033656033825640828 -0.022444194979975927 0 -0.002970945033244059 -0.021962613547265454 0 -0.0032555202346858094 -0.022073919013538904 0 -0.0031321012268766407 -0.022445058184957328 0 -0.002940427474349762 -0.022374986547033876 0 -0.002970945033244059 -0.021962613547265454 0 -0.0031321012268766407 -0.022445058184957328 0 -0.0033172396175557943 -0.02079299266475167 0 -0.0037328608053671273 -0.020604873595327436 0 -0.0037006357903366788 -0.0219967908409208 0 -0.0033172396175557943 -0.02079299266475167 0 -0.0032176905913509574 -0.021550928214108686 0 -0.0037006357903366788 -0.0219967908409208 0 -0.0037328608053671273 -0.020604873595327436 0 -0.0041373092782899775 -0.020099135644363338 0 -0.0037697512773734992 -0.019952287809829609 0 -0.0038617671462564712 -0.020658881348449738 0 -0.0037027754166148062 -0.021345959247549735 0 -0.0036983310964673727 -0.019504957232176604 0 -0.0050454188513259363 -0.018763741634071476 0 -0.0037328608053671273 -0.020604873595327436 0 -0.0037357669564538724 -0.019458094169343864 0 -0.0037697512773734992 -0.019952287809829609 0 -0.0037328608053671273 -0.020604873595327436 0 -0.0033759383768228496 -0.020319850822961418 0 -0.0034992089884341398 -0.020136378286882504 0 -0.0037328608053671273 -0.020604873595327436 0 -0.0034992089884341398 -0.020136378286882504 0 -0.0037357669564538724 -0.019458094169343864 0 -0.0034472433217424504 -0.020417750030737637 0 -0.0033759383768228496 -0.020319850822961418 0 -0.0034992089884341398 -0.020136378286882504 0 -0.0034472433217424504 -0.020417750030737637 0 -0.0034992089884341398 -0.020136378286882504 0 -0.0028803644015359653 -0.020052022744209922 0 -0.0034992089884341398 -0.020136378286882504 0 -0.0027839735193544162 -0.01954343086531592 0 -0.0028803644015359653 -0.020052022744209922 0 -0.0034992089884341398 -0.020136378286882504 0 -0.0037357669564538724 -0.019458094169343864 0 -0.0027839735193544162 -0.01954343086531592 0 -0.0037357669564538724 -0.019458094169343864 0 -0.0027839735193544162 -0.01954343086531592 0 -0.0032011554088752954 -0.018231227003666979 0 -0.0027839735193544162 -0.01954343086531592 0 -0.0021998940439614798 -0.018998776720053567 0 -0.0032011554088752954 -0.018231227003666979 0 -0.0021998940439614798 -0.018998776720053567 0 -0.0018633140748366564 -0.01836505617082158 0 -0.0032011554088752954 -0.018231227003666979 0 -0.0027839735193544162 -0.01954343086531592 0 -0.0020762248459671542 -0.019405652042140061 0 -0.0023370189483333027 -0.019792940723656203 0 -0.0027839735193544162 -0.01954343086531592 0 -0.0020762248459671542 -0.019405652042140061 0 -0.0021998940439614798 -0.018998776720053567 0 -0.0020762248459671542 -0.019405652042140061 0 -0.0021998940439614798 -0.018998776720053567 0 -0.0017545211244671074 -0.01908132078798308 0 -0.0021998940439614798 -0.018998776720053567 0 -0.0017545211244671074 -0.01908132078798308 0 -0.0018633140748366564 -0.01836505617082158 0 -0.0044989065849823208 -0.014825142261096359 0 -0.0037612673282429892 -0.015354397603708199 0 -0.0037280366099979351 -0.015194424817974924 0 -0.0042554558237385392 -0.014694877915886259 0 -0.0044989065849823208 -0.014825142261096359 0 -0.0037280366099979351 -0.015194424817974924 0 -0.0067570244930411985 -0.012942838613615641 0 -0.0026666063304546083 -0.016166304246344992 0 -0.0039522315225113541 -0.016096820986096008 0 -0.0025872988679041162 -0.017008382032202087 0 -0.0017545211244671074 -0.01908132078798308 0 -0.0008642386018761439 -0.019658916241839838 0 -0.0018633140748366564 -0.01836505617082158 0 -0.0039473355790758365 -0.014979303088737085 0 -0.0038681308606758045 -0.015194805785343359 0 -0.0037612673282429892 -0.015354397603708199 0 -0.0017545211244671074 -0.01908132078798308 0 -0.0016327232963216504 -0.019456560927742728 0 -0.0008642386018761439 -0.019658916241839838 0 -0.0020762248459671542 -0.019405652042140061 0 -0.0017545211244671074 -0.01908132078798308 0 -0.0016327232963216504 -0.019456560927742728 0 -0.0020762248459671542 -0.019405652042140061 0 -0.0016327232963216504 -0.019456560927742728 0 -0.0018422278994328857 -0.019809454307352817 0 -0.0018422278994328857 -0.019809454307352817 0 -0.0008642386018761439 -0.019658916241839838 0 -0.0019770291392327858 -0.020254848648334638 0 -0.0016327232963216504 -0.019456560927742728 0 -0.0018422278994328857 -0.019809454307352817 0 -0.0008642386018761439 -0.019658916241839838 0 -0.0019947283115675303 -0.018363528185767315 0 -0.0022139163034828706 -0.017410658495523125 0 -0.0034841415937765436 -0.017157400390306665 0 -0.0022214105845897824 -0.016467550189422545 0 -0.0039316964434362115 -0.015761284535366352 0 -0.0039522315225113541 -0.016096820986096008 0 -0.0019947283115675303 -0.018363528185767315 0 -0.0034472433217424504 -0.020417750030737637 0 -0.0020584015128154083 -0.020248497512832808 0 -0.0021818681014426802 -0.020182681939986093 0 -0.0034472433217424504 -0.020417750030737637 0 -0.0028803644015359653 -0.020052022744209922 0 -0.0021818681014426802 -0.020182681939986093 0 -0.0026059830947360398 -0.019689687418841247 0 -0.0019947283115675303 -0.018363528185767315 0 -0.0019947283115675303 -0.018363528185767315 0 -0.0019387129781415703 -0.018472576791312326 0 -0.0027839735193544162 -0.01954343086531592 0 -0.0028803644015359653 -0.020052022744209922 0 -0.0023370189483333027 -0.019792940723656203 0 -0.0028803644015359653 -0.020052022744209922 0 -0.0023370189483333027 -0.019792940723656203 0 -0.0021818681014426802 -0.020182681939986093 0 -0.0020762248459671542 -0.019405652042140061 0 -0.0018422278994328857 -0.019809454307352817 0 -0.0023370189483333027 -0.019792940723656203 0 -0.0018422278994328857 -0.019809454307352817 0 -0.0019770291392327858 -0.020254848648334638 0 -0.0021818681014426802 -0.020182681939986093 0 -0.0018422278994328857 -0.019809454307352817 0 -0.0023370189483333027 -0.019792940723656203 0 -0.0021818681014426802 -0.020182681939986093 0 -0.011930108422373345 -0.0089098853565871706 0 -0.011347840348226633 -0.0088666572313301894 0 -0.011010289880651147 -0.008294050755928593 0 -0.011827586365953206 -0.0091134230792724921 0 -0.011775526933962431 -0.0093394136436555711 0 -0.012333310164520939 -0.0091922892712791582 0 -0.011538619211382571 -0.0090981232179973472 0 -0.011490221348149934 -0.0094024503041787912 0 -0.011228949686639032 -0.0093449781300214228 0 -0.011538619211382571 -0.0090981232179973472 0 -0.011775526933962431 -0.0093394136436555711 0 -0.011490221348149934 -0.0094024503041787912 0 -0.011538619211382571 -0.0090981232179973472 0 -0.011827586365953206 -0.0091134230792724921 0 -0.011775526933962431 -0.0093394136436555711 0 -0.011538619211382571 -0.0090981232179973472 0 -0.011930108422373345 -0.0089098853565871706 0 -0.011347840348226633 -0.0088666572313301894 0 -0.010366471774586147 -0.0107027649167231 0 -0.011113302169184205 -0.0095459897397347764 0 -0.011538619211382571 -0.0090981232179973472 0 -0.011930108422373345 -0.0089098853565871706 0 -0.011827586365953206 -0.0091134230792724921 0 -0.010366471774586147 -0.0107027649167231 0 -0.0067570244930411985 -0.012942838613615641 0 -0.011906469154081861 -0.0089556992102144996 0 -0.011827586365953206 -0.0091134230792724921 0 -0.012333310164520939 -0.0091922892712791582 0 -0.0041028611703800792 -0.015061028812286169 0 -0.0039473355790758365 -0.014979303088737085 0 -0.0039555382758669315 -0.01513083556834805 0 -0.0039473355790758365 -0.014979303088737085 0 -0.0039555382758669315 -0.01513083556834805 0 -0.0038681308606758045 -0.015194805785343359 0 -0.0039522315225113541 -0.016096820986096008 0 -0.0067570244930411985 -0.012942838613615641 0 -0.0079626100540952476 -0.013106036468858911 0 -0.0082696992727635914 -0.012112677064735081 0 -0.0092031331756495301 -0.012122383038575886 0 -0.0074819041282857563 -0.012856594449094363 0 -0.0079626100540952476 -0.013106036468858911 0 -0.0082696992727635914 -0.012112677064735081 0 -0.0034841415937765436 -0.017157400390306665 0 -0.0045646262425831259 -0.016107752878531889 0 -0.0039316964434362115 -0.015761284535366352 0 -0.0039522315225113541 -0.016096820986096008 0 -0.0069816464446006334 -0.013576673912142505 0 -0.011775526933962431 -0.0093394136436555711 0 -0.012333310164520939 -0.0091922892712791582 0 -0.01162791616760526 -0.0098965690283930388 0 -0.0067570244930411985 -0.012942838613615641 0 -0.01112200846777933 -0.01055984842713981 0 -0.01162791616760526 -0.0098965690283930388 0 -0.011490221348149934 -0.0094024503041787912 0 -0.011345015034667675 -0.0095834978345601986 0 -0.011775526933962431 -0.0093394136436555711 0 -0.01162791616760526 -0.0098965690283930388 0 -0.011490221348149934 -0.0094024503041787912 0 -0.0092031331756495301 -0.012122383038575886 0 -0.0089918495661383303 -0.011548378123665127 0 -0.0097822939978575822 -0.011308776284737749 0 -0.0082696992727635914 -0.012112677064735081 0 -0.0092031331756495301 -0.012122383038575886 0 -0.0089918495661383303 -0.011548378123665127 0 -0.0013457877678360987 -0.01878878491910781 0 -0.0013307441764344044 -0.018693916065685177 0 -0.0014904440875286684 -0.018708546778855785 0 -0.0069816464446006334 -0.013576673912142505 0 -0.005202076005861333 -0.015119460044998609 0 -0.005202076005861333 -0.015119460044998609 0 -0.0022139163034828706 -0.017410658495523125 0 -0.0045646262425831259 -0.016107752878531889 0 -0.0056415145076355241 -0.015070468929271783 0 -0.0039316964434362115 -0.015761284535366352 0 -0.0012230931373777953 -0.018737625972551842 0 -0.0012332276831468418 -0.018709373754391523 0 -0.0012273035522385501 -0.018804415008112533 0 -0.0013457877678360987 -0.01878878491910781 0 -0.0012230931373777953 -0.018737625972551842 0 -0.0012332276831468418 -0.018709373754391523 0 -0.0012332276831468418 -0.018709373754391523 0 -0.0012273035522385501 -0.018804415008112533 0 -0.0011426826332792646 -0.018614915903393849 0 -0.0012332276831468418 -0.018709373754391523 0 -0.0011426826332792646 -0.018614915903393849 0 -0.0013220023975528453 -0.018462848840607039 0 -0.0013457877678360987 -0.01878878491910781 0 -0.0012332276831468418 -0.018709373754391523 0 -0.0013307441764344044 -0.018693916065685177 0 -0.0012332276831468418 -0.018709373754391523 0 -0.0013307441764344044 -0.018693916065685177 0 -0.0013220023975528453 -0.018462848840607039 0 -0.0013307441764344044 -0.018693916065685177 0 -0.0015016655175700644 -0.01863066893190285 0 -0.0013220023975528453 -0.018462848840607039 0 -0.0015016655175700644 -0.01863066893190285 0 -0.0013220023975528453 -0.018462848840607039 0 -0.0016171213538186892 -0.018547059528935945 0 -0.0013307441764344044 -0.018693916065685177 0 -0.0015016655175700644 -0.01863066893190285 0 -0.0014904440875286684 -0.018708546778855785 0 -0.0014001766875817725 -0.018555089636637864 0 -0.0015208043633800749 -0.018820748727112313 0 -0.0013212074373933943 -0.018796018656935764 0 -0.0018796033302085418 -0.018735391965660233 0 -0.0014001766875817725 -0.018555089636637864 0 -0.0015208043633800749 -0.018820748727112313 0 -0.0015208043633800749 -0.018820748727112313 0 -0.0013212074373933943 -0.018796018656935764 0 -0.0013959885881177935 -0.018963560878835224 0 -0.0012230931373777953 -0.018737625972551842 0 -0.0013212074373933943 -0.018796018656935764 0 -0.0012273035522385501 -0.018804415008112533 0 -0.0014001766875817725 -0.018555089636637864 0 -0.0012230931373777953 -0.018737625972551842 0 -0.0013212074373933943 -0.018796018656935764 0 -0.0012273035522385501 -0.018804415008112533 0 -0.0013959885881177935 -0.018963560878835224 0 -0.0012971196281619819 -0.019043999290421876 0 -0.0013212074373933943 -0.018796018656935764 0 -0.0012273035522385501 -0.018804415008112533 0 -0.0013959885881177935 -0.018963560878835224 0 -0.0017750669878952787 -0.019274699784319674 0 -0.0015208043633800749 -0.018820748727112313 0 -0.0013959885881177935 -0.018963560878835224 0 -0.0017750669878952787 -0.019274699784319674 0 -0.0013959885881177935 -0.018963560878835224 0 -0.0012971196281619819 -0.019043999290421876 0 -0.0014268953042095016 -0.019431107864707569 0 -0.0012971196281619819 -0.019043999290421876 0 -0.0010860508410614066 -0.018874917044053238 0 -0.0012971196281619819 -0.019043999290421876 0 -0.0010983825926101929 -0.018676637610472033 0 -0.0010860508410614066 -0.018874917044053238 0 -0.0012971196281619819 -0.019043999290421876 0 -0.0010983825926101929 -0.018676637610472033 0 -0.0011426826332792646 -0.018614915903393849 0 -0.0012273035522385501 -0.018804415008112533 0 -0.0012971196281619819 -0.019043999290421876 0 -0.0011426826332792646 -0.018614915903393849 0 -0.0011426826332792646 -0.018614915903393849 0 -0.0013220023975528453 -0.018462848840607039 0 -0.0012391106760680083 -0.018271740959805341 0 -0.0013220023975528453 -0.018462848840607039 0 -0.0012391106760680083 -0.018271740959805341 0 -0.0014426383703345163 -0.018238164555671805 0 -0.0012391106760680083 -0.018271740959805341 0 -0.001372620128621555 -0.018025577927132105 0 -0.0014426383703345163 -0.018238164555671805 0 -0.0012391106760680083 -0.018271740959805341 0 -0.0012134562326779677 -0.017968895984449968 0 -0.001372620128621555 -0.018025577927132105 0 -0.0012391106760680083 -0.018271740959805341 0 -0.0012134562326779677 -0.017968895984449968 0 -0.0010664302811715669 -0.018267154302743161 0 -0.0011426826332792646 -0.018614915903393849 0 -0.0012391106760680083 -0.018271740959805341 0 -0.0010664302811715669 -0.018267154302743161 0 -0.0010983825926101929 -0.018676637610472033 0 -0.0011426826332792646 -0.018614915903393849 0 -0.0010664302811715669 -0.018267154302743161 0 -0.0010983825926101929 -0.018676637610472033 0 -0.0010664302811715669 -0.018267154302743161 0 -0.00091876794571010508 -0.01813516434738173 0 -0.0010664302811715669 -0.018267154302743161 0 -0.00091876794571010508 -0.01813516434738173 0 -0.0010527522533990532 -0.017891334927684126 0 -0.00091876794571010508 -0.01813516434738173 0 -0.0010527522533990532 -0.017891334927684126 0 -0.00096392787213226251 -0.017507916774893276 0 -0.0012134562326779677 -0.017968895984449968 0 -0.0010527522533990532 -0.017891334927684126 0 -0.0012201163561102605 -0.017566536212841131 0 -0.0012134562326779677 -0.017968895984449968 0 -0.0010664302811715669 -0.018267154302743161 0 -0.0010527522533990532 -0.017891334927684126 0 -0.0010527522533990532 -0.017891334927684126 0 -0.00096392787213226251 -0.017507916774893276 0 -0.0012201163561102605 -0.017566536212841131 0 -0.00096392787213226251 -0.017507916774893276 0 -0.001210687301671072 -0.017008832479683 0 -0.0012201163561102605 -0.017566536212841131 0 -0.00096392787213226251 -0.017507916774893276 0 -0.00084567172816414399 -0.017096125325108721 0 -0.00079756289415287406 -0.017599314151106837 0 -0.00096392787213226251 -0.017507916774893276 0 -0.00084567172816414399 -0.017096125325108721 0 -0.001210687301671072 -0.017008832479683 0 -0.00091876794571010508 -0.01813516434738173 0 -0.00096392787213226251 -0.017507916774893276 0 -0.00079756289415287406 -0.017599314151106837 0 -0.000797996122647314 -0.018327930507966037 0 -0.00091876794571010508 -0.01813516434738173 0 -0.00079756289415287406 -0.017599314151106837 0 -0.000797996122647314 -0.018327930507966037 0 -0.00091876794571010508 -0.01813516434738173 0 -0.0010860508410614066 -0.018874917044053238 0 -0.000797996122647314 -0.018327930507966037 0 -0.0012376085763351507 -0.019462845332035961 0 -0.0010860508410614066 -0.018874917044053238 0 -0.000797996122647314 -0.018327930507966037 0 -0.0012482387382232423 -0.019510844854500276 0 -0.0012376085763351507 -0.019462845332035961 0 -0.0012376085763351507 -0.019462845332035961 0 -0.0014268953042095016 -0.019431107864707569 0 -0.0010860508410614066 -0.018874917044053238 0 -0.0010983825926101929 -0.018676637610472033 0 -0.00091876794571010508 -0.01813516434738173 0 -0.0010860508410614066 -0.018874917044053238 0 -0.0021731318428633343 -0.016683749095381995 0 -0.0025794441826524285 -0.016895471133808269 0 -0.0028508068792533581 -0.016160689878673661 0 -0.0021731318428633343 -0.016683749095381995 0 -0.002139698467089432 -0.017116589974944797 0 -0.0025794441826524285 -0.016895471133808269 0 -0.0025794441826524285 -0.016895471133808269 0 -0.0031442842672688614 -0.016485477678890539 0 -0.0028508068792533581 -0.016160689878673661 0 -0.0031442842672688614 -0.016485477678890539 0 -0.0032924818497512992 -0.016064056565628371 0 -0.0028508068792533581 -0.016160689878673661 0 -0.0035217025716014934 -0.015544477288539096 0 -0.0032553146616583254 -0.015185348272608971 0 -0.0028508068792533581 -0.016160689878673661 0 -0.0035217025716014934 -0.015544477288539096 0 -0.0032924818497512992 -0.016064056565628371 0 -0.0028508068792533581 -0.016160689878673661 0 -0.0032553146616583254 -0.015185348272608971 0 -0.0026362470904399116 -0.015621235401413252 0 -0.0028508068792533581 -0.016160689878673661 0 -0.0026362470904399116 -0.015621235401413252 0 -0.0028508068792533581 -0.016160689878673661 0 -0.0024324208943453259 -0.016156651444356337 0 -0.0026362470904399116 -0.015621235401413252 0 -0.0024324208943453259 -0.016156651444356337 0 -0.0020780679993203819 -0.016147675665811424 0 -0.0021731318428633343 -0.016683749095381995 0 -0.0028508068792533581 -0.016160689878673661 0 -0.0024324208943453259 -0.016156651444356337 0 -0.0021731318428633343 -0.016683749095381995 0 -0.0024324208943453259 -0.016156651444356337 0 -0.0020780679993203819 -0.016147675665811424 0 -0.0015316860878995294 -0.016095284949976692 0 -0.0020780679993203819 -0.016147675665811424 0 -0.0017113620739551414 -0.016760301269618711 0 -0.0021731318428633343 -0.016683749095381995 0 -0.0020780679993203819 -0.016147675665811424 0 -0.0017113620739551414 -0.016760301269618711 0 -0.0015316860878995294 -0.016095284949976692 0 -0.0017113620739551414 -0.016760301269618711 0 -0.001210687301671072 -0.017008832479683 0 -0.00098753639024733077 -0.016528563756761497 0 -0.00084567172816414399 -0.017096125325108721 0 -0.001210687301671072 -0.017008832479683 0 -0.0017113620739551414 -0.016760301269618711 0 -0.001210687301671072 -0.017008832479683 0 -0.0015145607621532473 -0.017299019117049105 0 -0.001210687301671072 -0.017008832479683 0 -0.0012201163561102605 -0.017566536212841131 0 -0.0015145607621532473 -0.017299019117049105 0 -0.0015145607621532473 -0.017299019117049105 0 -0.0017975888631281403 -0.017444701535641115 0 -0.0014332961644691984 -0.017715572878388458 0 -0.0012201163561102605 -0.017566536212841131 0 -0.0015145607621532473 -0.017299019117049105 0 -0.0014332961644691984 -0.017715572878388458 0 -0.0012134562326779677 -0.017968895984449968 0 -0.0012201163561102605 -0.017566536212841131 0 -0.0014332961644691984 -0.017715572878388458 0 -0.0021731318428633343 -0.016683749095381995 0 -0.0017113620739551414 -0.016760301269618711 0 -0.0018291746903814543 -0.017076595634049223 0 -0.0017113620739551414 -0.016760301269618711 0 -0.0015145607621532473 -0.017299019117049105 0 -0.0018291746903814543 -0.017076595634049223 0 -0.0015145607621532473 -0.017299019117049105 0 -0.0018291746903814543 -0.017076595634049223 0 -0.0017975888631281403 -0.017444701535641115 0 -0.0021731318428633343 -0.016683749095381995 0 -0.002139698467089432 -0.017116589974944797 0 -0.0018291746903814543 -0.017076595634049223 0 -0.002139698467089432 -0.017116589974944797 0 -0.0018291746903814543 -0.017076595634049223 0 -0.0017975888631281403 -0.017444701535641115 0 -0.002139698467089432 -0.017116589974944797 0 -0.0017975888631281403 -0.017444701535641115 0 -0.0022174968245618986 -0.017466760394323919 0 -0.0017975888631281403 -0.017444701535641115 0 -0.0018875631169433485 -0.017738967788598008 0 -0.001589213038981196 -0.01790722679685643 0 -0.0017975888631281403 -0.017444701535641115 0 -0.0018875631169433485 -0.017738967788598008 0 -0.0022174968245618986 -0.017466760394323919 0 -0.0018875631169433485 -0.017738967788598008 0 -0.0020856412668002196 -0.017805310472262876 0 -0.0022174968245618986 -0.017466760394323919 0 -0.0012134562326779677 -0.017968895984449968 0 -0.0014332961644691984 -0.017715572878388458 0 -0.001372620128621555 -0.018025577927132105 0 -0.0017975888631281403 -0.017444701535641115 0 -0.0014332961644691984 -0.017715572878388458 0 -0.001589213038981196 -0.01790722679685643 0 -0.0014332961644691984 -0.017715572878388458 0 -0.001589213038981196 -0.01790722679685643 0 -0.001372620128621555 -0.018025577927132105 0 -0.001589213038981196 -0.01790722679685643 0 -0.0014426383703345163 -0.018238164555671805 0 -0.0018558278164906145 -0.018066516264711344 0 -0.0014426383703345163 -0.018238164555671805 0 -0.0018558278164906145 -0.018066516264711344 0 -0.0015757940786219817 -0.018389270441271002 0 -0.0013220023975528453 -0.018462848840607039 0 -0.0014426383703345163 -0.018238164555671805 0 -0.0015757940786219817 -0.018389270441271002 0 -0.001589213038981196 -0.01790722679685643 0 -0.001372620128621555 -0.018025577927132105 0 -0.0014426383703345163 -0.018238164555671805 0 -0.0018558278164906145 -0.018066516264711344 0 -0.0024090307861325821 -0.017949562917209703 0 -0.0020581157559802095 -0.018446313846785228 0 -0.0020856412668002196 -0.017805310472262876 0 -0.0018558278164906145 -0.018066516264711344 0 -0.0024090307861325821 -0.017949562917209703 0 -0.0018875631169433485 -0.017738967788598008 0 -0.0020856412668002196 -0.017805310472262876 0 -0.0018558278164906145 -0.018066516264711344 0 -0.0018875631169433485 -0.017738967788598008 0 -0.001589213038981196 -0.01790722679685643 0 -0.0018558278164906145 -0.018066516264711344 0 -0.0024090307861325821 -0.017949562917209703 0 -0.0030218317898630265 -0.01792518084212557 0 -0.0020581157559802095 -0.018446313846785228 0 -0.0024090307861325821 -0.017949562917209703 0 -0.0022174968245618986 -0.017466760394323919 0 -0.0026748032854718375 -0.01741420652624337 0 -0.0024090307861325821 -0.017949562917209703 0 -0.0026748032854718375 -0.01741420652624337 0 -0.0027622937295086213 -0.017679475995913567 0 -0.0020856412668002196 -0.017805310472262876 0 -0.0024090307861325821 -0.017949562917209703 0 -0.0022174968245618986 -0.017466760394323919 0 -0.0025794441826524285 -0.016895471133808269 0 -0.0022174968245618986 -0.017466760394323919 0 -0.0026748032854718375 -0.01741420652624337 0 -0.002139698467089432 -0.017116589974944797 0 -0.0025794441826524285 -0.016895471133808269 0 -0.0022174968245618986 -0.017466760394323919 0 -0.0034767185714137403 -0.016687779629810568 0 -0.0031442842672688614 -0.016485477678890539 0 -0.0030612539376769499 -0.017003713732051763 0 -0.0025794441826524285 -0.016895471133808269 0 -0.0026748032854718375 -0.01741420652624337 0 -0.0030612539376769499 -0.017003713732051763 0 -0.0025794441826524285 -0.016895471133808269 0 -0.0031442842672688614 -0.016485477678890539 0 -0.0030612539376769499 -0.017003713732051763 0 -0.0026748032854718375 -0.01741420652624337 0 -0.0030612539376769499 -0.017003713732051763 0 -0.0029698443757382614 -0.017437698919605615 0 -0.0033628962561708655 -0.017164452007240961 0 -0.0030612539376769499 -0.017003713732051763 0 -0.0029698443757382614 -0.017437698919605615 0 -0.0033628962561708655 -0.017164452007240961 0 -0.0034767185714137403 -0.016687779629810568 0 -0.0030612539376769499 -0.017003713732051763 0 -0.0033628962561708655 -0.017164452007240961 0 -0.0029698443757382614 -0.017437698919605615 0 -0.0030218317898630265 -0.01792518084212557 0 -0.0024090307861325821 -0.017949562917209703 0 -0.0027622937295086213 -0.017679475995913567 0 -0.0030218317898630265 -0.01792518084212557 0 -0.0029698443757382614 -0.017437698919605615 0 -0.0027622937295086213 -0.017679475995913567 0 -0.0030218317898630265 -0.01792518084212557 0 -0.0026748032854718375 -0.01741420652624337 0 -0.0029698443757382614 -0.017437698919605615 0 -0.0027622937295086213 -0.017679475995913567 0 -0.0094924406536566405 -0.011100056889208723 0 -0.0094569714535574605 -0.011906282729957279 0 -0.010486564958694574 -0.01131505778166067 0 -0.0082430777070186985 -0.012641838966235981 0 -0.0080757664247427651 -0.012563518920332634 0 -0.0079462026403478905 -0.012918585702902849 0 -0.0087852013392861906 -0.012320129920552298 0 -0.0092368036612757495 -0.011564924008884718 0 -0.0093259337203449762 -0.010964339864879468 0 -0.0092368036612757495 -0.011564924008884718 0 -0.0083522618792920885 -0.011610372559898718 0 -0.0092875243015437606 -0.011760248195571647 0 -0.009367230412455638 -0.011439368372514268 0 -0.0053912430062393003 -0.015305102358351953 0 -0.0053344693589321892 -0.015385842441685211 0 -0.0080757664247427651 -0.012563518920332634 0 -0.0079462026403478905 -0.012918585702902849 0 -0.0073506912685482803 -0.012833692975180515 0 -0.0092368036612757495 -0.011564924008884718 0 -0.0053344693589321892 -0.015385842441685211 0 -0.0095900401784304243 -0.010768989567536165 0 -0.0098162475329402511 -0.010092280475946468 0 -0.010422127335564788 -0.010158163485882646 0 -0.0098162475329402511 -0.010092280475946468 0 -0.010422127335564788 -0.010158163485882646 0 -0.010117307445697997 -0.0095948494280097361 0 -0.0092368036612757495 -0.011564924008884718 0 -0.0098318932270663861 -0.010512004953794059 0 -0.0083522618792920885 -0.011610372559898718 0 -0.009367230412455638 -0.011439368372514268 0 -0.0092659356753960129 -0.010989507387367174 0 -0.0095900401784304243 -0.010768989567536165 0 -0.0098162475329402511 -0.010092280475946468 0 -0.0092895214910132407 -0.010256756686598048 0 -0.0098162475329402511 -0.010092280475946468 0 -0.0092895214910132407 -0.010256756686598048 0 -0.0095419505394951851 -0.0096279316807175302 0 -0.0090275694600401683 -0.01072873700278979 0 -0.0095900401784304243 -0.010768989567536165 0 -0.0092895214910132407 -0.010256756686598048 0 -0.0015136451353044919 -0.01845290289267296 0 -0.0012953651383914144 -0.018354536486121759 0 -0.0013220023975528453 -0.018462848840607039 0 -0.0016171213538186892 -0.018547059528935945 0 -0.0018494328064811015 -0.01839495742945867 0 -0.0015016655175700644 -0.01863066893190285 0 -0.0014904440875286684 -0.018708546778855785 0 -0.0018169151412785476 -0.018763324078884428 0 -0.0015016655175700644 -0.01863066893190285 0 -0.0016171213538186892 -0.018547059528935945 0 -0.0018169151412785476 -0.018763324078884428 0 -0.0016171213538186892 -0.018547059528935945 0 -0.0018494328064811015 -0.01839495742945867 0 -0.0018169151412785476 -0.018763324078884428 0 -0.0018558278164906145 -0.018066516264711344 0 -0.0015757940786219817 -0.018389270441271002 0 -0.0020581157559802095 -0.018446313846785228 0 -0.0097822939978575822 -0.011308776284737749 0 -0.0092875243015437606 -0.011760248195571647 0 -0.009367230412455638 -0.011439368372514268 0 -0.0018494328064811015 -0.01839495742945867 0 -0.0018169151412785476 -0.018763324078884428 0 -0.0025483562306918184 -0.018484756947092104 0 -0.0058723687926091417 -0.015008269963841902 0 -0.0053344693589321892 -0.015385842441685211 0 -0.0012953651383914144 -0.018354536486121759 0 -0.0053344693589321892 -0.015385842441685211 0 -0.0098318932270663861 -0.010512004953794059 0 -0.011029920130748239 -0.0098114367763696558 0 -0.0097822939978575822 -0.011308776284737749 0 -0.009367230412455638 -0.011439368372514268 0 -0.0098332322760494757 -0.011319145898746193 0 -0.0092659356753960129 -0.010989507387367174 0 -0.0098332322760494757 -0.011319145898746193 0 -0.011074797444452941 -0.0097453414035656733 0 -0.009367230412455638 -0.011439368372514268 0 -0.0092659356753960129 -0.010989507387367174 0 -0.0098332322760494757 -0.011319145898746193 0 -0.0092031331756495301 -0.012122383038575886 0 -0.0097822939978575822 -0.011308776284737749 0 -0.0098332322760494757 -0.011319145898746193 0 -0.0013457877678360987 -0.01878878491910781 0 -0.0014904440875286684 -0.018708546778855785 0 -0.0018169151412785476 -0.018763324078884428 0 -0.005202076005861333 -0.015119460044998609 0 -0.0058723687926091417 -0.015008269963841902 0 -0.01112200846777933 -0.01055984842713981 0 -0.0095550997108878842 -0.011526312435047828 0 -0.01162791616760526 -0.0098965690283930388 0 -0.0098332322760494757 -0.011319145898746193 0 -0.011074797444452941 -0.0097453414035656733 0 -0.011228949686639032 -0.0093449781300214228 0 -0.011074797444452941 -0.0097453414035656733 0 -0.010948499312326547 -0.0094899236103046323 0 -0.011228949686639032 -0.0093449781300214228 0 -0.011345015034667675 -0.0095834978345601986 0 -0.011074797444452941 -0.0097453414035656733 0 -0.011490221348149934 -0.0094024503041787912 0 -0.011228949686639032 -0.0093449781300214228 0 -0.011345015034667675 -0.0095834978345601986 0 -0.01162791616760526 -0.0098965690283930388 0 -0.011345015034667675 -0.0095834978345601986 0 -0.011074797444452941 -0.0097453414035656733 0 -0.011074797444452941 -0.0097453414035656733 0 -0.010948499312326547 -0.0094899236103046323 0 -0.010654602217324427 -0.0097137555638993657 0 -0.010948499312326547 -0.0094899236103046323 0 -0.010654602217324427 -0.0097137555638993657 0 -0.010869668472811542 -0.0091176498752429704 0 -0.010422127335564788 -0.010158163485882646 0 -0.011074797444452941 -0.0097453414035656733 0 -0.010654602217324427 -0.0097137555638993657 0 -0.010422127335564788 -0.010158163485882646 0 -0.010654602217324427 -0.0097137555638993657 0 -0.010117307445697997 -0.0095948494280097361 0 -0.010654602217324427 -0.0097137555638993657 0 -0.010407135806164765 -0.0091451090921580869 0 -0.010117307445697997 -0.0095948494280097361 0 -0.010654602217324427 -0.0097137555638993657 0 -0.010407135806164765 -0.0091451090921580869 0 -0.010869668472811542 -0.0091176498752429704 0 -0.010407135806164765 -0.0091451090921580869 0 -0.010869668472811542 -0.0091176498752429704 0 -0.010450177738688483 -0.0084067837051490079 0 -0.010869668472811542 -0.0091176498752429704 0 -0.011347840348226633 -0.0088666572313301894 0 -0.011010289880651147 -0.008294050755928593 0 -0.011228949686639032 -0.0093449781300214228 0 -0.010948499312326547 -0.0094899236103046323 0 -0.010869668472811542 -0.0091176498752429704 0 -0.011228949686639032 -0.0093449781300214228 0 -0.010869668472811542 -0.0091176498752429704 0 -0.011347840348226633 -0.0088666572313301894 0 -0.011538619211382571 -0.0090981232179973472 0 -0.011228949686639032 -0.0093449781300214228 0 -0.011347840348226633 -0.0088666572313301894 0 -0.0089374873940337579 -0.0098031136916483484 0 -0.0092895214910132407 -0.010256756686598048 0 -0.0095419505394951851 -0.0096279316807175302 0 -0.0089374873940337579 -0.0098031136916483484 0 -0.0095419505394951851 -0.0096279316807175302 0 -0.0092088968059236675 -0.0090471482295161956 0 -0.0095419505394951851 -0.0096279316807175302 0 -0.010117307445697997 -0.0095948494280097361 0 -0.0097794547204096555 -0.0087275545462538809 0 -0.0098162475329402511 -0.010092280475946468 0 -0.0095419505394951851 -0.0096279316807175302 0 -0.010117307445697997 -0.0095948494280097361 0 -0.010407135806164765 -0.0091451090921580869 0 -0.010117307445697997 -0.0095948494280097361 0 -0.0097794547204096555 -0.0087275545462538809 0 -0.010407135806164765 -0.0091451090921580869 0 -0.0097794547204096555 -0.0087275545462538809 0 -0.010450177738688483 -0.0084067837051490079 0 -0.0095419505394951851 -0.0096279316807175302 0 -0.0097794547204096555 -0.0087275545462538809 0 -0.0092088968059236675 -0.0090471482295161956 0 -0.0097794547204096555 -0.0087275545462538809 0 -0.0092088968059236675 -0.0090471482295161956 0 -0.0090536146696596227 -0.0083249802981678264 0 -0.0097794547204096555 -0.0087275545462538809 0 -0.0093641819044581204 -0.0076069898257352117 0 -0.0090536146696596227 -0.0083249802981678264 0 -0.0097794547204096555 -0.0087275545462538809 0 -0.010003159743045616 -0.0076953403225712451 0 -0.0093641819044581204 -0.0076069898257352117 0 -0.0097794547204096555 -0.0087275545462538809 0 -0.010003159743045616 -0.0076953403225712451 0 -0.010450177738688483 -0.0084067837051490079 0 -0.010003159743045616 -0.0076953403225712451 0 -0.0093641819044581204 -0.0076069898257352117 0 -0.0097362554050429029 -0.0067499935053277329 0 -0.010003159743045616 -0.0076953403225712451 0 -0.010870164677545655 -0.0076236516543890459 0 -0.0097362554050429029 -0.0067499935053277329 0 -0.011010289880651147 -0.008294050755928593 0 -0.010870164677545655 -0.0076236516543890459 0 -0.011428001882197839 -0.0082162649675018261 0 -0.010869668472811542 -0.0091176498752429704 0 -0.011010289880651147 -0.008294050755928593 0 -0.010450177738688483 -0.0084067837051490079 0 -0.011010289880651147 -0.008294050755928593 0 -0.010450177738688483 -0.0084067837051490079 0 -0.010870164677545655 -0.0076236516543890459 0 -0.010003159743045616 -0.0076953403225712451 0 -0.010450177738688483 -0.0084067837051490079 0 -0.010870164677545655 -0.0076236516543890459 0 -0.010870164677545655 -0.0076236516543890459 0 -0.010745416309929357 -0.0065257242102491611 0 -0.011492510292844751 -0.0072286265355650898 0 -0.0099761154049040693 -0.0061872065429329076 0 -0.010769599089639729 -0.0062681071470673394 0 -0.010870164677545655 -0.0076236516543890459 0 -0.010745416309929357 -0.0065257242102491611 0 -0.0097362554050429029 -0.0067499935053277329 0 -0.0094007854577256023 -0.0057830478566535202 0 -0.0096857717355795774 -0.005769975669262772 0 -0.0094965750766131118 -0.0058100941894733771 0 -0.0099761154049040693 -0.0061872065429329076 0 -0.0097223689392999958 -0.0058071299806158735 0 -0.0094007854577256023 -0.0057830478566535202 0 -0.0094965750766131118 -0.0058100941894733771 0 -0.0092710345850235479 -0.0058828615711971743 0 -0.0094007854577256023 -0.0057830478566535202 0 -0.0092710345850235479 -0.0058828615711971743 0 -0.0091454944404104725 -0.0060219150990462591 0 -0.0093641819044581204 -0.0076069898257352117 0 -0.0097362554050429029 -0.0067499935053277329 0 -0.0089015419873102689 -0.0066111081427983956 0 -0.0097362554050429029 -0.0067499935053277329 0 -0.0092414721030448718 -0.0060452803122757626 0 -0.0089015419873102689 -0.0066111081427983956 0 -0.010745416309929357 -0.0065257242102491611 0 -0.0097362554050429029 -0.0067499935053277329 0 -0.0096857717355795774 -0.005769975669262772 0 -0.0097362554050429029 -0.0067499935053277329 0 -0.0096857717355795774 -0.005769975669262772 0 -0.0092414721030448718 -0.0060452803122757626 0 -0.0096857717355795774 -0.005769975669262772 0 -0.0092414721030448718 -0.0060452803122757626 0 -0.0091741129382811037 -0.005534849016597977 0 -0.0096857717355795774 -0.005769975669262772 0 -0.0091741129382811037 -0.005534849016597977 0 -0.0094005034002169995 -0.0051861588869278902 0 -0.0091741129382811037 -0.005534849016597977 0 -0.0094005034002169995 -0.0051861588869278902 0 -0.0087193109537253548 -0.0050811551943662006 0 -0.0094005034002169995 -0.0051861588869278902 0 -0.0094080735379140756 -0.0043116861487889346 0 -0.008995691640408289 -0.0043257222341635711 0 -0.0094005034002169995 -0.0051861588869278902 0 -0.0094080735379140756 -0.0043116861487889346 0 -0.010054057476899924 -0.0045832952023034251 0 -0.0094222156623556333 -0.0052557515098852229 0 -0.0099271082517102434 -0.0054203388278269427 0 -0.0094005034002169995 -0.0051861588869278902 0 -0.010305939184717247 -0.0051561656628975215 0 -0.010054057476899924 -0.0045832952023034251 0 -0.0096857717355795774 -0.005769975669262772 0 -0.0094005034002169995 -0.0051861588869278902 0 -0.0095874759132336552 -0.0057095449568630528 0 -0.0096857717355795774 -0.005769975669262772 0 -0.0094965750766131118 -0.0058100941894733771 0 -0.0095874759132336552 -0.0057095449568630528 0 -0.0094965750766131118 -0.0058100941894733771 0 -0.0094256970489175959 -0.0058512617408236073 0 -0.0095874759132336552 -0.0057095449568630528 0 -0.0094965750766131118 -0.0058100941894733771 0 -0.0092710345850235479 -0.0058828615711971743 0 -0.0094256970489175959 -0.0058512617408236073 0 -0.0092710345850235479 -0.0058828615711971743 0 -0.0094256970489175959 -0.0058512617408236073 0 -0.0092816843012757944 -0.0059068579807277748 0 -0.0094256970489175959 -0.0058512617408236073 0 -0.0093732191029679661 -0.0059992133161279717 0 -0.0092816843012757944 -0.0059068579807277748 0 -0.010310868972621345 -0.005604007553729016 0 -0.0099271082517102434 -0.0054203388278269427 0 -0.0094256970489175959 -0.0058512617408236073 0 -0.0093732191029679661 -0.0059992133161279717 0 -0.0095874759132336552 -0.0057095449568630528 0 -0.011270788079866723 -0.0052254200734548331 0 -0.010305939184717247 -0.0051561656628975215 0 -0.01070507341947451 -0.0048605461082575395 0 -0.010305939184717247 -0.0051561656628975215 0 -0.01070507341947451 -0.0048605461082575395 0 -0.010054057476899924 -0.0045832952023034251 0 -0.01070507341947451 -0.0048605461082575395 0 -0.010587367607372477 -0.0044758696828459711 0 -0.010054057476899924 -0.0045832952023034251 0 -0.01070507341947451 -0.0048605461082575395 0 -0.010587367607372477 -0.0044758696828459711 0 -0.011024730599796431 -0.0048045200802331106 0 -0.010587367607372477 -0.0044758696828459711 0 -0.010215788635479913 -0.0040714363964389731 0 -0.010054057476899924 -0.0045832952023034251 0 -0.011024730599796431 -0.0048045200802331106 0 -0.01137945233867396 -0.0040559682773316117 0 -0.011153186650300826 -0.0054701320874937023 0 -0.011270788079866723 -0.0052254200734548331 0 -0.011024730599796431 -0.0048045200802331106 0 -0.011153186650300826 -0.0054701320874937023 0 -0.011270788079866723 -0.0052254200734548331 0 -0.01070507341947451 -0.0048605461082575395 0 -0.011024730599796431 -0.0048045200802331106 0 -0.010587367607372477 -0.0044758696828459711 0 -0.011024730599796431 -0.0048045200802331106 0 -0.010902526406575533 -0.0042599997851765969 0 -0.010902526406575533 -0.0042599997851765969 0 -0.01137945233867396 -0.0040559682773316117 0 -0.010709619127057887 -0.003787853558309517 0 -0.011024730599796431 -0.0048045200802331106 0 -0.010902526406575533 -0.0042599997851765969 0 -0.01137945233867396 -0.0040559682773316117 0 -0.010587367607372477 -0.0044758696828459711 0 -0.010709619127057887 -0.003787853558309517 0 -0.010215788635479913 -0.0040714363964389731 0 -0.010709619127057887 -0.003787853558309517 0 -0.010215788635479913 -0.0040714363964389731 0 -0.010107264995321285 -0.0034725784350348667 0 -0.010587367607372477 -0.0044758696828459711 0 -0.010902526406575533 -0.0042599997851765969 0 -0.010709619127057887 -0.003787853558309517 0 -0.010215788635479913 -0.0040714363964389731 0 -0.00968609828121819 -0.0040194925177627896 0 -0.010107264995321285 -0.0034725784350348667 0 -0.012073864780398421 0.0031436741809611427 0 -0.011461705350208925 0.0019244313288175924 0 -0.00968609828121819 -0.0040194925177627896 0 -0.0092647947146885807 -0.003684083579855205 0 -0.010107264995321285 -0.0034725784350348667 0 -0.012584511463141358 0.0068297994701875375 0 -0.012958316864123593 0.0071831812787694583 0 -0.012502347971928691 0.0069239550466529539 0 -0.012073864780398421 0.0031436741809611427 0 -0.014814637846450429 0.0069294355941673354 0 -0.0092647947146885807 -0.003684083579855205 0 -0.0092468590160788445 -0.0038440748686585338 0 -0.0091131869327398911 -0.0038790637640525008 0 -0.0092647947146885807 -0.003684083579855205 0 -0.0092468590160788445 -0.0038440748686585338 0 -0.009386281652050207 -0.003960854935211317 0 -0.0092468590160788445 -0.0038440748686585338 0 -0.0092301799789469008 -0.0040090188154261056 0 -0.0091131869327398911 -0.0038790637640525008 0 -0.0092468590160788445 -0.0038440748686585338 0 -0.009386281652050207 -0.003960854935211317 0 -0.0092301799789469008 -0.0040090188154261056 0 -0.00968609828121819 -0.0040194925177627896 0 -0.0092647947146885807 -0.003684083579855205 0 -0.009386281652050207 -0.003960854935211317 0 -0.00968609828121819 -0.0040194925177627896 0 -0.009386281652050207 -0.003960854935211317 0 -0.0094080735379140756 -0.0043116861487889346 0 -0.0092301799789469008 -0.0040090188154261056 0 -0.0094080735379140756 -0.0043116861487889346 0 -0.0090467995601640067 -0.004072430808305356 0 -0.009386281652050207 -0.003960854935211317 0 -0.0092301799789469008 -0.0040090188154261056 0 -0.0094080735379140756 -0.0043116861487889346 0 -0.0094080735379140756 -0.0043116861487889346 0 -0.0090467995601640067 -0.004072430808305356 0 -0.008995691640408289 -0.0043257222341635711 0 -0.00968609828121819 -0.0040194925177627896 0 -0.0094080735379140756 -0.0043116861487889346 0 -0.010054057476899924 -0.0045832952023034251 0 -0.010215788635479913 -0.0040714363964389731 0 -0.00968609828121819 -0.0040194925177627896 0 -0.010054057476899924 -0.0045832952023034251 0 -0.0083054478221589456 -0.006466656538993777 0 -0.008043614587040367 -0.0059354547336592182 0 -0.0066788565938127016 -0.0065190305265158972 0 -0.0083054478221589456 -0.006466656538993777 0 -0.0072047779094471997 -0.0079101225343950737 0 -0.0066788565938127016 -0.0065190305265158972 0 -0.0083054478221589456 -0.006466656538993777 0 -0.0072047779094471997 -0.0079101225343950737 0 -0.0087138738803712971 -0.0079922686468678148 0 -0.0072047779094471997 -0.0079101225343950737 0 -0.0087138738803712971 -0.0079922686468678148 0 -0.0082628170510000033 -0.0094967953896727738 0 -0.0083054478221589456 -0.006466656538993777 0 -0.0087138738803712971 -0.0079922686468678148 0 -0.0097769309065911577 -0.0069358010557614017 0 -0.0087138738803712971 -0.0079922686468678148 0 -0.0096636744729412215 -0.0080899060905130285 0 -0.0097769309065911577 -0.0069358010557614017 0 -0.0096636744729412215 -0.0080899060905130285 0 -0.010371029730812269 -0.0078488177326152941 0 -0.0097769309065911577 -0.0069358010557614017 0 -0.010371029730812269 -0.0078488177326152941 0 -0.0097769309065911577 -0.0069358010557614017 0 -0.010981739486207825 -0.0062928772766588682 0 -0.011042233172346363 -0.0058319293685750104 0 -0.010962389231198523 -0.0061214832953794332 0 -0.01128263894928294 -0.0055276377057815029 0 -0.010962389231198523 -0.0061214832953794332 0 -0.010981739486207825 -0.0062928772766588682 0 -0.01128263894928294 -0.0055276377057815029 0 -0.01090312312895767 -0.0061686423081903172 0 -0.010962389231198523 -0.0061214832953794332 0 -0.011153186650300826 -0.0054701320874937023 0 -0.010371029730812269 -0.0078488177326152941 0 -0.010981739486207825 -0.0062928772766588682 0 -0.011351576532423704 -0.0089095951554745111 0 -0.011000583975633416 -0.0061739387283468944 0 -0.011427019733966134 -0.0075756714155725538 0 -0.01090312312895767 -0.0061686423081903172 0 -0.011042233172346363 -0.0058319293685750104 0 -0.010962389231198523 -0.0061214832953794332 0 -0.011270788079866723 -0.0052254200734548331 0 -0.011153186650300826 -0.0054701320874937023 0 -0.01063396555551915 -0.0055260144370797249 0 -0.011051076942468721 -0.0057729265897511718 0 -0.011121749210531846 -0.0051183878305233995 0 -0.010962389231198523 -0.0061214832953794332 0 -0.010981739486207825 -0.0062928772766588682 0 -0.011153186650300826 -0.0054701320874937023 0 -0.010981739486207825 -0.0062928772766588682 0 -0.011153186650300826 -0.0054701320874937023 0 -0.01063396555551915 -0.0055260144370797249 0 -0.0084266755173981033 -0.00638437280976823 0 -0.0098103096036371486 -0.0058924060444367835 0 -0.0083054478221589456 -0.006466656538993777 0 -0.0090681257770105252 -0.006204455299294173 0 -0.0089118695076560069 -0.0059554917526261995 0 -0.0083054478221589456 -0.006466656538993777 0 -0.0097769309065911577 -0.0069358010557614017 0 -0.01063396555551915 -0.0055260144370797249 0 -0.0097769309065911577 -0.0069358010557614017 0 -0.010981739486207825 -0.0062928772766588682 0 -0.01063396555551915 -0.0055260144370797249 0 -0.0090681257770105252 -0.006204455299294173 0 -0.0089118695076560069 -0.0059554917526261995 0 -0.0091828181912041121 -0.005988003816567564 0 -0.0089118695076560069 -0.0059554917526261995 0 -0.0091828181912041121 -0.005988003816567564 0 -0.0091163904202572303 -0.0058633086509432743 0 -0.0089118695076560069 -0.0059554917526261995 0 -0.0086647178403941559 -0.0055331694308540531 0 -0.0085805327594139259 -0.0057944983676008468 0 -0.0091828181912041121 -0.005988003816567564 0 -0.0092816843012757944 -0.0059068579807277748 0 -0.0091163904202572303 -0.0058633086509432743 0 -0.010310868972621345 -0.005604007553729016 0 -0.0098103096036371486 -0.0058924060444367835 0 -0.0093732191029679661 -0.0059992133161279717 0 -0.0090681257770105252 -0.006204455299294173 0 -0.0091828181912041121 -0.005988003816567564 0 -0.0093732191029679661 -0.0059992133161279717 0 -0.0091828181912041121 -0.005988003816567564 0 -0.0092816843012757944 -0.0059068579807277748 0 -0.0092710345850235479 -0.0058828615711971743 0 -0.0091163904202572303 -0.0058633086509432743 0 -0.0091340506510446048 -0.0060141641638030022 0 -0.0092710345850235479 -0.0058828615711971743 0 -0.0092816843012757944 -0.0059068579807277748 0 -0.0091163904202572303 -0.0058633086509432743 0 -0.0091163904202572303 -0.0058633086509432743 0 -0.0091858821362534419 -0.005975014686300773 0 -0.0091340506510446048 -0.0060141641638030022 0 -0.0089118695076560069 -0.0059554917526261995 0 -0.0091163904202572303 -0.0058633086509432743 0 -0.0086647178403941559 -0.0055331694308540531 0 -0.0090290783432110666 -0.005816999601210778 0 -0.009060186271827652 -0.0058581615899985272 0 -0.0091858821362534419 -0.005975014686300773 0 -0.0092998484087369673 -0.0060688797046305814 0 -0.0091636314288077048 -0.0060956577223978655 0 -0.0086647178403941559 -0.0055331694308540531 0 -0.0083668369407273284 -0.0056234849023115022 0 -0.0082301643704108234 -0.005363492030746075 0 -0.009060186271827652 -0.0058581615899985272 0 -0.0059190607204034264 -0.0098607542158267482 0 -0.0086647178403941559 -0.0055331694308540531 0 -0.0083668369407273284 -0.0056234849023115022 0 -0.0085805327594139259 -0.0057944983676008468 0 -0.0083054478221589456 -0.006466656538993777 0 -0.008043614587040367 -0.0059354547336592182 0 -0.0085805327594139259 -0.0057944983676008468 0 -0.0083054478221589456 -0.006466656538993777 0 -0.0089118695076560069 -0.0059554917526261995 0 -0.0085805327594139259 -0.0057944983676008468 0 -0.0083668369407273284 -0.0056234849023115022 0 -0.0085805327594139259 -0.0057944983676008468 0 -0.0079854716175680549 -0.0058359188923280542 0 -0.0090879284330005004 -0.0055557768431222605 0 -0.0061257228671136683 -0.0072322954543408546 0 -0.008043614587040367 -0.0059354547336592182 0 -0.0085805327594139259 -0.0057944983676008468 0 -0.0073965358203659706 -0.0054815274490352195 0 -0.0061257228671136683 -0.0072322954543408546 0 -0.0071335379414577994 -0.0057189792317640349 0 -0.008043614587040367 -0.0059354547336592182 0 -0.0073965358203659706 -0.0054815274490352195 0 -0.0066788565938127016 -0.0065190305265158972 0 -0.0035277684434913176 -0.011909538983370644 0 -0.0029332720283075735 -0.013071736373397031 0 -0.0040951970694667831 -0.012765203857475486 0 -0.0061257228671136683 -0.0072322954543408546 0 -0.0059190607204034264 -0.0098607542158267482 0 -0.0083668369407273284 -0.0056234849023115022 0 -0.0079854716175680549 -0.0058359188923280542 0 -0.0082301643704108234 -0.005363492030746075 0 -0.0037580443501721841 -0.014041142822209052 0 -0.0039032874033011321 -0.014553230276864854 0 -0.003609269089028826 -0.014558218778504672 0 -0.0037580443501721841 -0.014041142822209052 0 -0.0039032874033011321 -0.014553230276864854 0 -0.0043626849440485177 -0.014183948046873944 0 -0.0029332720283075735 -0.013071736373397031 0 -0.0041929675561773825 -0.013696597511056272 0 -0.0040951970694667831 -0.012765203857475486 0 -0.0059190607204034264 -0.0098607542158267482 0 -0.004034860754239122 -0.014155516298348183 0 -0.0092998484087369673 -0.0060688797046305814 0 -0.009199047188862431 -0.0062810980184270938 0 -0.0091636314288077048 -0.0060956577223978655 0 -0.0059190607204034264 -0.0098607542158267482 0 -0.0063571948350286686 -0.010490669589809045 0 -0.009199047188862431 -0.0062810980184270938 0 -0.0091636314288077048 -0.0060956577223978655 0 -0.0091219979826112074 -0.0061793701203695095 0 -0.003609269089028826 -0.014558218778504672 0 -0.0036450680107016553 -0.014997232826553094 0 -0.0037117482776794987 -0.015106779729710812 0 -0.0063571948350286686 -0.010490669589809045 0 -0.0077076016348403215 -0.010649995535827919 0 -0.009199047188862431 -0.0062810980184270938 0 -0.0091219979826112074 -0.0061793701203695095 0 -0.0090858752249845139 -0.0064609544780288254 0 -0.003609269089028826 -0.014558218778504672 0 -0.0037305990136200016 -0.014979447428274763 0 -0.0037117482776794987 -0.015106779729710812 0 -0.0039032874033011321 -0.014553230276864854 0 -0.003609269089028826 -0.014558218778504672 0 -0.0037305990136200016 -0.014979447428274763 0 -0.0037305990136200016 -0.014979447428274763 0 -0.003754592517262199 -0.015454247310593909 0 -0.0041320598307831172 -0.015017079257027289 0 -0.0039032874033011321 -0.014553230276864854 0 -0.0043626849440485177 -0.014183948046873944 0 -0.0041320598307831172 -0.015017079257027289 0 -0.0039032874033011321 -0.014553230276864854 0 -0.0037305990136200016 -0.014979447428274763 0 -0.0041320598307831172 -0.015017079257027289 0 -0.0092710345850235479 -0.0058828615711971743 0 -0.0091340506510446048 -0.0060141641638030022 0 -0.0091454944404104725 -0.0060219150990462591 0 -0.0091340506510446048 -0.0060141641638030022 0 -0.0091219979826112074 -0.0061793701203695095 0 -0.0091454944404104725 -0.0060219150990462591 0 -0.0091858821362534419 -0.005975014686300773 0 -0.0091340506510446048 -0.0060141641638030022 0 -0.0091636314288077048 -0.0060956577223978655 0 -0.0091340506510446048 -0.0060141641638030022 0 -0.0091636314288077048 -0.0060956577223978655 0 -0.0091219979826112074 -0.0061793701203695095 0 -0.011492510292844751 -0.0072286265355650898 0 -0.011608498836565586 -0.007781323232002724 0 -0.011986912020852268 -0.0078287599981059688 0 -0.0091219979826112074 -0.0061793701203695095 0 -0.0091454944404104725 -0.0060219150990462591 0 -0.0090858752249845139 -0.0064609544780288254 0 -0.010769599089639729 -0.0062681071470673394 0 -0.0077076016348403215 -0.010649995535827919 0 -0.010870164677545655 -0.0076236516543890459 0 -0.011492510292844751 -0.0072286265355650898 0 -0.011608498836565586 -0.007781323232002724 0 -0.011608498836565586 -0.007781323232002724 0 -0.011797663198396513 -0.0082235359537209309 0 -0.011428001882197839 -0.0082162649675018261 0 -0.010870164677545655 -0.0076236516543890459 0 -0.011608498836565586 -0.007781323232002724 0 -0.011428001882197839 -0.0082162649675018261 0 -0.0077076016348403215 -0.010649995535827919 0 -0.0076023811931457234 -0.012118042237718653 0 -0.0037695198251100222 -0.015079860791922582 0 -0.0039397759182831123 -0.015181602402788404 0 -0.0037949983195050725 -0.015201247368556121 0 -0.011608498836565586 -0.007781323232002724 0 -0.011986912020852268 -0.0078287599981059688 0 -0.011797663198396513 -0.0082235359537209309 0 -0.010366471774586147 -0.0107027649167231 0 -0.0076023811931457234 -0.012118042237718653 0 -0.0041028611703800792 -0.015061028812286169 0 -0.0039555382758669315 -0.01513083556834805 0 -0.0039397759182831123 -0.015181602402788404 0 -0.0039397759182831123 -0.015181602402788404 0 -0.0037949983195050725 -0.015201247368556121 0 -0.0038558552806601063 -0.015232583807044149 0 -0.0039555382758669315 -0.01513083556834805 0 -0.0038558552806601063 -0.015232583807044149 0 -0.0038681308606758045 -0.015194805785343359 0 -0.0039555382758669315 -0.01513083556834805 0 -0.0039397759182831123 -0.015181602402788404 0 -0.0038558552806601063 -0.015232583807044149 0 -0.010366471774586147 -0.0107027649167231 0 -0.011406661023008234 -0.0079126689466111413 0 -0.011605090916993112 -0.008636600938647607 0 -0.011797663198396513 -0.0082235359537209309 0 -0.011428001882197839 -0.0082162649675018261 0 -0.011605090916993112 -0.008636600938647607 0 -0.011010289880651147 -0.008294050755928593 0 -0.011428001882197839 -0.0082162649675018261 0 -0.003754592517262199 -0.015454247310593909 0 -0.003765645175450603 -0.016086209612905057 0 -0.0041320598307831172 -0.015017079257027289 0 -0.003754592517262199 -0.015454247310593909 0 -0.0037422592993614193 -0.015277661698217638 0 -0.0037608577691221365 -0.015423004455099081 0 -0.003754592517262199 -0.015454247310593909 0 -0.0037608577691221365 -0.015423004455099081 0 -0.0037629858728400571 -0.015647787312679701 0 -0.003754592517262199 -0.015454247310593909 0 -0.0037629858728400571 -0.015647787312679701 0 -0.003765645175450603 -0.016086209612905057 0 -0.0037305990136200016 -0.014979447428274763 0 -0.0037117482776794987 -0.015106779729710812 0 -0.0037422592993614193 -0.015277661698217638 0 -0.0037305990136200016 -0.014979447428274763 0 -0.003754592517262199 -0.015454247310593909 0 -0.0037422592993614193 -0.015277661698217638 0 -0.0037695198251100222 -0.015079860791922582 0 -0.0037117482776794987 -0.015106779729710812 0 -0.0037949983195050725 -0.015201247368556121 0 -0.0037117482776794987 -0.015106779729710812 0 -0.0037949983195050725 -0.015201247368556121 0 -0.0037422592993614193 -0.015277661698217638 0 -0.0077076016348403215 -0.010649995535827919 0 -0.0063529758974242125 -0.011201583939793907 0 -0.0037949983195050725 -0.015201247368556121 0 -0.0037422592993614193 -0.015277661698217638 0 -0.0037920825543329311 -0.015313972847789918 0 -0.0037422592993614193 -0.015277661698217638 0 -0.0037608577691221365 -0.015423004455099081 0 -0.0037920825543329311 -0.015313972847789918 0 -0.0038171841380214102 -0.015302384999247886 0 -0.0037844039694605045 -0.015392349100094701 0 -0.0037612673282429892 -0.015354397603708199 0 -0.0037608577691221365 -0.015423004455099081 0 -0.0037920825543329311 -0.015313972847789918 0 -0.0037844039694605045 -0.015392349100094701 0 -0.0037920825543329311 -0.015313972847789918 0 -0.0038171841380214102 -0.015302384999247886 0 -0.0037844039694605045 -0.015392349100094701 0 -0.0037949983195050725 -0.015201247368556121 0 -0.0037920825543329311 -0.015313972847789918 0 -0.0038558552806601063 -0.015232583807044149 0 -0.0037920825543329311 -0.015313972847789918 0 -0.0038171841380214102 -0.015302384999247886 0 -0.0038558552806601063 -0.015232583807044149 0 -0.0038171841380214102 -0.015302384999247886 0 -0.0038558552806601063 -0.015232583807044149 0 -0.0038681308606758045 -0.015194805785343359 0 -0.0038171841380214102 -0.015302384999247886 0 -0.0038681308606758045 -0.015194805785343359 0 -0.0037612673282429892 -0.015354397603708199 0 -0.0037612673282429892 -0.015354397603708199 0 -0.0037280366099979351 -0.015194424817974924 0 -0.0037629858728400571 -0.015647787312679701 0 -0.0025872988679041162 -0.017008382032202087 0 -0.0038238656097495127 -0.015971353703412437 0 -0.0037280366099979351 -0.015194424817974924 0 -0.0037629858728400571 -0.015647787312679701 0 -0.003765645175450603 -0.016086209612905057 0 -0.0018633140748366564 -0.01836505617082158 0 -0.0032011554088752954 -0.018231227003666979 0 -0.003765645175450603 -0.016086209612905057 0 -0.0037844039694605045 -0.015392349100094701 0 -0.0037612673282429892 -0.015354397603708199 0 -0.0037629858728400571 -0.015647787312679701 0 -0.0037608577691221365 -0.015423004455099081 0 -0.0037844039694605045 -0.015392349100094701 0 -0.0037629858728400571 -0.015647787312679701 0 -0.0037357669564538724 -0.019458094169343864 0 -0.0032011554088752954 -0.018231227003666979 0 -0.0050259878684186434 -0.016706307080153405 0 -0.0032011554088752954 -0.018231227003666979 0 -0.003765645175450603 -0.016086209612905057 0 -0.0050259878684186434 -0.016706307080153405 0 -0.003765645175450603 -0.016086209612905057 0 -0.0049991998463844497 -0.015388595899819967 0 -0.0041320598307831172 -0.015017079257027289 0 -0.003765645175450603 -0.016086209612905057 0 -0.0049991998463844497 -0.015388595899819967 0 -0.0050259878684186434 -0.016706307080153405 0 -0.0049991998463844497 -0.015388595899819967 0 -0.0050259878684186434 -0.016706307080153405 0 -0.0060177359091823064 -0.015710096805651757 0 -0.0050259878684186434 -0.016706307080153405 0 -0.0062280170210250686 -0.01659418465446006 0 -0.0060177359091823064 -0.015710096805651757 0 -0.0050259878684186434 -0.016706307080153405 0 -0.0060334082737956481 -0.017923082311381934 0 -0.0062280170210250686 -0.01659418465446006 0 -0.0037357669564538724 -0.019458094169343864 0 -0.0050259878684186434 -0.016706307080153405 0 -0.0060334082737956481 -0.017923082311381934 0 -0.0050454188513259363 -0.018763741634071476 0 -0.005194329173466513 -0.019640443032773552 0 -0.0060334082737956481 -0.017923082311381934 0 -0.0066570873333410309 -0.016886642932080247 0 -0.0073808105841137155 -0.016920603403205853 0 -0.0041373092782899775 -0.020099135644363338 0 -0.0037697512773734992 -0.019952287809829609 0 -0.0044177384173294514 -0.019638298046136145 0 -0.0037027754166148062 -0.021345959247549735 0 -0.005194329173466513 -0.019640443032773552 0 -0.0066570873333410309 -0.016886642932080247 0 -0.0073808105841137155 -0.016920603403205853 0 -0.0069608659228319932 -0.016195595430525053 0 -0.0060334082737956481 -0.017923082311381934 0 -0.0066570873333410309 -0.016886642932080247 0 -0.0062280170210250686 -0.01659418465446006 0 -0.0031008351238010685 -0.022832340290526998 0 -0.0029922136584322597 -0.022668185100480222 0 -0.0029404099638398631 -0.02294215786114974 0 -0.0031008351238010685 -0.022832340290526998 0 -0.0029922136584322597 -0.022668185100480222 0 -0.0031321012268766407 -0.022445058184957328 0 -0.002940427474349762 -0.022374986547033876 0 -0.0029922136584322597 -0.022668185100480222 0 -0.0031321012268766407 -0.022445058184957328 0 -0.0031008351238010685 -0.022832340290526998 0 -0.0031321012268766407 -0.022445058184957328 0 -0.0032729944449799201 -0.022822637827460301 0 -0.0037006357903366788 -0.0219967908409208 0 -0.0033656033825640828 -0.022444194979975927 0 -0.0034974657385701286 -0.022960900121917975 0 -0.0033656033825640828 -0.022444194979975927 0 -0.0034974657385701286 -0.022960900121917975 0 -0.0032729944449799201 -0.022822637827460301 0 -0.0031321012268766407 -0.022445058184957328 0 -0.0033656033825640828 -0.022444194979975927 0 -0.0032729944449799201 -0.022822637827460301 0 -0.0047938872905731646 -0.0200626480781219 0 -0.0053640650193090824 -0.019789878587209563 0 -0.0055228579051926586 -0.018828249185778481 0 -0.005194329173466513 -0.019640443032773552 0 -0.0045542500599929621 -0.020653393172223353 0 -0.0034974657385701286 -0.022960900121917975 0 -0.0032896874159660753 -0.023081938000768614 0 -0.0032729944449799201 -0.022822637827460301 0 -0.0032896874159660753 -0.023081938000768614 0 -0.0030844980729115568 -0.023053066314375235 0 -0.0028787872918143282 -0.023372823319738861 0 -0.0031008351238010685 -0.022832340290526998 0 -0.0032729944449799201 -0.022822637827460301 0 -0.0030844980729115568 -0.023053066314375235 0 -0.0032896874159660753 -0.023081938000768614 0 -0.0032729944449799201 -0.022822637827460301 0 -0.0030844980729115568 -0.023053066314375235 0 -0.0031008351238010685 -0.022832340290526998 0 -0.0030844980729115568 -0.023053066314375235 0 -0.0029404099638398631 -0.02294215786114974 0 -0.0059087005138288547 -0.018340867156733644 0 -0.0070112511008246954 -0.016250799594938123 0 -0.0049696402111608058 -0.020307001720991834 0 -0.0049231527421092483 -0.020585978976726819 0 -0.004337269655933478 -0.02062915059073402 0 -0.0045542500599929621 -0.020653393172223353 0 -0.0059087005138288547 -0.018340867156733644 0 -0.005194329173466513 -0.019640443032773552 0 -0.0059087005138288547 -0.018340867156733644 0 -0.0073808105841137155 -0.016920603403205853 0 -0.007759838510194835 -0.016181386502458636 0 -0.0069608659228319932 -0.016195595430525053 0 -0.007759838510194835 -0.016181386502458636 0 -0.0069608659228319932 -0.016195595430525053 0 -0.0069771970401665507 -0.015211630363549894 0 -0.0059087005138288547 -0.018340867156733644 0 -0.0052272405291592496 -0.019713060654768029 0 -0.0066570873333410309 -0.016886642932080247 0 -0.0062280170210250686 -0.01659418465446006 0 -0.0069608659228319932 -0.016195595430525053 0 -0.0062280170210250686 -0.01659418465446006 0 -0.0069608659228319932 -0.016195595430525053 0 -0.0060177359091823064 -0.015710096805651757 0 -0.0069608659228319932 -0.016195595430525053 0 -0.0060177359091823064 -0.015710096805651757 0 -0.0069771970401665507 -0.015211630363549894 0 -0.0060177359091823064 -0.015710096805651757 0 -0.0069771970401665507 -0.015211630363549894 0 -0.0054828953114649534 -0.014390035742751951 0 -0.0069771970401665507 -0.015211630363549894 0 -0.0068474925302750801 -0.014119285523954734 0 -0.0054828953114649534 -0.014390035742751951 0 -0.0059851664226890748 -0.018092170401230252 0 -0.0059571885419434948 -0.018219432208208347 0 -0.0059089053413231033 -0.018202856308266964 0 -0.007759838510194835 -0.016181386502458636 0 -0.0069771970401665507 -0.015211630363549894 0 -0.0079213944321937738 -0.014869673979040134 0 -0.0069771970401665507 -0.015211630363549894 0 -0.0079213944321937738 -0.014869673979040134 0 -0.0068474925302750801 -0.014119285523954734 0 -0.0079213944321937738 -0.014869673979040134 0 -0.0081189823360726613 -0.013575235674934794 0 -0.0068474925302750801 -0.014119285523954734 0 -0.0066681881891861982 -0.016314323527517889 0 -0.0068625951844065169 -0.012470038300268872 0 -0.0070112511008246954 -0.016250799594938123 0 -0.0066681881891861982 -0.016314323527517889 0 -0.0059571885419434948 -0.018219432208208347 0 -0.0059327792482614669 -0.018358013625168042 0 -0.0059043453902995454 -0.018278649825899832 0 -0.0081189823360726613 -0.013575235674934794 0 -0.0068474925302750801 -0.014119285523954734 0 -0.0065486957004265217 -0.012900210086828446 0 -0.0060661546730339097 -0.013607913616990352 0 -0.0068474925302750801 -0.014119285523954734 0 -0.0065486957004265217 -0.012900210086828446 0 -0.0060661546730339097 -0.013607913616990352 0 -0.0068474925302750801 -0.014119285523954734 0 -0.0054828953114649534 -0.014390035742751951 0 -0.0060661546730339097 -0.013607913616990352 0 -0.0054828953114649534 -0.014390035742751951 0 -0.0053908764390477575 -0.013054796971532501 0 -0.0041929675561773825 -0.013696597511056272 0 -0.0054828953114649534 -0.014390035742751951 0 -0.0053908764390477575 -0.013054796971532501 0 -0.004034860754239122 -0.014155516298348183 0 -0.0054812889988145857 -0.014364036053484061 0 -0.0043626849440485177 -0.014183948046873944 0 -0.0041320598307831172 -0.015017079257027289 0 -0.0054828953114649534 -0.014390035742751951 0 -0.0049991998463844497 -0.015388595899819967 0 -0.0041320598307831172 -0.015017079257027289 0 -0.0054828953114649534 -0.014390035742751951 0 -0.0049991998463844497 -0.015388595899819967 0 -0.0060177359091823064 -0.015710096805651757 0 -0.0054828953114649534 -0.014390035742751951 0 -0.0022536370093151673 -0.024276600311730845 0 -0.0023361875435659982 -0.024497202772037156 0 -0.0023993670014708958 -0.024628354965540118 0 -0.0022536370093151673 -0.024276600311730845 0 -0.0023052636501827606 -0.024410529625628345 0 -0.0023993670014708958 -0.024628354965540118 0 -0.0022536370093151673 -0.024276600311730845 0 -0.0023056014904209153 -0.024230346311330652 0 -0.0023052636501827606 -0.024410529625628345 0 -0.0020840078418138848 -0.024190165121736922 0 -0.0020823639658179229 -0.02390152041552436 0 -0.0023361875435659982 -0.024497202772037156 0 -0.0022536370093151673 -0.024276600311730845 0 -0.002184463496946361 -0.024064573960242565 0 -0.0023361875435659982 -0.024497202772037156 0 -0.0020823639658179229 -0.02390152041552436 0 -0.002184463496946361 -0.024064573960242565 0 -0.0023361875435659982 -0.024497202772037156 0 -0.0020823639658179229 -0.02390152041552436 0 -0.002184463496946361 -0.024064573960242565 0 -0.00214076442320176 -0.023670207558718077 0 -0.0022536370093151673 -0.024276600311730845 0 -0.002184463496946361 -0.024064573960242565 0 -0.0022180880400231688 -0.023887407104687345 0 -0.002184463496946361 -0.024064573960242565 0 -0.0022180880400231688 -0.023887407104687345 0 -0.00214076442320176 -0.023670207558718077 0 -0.0022180880400231688 -0.023887407104687345 0 -0.00214076442320176 -0.023670207558718077 0 -0.0023025632277948551 -0.023587631242243407 0 -0.00214076442320176 -0.023670207558718077 0 -0.0022451933744690551 -0.023343632461234307 0 -0.0023025632277948551 -0.023587631242243407 0 -0.0022180880400231688 -0.023887407104687345 0 -0.0023025632277948551 -0.023587631242243407 0 -0.0022967336034493894 -0.023860314512415045 0 -0.0023025632277948551 -0.023587631242243407 0 -0.0022967336034493894 -0.023860314512415045 0 -0.0023967963078645967 -0.023693564953150514 0 -0.0022967336034493894 -0.023860314512415045 0 -0.0022727928533898822 -0.024097113053934444 0 -0.0023398026735190983 -0.024009548754787176 0 -0.0022967336034493894 -0.023860314512415045 0 -0.0023398026735190983 -0.024009548754787176 0 -0.0023967963078645967 -0.023693564953150514 0 -0.0022180880400231688 -0.023887407104687345 0 -0.0022967336034493894 -0.023860314512415045 0 -0.0022727928533898822 -0.024097113053934444 0 -0.0022536370093151673 -0.024276600311730845 0 -0.0022180880400231688 -0.023887407104687345 0 -0.0022727928533898822 -0.024097113053934444 0 -0.0022727928533898822 -0.024097113053934444 0 -0.0023056014904209153 -0.024230346311330652 0 -0.0023398026735190983 -0.024009548754787176 0 -0.0022536370093151673 -0.024276600311730845 0 -0.0022727928533898822 -0.024097113053934444 0 -0.0023056014904209153 -0.024230346311330652 0 -0.0023398026735190983 -0.024009548754787176 0 -0.0024386835314417557 -0.023966745014801113 0 -0.0023538965560811853 -0.024181167368645954 0 -0.0023056014904209153 -0.024230346311330652 0 -0.0023398026735190983 -0.024009548754787176 0 -0.0023538965560811853 -0.024181167368645954 0 -0.0024386835314417557 -0.023966745014801113 0 -0.0026875598099566781 -0.023728513995043853 0 -0.0023538965560811853 -0.024181167368645954 0 -0.0027049172353818826 -0.023388852247303651 0 -0.0022869332460108555 -0.024255933778593686 0 -0.0024386835314417557 -0.023966745014801113 0 -0.0025640284370726718 -0.023792564752621963 0 -0.0024341664029896002 -0.02384859944338933 0 -0.0023398026735190983 -0.024009548754787176 0 -0.0024386835314417557 -0.023966745014801113 0 -0.0024341664029896002 -0.02384859944338933 0 -0.0024386835314417557 -0.023966745014801113 0 -0.0025640284370726718 -0.023792564752621963 0 -0.0026875598099566781 -0.023728513995043853 0 -0.0024960020673226451 -0.02368355515937454 0 -0.0023967963078645967 -0.023693564953150514 0 -0.0025238781834577575 -0.023458224874317417 0 -0.0025640284370726718 -0.023792564752621963 0 -0.0024960020673226451 -0.02368355515937454 0 -0.0024341664029896002 -0.02384859944338933 0 -0.0025640284370726718 -0.023792564752621963 0 -0.0026268244087978084 -0.023682583286275555 0 -0.0026875598099566781 -0.023728513995043853 0 -0.0025640284370726718 -0.023792564752621963 0 -0.0025935127864755189 -0.023596916189648685 0 -0.0026268244087978084 -0.023682583286275555 0 -0.0025640284370726718 -0.023792564752621963 0 -0.0025935127864755189 -0.023596916189648685 0 -0.0024960020673226451 -0.02368355515937454 0 -0.0025935127864755189 -0.023596916189648685 0 -0.0024960020673226451 -0.02368355515937454 0 -0.0025238781834577575 -0.023458224874317417 0 -0.0023398026735190983 -0.024009548754787176 0 -0.0024341664029896002 -0.02384859944338933 0 -0.0023967963078645967 -0.023693564953150514 0 -0.0024960020673226451 -0.02368355515937454 0 -0.0024341664029896002 -0.02384859944338933 0 -0.0023967963078645967 -0.023693564953150514 0 -0.0023967963078645967 -0.023693564953150514 0 -0.0024459149681144406 -0.023364448921999285 0 -0.0025238781834577575 -0.023458224874317417 0 -0.0023025632277948551 -0.023587631242243407 0 -0.0023967963078645967 -0.023693564953150514 0 -0.0024459149681144406 -0.023364448921999285 0 -0.0022451933744690551 -0.023343632461234307 0 -0.0023025632277948551 -0.023587631242243407 0 -0.002373565569457105 -0.023151172244388236 0 -0.0023025632277948551 -0.023587631242243407 0 -0.0024459149681144406 -0.023364448921999285 0 -0.002373565569457105 -0.023151172244388236 0 -0.0024459149681144406 -0.023364448921999285 0 -0.002373565569457105 -0.023151172244388236 0 -0.0025429709958541963 -0.023029154242952612 0 -0.0024459149681144406 -0.023364448921999285 0 -0.0025429709958541963 -0.023029154242952612 0 -0.0025840100035702386 -0.023230652019482226 0 -0.0025429709958541963 -0.023029154242952612 0 -0.0025840100035702386 -0.023230652019482226 0 -0.0026507599620501122 -0.023038392072389183 0 -0.0024459149681144406 -0.023364448921999285 0 -0.0025840100035702386 -0.023230652019482226 0 -0.0025238781834577575 -0.023458224874317417 0 -0.0025840100035702386 -0.023230652019482226 0 -0.0025238781834577575 -0.023458224874317417 0 -0.0026188598643842966 -0.023403859196375124 0 -0.0025935127864755189 -0.023596916189648685 0 -0.0025238781834577575 -0.023458224874317417 0 -0.0026188598643842966 -0.023403859196375124 0 -0.0026188598643842966 -0.023403859196375124 0 -0.0026923213585885401 -0.023202031847089216 0 -0.002714088456261473 -0.023426860703243332 0 -0.0026923213585885401 -0.023202031847089216 0 -0.0028238542586580978 -0.02318522849353968 0 -0.002714088456261473 -0.023426860703243332 0 -0.0026923213585885401 -0.023202031847089216 0 -0.0027740796270880877 -0.022963762954964283 0 -0.0028238542586580978 -0.02318522849353968 0 -0.0025840100035702386 -0.023230652019482226 0 -0.0026923213585885401 -0.023202031847089216 0 -0.0026507599620501122 -0.023038392072389183 0 -0.0025840100035702386 -0.023230652019482226 0 -0.0026188598643842966 -0.023403859196375124 0 -0.0026923213585885401 -0.023202031847089216 0 -0.0026923213585885401 -0.023202031847089216 0 -0.0026507599620501122 -0.023038392072389183 0 -0.0027740796270880877 -0.022963762954964283 0 -0.0026750267755762959 -0.022758211335980844 0 -0.0026507599620501122 -0.023038392072389183 0 -0.0027740796270880877 -0.022963762954964283 0 -0.0026750267755762959 -0.022758211335980844 0 -0.0025429709958541963 -0.023029154242952612 0 -0.0026507599620501122 -0.023038392072389183 0 -0.002940427474349762 -0.022374986547033876 0 -0.0029922136584322597 -0.022668185100480222 0 -0.0028581671105284831 -0.022678470637737782 0 -0.0026750267755762959 -0.022758211335980844 0 -0.0027740796270880877 -0.022963762954964283 0 -0.0028581671105284831 -0.022678470637737782 0 -0.0027740796270880877 -0.022963762954964283 0 -0.0028581671105284831 -0.022678470637737782 0 -0.0029404099638398631 -0.02294215786114974 0 -0.0029922136584322597 -0.022668185100480222 0 -0.0028581671105284831 -0.022678470637737782 0 -0.0029404099638398631 -0.02294215786114974 0 -0.0029404099638398631 -0.02294215786114974 0 -0.0028238542586580978 -0.02318522849353968 0 -0.0029370952220272163 -0.023154589201914478 0 -0.0030844980729115568 -0.023053066314375235 0 -0.0029404099638398631 -0.02294215786114974 0 -0.0029370952220272163 -0.023154589201914478 0 -0.0027740796270880877 -0.022963762954964283 0 -0.0029404099638398631 -0.02294215786114974 0 -0.0028238542586580978 -0.02318522849353968 0 -0.0028238542586580978 -0.02318522849353968 0 -0.0029370952220272163 -0.023154589201914478 0 -0.0028787872918143282 -0.023372823319738861 0 -0.0028238542586580978 -0.02318522849353968 0 -0.0028787872918143282 -0.023372823319738861 0 -0.002714088456261473 -0.023426860703243332 0 -0.0030844980729115568 -0.023053066314375235 0 -0.0029370952220272163 -0.023154589201914478 0 -0.0028787872918143282 -0.023372823319738861 0 -0.0049231527421092483 -0.020585978976726819 0 -0.004337269655933478 -0.02062915059073402 0 -0.0045930062390922947 -0.02113635029340602 0 -0.0045542500599929621 -0.020653393172223353 0 -0.0033789163836667052 -0.022626983624675114 0 -0.0032896874159660753 -0.023081938000768614 0 -0.0028787872918143282 -0.023372823319738861 0 -0.0027782166585676809 -0.023627645991037855 0 -0.0028787872918143282 -0.023372823319738861 0 -0.0027350229556010936 -0.023536475571066126 0 -0.002714088456261473 -0.023426860703243332 0 -0.0027350229556010936 -0.023536475571066126 0 -0.002714088456261473 -0.023426860703243332 0 -0.0026671962584343409 -0.023611747810565183 0 -0.0025935127864755189 -0.023596916189648685 0 -0.002714088456261473 -0.023426860703243332 0 -0.0026671962584343409 -0.023611747810565183 0 -0.0025935127864755189 -0.023596916189648685 0 -0.0026188598643842966 -0.023403859196375124 0 -0.002714088456261473 -0.023426860703243332 0 -0.0027350229556010936 -0.023536475571066126 0 -0.0026671962584343409 -0.023611747810565183 0 -0.0026875598099566781 -0.023728513995043853 0 -0.0025935127864755189 -0.023596916189648685 0 -0.0026671962584343409 -0.023611747810565183 0 -0.0026268244087978084 -0.023682583286275555 0 -0.0026671962584343409 -0.023611747810565183 0 -0.0026268244087978084 -0.023682583286275555 0 -0.0026875598099566781 -0.023728513995043853 0 -0.0028787872918143282 -0.023372823319738861 0 -0.0027782166585676809 -0.023627645991037855 0 -0.0026875598099566781 -0.023728513995043853 0 -0.0028787872918143282 -0.023372823319738861 0 -0.0027350229556010936 -0.023536475571066126 0 -0.0026875598099566781 -0.023728513995043853 0 -0.0033789163836667052 -0.022626983624675114 0 -0.0027049172353818826 -0.023388852247303651 0 -0.0026619618638778495 -0.023975700949325135 0 -0.0026171650881397271 -0.023997941117823107 0 -0.0025303841553765329 -0.02416115442961999 0 -0.0026619618638778495 -0.023975700949325135 0 -0.0025940356221571879 -0.024343695053750346 0 -0.0025303841553765329 -0.02416115442961999 0 -0.004337269655933478 -0.02062915059073402 0 -0.0045930062390922947 -0.02113635029340602 0 -0.0041643703375241533 -0.021641111560100925 0 -0.0033789163836667052 -0.022626983624675114 0 -0.0037276622011119735 -0.022474275445121511 0 -0.0045930062390922947 -0.02113635029340602 0 -0.0041643703375241533 -0.021641111560100925 0 -0.0042672272877025035 -0.021684175190827618 0 -0.0052272405291592496 -0.019713060654768029 0 -0.0046374417559505998 -0.020700506548071471 0 -0.0059089053413231033 -0.018202856308266964 0 -0.0059043453902995454 -0.018278649825899832 0 -0.0058291224859624109 -0.018328806112220219 0 -0.0059571885419434948 -0.018219432208208347 0 -0.0059089053413231033 -0.018202856308266964 0 -0.0059043453902995454 -0.018278649825899832 0 -0.0059327792482614669 -0.018358013625168042 0 -0.0059043453902995454 -0.018278649825899832 0 -0.0058291224859624109 -0.018328806112220219 0 -0.0066681881891861982 -0.016314323527517889 0 -0.0046374417559505998 -0.020700506548071471 0 -0.0045747630096161888 -0.019154297732504127 0 -0.0052067363026931596 -0.019192978947050524 0 -0.0053012492004905001 -0.019489246927413127 0 -0.0045747630096161888 -0.019154297732504127 0 -0.0049851578999319827 -0.018973420291742957 0 -0.0052067363026931596 -0.019192978947050524 0 -0.0049851578999319827 -0.018973420291742957 0 -0.0052067363026931596 -0.019192978947050524 0 -0.0055069606156014379 -0.019144940750122633 0 -0.0047520267031431881 -0.020379070411030886 0 -0.0044135405325346948 -0.022035569188355801 0 -0.0049851578999319827 -0.018973420291742957 0 -0.0055128511388189095 -0.019142904865463349 0 -0.0055718556083826374 -0.01904356577353088 0 -0.0044135405325346948 -0.022035569188355801 0 -0.0049333346275214898 -0.021654274324932096 0 -0.0052067363026931596 -0.019192978947050524 0 -0.0055069606156014379 -0.019144940750122633 0 -0.0053012492004905001 -0.019489246927413127 0 -0.0044135405325346948 -0.022035569188355801 0 -0.0046374417559505998 -0.020700506548071471 0 -0.0039151286912965429 -0.021707799818558485 0 -0.0039218562108708759 -0.021634390329012869 0 -0.0039519282921945493 -0.021646392219540306 0 -0.0044135405325346948 -0.022035569188355801 0 -0.0037276622011119735 -0.022474275445121511 0 -0.0037276622011119735 -0.022474275445121511 0 -0.0046374417559505998 -0.020700506548071471 0 -0.0027064287653164785 -0.024441267568880421 0 -0.0024619438659218887 -0.024386789283649474 0 -0.0024894720799441138 -0.024488161128955712 0 -0.0027028078780379481 -0.02452339996492239 0 -0.0027064287653164785 -0.024441267568880421 0 -0.0024894720799441138 -0.024488161128955712 0 -0.0044135405325346948 -0.022035569188355801 0 -0.003376814660280494 -0.024459543875229323 0 -0.0046791515504308228 -0.024496116643939782 0 -0.004560201788472263 -0.024549476957323402 0 -0.004479832103578581 -0.024456689658091786 0 -0.0046791515504308228 -0.024496116643939782 0 -0.0046683388843991704 -0.024516723011366613 0 -0.004560201788472263 -0.024549476957323402 0 -0.004560201788472263 -0.024549476957323402 0 -0.004479832103578581 -0.024456689658091786 0 -0.004426544977470582 -0.024561629242801832 0 -0.0037276622011119735 -0.022474275445121511 0 -0.0023155862439706164 -0.024428328502440713 0 -0.0026171650881397271 -0.023997941117823107 0 -0.0025303841553765329 -0.02416115442961999 0 -0.0023538965560811853 -0.024181167368645954 0 -0.0025940356221571879 -0.024343695053750346 0 -0.002433004018504519 -0.024198656917600401 0 -0.0023542722607309647 -0.024235962943648812 0 -0.0025940356221571879 -0.024343695053750346 0 -0.0025303841553765329 -0.02416115442961999 0 -0.002433004018504519 -0.024198656917600401 0 -0.002433004018504519 -0.024198656917600401 0 -0.0023538965560811853 -0.024181167368645954 0 -0.0023542722607309647 -0.024235962943648812 0 -0.0025303841553765329 -0.02416115442961999 0 -0.002433004018504519 -0.024198656917600401 0 -0.0023538965560811853 -0.024181167368645954 0 -0.0023155862439706164 -0.024428328502440713 0 -0.002335514229984736 -0.024368592064626632 0 -0.0024619438659218887 -0.024386789283649474 0 -0.0023376996561737828 -0.024450483476581224 0 -0.0023143870464988362 -0.024425147932999974 0 -0.0023056014904209153 -0.024230346311330652 0 -0.0023542722607309647 -0.024235962943648812 0 -0.0023052636501827606 -0.024410529625628345 0 -0.0024619438659218887 -0.024386789283649474 0 -0.0023143870464988362 -0.024425147932999974 0 -0.0023052636501827606 -0.024410529625628345 0 -0.0023056014904209153 -0.024230346311330652 0 -0.0023538965560811853 -0.024181167368645954 0 -0.0023542722607309647 -0.024235962943648812 0 -0.003376814660280494 -0.024459543875229323 0 -0.003762755309168286 -0.025350552021014224 0 -0.004479832103578581 -0.024456689658091786 0 -0.004426544977470582 -0.024561629242801832 0 -0.0042979563433489035 -0.024415472044108915 0 -0.0051404014838918703 -0.027952922190455323 0 -0.0049908957250710279 -0.027692787892022022 0 -0.0048824386544551431 -0.027907963009882821 0 -0.0024619438659218887 -0.024386789283649474 0 -0.0024894720799441138 -0.024488161128955712 0 -0.0023376996561737828 -0.024450483476581224 0 -0.0049800488837110912 -0.026506911280359029 0 -0.003762755309168286 -0.025350552021014224 0 -0.0049908957250710279 -0.027692787892022022 0 -0.0047577902345454018 -0.02772991211240378 0 -0.0046109239481928379 -0.027332362019689263 0 -0.0049908957250710279 -0.027692787892022022 0 -0.0048824386544551431 -0.027907963009882821 0 -0.0047577902345454018 -0.02772991211240378 0 -0.0048824386544551431 -0.027907963009882821 0 -0.0047425722368588698 -0.028090890614044239 0 -0.0046867682441921023 -0.027941075763215147 0 -0.0048824386544551431 -0.027907963009882821 0 -0.0047577902345454018 -0.02772991211240378 0 -0.0046867682441921023 -0.027941075763215147 0 -0.003762755309168286 -0.025350552021014224 0 -0.0035007678577194971 -0.026106704677304096 0 -0.0022886205933175651 -0.024361389929451523 0 -0.0023143870464988362 -0.024425147932999974 0 -0.0025568432797504546 -0.024662859116931758 0 -0.003762755309168286 -0.025350552021014224 0 -0.0032135160770115647 -0.024803587444732277 0 -0.0023143870464988362 -0.024425147932999974 0 -0.0023052636501827606 -0.024410529625628345 0 -0.0023993670014708958 -0.024628354965540118 0 -0.0048098286713287239 -0.028373942560492645 0 -0.0048350946317817934 -0.028423361496446111 0 -0.0045231102744829601 -0.028489899127404589 0 -0.0048350946317817934 -0.028423361496446111 0 -0.0049270803970985558 -0.028475402346078808 0 -0.0045231102744829601 -0.028489899127404589 0 -0.0048098286713287239 -0.028373942560492645 0 -0.0048350946317817934 -0.028423361496446111 0 -0.004965206292738022 -0.028370211090474731 0 -0.0048098286713287239 -0.028373942560492645 0 -0.004801962642785886 -0.028230697058319411 0 -0.0050042166260292351 -0.028227863354188722 0 -0.0048098286713287239 -0.028373942560492645 0 -0.0050042166260292351 -0.028227863354188722 0 -0.004965206292738022 -0.028370211090474731 0 -0.0048098286713287239 -0.028373942560492645 0 -0.004801962642785886 -0.028230697058319411 0 -0.0046563367476440149 -0.02834993015315471 0 -0.004801962642785886 -0.028230697058319411 0 -0.0046070222387431387 -0.028260078112543819 0 -0.0046563367476440149 -0.02834993015315471 0 -0.004801962642785886 -0.028230697058319411 0 -0.0047425722368588698 -0.028090890614044239 0 -0.0049367379974468023 -0.028092881448759793 0 -0.004801962642785886 -0.028230697058319411 0 -0.0047425722368588698 -0.028090890614044239 0 -0.0046070222387431387 -0.028260078112543819 0 -0.0048824386544551431 -0.027907963009882821 0 -0.0047425722368588698 -0.028090890614044239 0 -0.0049367379974468023 -0.028092881448759793 0 -0.004801962642785886 -0.028230697058319411 0 -0.0049367379974468023 -0.028092881448759793 0 -0.0050042166260292351 -0.028227863354188722 0 -0.0051404014838918703 -0.027952922190455323 0 -0.0048824386544551431 -0.027907963009882821 0 -0.0049367379974468023 -0.028092881448759793 0 -0.0051404014838918703 -0.027952922190455323 0 -0.0050042166260292351 -0.028227863354188722 0 -0.0053044535463716916 -0.0282147060359004 0 -0.0051322933739803558 -0.028163532520803329 0 -0.0049590773099802161 -0.025949318754229959 0 -0.0051404014838918703 -0.027952922190455323 0 -0.0049367379974468023 -0.028092881448759793 0 -0.0050042166260292351 -0.028227863354188722 0 -0.0050042166260292351 -0.028227863354188722 0 -0.0050647400159500918 -0.028290748379434922 0 -0.0050994939715001087 -0.028224389973908026 0 -0.0050042166260292351 -0.028227863354188722 0 -0.004965206292738022 -0.028370211090474731 0 -0.0050647400159500918 -0.028290748379434922 0 -0.004965206292738022 -0.028370211090474731 0 -0.0050647400159500918 -0.028290748379434922 0 -0.0050350924545691329 -0.028411162448105244 0 -0.0047783136029558729 -0.022469737303410339 0 -0.0045617266529084386 -0.023830464350124387 0 -0.0051813478274020499 -0.028214409501528391 0 -0.0051251314593175265 -0.028229929726792682 0 -0.0051230878766742004 -0.028391026739535405 0 -0.0050647400159500918 -0.028290748379434922 0 -0.0051251314593175265 -0.028229929726792682 0 -0.0051230878766742004 -0.028391026739535405 0 -0.0047783136029558729 -0.022469737303410339 0 -0.0052720938095351744 -0.020841842614946145 0 -0.0044331103071823226 -0.022447043136736469 0 -0.0049110584613030004 -0.023039504593932905 0 -0.0043310133531445439 -0.023015089273743961 0 -0.0051813478274020499 -0.028214409501528391 0 -0.0051251314593175265 -0.028229929726792682 0 -0.0051407986473416814 -0.028155543362713496 0 -0.0047783136029558729 -0.022469737303410339 0 -0.0052036881011359422 -0.024497986153760642 0 -0.0045606580032803096 -0.028212582248429759 0 -0.0049590773099802161 -0.025949318754229959 0 -0.0050647400159500918 -0.028290748379434922 0 -0.0051251314593175265 -0.028229929726792682 0 -0.0051089903984980721 -0.028155666036313341 0 -0.0051251314593175265 -0.028229929726792682 0 -0.0051407986473416814 -0.028155543362713496 0 -0.0051089903984980721 -0.028155666036313341 0 -0.0049333346275214898 -0.021654274324932096 0 -0.0052720938095351744 -0.020841842614946145 0 -0.0051404014838918703 -0.027952922190455323 0 -0.0053044535463716916 -0.0282147060359004 0 -0.0053214930593544589 -0.028184439954782731 0 -0.0049333346275214898 -0.021654274324932096 0 -0.005154143878344483 -0.025289173392160681 0 -0.0046683388843991704 -0.024516723011366613 0 -0.004560201788472263 -0.024549476957323402 0 -0.0045581383840126444 -0.02471963945349049 0 -0.0056074768076154009 -0.022012437834054217 0 -0.0049910469204530209 -0.023056230016285189 0 -0.0053976684137531919 -0.023176836762642712 0 -0.0053624701883921433 -0.025047352930974764 0 -0.0056871685528067564 -0.025060218026334413 0 -0.005553550071437539 -0.025284639906633273 0 -0.0052036881011359422 -0.024497986153760642 0 -0.0049590773099802161 -0.025949318754229959 0 -0.0052036881011359422 -0.024497986153760642 0 -0.005154143878344483 -0.025289173392160681 0 -0.0049590773099802161 -0.025949318754229959 0 -0.005154143878344483 -0.025289173392160681 0 -0.0049800488837110912 -0.026506911280359029 0 -0.005154143878344483 -0.025289173392160681 0 -0.004560201788472263 -0.024549476957323402 0 -0.004426544977470582 -0.024561629242801832 0 -0.0045581383840126444 -0.02471963945349049 0 -0.0050829902787759536 -0.023169276360949825 0 -0.0049910469204530209 -0.023056230016285189 0 -0.0053976684137531919 -0.023176836762642712 0 -0.0052036881011359422 -0.024497986153760642 0 -0.0052720938095351744 -0.020841842614946145 0 -0.0049851578999319827 -0.018973420291742957 0 -0.005294721575824341 -0.018450601913948463 0 -0.0047794113910884489 -0.017881755493717514 0 -0.0055718556083826374 -0.01904356577353088 0 -0.0057718094924422026 -0.017943845767163024 0 -0.005294721575824341 -0.018450601913948463 0 -0.0045747630096161888 -0.019154297732504127 0 -0.0049851578999319827 -0.018973420291742957 0 -0.0047794113910884489 -0.017881755493717514 0 -0.0057718094924422026 -0.017943845767163024 0 -0.005294721575824341 -0.018450601913948463 0 -0.0047794113910884489 -0.017881755493717514 0 -0.0066681881891861982 -0.016314323527517889 0 -0.0047043075087828444 -0.013159936876656569 0 -0.0049851578999319827 -0.018973420291742957 0 -0.0055718556083826374 -0.01904356577353088 0 -0.005294721575824341 -0.018450601913948463 0 -0.0052720938095351744 -0.020841842614946145 0 -0.0047043075087828444 -0.013159936876656569 0 -0.0059241749145753728 -0.016547375852757628 0 -0.0027798531646633599 -0.017288307712519099 0 -0.003413272538063338 -0.01341337576251255 0 -0.0059241749145753728 -0.016547375852757628 0 -0.0057657657283658424 -0.017423864624559984 0 -0.0027798531646633599 -0.017288307712519099 0 -0.0047783136029558729 -0.022469737303410339 0 -0.0023924229502258593 -0.011537593082319324 0 -0.0047043075087828444 -0.013159936876656569 0 -0.0023924229502258593 -0.011537593082319324 0 -0.0023924229502258593 -0.011537593082319324 0 -0.0010062881775961899 -0.0067928930237599241 0 -0.0020470481404176841 -0.0078142568496843597 0 -0.00073719630155686202 -0.0092377294099674594 0 -0.0015778471310067519 -0.0090534428013454623 0 -0.0023924229502258593 -0.011537593082319324 0 -0.0017875269243631026 -0.014603404036234174 0 -0.0026232174089309982 -0.019128734051096798 0 -0.0042730836370162084 -0.017751410994120993 0 -0.0029989443120678203 -0.016845730681070765 0 -0.0012252726311696241 -0.0068185502118459831 0 -0.0020470481404176841 -0.0078142568496843597 0 -0.00073719630155686202 -0.0092377294099674594 0 -0.0048213201037386943 -0.024752236580321937 0 -0.0017875269243631026 -0.014603404036234174 0 -0.0048213201037386943 -0.024752236580321937 0 -0.0052159785983402649 -0.027139207295966208 0 -0.0048213201037386943 -0.024752236580321937 0 -0.0045617266529084386 -0.023830464350124387 0 -0.0026232174089309982 -0.019128734051096798 0 -0.0042730836370162084 -0.017751410994120993 0 -0.0040220349721982011 -0.019155252989525248 0 -0.003774857555700293 -0.020581604179440754 0 -0.0026232174089309982 -0.019128734051096798 0 -0.0040220349721982011 -0.019155252989525248 0 -0.0050929216383759435 -0.028476446001464539 0 -0.0051230878766742004 -0.028391026739535405 0 -0.0050350924545691329 -0.028411162448105244 0 -0.0050647400159500918 -0.028290748379434922 0 -0.0051230878766742004 -0.028391026739535405 0 -0.0050350924545691329 -0.028411162448105244 0 -0.0050929216383759435 -0.028476446001464539 0 -0.0050350924545691329 -0.028411162448105244 0 -0.0049270803970985558 -0.028475402346078808 0 -0.004965206292738022 -0.028370211090474731 0 -0.0050350924545691329 -0.028411162448105244 0 -0.0049270803970985558 -0.028475402346078808 0 -0.0062392118746059221 -0.032332378417104249 0 -0.0062583401009189254 -0.032708222008324392 0 -0.006953828885498111 -0.032898286323275273 0 -0.0041398776945425122 -0.029761672332992668 0 -0.0047312568843161729 -0.029967507966594888 0 -0.0046961949692319264 -0.030188925795300688 0 -0.0041398776945425122 -0.029761672332992668 0 -0.0047312568843161729 -0.029967507966594888 0 -0.0042072530553636167 -0.029402078087130652 0 -0.0057333454131189062 -0.031872130915225748 0 -0.0052159785983402649 -0.027139207295966208 0 -0.0048213201037386943 -0.024752236580321937 0 -0.0049536341052713621 -0.030026028390100795 0 -0.0062392118746059221 -0.032332378417104249 0 -0.0062583401009189254 -0.032708222008324392 0 -0.0059372142867428054 -0.032446161506436692 0 -0.0062583401009189254 -0.032708222008324392 0 -0.0059372142867428054 -0.032446161506436692 0 -0.0058806577858108609 -0.032797290465484137 0 -0.0062392118746059221 -0.032332378417104249 0 -0.0059372142867428054 -0.032446161506436692 0 -0.0057871435567871188 -0.032117031540662262 0 -0.0047312568843161729 -0.029967507966594888 0 -0.0046961949692319264 -0.030188925795300688 0 -0.0049650808147047552 -0.030394957457366849 0 -0.0049536341052713621 -0.030026028390100795 0 -0.0046682395968914957 -0.029339391199949019 0 -0.0057333454131189062 -0.031872130915225748 0 -0.005144186552891495 -0.030818458766121708 0 -0.0062392118746059221 -0.032332378417104249 0 -0.0055374086210936571 -0.031596267649450137 0 -0.0057871435567871188 -0.032117031540662262 0 -0.0048350946317817934 -0.028423361496446111 0 -0.004965206292738022 -0.028370211090474731 0 -0.0049270803970985558 -0.028475402346078808 0 -0.0054853570948888413 -0.0051527424306071733 0 -0.0040233136127452041 -0.0062242719723599122 0 -0.005244627743272885 -0.0065343619597551415 0 -0.0051274469964127569 -0.0087264977801615601 0 -0.0051038313488633658 -0.0082015091650885757 0 -0.0054853570948888413 -0.0051527424306071733 0 -0.005244627743272885 -0.0065343619597551415 0 -0.0066788565938127016 -0.0065190305265158972 0 -0.0061257228671136683 -0.0072322954543408546 0 -0.0051274469964127569 -0.0087264977801615601 0 -0.0073325433182450488 -0.0052194492515845389 0 -0.0054853570948888413 -0.0051527424306071733 0 -0.0066788565938127016 -0.0065190305265158972 0 -0.0041929675561773825 -0.013696597511056272 0 -0.0040951970694667831 -0.012765203857475486 0 -0.0053908764390477575 -0.013054796971532501 0 -0.0035277684434913176 -0.011909538983370644 0 -0.005050106585800118 -0.011988555925751083 0 -0.0040951970694667831 -0.012765203857475486 0 -0.005050106585800118 -0.011988555925751083 0 -0.0040951970694667831 -0.012765203857475486 0 -0.0053908764390477575 -0.013054796971532501 0 -0.005050106585800118 -0.011988555925751083 0 -0.0053908764390477575 -0.013054796971532501 0 -0.0066075860815137388 -0.01208605853586292 0 -0.0053908764390477575 -0.013054796971532501 0 -0.0065486957004265217 -0.012900210086828446 0 -0.0066075860815137388 -0.01208605853586292 0 -0.0060661546730339097 -0.013607913616990352 0 -0.0053908764390477575 -0.013054796971532501 0 -0.0065486957004265217 -0.012900210086828446 0 -0.0065486957004265217 -0.012900210086828446 0 -0.0072466054137426857 -0.012619992023370831 0 -0.0066075860815137388 -0.01208605853586292 0 -0.0079504162408536756 -0.012207254250576867 0 -0.0072466054137426857 -0.012619992023370831 0 -0.0066075860815137388 -0.01208605853586292 0 -0.0077520907021439841 -0.01342718769665277 0 -0.0079504162408536756 -0.012207254250576867 0 -0.0072466054137426857 -0.012619992023370831 0 -0.0077520907021439841 -0.01342718769665277 0 -0.0065486957004265217 -0.012900210086828446 0 -0.0072466054137426857 -0.012619992023370831 0 -0.0047043075087828444 -0.013159936876656569 0 -0.0051038313488633658 -0.0082015091650885757 0 -0.0016477322082385306 -0.0051459257088912799 0 -0.0035472582126724237 -0.0051352582157866413 0 -0.0026457800110772194 -0.0063872474590632757 0 -0.0016477322082385306 -0.0051459257088912799 0 -0.0013216347727087133 -0.006857752430422079 0 -0.0026457800110772194 -0.0063872474590632757 0 -0.0035472582126724237 -0.0051352582157866413 0 -0.0040233136127452041 -0.0062242719723599122 0 -0.0026457800110772194 -0.0063872474590632757 0 -0.0054853570948888413 -0.0051527424306071733 0 -0.0035472582126724237 -0.0051352582157866413 0 -0.0040233136127452041 -0.0062242719723599122 0 -0.0040233136127452041 -0.0062242719723599122 0 -0.0033526304163782944 -0.007216548398978056 0 -0.0026457800110772194 -0.0063872474590632757 0 -0.0040233136127452041 -0.0062242719723599122 0 -0.0033526304163782944 -0.007216548398978056 0 -0.0043350463981624496 -0.0073596769326510431 0 -0.0033526304163782944 -0.007216548398978056 0 -0.0026457800110772194 -0.0063872474590632757 0 -0.0020470481404176841 -0.0078142568496843597 0 -0.0013216347727087133 -0.006857752430422079 0 -0.0026457800110772194 -0.0063872474590632757 0 -0.0020470481404176841 -0.0078142568496843597 0 -0.0033526304163782944 -0.007216548398978056 0 -0.0020470481404176841 -0.0078142568496843597 0 -0.0032507128868526471 -0.0082543332659339684 0 -0.0020470481404176841 -0.0078142568496843597 0 -0.0032507128868526471 -0.0082543332659339684 0 -0.0023395562399602067 -0.0089216607143251317 0 -0.0020470481404176841 -0.0078142568496843597 0 -0.0023395562399602067 -0.0089216607143251317 0 -0.0015778471310067519 -0.0090534428013454623 0 -0.0043350463981624496 -0.0073596769326510431 0 -0.0032507128868526471 -0.0082543332659339684 0 -0.0045725657435392838 -0.0089212475952498843 0 -0.0033526304163782944 -0.007216548398978056 0 -0.0043350463981624496 -0.0073596769326510431 0 -0.0032507128868526471 -0.0082543332659339684 0 -0.0043350463981624496 -0.0073596769326510431 0 -0.0056864140645284129 -0.0074252553176889224 0 -0.0045725657435392838 -0.0089212475952498843 0 -0.0056864140645284129 -0.0074252553176889224 0 -0.005963772061996428 -0.0086438727859976076 0 -0.0045725657435392838 -0.0089212475952498843 0 -0.0043350463981624496 -0.0073596769326510431 0 -0.005244627743272885 -0.0065343619597551415 0 -0.0056864140645284129 -0.0074252553176889224 0 -0.0040233136127452041 -0.0062242719723599122 0 -0.0043350463981624496 -0.0073596769326510431 0 -0.005244627743272885 -0.0065343619597551415 0 -0.005244627743272885 -0.0065343619597551415 0 -0.0056864140645284129 -0.0074252553176889224 0 -0.0066788565938127016 -0.0065190305265158972 0 -0.0072047779094471997 -0.0079101225343950737 0 -0.0056864140645284129 -0.0074252553176889224 0 -0.0066788565938127016 -0.0065190305265158972 0 -0.0072047779094471997 -0.0079101225343950737 0 -0.0056864140645284129 -0.0074252553176889224 0 -0.005963772061996428 -0.0086438727859976076 0 -0.0072047779094471997 -0.0079101225343950737 0 -0.005963772061996428 -0.0086438727859976076 0 -0.0066928477058593424 -0.0099397446572475727 0 -0.005963772061996428 -0.0086438727859976076 0 -0.0066928477058593424 -0.0099397446572475727 0 -0.0048935740905094284 -0.01053065509014111 0 -0.0066928477058593424 -0.0099397446572475727 0 -0.0048935740905094284 -0.01053065509014111 0 -0.0061237031388749648 -0.011635773091130949 0 -0.0048474225975804865 -0.010479835834503145 0 -0.0066161262424897374 -0.012255557176261719 0 -0.005963772061996428 -0.0086438727859976076 0 -0.0048935740905094284 -0.01053065509014111 0 -0.0045725657435392838 -0.0089212475952498843 0 -0.0048935740905094284 -0.01053065509014111 0 -0.0045725657435392838 -0.0089212475952498843 0 -0.0031220858065341165 -0.0097005451269584955 0 -0.0032507128868526471 -0.0082543332659339684 0 -0.0045725657435392838 -0.0089212475952498843 0 -0.0031220858065341165 -0.0097005451269584955 0 -0.0032507128868526471 -0.0082543332659339684 0 -0.0031220858065341165 -0.0097005451269584955 0 -0.0023395562399602067 -0.0089216607143251317 0 -0.0023395562399602067 -0.0089216607143251317 0 -0.0018353368285304822 -0.0096542885628694459 0 -0.0015778471310067519 -0.0090534428013454623 0 -0.0031220858065341165 -0.0097005451269584955 0 -0.0023395562399602067 -0.0089216607143251317 0 -0.0018353368285304822 -0.0096542885628694459 0 -0.0031220858065341165 -0.0097005451269584955 0 -0.0018353368285304822 -0.0096542885628694459 0 -0.0019217627614394777 -0.010533101757483537 0 -0.0031220858065341165 -0.0097005451269584955 0 -0.0019217627614394777 -0.010533101757483537 0 -0.003346677870970594 -0.011152517862559429 0 -0.0019217627614394777 -0.010533101757483537 0 -0.003346677870970594 -0.011152517862559429 0 -0.0023662268084462617 -0.012528829961731214 0 -0.0048935740905094284 -0.01053065509014111 0 -0.003346677870970594 -0.011152517862559429 0 -0.0043965358394811704 -0.013075336575456514 0 -0.0048935740905094284 -0.01053065509014111 0 -0.0031220858065341165 -0.0097005451269584955 0 -0.003346677870970594 -0.011152517862559429 0 -0.003346677870970594 -0.011152517862559429 0 -0.0043965358394811704 -0.013075336575456514 0 -0.0023662268084462617 -0.012528829961731214 0 -0.0043965358394811704 -0.013075336575456514 0 -0.0023662268084462617 -0.012528829961731214 0 -0.0019244082636454274 -0.014346027183815628 0 -0.0043965358394811704 -0.013075336575456514 0 -0.0019244082636454274 -0.014346027183815628 0 -0.0035478271160255424 -0.015634082467346995 0 -0.0043965358394811704 -0.013075336575456514 0 -0.0057208333464331129 -0.014754303312094139 0 -0.0035478271160255424 -0.015634082467346995 0 -0.0043965358394811704 -0.013075336575456514 0 -0.0064536287013607649 -0.012265015597946387 0 -0.0057208333464331129 -0.014754303312094139 0 -0.0038129721224152715 -0.014029504810037357 0 -0.0058980883822871448 -0.01206654709608764 0 -0.0064536287013607649 -0.012265015597946387 0 -0.0057208333464331129 -0.014754303312094139 0 -0.0079230580854092875 -0.013841547553043407 0 -0.0025787972445655777 -0.013119950056059981 0 -0.002164243371278829 -0.012992173225580071 0 -0.0029625145897406806 -0.012623226172140862 0 -0.0066161262424897374 -0.012255557176261719 0 -0.0058980883822871448 -0.01206654709608764 0 -0.0048935740905094284 -0.01053065509014111 0 -0.0043965358394811704 -0.013075336575456514 0 -0.0064536287013607649 -0.012265015597946387 0 -0.0061435174802823905 -0.033700654103393936 0 -0.0062437021504480345 -0.033106213252709377 0 -0.0065339031717003074 -0.033382381082532504 0 -0.0061435174802823905 -0.033700654103393936 0 -0.0062437021504480345 -0.033106213252709377 0 -0.0055033403751445498 -0.033324289473154481 0 -0.0058806577858108609 -0.032797290465484137 0 -0.0062437021504480345 -0.033106213252709377 0 -0.0055033403751445498 -0.033324289473154481 0 -0.0062583401009189254 -0.032708222008324392 0 -0.0058806577858108609 -0.032797290465484137 0 -0.0062437021504480345 -0.033106213252709377 0 -0.0062583401009189254 -0.032708222008324392 0 -0.0062437021504480345 -0.033106213252709377 0 -0.006953828885498111 -0.032898286323275273 0 -0.0062437021504480345 -0.033106213252709377 0 -0.0065339031717003074 -0.033382381082532504 0 -0.006953828885498111 -0.032898286323275273 0 -0.0065339031717003074 -0.033382381082532504 0 -0.006953828885498111 -0.032898286323275273 0 -0.0067813620645858028 -0.033821730796667553 0 -0.0061435174802823905 -0.033700654103393936 0 -0.0065339031717003074 -0.033382381082532504 0 -0.0067813620645858028 -0.033821730796667553 0 -0.0052159785983402649 -0.027139207295966208 0 -0.005080195214992784 -0.028563587215898203 0 -0.0036241257140870961 -0.022035448607204387 0 -0.0042470598129854828 -0.022452965377369297 0 -0.0033722183597635841 -0.023131103137799053 0 -0.0055126538925863141 -0.020285138542964886 0 -0.0011348614040354128 -0.020907791051372273 0 -0.0017833162230295589 -0.017007559511653135 0 -0.0049208429970174477 -0.023546038108143003 0 -0.0055126538925863141 -0.020285138542964886 0 -0.0011348614040354128 -0.020907791051372273 0 -0.0052159785983402649 -0.027139207295966208 0 -0.0014831917885057171 -0.015385137427771175 0 -0.0017875269243631026 -0.014603404036234174 0 -0.0014831917885057171 -0.015385137427771175 0 -0.00071997411469354954 -0.0092394478750613233 0 -0.0011181082784452981 -0.010083907158914515 0 -0.00042227630325335669 -0.010656568276199391 0 -0.00071997411469354954 -0.0092394478750613233 0 -0.0009935718409677676 -0.0094196954708859679 0 -0.0011181082784452981 -0.010083907158914515 0 -0.0017875269243631026 -0.014603404036234174 0 -0.00081871982738288202 -0.013338423546651247 0 -0.00073719630155686202 -0.0092377294099674594 0 -0.0015778471310067519 -0.0090534428013454623 0 -0.0009935718409677676 -0.0094196954708859679 0 -0.0018353368285304822 -0.0096542885628694459 0 -0.0015778471310067519 -0.0090534428013454623 0 -0.0009935718409677676 -0.0094196954708859679 0 -0.0018353368285304822 -0.0096542885628694459 0 -0.0019217627614394777 -0.010533101757483537 0 -0.0011181082784452981 -0.010083907158914515 0 -0.0018353368285304822 -0.0096542885628694459 0 -0.0009935718409677676 -0.0094196954708859679 0 -0.0011181082784452981 -0.010083907158914515 0 -0.0019217627614394777 -0.010533101757483537 0 -0.0011181082784452981 -0.010083907158914515 0 -0.00042227630325335669 -0.010656568276199391 0 -0.0014831917885057171 -0.015385137427771175 0 -0.0022302633556525492 -0.018585855146946679 0 -0.0019217627614394777 -0.010533101757483537 0 -0.0023662268084462617 -0.012528829961731214 0 -0.00042227630325335669 -0.010656568276199391 0 -0.0015865045317541781 -0.010876392740851273 0 -0.0014831917885057171 -0.015385137427771175 0 -0.0023662268084462617 -0.012528829961731214 0 -0.0019244082636454274 -0.014346027183815628 0 -0.00018831941855275173 -0.013135566928169237 0 -0.0023662268084462617 -0.012528829961731214 0 -0.00054673440417101892 -0.01130072590595768 0 -0.00018831941855275173 -0.013135566928169237 0 -0.0019244082636454274 -0.014346027183815628 0 -0.00018831941855275173 -0.013135566928169237 0 0.00019378071053857544 -0.015216275007038704 0 -0.0022302633556525492 -0.018585855146946679 0 -0.0019519992611580416 -0.020378370496881855 0 -0.0036719185964131148 -0.024139573285606258 0 -0.0041369070038412602 -0.023541132783603456 0 -0.0039793355269347333 -0.024964126846362924 0 -0.0036719185964131148 -0.024139573285606258 0 -0.0030197935134864658 -0.024545678235697883 0 -0.0039793355269347333 -0.024964126846362924 0 -0.0042470598129854828 -0.022452965377369297 0 -0.0041369070038412602 -0.023541132783603456 0 -0.0033722183597635841 -0.023131103137799053 0 -0.0036719185964131148 -0.024139573285606258 0 -0.0041369070038412602 -0.023541132783603456 0 -0.0033722183597635841 -0.023131103137799053 0 -0.0061435174802823905 -0.033700654103393936 0 -0.0067813620645858028 -0.033821730796667553 0 -0.0062924189522569852 -0.034200757198504926 0 -0.0067813620645858028 -0.033821730796667553 0 -0.0066627462698440479 -0.034760888026881813 0 -0.0062924189522569852 -0.034200757198504926 0 -0.0036719185964131148 -0.024139573285606258 0 -0.0033722183597635841 -0.023131103137799053 0 -0.0030197935134864658 -0.024545678235697883 0 -0.005080195214992784 -0.028563587215898203 0 -0.0048377035207774486 -0.029613149939904607 0 -0.0066627462698440479 -0.034760888026881813 0 -0.0060157250802340256 -0.035214204037046649 0 -0.0057142253048857753 -0.03443786029692307 0 -0.0066627462698440479 -0.034760888026881813 0 -0.0062924189522569852 -0.034200757198504926 0 -0.0057142253048857753 -0.03443786029692307 0 -0.0061172254677965276 -0.033754055943158612 0 -0.0056916358829808269 -0.034620049853389449 0 -0.0061435174802823905 -0.033700654103393936 0 -0.0062924189522569852 -0.034200757198504926 0 -0.0057142253048857753 -0.03443786029692307 0 -0.0060157250802340256 -0.035214204037046649 0 -0.0065317248004314963 -0.035867753098998888 0 -0.0056220481292861028 -0.036448578043125547 0 -0.0030197935134864658 -0.024545678235697883 0 -0.0034574416901342413 -0.025347755434776655 0 -0.0031051962630888508 -0.026150761954819399 0 -0.0066627462698440479 -0.034760888026881813 0 -0.0060157250802340256 -0.035214204037046649 0 -0.0065317248004314963 -0.035867753098998888 0 -0.0048377035207774486 -0.029613149939904607 0 -0.0046492150199583873 -0.031311117553832785 0 -0.0030197935134864658 -0.024545678235697883 0 -0.0031051962630888508 -0.026150761954819399 0 -0.0026515669091847355 -0.026403299885655498 0 -0.0034574416901342413 -0.025347755434776655 0 -0.0031051962630888508 -0.026150761954819399 0 -0.0028570993449343663 -0.027105952036654682 0 -0.0034574416901342413 -0.025347755434776655 0 -0.0037155916903584578 -0.026163744182072568 0 -0.0030219311337709152 -0.026441145064999633 0 -0.0034498912165385515 -0.025275360420375856 0 -0.0029701699322760167 -0.027172036417234969 0 -0.0042925204616819793 -0.02897161389269887 0 -0.0046492150199583873 -0.031311117553832785 0 -0.0031051962630888508 -0.026150761954819399 0 -0.002637151426368218 -0.026423025016525124 0 -0.0028570993449343663 -0.027105952036654682 0 0.00054578461144139676 -0.017338392137596796 0 0.00019378071053857544 -0.015216275007038704 0 -0.0014754781924166004 -0.016477370779301458 0 -0.00066311597456655965 -0.020010307954952192 0 -0.0019519992611580416 -0.020378370496881855 0 -0.0034574416901342413 -0.025347755434776655 0 -0.0037155916903584578 -0.026163744182072568 0 -0.0039793355269347333 -0.024964126846362924 0 -0.0030197935134864658 -0.024545678235697883 0 -0.0034574416901342413 -0.025347755434776655 0 -0.0039793355269347333 -0.024964126846362924 0 -0.0019244082636454274 -0.014346027183815628 0 0.00019378071053857544 -0.015216275007038704 0 -0.0014754781924166004 -0.016477370779301458 0 -0.00066311597456655965 -0.020010307954952192 0 -0.0010144126403758154 -0.014660188269546804 0 9.6379901300351593e-05 -0.014221277713734983 0 -0.00064486479652114416 -0.013829463001030651 0 -0.00069130249870702346 -0.014359297520878955 0 9.6379901300351593e-05 -0.014221277713734983 0 -0.00069130249870702346 -0.014359297520878955 0 -0.00039076493629897351 -0.014772572076230442 0 -0.00069130249870702346 -0.014359297520878955 0 -0.00039076493629897351 -0.014772572076230442 0 -0.00092950538036425286 -0.01482985523114543 0 -0.00039076493629897351 -0.014772572076230442 0 -0.00028496895015364882 -0.015248392409660529 0 -0.00064821382445253253 -0.015315964021166863 0 -0.00039076493629897351 -0.014772572076230442 0 -0.00092950538036425286 -0.01482985523114543 0 -0.00064821382445253253 -0.015315964021166863 0 -0.00039076493629897351 -0.014772572076230442 0 -0.00028496895015364882 -0.015248392409660529 0 0.00020280308669132707 -0.015100362012667054 0 9.6379901300351593e-05 -0.014221277713734983 0 -0.00039076493629897351 -0.014772572076230442 0 0.00020280308669132707 -0.015100362012667054 0 -0.00066311597456655965 -0.020010307954952192 0 0.0002370083988112293 -0.018762888892894746 0 -0.0035872019971251667 -0.029519285811162671 0 -0.003572992723983258 -0.029521337102738989 0 -0.0035994537358353556 -0.029464162955286696 0 0.00023000467243376502 -0.02385199948035965 0 0.00010687736466290445 -0.022841050283634395 0 -0.00035395879284477109 -0.023649021963999841 0 -0.00066311597456655965 -0.020010307954952192 0 -0.0029701699322760167 -0.027172036417234969 0 -0.002637151426368218 -0.026423025016525124 0 -0.0024984713737925385 -0.027264831519005356 0 -0.0028570993449343663 -0.027105952036654682 0 -0.0046492150199583873 -0.031311117553832785 0 -0.0043652295619474616 -0.032297351228298854 0 -0.0043652295619474616 -0.032297351228298854 0 -0.0029701699322760167 -0.027172036417234969 0 -0.0029701699322760167 -0.027172036417234969 0 -0.0042182694048143923 -0.029466634248267828 0 0.00010687736466290445 -0.022841050283634395 0 -0.00035395879284477109 -0.023649021963999841 0 -0.00071287669246818868 -0.022768952954797143 0 -0.0043652295619474616 -0.032297351228298854 0 -0.0042182694048143923 -0.029466634248267828 0 -0.0060337381142521965 -0.036782540391795585 0 -0.0060684747103512023 -0.03661803410986756 0 -0.0062645893224081081 -0.036786268175842636 0 -0.0043652295619474616 -0.032297351228298854 0 -0.0060853156059815193 -0.036387603598332152 0 -0.0046492150199583873 -0.031311117553832785 0 -0.0057221804625400786 -0.036259874606367412 0 -0.0060169917315097323 -0.03477097053080512 0 -0.0059771964696352219 -0.035042473874969851 0 -0.0055405872429192858 -0.035100747338556393 0 -0.0059771964696352219 -0.035042473874969851 0 -0.0055405872429192858 -0.035100747338556393 0 -0.0055148226232819191 -0.035292046663660266 0 -0.0018044568572091169 -0.013684560249018499 0 -0.0022981056185757786 -0.013633898067510176 0 -0.0019643614572976325 -0.014119965616535153 0 -0.0022981056185757786 -0.013633898067510176 0 -0.0024469418129885179 -0.014235989621974518 0 -0.0028919978142364902 -0.013701651310518832 0 -0.0022981056185757786 -0.013633898067510176 0 -0.0025787972445655777 -0.013119950056059981 0 -0.0028919978142364902 -0.013701651310518832 0 -0.0022981056185757786 -0.013633898067510176 0 -0.0025787972445655777 -0.013119950056059981 0 -0.002164243371278829 -0.012992173225580071 0 -0.0038129721224152715 -0.014029504810037357 0 -0.0024967304521420495 -0.014554238948340514 0 -0.0018044568572091169 -0.013684560249018499 0 -0.0022981056185757786 -0.013633898067510176 0 -0.002164243371278829 -0.012992173225580071 0 -0.0018044568572091169 -0.013684560249018499 0 -0.002164243371278829 -0.012992173225580071 0 -0.0013832604449828137 -0.013407603365851039 0 -0.0010144126403758154 -0.014660188269546804 0 -0.0024967304521420495 -0.014554238948340514 0 -0.0019244082636454274 -0.014346027183815628 0 -0.0014754781924166004 -0.016477370779301458 0 -0.0035478271160255424 -0.015634082467346995 0 -0.00064486479652114416 -0.013829463001030651 0 -0.0013832604449828137 -0.013407603365851039 0 -0.0012687216348864425 -0.014239247004743202 0 -0.00064486479652114416 -0.013829463001030651 0 -0.00069130249870702346 -0.014359297520878955 0 -0.0012687216348864425 -0.014239247004743202 0 -0.0018044568572091169 -0.013684560249018499 0 -0.0013832604449828137 -0.013407603365851039 0 -0.0012687216348864425 -0.014239247004743202 0 -0.0018044568572091169 -0.013684560249018499 0 -0.0012687216348864425 -0.014239247004743202 0 -0.0019643614572976325 -0.014119965616535153 0 -0.00069130249870702346 -0.014359297520878955 0 -0.0012687216348864425 -0.014239247004743202 0 -0.00092950538036425286 -0.01482985523114543 0 -0.00092950538036425286 -0.01482985523114543 0 -0.001408031544348652 -0.014948965030556786 0 -0.0010905869059155376 -0.015364903794262828 0 -0.00092950538036425286 -0.01482985523114543 0 -0.0010905869059155376 -0.015364903794262828 0 -0.00064821382445253253 -0.015315964021166863 0 -0.0012687216348864425 -0.014239247004743202 0 -0.00092950538036425286 -0.01482985523114543 0 -0.001408031544348652 -0.014948965030556786 0 -0.0012687216348864425 -0.014239247004743202 0 -0.001408031544348652 -0.014948965030556786 0 -0.0018972922177562641 -0.014695415196837319 0 -0.0018972922177562641 -0.014695415196837319 0 -0.002334486379247836 -0.014917473117624211 0 -0.0018164515639683243 -0.015173384288276073 0 -0.001408031544348652 -0.014948965030556786 0 -0.0018972922177562641 -0.014695415196837319 0 -0.0018164515639683243 -0.015173384288276073 0 -0.0018972922177562641 -0.014695415196837319 0 -0.0019643614572976325 -0.014119965616535153 0 -0.0024469418129885179 -0.014235989621974518 0 -0.0012687216348864425 -0.014239247004743202 0 -0.0018972922177562641 -0.014695415196837319 0 -0.0019643614572976325 -0.014119965616535153 0 -0.0022981056185757786 -0.013633898067510176 0 -0.0019643614572976325 -0.014119965616535153 0 -0.0024469418129885179 -0.014235989621974518 0 -0.0024469418129885179 -0.014235989621974518 0 -0.002334486379247836 -0.014917473117624211 0 -0.003081598483974388 -0.014390846710604553 0 -0.0018972922177562641 -0.014695415196837319 0 -0.0024469418129885179 -0.014235989621974518 0 -0.002334486379247836 -0.014917473117624211 0 -0.002334486379247836 -0.014917473117624211 0 -0.0029408564420224932 -0.014921503964928451 0 -0.003081598483974388 -0.014390846710604553 0 -0.003081598483974388 -0.014390846710604553 0 -0.0035603625502651885 -0.014235570929632659 0 -0.0037785144004707514 -0.01481897048862745 0 -0.0029408564420224932 -0.014921503964928451 0 -0.003081598483974388 -0.014390846710604553 0 -0.0037785144004707514 -0.01481897048862745 0 -0.0035603625502651885 -0.014235570929632659 0 -0.0034230601471038438 -0.013850400758646016 0 -0.0039548244757118198 -0.013898328496788457 0 -0.003081598483974388 -0.014390846710604553 0 -0.0035603625502651885 -0.014235570929632659 0 -0.0034230601471038438 -0.013850400758646016 0 -0.003081598483974388 -0.014390846710604553 0 -0.0034230601471038438 -0.013850400758646016 0 -0.0028919978142364902 -0.013701651310518832 0 -0.0024469418129885179 -0.014235989621974518 0 -0.003081598483974388 -0.014390846710604553 0 -0.0028919978142364902 -0.013701651310518832 0 -0.0034230601471038438 -0.013850400758646016 0 -0.0028919978142364902 -0.013701651310518832 0 -0.0033237736516375199 -0.013476464627161462 0 -0.0028919978142364902 -0.013701651310518832 0 -0.0033237736516375199 -0.013476464627161462 0 -0.0030335196253220911 -0.013312885039261552 0 -0.0034230601471038438 -0.013850400758646016 0 -0.0037299162893722742 -0.01356019409039972 0 -0.0039548244757118198 -0.013898328496788457 0 -0.0034230601471038438 -0.013850400758646016 0 -0.0033237736516375199 -0.013476464627161462 0 -0.0037299162893722742 -0.01356019409039972 0 -0.0035746556104281064 -0.013238296607544187 0 -0.0037835720922086628 -0.013225766559891491 0 -0.0037299162893722742 -0.01356019409039972 0 -0.0033237736516375199 -0.013476464627161462 0 -0.0035746556104281064 -0.013238296607544187 0 -0.0037299162893722742 -0.01356019409039972 0 -0.0032781128130753602 -0.013206873259364888 0 -0.0035746556104281064 -0.013238296607544187 0 -0.0032223487367353245 -0.012936226390641141 0 -0.0033237736516375199 -0.013476464627161462 0 -0.0032781128130753602 -0.013206873259364888 0 -0.0035746556104281064 -0.013238296607544187 0 -0.0035746556104281064 -0.013238296607544187 0 -0.0036931273669353632 -0.012988348581055886 0 -0.0037835720922086628 -0.013225766559891491 0 -0.0060877506108837224 -0.0095374974128012036 0 -0.0055233417386707255 -0.0093848333121926628 0 -0.0058714404890772461 -0.0091705734737348478 0 -0.0035746556104281064 -0.013238296607544187 0 -0.0036931273669353632 -0.012988348581055886 0 -0.0032066969863265684 -0.012832291382814543 0 -0.0036331606556694344 -0.013247190590336085 0 -0.0036585135001936603 -0.012002206666045689 0 -0.0053630774064552236 -0.011309008276591665 0 -0.0036585135001936603 -0.012002206666045689 0 -0.0032781128130753602 -0.013206873259364888 0 -0.003034363668468593 -0.013058501560702287 0 -0.0032223487367353245 -0.012936226390641141 0 -0.003034363668468593 -0.013058501560702287 0 -0.0032223487367353245 -0.012936226390641141 0 -0.0029546742398972588 -0.012855484928895062 0 -0.0025787972445655777 -0.013119950056059981 0 -0.0028919978142364902 -0.013701651310518832 0 -0.0030335196253220911 -0.013312885039261552 0 -0.0025787972445655777 -0.013119950056059981 0 -0.003034363668468593 -0.013058501560702287 0 -0.0029546742398972588 -0.012855484928895062 0 -0.0025787972445655777 -0.013119950056059981 0 -0.003034363668468593 -0.013058501560702287 0 -0.0030335196253220911 -0.013312885039261552 0 -0.0033237736516375199 -0.013476464627161462 0 -0.0032781128130753602 -0.013206873259364888 0 -0.0030335196253220911 -0.013312885039261552 0 -0.0032781128130753602 -0.013206873259364888 0 -0.003034363668468593 -0.013058501560702287 0 -0.0030335196253220911 -0.013312885039261552 0 -0.0047415330684122785 -0.0037269610598140565 0 -0.0052019403766627153 -0.0038847832807923067 0 -0.0048566150365090908 -0.0043115033184355726 0 -0.001840874869952132 -0.0016454263287381977 0 -0.0061449130907202821 -0.00103573587681662 0 -0.0036422723580975314 -0.0075450210582983816 0 -0.006015137946131721 -0.0065385085899212214 0 -0.001840874869952132 -0.0016454263287381977 0 -0.0036422723580975314 -0.0075450210582983816 0 -0.0053630774064552236 -0.011309008276591665 0 -0.0036422723580975314 -0.0075450210582983816 0 -0.0060877506108837224 -0.0095374974128012036 0 -0.0066451757032384958 -0.0096927041340452418 0 -0.0063580882212318033 -0.0092213361145504248 0 -0.0036931273669353632 -0.012988348581055886 0 -0.0037835720922086628 -0.013225766559891491 0 -0.0041287140478251426 -0.013106340835051992 0 -0.0036422723580975314 -0.0075450210582983816 0 -0.0010190850191437195 -0.0084074896389603488 0 -0.0041287140478251426 -0.013106340835051992 0 -0.0037299162893722742 -0.01356019409039972 0 -0.0039548244757118198 -0.013898328496788457 0 0.0011941367121230608 -0.0023086024870896836 0 0.0012062039628185682 -0.002344444958178633 0 0.0013688080647897636 -0.0024282864427703872 0 -0.0037835720922086628 -0.013225766559891491 0 -0.0041287140478251426 -0.013106340835051992 0 -0.0037299162893722742 -0.01356019409039972 0 0.0011695162429285503 -0.0023230128174176984 0 0.0012062039628185682 -0.002344444958178633 0 0.0011661445162309998 -0.0023117804488984733 0 0.0011695162429285503 -0.0023230128174176984 0 0.0011941367121230608 -0.0023086024870896836 0 0.0012062039628185682 -0.002344444958178633 0 0.0012062039628185682 -0.002344444958178633 0 0.0013688080647897636 -0.0024282864427703872 0 0.0011586791699374082 -0.0024198833632945579 0 0.0012062039628185682 -0.002344444958178633 0 0.0011586791699374082 -0.0024198833632945579 0 0.0011661445162309998 -0.0023117804488984733 0 0.0011586791699374082 -0.0024198833632945579 0 0.0011579551140647043 -0.0023601190018176588 0 0.0011661445162309998 -0.0023117804488984733 0 -0.0010190850191437195 -0.0084074896389603488 0 -0.00088914537596250878 -0.0082398459476399257 0 0.0013688080647897636 -0.0024282864427703872 0 0.0011586791699374082 -0.0024198833632945579 0 0.0015776056746149771 -0.0031238775644557267 0 -0.0035603625502651885 -0.014235570929632659 0 -0.0039548244757118198 -0.013898328496788457 0 -0.0037785144004707514 -0.01481897048862745 0 0.0016468019185233111 -0.0009346220951792954 0 -0.00088914537596250878 -0.0082398459476399257 0 0.0011586791699374082 -0.0024198833632945579 0 0.0012043428894937902 -0.0022307578410018878 0 0.0014188610040659214 -0.0020995385542397823 0 0.0011579551140647043 -0.0023601190018176588 0 0.0012311278017616066 -0.0022748243524069634 0 0.0012043428894937902 -0.0022307578410018878 0 0.0011586791699374082 -0.0024198833632945579 0 0.0011579551140647043 -0.0023601190018176588 0 0.0012043428894937902 -0.0022307578410018878 0 0.00073157541725693716 -0.0010620863567907522 0 0.00051435455664390454 -0.00075117743861952298 0 0.0011579551140647043 -0.0023601190018176588 0 0.00097034295216913847 -0.0023884891334573916 0 0.0012311278017616066 -0.0022748243524069634 0 0.0011579551140647043 -0.0023601190018176588 0 0.00097034295216913847 -0.0023884891334573916 0 0.0010701859555617259 -0.0023136194602396418 0 -0.00090669146425391488 0.0021960346710075667 0 -0.0015320170224366579 0.00072820291299318957 0 0.00020435862725864715 0.00038066007569954381 0 -0.00090669146425391488 0.0021960346710075667 0 -0.0025915521009985082 0.0018449293739770277 0 -0.0015320170224366579 0.00072820291299318957 0 0.00073157541725693716 -0.0010620863567907522 0 -0.0040967095418465247 0.0058525817982723613 0 0.00097034295216913847 -0.0023884891334573916 0 0.00076818980552978953 -0.0020909684693329916 0 0.00093586492534212834 -0.0021450370925279435 0 0.00097034295216913847 -0.0023884891334573916 0 0.00076818980552978953 -0.0020909684693329916 0 0.00052436643092204865 -0.0020367994248106243 0 -0.00090669146425391488 0.0021960346710075667 0 -0.0025915521009985082 0.0018449293739770277 0 -0.0020601177387184443 0.0037642655056831249 0 0.00076818980552978953 -0.0020909684693329916 0 0.00093586492534212834 -0.0021450370925279435 0 0.00080861291323664852 -0.0019649868411909912 0 0.00093586492534212834 -0.0021450370925279435 0 0.0011661445162309998 -0.0023117804488984733 0 0.0010060706859960338 -0.0019857123967157945 0 0.0011579551140647043 -0.0023601190018176588 0 0.0011661445162309998 -0.0023117804488984733 0 0.0010701859555617259 -0.0023136194602396418 0 0.00097034295216913847 -0.0023884891334573916 0 0.00093586492534212834 -0.0021450370925279435 0 0.0010701859555617259 -0.0023136194602396418 0 0.00093586492534212834 -0.0021450370925279435 0 0.0011661445162309998 -0.0023117804488984733 0 0.0010701859555617259 -0.0023136194602396418 0 -0.0084964363358046528 0.0141006301316934 0 -0.0071787316336727278 0.013473351663407443 0 -0.007904150808344371 0.014434404456929088 0 -0.0084964363358046528 0.0141006301316934 0 -0.0081265265051686537 0.013159111797844491 0 -0.0071787316336727278 0.013473351663407443 0 -0.0084964363358046528 0.0141006301316934 0 -0.0086361240817522215 0.013644941454220684 0 -0.0089698749207915169 0.013904387205533979 0 -0.0084964363358046528 0.0141006301316934 0 -0.0086361240817522215 0.013644941454220684 0 -0.0081265265051686537 0.013159111797844491 0 -0.0086361240817522215 0.013644941454220684 0 -0.0081265265051686537 0.013159111797844491 0 -0.0089382851881740135 0.013411069820189903 0 -0.0074971985429600017 0.014720829547057007 0 -0.0087669957926860085 0.014936236938344859 0 -0.0071093456488523776 0.015356760428608266 0 -0.0047749154318358477 0.0084597928482189524 0 -0.0040967095418465247 0.0058525817982723613 0 -0.0071787316336727278 0.013473351663407443 0 -0.0067991636777099953 0.014965625587894415 0 -0.0074971985429600017 0.014720829547057007 0 -0.0071787316336727278 0.013473351663407443 0 -0.0074971985429600017 0.014720829547057007 0 -0.007904150808344371 0.014434404456929088 0 -0.0067991636777099953 0.014965625587894415 0 -0.0074971985429600017 0.014720829547057007 0 -0.0071093456488523776 0.015356760428608266 0 -0.0074971985429600017 0.014720829547057007 0 -0.007904150808344371 0.014434404456929088 0 -0.0087669957926860085 0.014936236938344859 0 -0.0084964363358046528 0.0141006301316934 0 -0.007904150808344371 0.014434404456929088 0 -0.0087669957926860085 0.014936236938344859 0 -0.010166489227173694 0.016124561763095992 0 -0.009317754765029846 0.010647426762283934 0 -0.011546770960724899 0.016118588390471377 0 -0.012080188031678731 0.015511882287103795 0 -0.013027847259601742 0.015523174735977831 0 -0.011598534009925119 0.01535100854722205 0 -0.012080188031678731 0.015511882287103795 0 -0.011876867779428485 0.014753285148564124 0 -0.011598534009925119 0.01535100854722205 0 -0.011876867779428485 0.014753285148564124 0 -0.011136987367851819 0.014920292158226413 0 -0.011546770960724899 0.016118588390471377 0 -0.011612079568915702 0.015696613817216151 0 -0.012080188031678731 0.015511882287103795 0 -0.011598534009925119 0.01535100854722205 0 -0.011612079568915702 0.015696613817216151 0 -0.011196760981706804 0.015809220011762107 0 -0.011598534009925119 0.01535100854722205 0 -0.011612079568915702 0.015696613817216151 0 -0.012080188031678731 0.015511882287103795 0 -0.011546770960724899 0.016118588390471377 0 -0.011612079568915702 0.015696613817216151 0 -0.011196760981706804 0.015809220011762107 0 -0.012080188031678731 0.015511882287103795 0 -0.012784392578755108 0.015213452128628666 0 -0.011876867779428485 0.014753285148564124 0 -0.012913241151859479 0.0096859047710010984 0 -0.013052284413516271 0.011355377727925813 0 -0.012080188031678731 0.015511882287103795 0 -0.012784392578755108 0.015213452128628666 0 -0.013027847259601742 0.015523174735977831 0 -0.012228233864852969 0.0093576266349699126 0 -0.010701149577000911 0.0073465229223763752 0 -0.0091995303607933544 0.00779265983274519 0 -0.0062665686234865533 0.0069021717893591244 0 -0.0068275458808156912 0.0076352460232394174 0 -0.0063223424801178681 0.0077805222617643791 0 -0.0040967095418465247 0.0058525817982723613 0 -0.009317754765029846 0.010647426762283934 0 -0.009317754765029846 0.010647426762283934 0 -0.0088133350752301626 0.0066082241033952006 0 -0.013523516483098593 0.0068931344558719812 0 -0.013384573533044879 0.0068283985123307562 0 -0.013450155510367713 0.0069913637414022881 0 -0.013384573533044879 0.0068283985123307562 0 -0.013450155510367713 0.0069913637414022881 0 -0.013344660623444712 0.0068399321314632899 0 -0.012913241151859479 0.0096859047710010984 0 -0.0088133350752301626 0.0066082241033952006 0 -0.012913241151859479 0.0096859047710010984 0 -0.009317754765029846 0.010647426762283934 0 -0.013450155510367713 0.0069913637414022881 0 -0.013315533852155564 0.0071086941272990875 0 -0.013527019005698743 0.0071743820412989295 0 -0.013450155510367713 0.0069913637414022881 0 -0.013602898970038487 0.0070821588645265101 0 -0.013527019005698743 0.0071743820412989295 0 -0.013602898970038487 0.0070821588645265101 0 -0.013633427520599437 0.0071891900742613269 0 -0.013527019005698743 0.0071743820412989295 0 -0.013523516483098593 0.0068931344558719812 0 -0.013450155510367713 0.0069913637414022881 0 -0.013602898970038487 0.0070821588645265101 0 -0.013523516483098593 0.0068931344558719812 0 -0.013602898970038487 0.0070821588645265101 0 -0.01376433022812589 0.007217502634895929 0 -0.012913241151859479 0.0096859047710010984 0 -0.01388215867599257 0.0065307610480567707 0 -0.014349930188736549 0.0080331752158127982 0 -0.013755316848871562 0.0073072534548430908 0 -0.013784090369360815 0.0077221108964725385 0 -0.014349930188736549 0.0080331752158127982 0 -0.013755316848871562 0.0073072534548430908 0 -0.01376433022812589 0.007217502634895929 0 -0.013602898970038487 0.0070821588645265101 0 -0.013673950938511953 0.0071820201093905495 0 -0.01376433022812589 0.007217502634895929 0 -0.013602898970038487 0.0070821588645265101 0 -0.013673950938511953 0.0071820201093905495 0 -0.013633427520599437 0.0071891900742613269 0 -0.013755316848871562 0.0073072534548430908 0 -0.013784090369360815 0.0077221108964725385 0 -0.013170140163954376 0.0074315602090834001 0 0.0012535264472137092 -0.0016792477875775247 0 0.0011661445162309998 -0.0023117804488984733 0 0.0010060706859960338 -0.0019857123967157945 0 -0.001840874869952132 -0.0016454263287381977 0 0.001764166135498364 -0.0023525523536958273 0 0.0012535264472137092 -0.0016792477875775247 0 0.00090510322724282925 -0.0017906392512754138 0 0.0010060706859960338 -0.0019857123967157945 0 -0.001840874869952132 -0.0016454263287381977 0 -0.0026954503060771526 0.00025893448163487673 0 0.00090510322724282925 -0.0017906392512754138 0 0.0010060706859960338 -0.0019857123967157945 0 0.00080861291323664852 -0.0019649868411909912 0 0.00093586492534212834 -0.0021450370925279435 0 0.0010060706859960338 -0.0019857123967157945 0 0.00080861291323664852 -0.0019649868411909912 0 0.00090510322724282925 -0.0017906392512754138 0 0.00080861291323664852 -0.0019649868411909912 0 0.00057282866922288528 -0.0018482922902480102 0 -0.0068511505353856831 0.0018437365333399717 0 -0.0065310742019008636 0.0019648430685783487 0 -0.0066709231111986749 0.0015126163640557563 0 0.00080861291323664852 -0.0019649868411909912 0 0.00057282866922288528 -0.0018482922902480102 0 0.00056304075392187025 -0.0018906159959692509 0 0.00076818980552978953 -0.0020909684693329916 0 0.00080861291323664852 -0.0019649868411909912 0 0.00056304075392187025 -0.0018906159959692509 0 0.00076818980552978953 -0.0020909684693329916 0 0.00052436643092204865 -0.0020367994248106243 0 0.00056304075392187025 -0.0018906159959692509 0 -0.0062665686234865533 0.0069021717893591244 0 -0.0063223424801178681 0.0077805222617643791 0 -0.0060612445621897023 0.0076439067129657036 0 -0.0040967095418465247 0.0058525817982723613 0 -0.0068069226082288119 0.0050561787449844462 0 -0.0072723533144010578 0.0045918583201690665 0 -0.0068069226082288119 0.0050561787449844462 0 -0.0065770234198869884 0.0059670867818682168 0 -0.0073730175806040604 0.0057249793095053301 0 -0.0072096143126752221 0.0062931540897147187 0 -0.0088133350752301626 0.0066082241033952006 0 -0.0072723533144010578 0.0045918583201690665 0 -0.0088133350752301626 0.0066082241033952006 0 -0.0068069226082288119 0.0050561787449844462 0 -0.0026954503060771526 0.00025893448163487673 0 -0.0072723533144010578 0.0045918583201690665 0 -0.0068511505353856831 0.0018437365333399717 0 -0.0066709231111986749 0.0015126163640557563 0 -0.006955882558297953 0.0014794112185939515 0 -0.0072723533144010578 0.0045918583201690665 0 -0.01018814692417915 0.0041346688440365405 0 -0.013450155510367713 0.0069913637414022881 0 -0.013344660623444712 0.0068399321314632899 0 -0.013315533852155564 0.0071086941272990875 0 -0.0071675061611807707 0.0017241448498210245 0 -0.0068511505353856831 0.0018437365333399717 0 -0.006955882558297953 0.0014794112185939515 0 -0.0071675061611807707 0.0017241448498210245 0 -0.006955882558297953 0.0014794112185939515 0 -0.0072663873628098221 0.0012454536514378957 0 -0.006955882558297953 0.0014794112185939515 0 -0.0068206264091889117 0.0010672557369674428 0 -0.0072663873628098221 0.0012454536514378957 0 -0.013315533852155564 0.0071086941272990875 0 -0.013418097603013763 0.0072556420495444168 0 -0.013527019005698743 0.0071743820412989295 0 -0.0066709231111986749 0.0015126163640557563 0 -0.006955882558297953 0.0014794112185939515 0 -0.0068206264091889117 0.0010672557369674428 0 -0.01018814692417915 0.0041346688440365405 0 -0.0099825650612228069 0.0044141411835677442 0 -0.013315533852155564 0.0071086941272990875 0 -0.013418097603013763 0.0072556420495444168 0 -0.013308044867956535 0.0073134386854438885 0 -0.013418097603013763 0.0072556420495444168 0 -0.013308044867956535 0.0073134386854438885 0 -0.013415098999464447 0.0073468113062843746 0 -0.013308044867956535 0.0073134386854438885 0 -0.013415098999464447 0.0073468113062843746 0 -0.013372429378347482 0.0074261227923985013 0 -0.013308044867956535 0.0073134386854438885 0 -0.013372429378347482 0.0074261227923985013 0 -0.013291341613913037 0.00743949482775312 0 -0.013415098999464447 0.0073468113062843746 0 -0.013372429378347482 0.0074261227923985013 0 -0.013457686093745281 0.0074340909991131767 0 -0.0068206264091889117 0.0010672557369674428 0 -0.0069720731228078347 0.0006307555202849334 0 -0.0073542636620622858 0.00076142522817582538 0 -0.0068206264091889117 0.0010672557369674428 0 -0.0072663873628098221 0.0012454536514378957 0 -0.0073542636620622858 0.00076142522817582538 0 -0.0099825650612228069 0.0044141411835677442 0 -0.010550891001442426 0.0030685117983459539 0 -0.013818877939069947 0.0074036788161508217 0 -0.01377820525422479 0.0073452357739561599 0 -0.013845117414890836 0.0073511779665222932 0 -0.013818877939069947 0.0074036788161508217 0 -0.01377820525422479 0.0073452357739561599 0 -0.013722536710278678 0.0073768699953283791 0 -0.01377820525422479 0.0073452357739561599 0 -0.013782454021277353 0.0072871252643201103 0 -0.013715509693092192 0.0072987048175183747 0 -0.01377820525422479 0.0073452357739561599 0 -0.013715509693092192 0.0072987048175183747 0 -0.013722536710278678 0.0073768699953283791 0 -0.01377820525422479 0.0073452357739561599 0 -0.013782454021277353 0.0072871252643201103 0 -0.013845117414890836 0.0073511779665222932 0 -0.013782454021277353 0.0072871252643201103 0 -0.01382460884236859 0.0072698492903722663 0 -0.013845117414890836 0.0073511779665222932 0 -0.013755316848871562 0.0073072534548430908 0 -0.01376433022812589 0.007217502634895929 0 -0.01382460884236859 0.0072698492903722663 0 -0.013782454021277353 0.0072871252643201103 0 -0.01376433022812589 0.007217502634895929 0 -0.01382460884236859 0.0072698492903722663 0 -0.013782454021277353 0.0072871252643201103 0 -0.01376433022812589 0.007217502634895929 0 -0.013739614357366167 0.0072613324278300861 0 -0.013782454021277353 0.0072871252643201103 0 -0.013739614357366167 0.0072613324278300861 0 -0.013715509693092192 0.0072987048175183747 0 -0.013739614357366167 0.0072613324278300861 0 -0.013694762771172776 0.0072372176882738153 0 -0.013715509693092192 0.0072987048175183747 0 -0.01376433022812589 0.007217502634895929 0 -0.013739614357366167 0.0072613324278300861 0 -0.013694762771172776 0.0072372176882738153 0 -0.013673950938511953 0.0071820201093905495 0 -0.01376433022812589 0.007217502634895929 0 -0.013694762771172776 0.0072372176882738153 0 -0.013694762771172776 0.0072372176882738153 0 -0.013633427520599437 0.0071891900742613269 0 -0.013633620590579694 0.0072542986485319158 0 -0.013673950938511953 0.0071820201093905495 0 -0.013694762771172776 0.0072372176882738153 0 -0.013633427520599437 0.0071891900742613269 0 -0.013694762771172776 0.0072372176882738153 0 -0.013633620590579694 0.0072542986485319158 0 -0.013715509693092192 0.0072987048175183747 0 -0.013633620590579694 0.0072542986485319158 0 -0.013652666930427762 0.0073218047637447414 0 -0.013715509693092192 0.0072987048175183747 0 -0.013652666930427762 0.0073218047637447414 0 -0.013715509693092192 0.0072987048175183747 0 -0.013722536710278678 0.0073768699953283791 0 -0.013652666930427762 0.0073218047637447414 0 -0.013722536710278678 0.0073768699953283791 0 -0.013640452531591575 0.0073722429641025836 0 -0.013652666930427762 0.0073218047637447414 0 -0.013545471160896983 0.0073160325557790878 0 -0.013640452531591575 0.0073722429641025836 0 -0.013633620590579694 0.0072542986485319158 0 -0.013652666930427762 0.0073218047637447414 0 -0.013545471160896983 0.0073160325557790878 0 -0.013633427520599437 0.0071891900742613269 0 -0.013633620590579694 0.0072542986485319158 0 -0.013527019005698743 0.0071743820412989295 0 -0.013633620590579694 0.0072542986485319158 0 -0.013545471160896983 0.0073160325557790878 0 -0.013527019005698743 0.0071743820412989295 0 -0.013418097603013763 0.0072556420495444168 0 -0.013545471160896983 0.0073160325557790878 0 -0.013527019005698743 0.0071743820412989295 0 -0.013418097603013763 0.0072556420495444168 0 -0.013415098999464447 0.0073468113062843746 0 -0.013545471160896983 0.0073160325557790878 0 -0.013415098999464447 0.0073468113062843746 0 -0.013511687368714363 0.0073897862968748769 0 -0.013457686093745281 0.0074340909991131767 0 -0.013415098999464447 0.0073468113062843746 0 -0.013545471160896983 0.0073160325557790878 0 -0.013511687368714363 0.0073897862968748769 0 -0.013511687368714363 0.0073897862968748769 0 -0.013457686093745281 0.0074340909991131767 0 -0.013559226443450749 0.007476040933199259 0 -0.013559226443450749 0.007476040933199259 0 -0.013601859364523936 0.0074139754571847386 0 -0.013691252163993936 0.0075035345243509837 0 -0.013511687368714363 0.0073897862968748769 0 -0.013559226443450749 0.007476040933199259 0 -0.013601859364523936 0.0074139754571847386 0 -0.013545471160896983 0.0073160325557790878 0 -0.013511687368714363 0.0073897862968748769 0 -0.013601859364523936 0.0074139754571847386 0 -0.013545471160896983 0.0073160325557790878 0 -0.013601859364523936 0.0074139754571847386 0 -0.013640452531591575 0.0073722429641025836 0 -0.013722536710278678 0.0073768699953283791 0 -0.013640452531591575 0.0073722429641025836 0 -0.01370171371675963 0.0074410423753041126 0 -0.013601859364523936 0.0074139754571847386 0 -0.013640452531591575 0.0073722429641025836 0 -0.01370171371675963 0.0074410423753041126 0 -0.013601859364523936 0.0074139754571847386 0 -0.01370171371675963 0.0074410423753041126 0 -0.013691252163993936 0.0075035345243509837 0 -0.01370171371675963 0.0074410423753041126 0 -0.013798537398266504 0.0075335493925208991 0 -0.013810811890165777 0.0074691317260100415 0 -0.01370171371675963 0.0074410423753041126 0 -0.013691252163993936 0.0075035345243509837 0 -0.013798537398266504 0.0075335493925208991 0 -0.013722536710278678 0.0073768699953283791 0 -0.01370171371675963 0.0074410423753041126 0 -0.013810811890165777 0.0074691317260100415 0 -0.013818877939069947 0.0074036788161508217 0 -0.013722536710278678 0.0073768699953283791 0 -0.013810811890165777 0.0074691317260100415 0 -0.013811660744661421 0.0076929244492315342 0 -0.013774816263704746 0.0075796784396890398 0 -0.013675401090643465 0.0075767310037596104 0 -0.013691252163993936 0.0075035345243509837 0 -0.013798537398266504 0.0075335493925208991 0 -0.013774816263704746 0.0075796784396890398 0 -0.013811660744661421 0.0076929244492315342 0 -0.013774816263704746 0.0075796784396890398 0 -0.013901302306042891 0.0075957591060464283 0 -0.013798537398266504 0.0075335493925208991 0 -0.013774816263704746 0.0075796784396890398 0 -0.013901302306042891 0.0075957591060464283 0 -0.013559226443450749 0.007476040933199259 0 -0.013691252163993936 0.0075035345243509837 0 -0.013675401090643465 0.0075767310037596104 0 -0.013691252163993936 0.0075035345243509837 0 -0.013774816263704746 0.0075796784396890398 0 -0.013675401090643465 0.0075767310037596104 0 -0.013675401090643465 0.0075767310037596104 0 -0.013546903521720787 0.0075496427935206637 0 -0.013661264849847849 0.00765913977749361 0 -0.013811660744661421 0.0076929244492315342 0 -0.013675401090643465 0.0075767310037596104 0 -0.013661264849847849 0.00765913977749361 0 -0.013546903521720787 0.0075496427935206637 0 -0.013570353824206892 0.0076251452924087802 0 -0.013661264849847849 0.00765913977749361 0 -0.013546903521720787 0.0075496427935206637 0 -0.013492080919029543 0.0075518868235742199 0 -0.013570353824206892 0.0076251452924087802 0 -0.013559226443450749 0.007476040933199259 0 -0.013546903521720787 0.0075496427935206637 0 -0.013482171140787168 0.0074832689387233798 0 -0.013559226443450749 0.007476040933199259 0 -0.013675401090643465 0.0075767310037596104 0 -0.013546903521720787 0.0075496427935206637 0 -0.013457686093745281 0.0074340909991131767 0 -0.013559226443450749 0.007476040933199259 0 -0.013482171140787168 0.0074832689387233798 0 -0.013457686093745281 0.0074340909991131767 0 -0.013482171140787168 0.0074832689387233798 0 -0.013433428356381588 0.0074655937285379934 0 -0.013482171140787168 0.0074832689387233798 0 -0.013448807734321522 0.0074998450432347125 0 -0.013433428356381588 0.0074655937285379934 0 -0.013546903521720787 0.0075496427935206637 0 -0.013448807734321522 0.0074998450432347125 0 -0.013492080919029543 0.0075518868235742199 0 -0.013448807734321522 0.0074998450432347125 0 -0.013492080919029543 0.0075518868235742199 0 -0.013384031252938482 0.007385364696651275 0 -0.013546903521720787 0.0075496427935206637 0 -0.013482171140787168 0.0074832689387233798 0 -0.013448807734321522 0.0074998450432347125 0 -0.013022638709595425 0.0074123856900420362 0 -0.013478479081432689 0.0074589477268353398 0 -0.013492080919029543 0.0075518868235742199 0 -0.013585746845580258 0.007775162549194246 0 -0.013384031252938482 0.007385364696651275 0 -0.012584511463141358 0.0068297994701875375 0 -0.013192465225163222 0.0071883138611011071 0 -0.012958316864123593 0.0071831812787694583 0 -0.013192465225163222 0.0071883138611011071 0 -0.012958316864123593 0.0071831812787694583 0 -0.013384031252938482 0.007385364696651275 0 -0.013585746845580258 0.007775162549194246 0 -0.013570353824206892 0.0076251452924087802 0 -0.013661264849847849 0.00765913977749361 0 -0.013492080919029543 0.0075518868235742199 0 -0.013585746845580258 0.007775162549194246 0 -0.013570353824206892 0.0076251452924087802 0 -0.013811660744661421 0.0076929244492315342 0 -0.013733191718769256 0.0077612041447696657 0 -0.013855355128431576 0.0079105373856998788 0 -0.013585746845580258 0.007775162549194246 0 -0.013733191718769256 0.0077612041447696657 0 -0.013855355128431576 0.0079105373856998788 0 -0.013022638709595425 0.0074123856900420362 0 -0.014814637846450429 0.0069294355941673354 0 -0.013585746845580258 0.007775162549194246 0 -0.013733191718769256 0.0077612041447696657 0 -0.013661264849847849 0.00765913977749361 0 -0.013811660744661421 0.0076929244492315342 0 -0.013733191718769256 0.0077612041447696657 0 -0.013661264849847849 0.00765913977749361 0 -0.010550891001442426 0.0030685117983459539 0 -0.0085134142719564942 -0.0041420222929684754 0 -0.010677737046862429 -0.0037851621383402224 0 -0.0097683302089739757 -0.0036042271449020606 0 -0.011438555491127121 -0.0030130727135961577 0 -0.010215612362692432 -0.0045628942813532389 0 -0.010677737046862429 -0.0037851621383402224 0 -0.010966821512736442 -0.0053916881740349743 0 -0.0100710860851265 -0.0046115459360724365 0 -0.010215612362692432 -0.0045628942813532389 0 -0.0097683302089739757 -0.0036042271449020606 0 -0.012290619664828561 -0.00013147570742446947 0 -0.010550891001442426 0.0030685117983459539 0 -0.013703697416481557 0.0073248544501314829 0 -0.013621967252897112 0.0074270060084726192 0 -0.013537588163784784 0.0074070020268828269 0 -0.012290619664828561 -0.00013147570742446947 0 -0.011996791812237399 -0.0003493765494618065 0 -0.010215612362692432 -0.0045628942813532389 0 -0.010677737046862429 -0.0037851621383402224 0 -0.0097683302089739757 -0.0036042271449020606 0 -0.013703697416481557 0.0073248544501314829 0 -0.013537588163784784 0.0074070020268828269 0 -0.013384031252938482 0.007385364696651275 0 -0.010550891001442426 0.0030685117983459539 0 -0.014724982159937226 0.0078785211789485568 0 -0.013372429378347482 0.0074261227923985013 0 -0.013291341613913037 0.00743949482775312 0 -0.013412892998080902 0.0074722682188258973 0 -0.013372429378347482 0.0074261227923985013 0 -0.013433428356381588 0.0074655937285379934 0 -0.013412892998080902 0.0074722682188258973 0 -0.013372429378347482 0.0074261227923985013 0 -0.013457686093745281 0.0074340909991131767 0 -0.013433428356381588 0.0074655937285379934 0 -0.013412892998080902 0.0074722682188258973 0 -0.013537588163784784 0.0074070020268828269 0 -0.013384031252938482 0.007385364696651275 0 -0.013448807734321522 0.0074998450432347125 0 -0.013433428356381588 0.0074655937285379934 0 -0.013412892998080902 0.0074722682188258973 0 -0.013448807734321522 0.0074998450432347125 0 -0.013412892998080902 0.0074722682188258973 0 -0.013384031252938482 0.007385364696651275 0 -0.013621967252897112 0.0074270060084726192 0 -0.013412892998080902 0.0074722682188258973 0 -0.013537588163784784 0.0074070020268828269 0 -0.011461705350208925 0.0019244313288175924 0 -0.012290619664828561 -0.00013147570742446947 0 -0.013192465225163222 0.0071883138611011071 0 -0.013703697416481557 0.0073248544501314829 0 -0.013384031252938482 0.007385364696651275 0 -0.010709619127057887 -0.003787853558309517 0 -0.010107264995321285 -0.0034725784350348667 0 -0.011115982064606948 -0.0030240707483360943 0 -0.01137945233867396 -0.0040559682773316117 0 -0.010709619127057887 -0.003787853558309517 0 -0.011115982064606948 -0.0030240707483360943 0 -0.011051076942468721 -0.0057729265897511718 0 -0.012290619664828561 -0.00013147570742446947 0 -0.01090312312895767 -0.0061686423081903172 0 -0.010100913033597187 -0.004643261602241348 0 -0.010966821512736442 -0.0053916881740349743 0 -0.010100913033597187 -0.004643261602241348 0 -0.010215612362692432 -0.0045628942813532389 0 -0.010966821512736442 -0.0053916881740349743 0 -0.010966821512736442 -0.0053916881740349743 0 -0.01128263894928294 -0.0055276377057815029 0 -0.011138140851596916 -0.0046609791584651715 0 -0.011042233172346363 -0.0058319293685750104 0 -0.010966821512736442 -0.0053916881740349743 0 -0.01128263894928294 -0.0055276377057815029 0 -0.01090312312895767 -0.0061686423081903172 0 -0.011042233172346363 -0.0058319293685750104 0 -0.010966821512736442 -0.0053916881740349743 0 -0.011351576532423704 -0.0089095951554745111 0 -0.010950484452694406 -0.0099741684539865968 0 -0.01028232688993839 -0.0090515487830989689 0 -0.010677737046862429 -0.0037851621383402224 0 -0.010966821512736442 -0.0053916881740349743 0 -0.011490592969781605 -0.0034364092621551549 0 -0.011427019733966134 -0.0075756714155725538 0 -0.010002690278274553 -0.0060925107949890648 0 -0.011351576532423704 -0.0089095951554745111 0 -0.010950484452694406 -0.0099741684539865968 0 -0.011491703357384133 -0.010921924854641168 0 -0.011331781530935373 -0.0044401825476245724 0 -0.010002690278274553 -0.0060925107949890648 0 -0.010950484452694406 -0.0099741684539865968 0 -0.010848021587822564 -0.010671771944424259 0 -0.011491703357384133 -0.010921924854641168 0 -0.010848021587822564 -0.010671771944424259 0 -0.011371582062958742 -0.011387795978982873 0 -0.010198280858201975 -0.011093968695714143 0 -0.010848021587822564 -0.010671771944424259 0 -0.011491703357384133 -0.010921924854641168 0 -0.011371582062958742 -0.011387795978982873 0 -0.010677737046862429 -0.0037851621383402224 0 -0.011490592969781605 -0.0034364092621551549 0 -0.011438555491127121 -0.0030130727135961577 0 -0.0098933071770990963 -0.010126311416707895 0 -0.00910138718794762 -0.010833078159528386 0 -0.010198280858201975 -0.011093968695714143 0 -0.010848021587822564 -0.010671771944424259 0 -0.0098933071770990963 -0.010126311416707895 0 -0.010198280858201975 -0.011093968695714143 0 -0.010950484452694406 -0.0099741684539865968 0 -0.010848021587822564 -0.010671771944424259 0 -0.0098933071770990963 -0.010126311416707895 0 -0.0098933071770990963 -0.010126311416707895 0 -0.01028232688993839 -0.0090515487830989689 0 -0.0092698153698368823 -0.0091281463856389168 0 -0.010950484452694406 -0.0099741684539865968 0 -0.0098933071770990963 -0.010126311416707895 0 -0.01028232688993839 -0.0090515487830989689 0 -0.0096636744729412215 -0.0080899060905130285 0 -0.010371029730812269 -0.0078488177326152941 0 -0.01028232688993839 -0.0090515487830989689 0 -0.010371029730812269 -0.0078488177326152941 0 -0.011351576532423704 -0.0089095951554745111 0 -0.01028232688993839 -0.0090515487830989689 0 -0.0096636744729412215 -0.0080899060905130285 0 -0.01028232688993839 -0.0090515487830989689 0 -0.0092698153698368823 -0.0091281463856389168 0 -0.0098933071770990963 -0.010126311416707895 0 -0.0082628170510000033 -0.0094967953896727738 0 -0.0092698153698368823 -0.0091281463856389168 0 -0.0087138738803712971 -0.0079922686468678148 0 -0.0082628170510000033 -0.0094967953896727738 0 -0.0092698153698368823 -0.0091281463856389168 0 -0.0087138738803712971 -0.0079922686468678148 0 -0.0096636744729412215 -0.0080899060905130285 0 -0.0092698153698368823 -0.0091281463856389168 0 -0.0072047779094471997 -0.0079101225343950737 0 -0.0066928477058593424 -0.0099397446572475727 0 -0.0082628170510000033 -0.0094967953896727738 0 -0.0066928477058593424 -0.0099397446572475727 0 -0.0082628170510000033 -0.0094967953896727738 0 -0.0078433493435413754 -0.0112310157028309 0 -0.0066928477058593424 -0.0099397446572475727 0 -0.0061237031388749648 -0.011635773091130949 0 -0.0078433493435413754 -0.0112310157028309 0 -0.0082628170510000033 -0.0094967953896727738 0 -0.00910138718794762 -0.010833078159528386 0 -0.0078433493435413754 -0.0112310157028309 0 -0.0098933071770990963 -0.010126311416707895 0 -0.0082628170510000033 -0.0094967953896727738 0 -0.00910138718794762 -0.010833078159528386 0 -0.00910138718794762 -0.010833078159528386 0 -0.0093300185255910956 -0.012203910361768043 0 -0.0078433493435413754 -0.0112310157028309 0 -0.0093300185255910956 -0.012203910361768043 0 -0.0078433493435413754 -0.0112310157028309 0 -0.0073867496461142174 -0.012965657087613047 0 -0.0061237031388749648 -0.011635773091130949 0 -0.0078433493435413754 -0.0112310157028309 0 -0.0073867496461142174 -0.012965657087613047 0 -0.0055233417386707255 -0.0093848333121926628 0 -0.0051786257559079561 -0.0090344072722823941 0 -0.0058714404890772461 -0.0091705734737348478 0 -0.0032810127513885718 -0.012943408576483678 0 -0.0029625145897406806 -0.012623226172140862 0 -0.0029546742398972588 -0.012855484928895062 0 -0.0036585135001936603 -0.012002206666045689 0 -0.0031609184040910761 -0.01245261998698041 0 -0.0036585135001936603 -0.012002206666045689 0 -0.0058980883822871448 -0.01206654709608764 0 -0.0025787972445655777 -0.013119950056059981 0 -0.0029625145897406806 -0.012623226172140862 0 -0.0029546742398972588 -0.012855484928895062 0 -0.0079444543272131317 -0.010635072308631043 0 -0.0058980883822871448 -0.01206654709608764 0 -0.0060955742875089267 -0.0086241845275386413 0 -0.0051786257559079561 -0.0090344072722823941 0 -0.0058714404890772461 -0.0091705734737348478 0 -0.0060955742875089267 -0.0086241845275386413 0 -0.0058714404890772461 -0.0091705734737348478 0 -0.0063580882212318033 -0.0092213361145504248 0 -0.0060877506108837224 -0.0095374974128012036 0 -0.0058714404890772461 -0.0091705734737348478 0 -0.0063580882212318033 -0.0092213361145504248 0 -0.0066451757032384958 -0.0096927041340452418 0 -0.0063580882212318033 -0.0092213361145504248 0 -0.0068490557093033068 -0.0089650787926059388 0 -0.0060955742875089267 -0.0086241845275386413 0 -0.0063580882212318033 -0.0092213361145504248 0 -0.0068490557093033068 -0.0089650787926059388 0 -0.0052019403766627153 -0.0038847832807923067 0 -0.005108466292523998 -0.0043766529871885331 0 -0.0048566150365090908 -0.0043115033184355726 0 -0.005108466292523998 -0.0043766529871885331 0 -0.0048566150365090908 -0.0043115033184355726 0 -0.0050365999488560884 -0.0048732455847119447 0 -0.0061449130907202821 -0.00103573587681662 0 -0.0085134142719564942 -0.0041420222929684754 0 -0.0048566150365090908 -0.0043115033184355726 0 -0.0049869990196175773 -0.0048931899057796276 0 -0.0050365999488560884 -0.0048732455847119447 0 -0.006015137946131721 -0.0065385085899212214 0 -0.0080418263150241042 -0.0064990985328636864 0 -0.0096128801066803667 -0.0058218504862304031 0 -0.009535765354190491 -0.005280156266865072 0 -0.0097577824514958628 -0.0051907726371901693 0 -0.010002690278274553 -0.0060925107949890648 0 -0.0085134142719564942 -0.0041420222929684754 0 -0.010002690278274553 -0.0060925107949890648 0 -0.0080418263150241042 -0.0064990985328636864 0 -0.0085134142719564942 -0.0041420222929684754 0 -0.0080418263150241042 -0.0064990985328636864 0 -0.0060955742875089267 -0.0086241845275386413 0 -0.0068490557093033068 -0.0089650787926059388 0 -0.0070472857555681397 -0.0082059078041444994 0 -0.00910138718794762 -0.010833078159528386 0 -0.0093300185255910956 -0.012203910361768043 0 -0.010198280858201975 -0.011093968695714143 0 -0.0079444543272131317 -0.010635072308631043 0 -0.0080418263150241042 -0.0064990985328636864 0 -0.0093300185255910956 -0.012203910361768043 0 -0.011371582062958742 -0.011387795978982873 0 -0.010198280858201975 -0.011093968695714143 0 3.491629116289779e-05 -0.044957343303752631 0 1.4240906459931093e-05 -0.044982718153935244 0 1.7929841853734094e-05 -0.044980348523384957 0 0.00013895411829183086 -0.044467558842240296 0 0.00010678764647597404 -0.044306906773082064 0 3.491629116289779e-05 -0.044957343303752631 0 1.4240906459931093e-05 -0.044982718153935244 0 9.1437874920960946e-06 -0.044988278660233465 0 2.0883737816889281e-08 -0.044999953805521145 0 1.4240906459931093e-05 -0.044982718153935244 0 1.7929841853734094e-05 -0.044980348523384957 0 2.0883737816889281e-08 -0.044999953805521145 0 1.4240906459931093e-05 -0.044982718153935244 0 9.1437874920960946e-06 -0.044988278660233465 0 0.00010678764647597404 -0.044306906773082064 0 8.4098774092915761e-08 -0.044999725214200266 0 2.0883737816889281e-08 -0.044999953805521145 0 9.1437874920960946e-06 -0.044988278660233465 0 -4.990317178855058e-09 -0.044999999907782078 0 0.00032810850013070342 -0.042893400037040355 0 0.00038110616958183174 -0.043842297882953636 0 0.00014697371337705112 -0.043378046437554163 0 0.00038110616958183174 -0.043842297882953636 0 0.00014697371337705112 -0.043378046437554163 0 0.00013060795380815112 -0.044051684698648876 0 0.00014697371337705112 -0.043378046437554163 0 -2.2196473735424477e-05 -0.043129786060387573 0 9.0009783826250743e-06 -0.04271536596924682 0 -2.2196473735424477e-05 -0.043129786060387573 0 -8.6346405632543454e-05 -0.042529388095237243 0 9.0009783826250743e-06 -0.04271536596924682 0 -8.6346405632543454e-05 -0.042529388095237243 0 9.0009783826250743e-06 -0.04271536596924682 0 -0.0001221687442666408 -0.042281069968005944 0 0.00032810850013070342 -0.042893400037040355 0 0.00014697371337705112 -0.043378046437554163 0 9.0009783826250743e-06 -0.04271536596924682 0 0.0027026056374491545 -0.038988151161423908 0 0.0022036494161215719 -0.039486536174016984 0 0.00013895411829183086 -0.044467558842240296 0 0.0027026056374491545 -0.038988151161423908 0 0.00032810850013070342 -0.042893400037040355 0 9.0009783826250743e-06 -0.04271536596924682 0 0.0001533585134343136 -0.042419146598205386 0 3.491629116289779e-05 -0.044957343303752631 0 7.2980974584377755e-05 -0.044916815385080931 0 5.1194393936492142e-05 -0.044950627912684178 0 0.0027026056374491545 -0.038988151161423908 0 0.0030637602039647899 -0.038451138892704233 0 9.0009783826250743e-06 -0.04271536596924682 0 0.0001533585134343136 -0.042419146598205386 0 -0.0001221687442666408 -0.042281069968005944 0 0.0059128886442182593 -0.034482074194965559 0 0.0060218891677428056 -0.034507497349350998 0 0.0061599978544917876 -0.034705182321483827 0 0.0059128886442182593 -0.034482074194965559 0 0.0060218891677428056 -0.034507497349350998 0 0.0058580769200846762 -0.034649733451755697 0 0.0027026056374491545 -0.038988151161423908 0 0.0061625620398225505 -0.033302588781862638 0 0.0049752209411268334 -0.033795917767567969 0 0.0052044955015119959 -0.034415051907831638 0 0.0058580769200846762 -0.034649733451755697 0 0.0049752209411268334 -0.033795917767567969 0 0.004482492977915334 -0.034693482697848235 0 0.0040629429970421007 -0.03404018091770742 0 0.004482492977915334 -0.034693482697848235 0 0.0052044955015119959 -0.034415051907831638 0 0.0057668987251172548 -0.034857911797469825 0 0.0049752209411268334 -0.033795917767567969 0 0.004482492977915334 -0.034693482697848235 0 0.0052044955015119959 -0.034415051907831638 0 0.0022036494161215719 -0.039486536174016984 0 0.00086719664756197191 -0.041717950953057512 0 0.00012330627508680503 -0.04486935734576096 0 3.0436542396040514e-05 -0.044936509025872019 0 2.5040945920979014e-05 -0.044969634111867295 0 0.0023680531909926572 -0.039571279134160996 0 0.00086719664756197191 -0.041717950953057512 0 0.004482492977915334 -0.034693482697848235 0 0.0040629429970421007 -0.03404018091770742 0 0.003087222590169636 -0.034367797319258639 0 5.1194393936492142e-05 -0.044950627912684178 0 2.9580757082999721e-05 -0.044971094482874771 0 2.199829517333964e-05 -0.044984687947052952 0 3.491629116289779e-05 -0.044957343303752631 0 5.1194393936492142e-05 -0.044950627912684178 0 2.9580757082999721e-05 -0.044971094482874771 0 3.491629116289779e-05 -0.044957343303752631 0 1.7929841853734094e-05 -0.044980348523384957 0 2.9580757082999721e-05 -0.044971094482874771 0 2.0883737816889281e-08 -0.044999953805521145 0 1.7929841853734094e-05 -0.044980348523384957 0 3.4355666143396748e-08 -0.044999949307373902 0 1.7929841853734094e-05 -0.044980348523384957 0 2.9580757082999721e-05 -0.044971094482874771 0 3.4355666143396748e-08 -0.044999949307373902 0 0.00086719664756197191 -0.041717950953057512 0 -7.3177884419015693e-07 -0.044998148789842179 0 7.0788313257048601e-10 -0.044999977868567943 0 1.2166616047025833e-05 -0.044981473628212629 0 4.7452151214595743e-09 -0.04500000404936385 0 7.8164597441509365e-07 -0.044998032274996595 0 0.00086719664756197191 -0.041717950953057512 0 2.9580757082999721e-05 -0.044971094482874771 0 3.4355666143396748e-08 -0.044999949307373902 0 2.199829517333964e-05 -0.044984687947052952 0 3.0436542396040514e-05 -0.044936509025872019 0 2.856821464319781e-08 -0.044999747655992219 0 2.5040945920979014e-05 -0.044969634111867295 0 2.5040945920979014e-05 -0.044969634111867295 0 6.6742373126045271e-05 -0.044969309295782252 0 1.9458381759869416e-08 -0.045000078287647093 0 2.856821464319781e-08 -0.044999747655992219 0 2.5040945920979014e-05 -0.044969634111867295 0 1.9458381759869416e-08 -0.045000078287647093 0 0.00012330627508680503 -0.04486935734576096 0 2.5040945920979014e-05 -0.044969634111867295 0 6.6742373126045271e-05 -0.044969309295782252 0 7.7211796210843462e-05 -0.044907486284208521 0 0.00014779313315561781 -0.044823937410608153 0 7.2449734375813575e-05 -0.04484381283564242 0 4.1798175956252615e-05 -0.044920456403631508 0 0.00013411512987533182 -0.044815829731092723 0 1.6381615364032288e-08 -0.044999728727806519 0 1.684153010153395e-08 -0.044999948478408464 0 4.1798175956252615e-05 -0.044920456403631508 0 7.7211796210843462e-05 -0.044907486284208521 0 3.8206651175111155e-08 -0.044999953742218865 0 7.2449734375813575e-05 -0.04484381283564242 0 1.6381615364032288e-08 -0.044999728727806519 0 4.1798175956252615e-05 -0.044920456403631508 0 1.684153010153395e-08 -0.044999948478408464 0 4.1798175956252615e-05 -0.044920456403631508 0 3.1608517072594099e-05 -0.044970846161895159 0 4.1798175956252615e-05 -0.044920456403631508 0 9.352148739004659e-05 -0.044882820882165823 0 3.1608517072594099e-05 -0.044970846161895159 0 4.1798175956252615e-05 -0.044920456403631508 0 9.352148739004659e-05 -0.044882820882165823 0 0.00013411512987533182 -0.044815829731092723 0 9.352148739004659e-05 -0.044882820882165823 0 3.1608517072594099e-05 -0.044970846161895159 0 9.0835899748820567e-05 -0.044935672981769766 0 3.4030937821359969e-05 -0.044997056809431273 0 3.1608517072594099e-05 -0.044970846161895159 0 5.464085320656219e-05 -0.044981174746998226 0 3.1608517072594099e-05 -0.044970846161895159 0 9.0835899748820567e-05 -0.044935672981769766 0 5.464085320656219e-05 -0.044981174746998226 0 9.0835899748820567e-05 -0.044935672981769766 0 9.152631687739141e-05 -0.044981483544160449 0 5.464085320656219e-05 -0.044981174746998226 0 5.9933613293972942e-05 -0.044994134249914476 0 9.152631687739141e-05 -0.044981483544160449 0 5.464085320656219e-05 -0.044981174746998226 0 3.4030937821359969e-05 -0.044997056809431273 0 5.9933613293972942e-05 -0.044994134249914476 0 5.464085320656219e-05 -0.044981174746998226 0 1.3862322927372585e-08 -0.04500000576429352 0 1.684153010153395e-08 -0.044999948478408464 0 3.1608517072594099e-05 -0.044970846161895159 0 1.3862322927372585e-08 -0.04500000576429352 0 3.4030937821359969e-05 -0.044997056809431273 0 3.1608517072594099e-05 -0.044970846161895159 0 0.00019357693843101859 -0.044539946160851274 0 0.00016361415456782498 -0.044560074680538596 0 0.00017130732532172869 -0.04451044654914188 0 0.00019357693843101859 -0.044539946160851274 0 0.00016361415456782498 -0.044560074680538596 0 0.00019007040812267674 -0.044609139842661308 0 0.00014649905995558284 -0.044502544903185559 0 0.00016361415456782498 -0.044560074680538596 0 0.00017130732532172869 -0.04451044654914188 0 0.00014649905995558284 -0.044502544903185559 0 0.00016361415456782498 -0.044560074680538596 0 0.00012490827578384578 -0.044587032023499444 0 0.00017745437591207711 -0.044526402430398175 0 0.00032653699477442244 -0.044485217393628214 0 0.00014649905995558284 -0.044502544903185559 0 0.00026283797138953758 -0.044416466476349642 0 9.2424770976515046e-05 -0.044432117375512933 0 0.00019357693843101859 -0.044539946160851274 0 0.00014508471119273596 -0.044494185941803981 0 0.00019182350324977839 -0.04446153714277367 0 0.00032653699477442244 -0.044485217393628214 0 0.00030099483752680926 -0.044162677192452524 0 0.0002472690153087039 -0.044474506351308722 0 0.00032653699477442244 -0.044485217393628214 0 0.00016780560937981111 -0.044416371069954566 0 0.00031445983914962208 -0.044506058957123909 0 0.00027273972193090989 -0.044566741532682988 0 0.00030099483752680926 -0.044162677192452524 0 0.00031717626532133523 -0.044543758702043121 0 0.00011265859451712739 -0.04508238212320579 0 9.152631687739141e-05 -0.044981483544160449 0 0.0001591558013235911 -0.044966103065509098 0 0.00019357693843101859 -0.044539946160851274 0 0.00019182350324977839 -0.04446153714277367 0 0.00027273972193090989 -0.044566741532682988 0 0.00038144672507054762 -0.04427289692635937 0 0.00016780560937981111 -0.044416371069954566 0 0.00031445983914962208 -0.044506058957123909 0 0.00031445983914962208 -0.044506058957123909 0 0.00027273972193090989 -0.044566741532682988 0 0.00020087657971511704 -0.044762723734932279 0 9.0835899748820567e-05 -0.044935672981769766 0 0.0001591558013235911 -0.044966103065509098 0 0.00020087657971511704 -0.044762723734932279 0 9.0835899748820567e-05 -0.044935672981769766 0 9.152631687739141e-05 -0.044981483544160449 0 0.0001591558013235911 -0.044966103065509098 0 0.00019357693843101859 -0.044539946160851274 0 0.00027273972193090989 -0.044566741532682988 0 0.00019007040812267674 -0.044609139842661308 0 0.00027273972193090989 -0.044566741532682988 0 0.00020087657971511704 -0.044762723734932279 0 0.00019007040812267674 -0.044609139842661308 0 0.00022730551344915986 -0.044752616023302966 0 0.00021234601020412555 -0.044753939290450621 0 9.352148739004659e-05 -0.044882820882165823 0 9.0835899748820567e-05 -0.044935672981769766 0 0.00020087657971511704 -0.044762723734932279 0 9.352148739004659e-05 -0.044882820882165823 0 0.00020087657971511704 -0.044762723734932279 0 0.00013411512987533182 -0.044815829731092723 0 0.00020087657971511704 -0.044762723734932279 0 0.00017085699335467905 -0.044704038692255914 0 0.00016138641503695062 -0.044635019564781914 0 0.00020087657971511704 -0.044762723734932279 0 0.00019007040812267674 -0.044609139842661308 0 0.00016138641503695062 -0.044635019564781914 0 0.00016361415456782498 -0.044560074680538596 0 0.00019007040812267674 -0.044609139842661308 0 0.00016138641503695062 -0.044635019564781914 0 0.00016361415456782498 -0.044560074680538596 0 0.00016138641503695062 -0.044635019564781914 0 0.00012490827578384578 -0.044587032023499444 0 0.00017085699335467905 -0.044704038692255914 0 0.00016138641503695062 -0.044635019564781914 0 0.00013101553590646596 -0.044660232035885851 0 0.00016138641503695062 -0.044635019564781914 0 0.00013101553590646596 -0.044660232035885851 0 0.00012490827578384578 -0.044587032023499444 0 0.00017475328867522927 -0.044737330725907902 0 0.00016271436109113743 -0.044761699582760078 0 0.00015223946581872911 -0.044755186200683306 0 0.00017085699335467905 -0.044704038692255914 0 0.00017475328867522927 -0.044737330725907902 0 0.00014676926018676275 -0.044715728170290986 0 0.00017085699335467905 -0.044704038692255914 0 0.00013101553590646596 -0.044660232035885851 0 0.00014676926018676275 -0.044715728170290986 0 0.00020087657971511704 -0.044762723734932279 0 0.00017085699335467905 -0.044704038692255914 0 0.00017475328867522927 -0.044737330725907902 0 0.00017475328867522927 -0.044737330725907902 0 0.00014676926018676275 -0.044715728170290986 0 0.00015223946581872911 -0.044755186200683306 0 7.2449734375813575e-05 -0.04484381283564242 0 0.00013411512987533182 -0.044815829731092723 0 0.00016271436109113743 -0.044761699582760078 0 0.00020087657971511704 -0.044762723734932279 0 0.00017475328867522927 -0.044737330725907902 0 0.00013411512987533182 -0.044815829731092723 0 0.00017475328867522927 -0.044737330725907902 0 0.00013411512987533182 -0.044815829731092723 0 0.00016271436109113743 -0.044761699582760078 0 0.0023680531909926572 -0.039571279134160996 0 0.0029116210906860673 -0.039807933349722407 0 0.00012330627508680503 -0.04486935734576096 0 6.6742373126045271e-05 -0.044969309295782252 0 0.00015121242947698226 -0.044884534015667416 0 0.00012330627508680503 -0.04486935734576096 0 0.00015121242947698226 -0.044884534015667416 0 0.000175801862067079 -0.044806598448638955 0 0.00015121242947698226 -0.044884534015667416 0 0.00015223946581872911 -0.044755186200683306 0 0.000175801862067079 -0.044806598448638955 0 0.00014779313315561781 -0.044823937410608153 0 0.00014673535661207469 -0.044773535429518431 0 0.0052044955015119959 -0.034415051907831638 0 0.0057668987251172548 -0.034857911797469825 0 0.0058580769200846762 -0.034649733451755697 0 0.0057668987251172548 -0.034857911797469825 0 0.0058580769200846762 -0.034649733451755697 0 0.0060314958487597955 -0.034678108339042835 0 0.0029116210906860673 -0.039807933349722407 0 0.0032034738197862151 -0.040175905401751047 0 0.00015223946581872911 -0.044755186200683306 0 0.000175801862067079 -0.044806598448638955 0 5.9546291956560302e-05 -0.044697890264148353 0 0.0057668987251172548 -0.034857911797469825 0 0.0060314958487597955 -0.034678108339042835 0 0.0061927193595621649 -0.034884295270711338 0 0.0060314958487597955 -0.034678108339042835 0 0.0062703742087209142 -0.034668626732575501 0 0.0061927193595621649 -0.034884295270711338 0 0.0062703742087209142 -0.034668626732575501 0 0.0065744085428887039 -0.035042965075612734 0 0.0064755655873217129 -0.034588448291141001 0 0.0062703742087209142 -0.034668626732575501 0 0.0061927193595621649 -0.034884295270711338 0 0.0065744085428887039 -0.035042965075612734 0 1.4340641091245122e-05 -0.044601003127645956 0 -6.4585720567586561e-05 -0.04451717066945806 0 -9.525276736775208e-05 -0.044558342608888087 0 0.0032034738197862151 -0.040175905401751047 0 0.0035040081952778129 -0.036353441908606988 0 5.9546291956560302e-05 -0.044697890264148353 0 1.4340641091245122e-05 -0.044601003127645956 0 -9.525276736775208e-05 -0.044558342608888087 0 0.00015223946581872911 -0.044755186200683306 0 5.9546291956560302e-05 -0.044697890264148353 0 0.00010193482007328793 -0.04468123519714897 0 0.00014676926018676275 -0.044715728170290986 0 0.00015223946581872911 -0.044755186200683306 0 0.00010193482007328793 -0.04468123519714897 0 5.9546291956560302e-05 -0.044697890264148353 0 1.4340641091245122e-05 -0.044601003127645956 0 0.00010193482007328793 -0.04468123519714897 0 1.4340641091245122e-05 -0.044601003127645956 0 0.00010193482007328793 -0.04468123519714897 0 7.5234398923546694e-05 -0.044607948408676573 0 0.00013101553590646596 -0.044660232035885851 0 0.00010193482007328793 -0.04468123519714897 0 7.5234398923546694e-05 -0.044607948408676573 0 0.00013101553590646596 -0.044660232035885851 0 0.00014676926018676275 -0.044715728170290986 0 0.00010193482007328793 -0.04468123519714897 0 0.00013101553590646596 -0.044660232035885851 0 0.00012490827578384578 -0.044587032023499444 0 7.5234398923546694e-05 -0.044607948408676573 0 0.00014649905995558284 -0.044502544903185559 0 0.00012490827578384578 -0.044587032023499444 0 6.2902647880681397e-05 -0.044528457251146208 0 0.00012490827578384578 -0.044587032023499444 0 6.2902647880681397e-05 -0.044528457251146208 0 7.5234398923546694e-05 -0.044607948408676573 0 6.2902647880681397e-05 -0.044528457251146208 0 7.5234398923546694e-05 -0.044607948408676573 0 4.5650875428697e-06 -0.044546143550918321 0 1.4340641091245122e-05 -0.044601003127645956 0 7.5234398923546694e-05 -0.044607948408676573 0 4.5650875428697e-06 -0.044546143550918321 0 4.5650875428697e-06 -0.044546143550918321 0 -8.3652040033100957e-05 -0.044410070166349992 0 -6.4585720567586561e-05 -0.04451717066945806 0 4.5650875428697e-06 -0.044546143550918321 0 -4.2363203259574601e-06 -0.044474940870122992 0 -8.3652040033100957e-05 -0.044410070166349992 0 1.4340641091245122e-05 -0.044601003127645956 0 4.5650875428697e-06 -0.044546143550918321 0 -6.4585720567586561e-05 -0.04451717066945806 0 6.2902647880681397e-05 -0.044528457251146208 0 4.5650875428697e-06 -0.044546143550918321 0 -4.2363203259574601e-06 -0.044474940870122992 0 -2.8272278900730567e-05 -0.044325172183201401 0 1.09452849528895e-05 -0.044411996803434294 0 -8.3652040033100957e-05 -0.044410070166349992 0 -0.0015838605570335739 -0.035743033901983717 0 -0.0016884437585031479 -0.035748375200611186 0 -0.0016150316822493144 -0.035634159355102293 0 -4.2363203259574601e-06 -0.044474940870122992 0 1.09452849528895e-05 -0.044411996803434294 0 -8.3652040033100957e-05 -0.044410070166349992 0 -0.00048619499639017915 -0.040546578110137427 0 -0.0012542997211621653 -0.040537556079982877 0 -0.00048619499639017915 -0.040546578110137427 0 0.00073713473180003167 -0.044614062787823865 0 4.6933121810532302e-05 -0.044301541233774333 0 -8.628471687304571e-05 -0.044280429306660159 0 1.09452849528895e-05 -0.044411996803434294 0 4.6933121810532302e-05 -0.044301541233774333 0 1.09452849528895e-05 -0.044411996803434294 0 9.2424770976515046e-05 -0.044432117375512933 0 4.6933121810532302e-05 -0.044301541233774333 0 0.00026283797138953758 -0.044416466476349642 0 9.2424770976515046e-05 -0.044432117375512933 0 0.00014649905995558284 -0.044502544903185559 0 6.2902647880681397e-05 -0.044528457251146208 0 9.2424770976515046e-05 -0.044432117375512933 0 6.2902647880681397e-05 -0.044528457251146208 0 1.09452849528895e-05 -0.044411996803434294 0 9.2424770976515046e-05 -0.044432117375512933 0 6.2902647880681397e-05 -0.044528457251146208 0 -4.2363203259574601e-06 -0.044474940870122992 0 1.09452849528895e-05 -0.044411996803434294 0 -0.0023005408725272204 -0.025719067863620992 0 -0.0022776416678659405 -0.025700408314631409 0 -0.0022257359135895 -0.02572925223682122 0 -0.0021920591671515249 -0.028926838532320542 0 -0.00083811125269904257 -0.034743973193410951 0 -0.0022776416678659405 -0.025700408314631409 0 -0.0022483066334832279 -0.02565708524808212 0 -0.0022538332082402443 -0.025658017392311692 0 -0.0022057928774434458 -0.025787610944531837 0 -0.0022776416678659405 -0.025700408314631409 0 -0.0022538332082402443 -0.025658017392311692 0 -0.0022057928774434458 -0.025787610944531837 0 -0.0023348325857762533 -0.0258487177845051 0 -0.0022776416678659405 -0.025700408314631409 0 -0.0021920591671515249 -0.028926838532320542 0 -0.0021522741105989745 -0.024885059870696419 0 -0.0014719400944482089 -0.035697144000762973 0 -0.0016150316822493144 -0.035634159355102293 0 -0.00153195355805309 -0.035520197246450232 0 -8.3652040033100957e-05 -0.044410070166349992 0 -6.4585720567586561e-05 -0.04451717066945806 0 -0.00013309749145987203 -0.044448038764066521 0 -0.0012542997211621653 -0.040537556079982877 0 -0.00083811125269904257 -0.034743973193410951 0 -6.4585720567586561e-05 -0.04451717066945806 0 -0.00013309749145987203 -0.044448038764066521 0 -9.525276736775208e-05 -0.044558342608888087 0 -0.00083811125269904257 -0.034743973193410951 0 0.00012349304533547161 -0.029009648238522659 0 -0.0022257359135895 -0.02572925223682122 0 -0.0022483066334832279 -0.02565708524808212 0 -0.0022151029751095006 -0.025752169561024815 0 -0.0022776416678659405 -0.025700408314631409 0 -0.0022257359135895 -0.02572925223682122 0 -0.0022483066334832279 -0.02565708524808212 0 0.00012349304533547161 -0.029009648238522659 0 0.00012904271009396781 -0.030033420543958019 0 0.0019045633758869546 -0.030998232177471694 0 0.0032798440761489956 -0.031506769809473027 0 0.0023449498558689181 -0.033185640320910516 0 -0.00083811125269904257 -0.034743973193410951 0 0.0035040081952778129 -0.036353441908606988 0 0.00012349304533547161 -0.029009648238522659 0 0.0035040081952778129 -0.036353441908606988 0 0.001055051584738793 -0.032827093851181495 0 0.00033436750410523576 -0.033687121558432974 0 0.0015089312481347649 -0.034126824595145676 0 0.0035040081952778129 -0.036353441908606988 0 0.0049842429678511593 -0.033224969051162734 0 0.0032798440761489956 -0.031506769809473027 0 0.0023449498558689181 -0.033185640320910516 0 0.0040761225272812115 -0.03382885499914768 0 0.0020239567707743236 -0.031817649961414722 0 0.0049842429678511593 -0.033224969051162734 0 0.0018397016935075817 -0.030425105337116516 0 -0.00013989234520609631 -0.03079747062238308 0 -0.0004419071281914986 -0.029684236565372446 0 0.0020239567707743236 -0.031817649961414722 0 0.00012904271009396781 -0.030033420543958019 0 0.0019045633758869546 -0.030998232177471694 0 0.0023449498558689181 -0.033185640320910516 0 0.00061796610640617138 -0.032533006858831794 0 0.0018397016935075817 -0.030425105337116516 0 0.00023538692930473012 -0.031966275515125465 0 -0.00013989234520609631 -0.03079747062238308 0 0.0018397016935075817 -0.030425105337116516 0 0.00023538692930473012 -0.031966275515125465 0 0.002333663543360055 -0.032205565729921795 0 0.00023538692930473012 -0.031966275515125465 0 0.0024173085216410441 -0.033920882070951335 0 0.002333663543360055 -0.032205565729921795 0 0.00023538692930473012 -0.031966275515125465 0 6.3914332945946392e-05 -0.035344156333098453 0 0.0024173085216410441 -0.033920882070951335 0 6.3914332945946392e-05 -0.035344156333098453 0 0.0024173085216410441 -0.033920882070951335 0 0.004741896825643797 -0.036257499238562661 0 0.0024173085216410441 -0.033920882070951335 0 0.0044613832425314795 -0.034432342748916614 0 0.004741896825643797 -0.036257499238562661 0 0.0044613832425314795 -0.034432342748916614 0 0.0036508819196200202 -0.033298248477674632 0 0.0051416570195645071 -0.033930108613658562 0 0.0024173085216410441 -0.033920882070951335 0 0.0044613832425314795 -0.034432342748916614 0 0.0036508819196200202 -0.033298248477674632 0 0.0018397016935075817 -0.030425105337116516 0 0.002333663543360055 -0.032205565729921795 0 0.0046535766731518194 -0.031611531686005112 0 0.0036508819196200202 -0.033298248477674632 0 0.0046535766731518194 -0.031611531686005112 0 0.0051416570195645071 -0.033930108613658562 0 0.0024173085216410441 -0.033920882070951335 0 0.0036508819196200202 -0.033298248477674632 0 0.002333663543360055 -0.032205565729921795 0 0.0036508819196200202 -0.033298248477674632 0 0.002333663543360055 -0.032205565729921795 0 0.0046535766731518194 -0.031611531686005112 0 0.0062703742087209142 -0.034668626732575501 0 0.0064755655873217129 -0.034588448291141001 0 0.0060409347149439916 -0.034331066480812397 0 0.0049610981776835768 -0.033372629387228792 0 0.0051416570195645071 -0.033930108613658562 0 0.0060409347149439916 -0.034331066480812397 0 0.0049842429678511593 -0.033224969051162734 0 0.0063243402304284128 -0.034481061219816457 0 0.0049842429678511593 -0.033224969051162734 0 0.0050414114675925124 -0.033462904260351811 0 0.0051416570195645071 -0.033930108613658562 0 0.0060409347149439916 -0.034331066480812397 0 0.0055368501840925496 -0.034628506506852813 0 0.0058580769200846762 -0.034649733451755697 0 0.0060314958487597955 -0.034678108339042835 0 0.0060409347149439916 -0.034331066480812397 0 0.0060218891677428056 -0.034507497349350998 0 0.0058580769200846762 -0.034649733451755697 0 0.0060409347149439916 -0.034331066480812397 0 0.0060314958487597955 -0.034678108339042835 0 0.0062703742087209142 -0.034668626732575501 0 0.0060409347149439916 -0.034331066480812397 0 0.0060218891677428056 -0.034507497349350998 0 0.0060409347149439916 -0.034331066480812397 0 0.0061599978544917876 -0.034705182321483827 0 0.0060409347149439916 -0.034331066480812397 0 0.0061599978544917876 -0.034705182321483827 0 0.0055368501840925496 -0.034628506506852813 0 0.0061599978544917876 -0.034705182321483827 0 0.0055368501840925496 -0.034628506506852813 0 0.004741896825643797 -0.036257499238562661 0 0.0030637602039647899 -0.038451138892704233 0 0.0020727127176319673 -0.038891895997354119 0 0.0044613832425314795 -0.034432342748916614 0 0.0051416570195645071 -0.033930108613658562 0 0.0055368501840925496 -0.034628506506852813 0 0.0044613832425314795 -0.034432342748916614 0 0.0055368501840925496 -0.034628506506852813 0 0.004741896825643797 -0.036257499238562661 0 -0.0001221687442666408 -0.042281069968005944 0 -0.00013857401702317888 -0.04222032760387659 0 -0.00010220374111709453 -0.041556802810425675 0 -0.00013857401702317888 -0.04222032760387659 0 -0.00016924733411151707 -0.041759724238235582 0 -0.00010220374111709453 -0.041556802810425675 0 -8.6346405632543454e-05 -0.042529388095237243 0 -0.0001221687442666408 -0.042281069968005944 0 -0.00013857401702317888 -0.04222032760387659 0 -2.2196473735424477e-05 -0.043129786060387573 0 -0.00013857401702317888 -0.04222032760387659 0 -0.00023948369345671254 -0.042878509752065766 0 -2.2196473735424477e-05 -0.043129786060387573 0 -8.6346405632543454e-05 -0.042529388095237243 0 -0.00013857401702317888 -0.04222032760387659 0 -0.00016924733411151707 -0.041759724238235582 0 -0.00039236406431866907 -0.041993881984045814 0 -0.00023948369345671254 -0.042878509752065766 0 -0.00013857401702317888 -0.04222032760387659 0 -0.00016924733411151707 -0.041759724238235582 0 -0.00023948369345671254 -0.042878509752065766 0 -0.00016924733411151707 -0.041759724238235582 0 -0.00039236406431866907 -0.041993881984045814 0 -0.00015307567164905893 -0.040839486437118842 0 -0.00015307567164905893 -0.040839486437118842 0 -0.0014297589304498848 -0.040855099079397418 0 -0.001165392798804787 -0.041839592774400837 0 -0.00039236406431866907 -0.041993881984045814 0 -0.00015307567164905893 -0.040839486437118842 0 -0.001165392798804787 -0.041839592774400837 0 -0.00031481934564585225 -0.03900228868775777 0 -0.00015307567164905893 -0.040839486437118842 0 -0.0014297589304498848 -0.040855099079397418 0 6.3914332945946392e-05 -0.035344156333098453 0 -0.00031481934564585225 -0.03900228868775777 0 0.004741896825643797 -0.036257499238562661 0 -0.00016924733411151707 -0.041759724238235582 0 -0.00015307567164905893 -0.040839486437118842 0 -0.00010220374111709453 -0.041556802810425675 0 -0.00031855103199008417 -0.039119461433659443 0 0.0020727127176319673 -0.038891895997354119 0 -0.00031481934564585225 -0.03900228868775777 0 -0.00015307567164905893 -0.040839486437118842 0 -0.00010220374111709453 -0.041556802810425675 0 -0.0017613467680093944 -0.032516533851885056 0 -0.0023794541767278208 -0.032537127173723618 0 -0.0017138753345679407 -0.032548841710432333 0 -0.0021676099606120353 -0.032508030897238388 0 -0.0018156550014132231 -0.03211390366138675 0 -0.0017751851883480666 -0.032455405513344956 0 -0.0017138753345679407 -0.032548841710432333 0 -0.0020905416189653894 -0.032759545536890304 0 -0.0017138753345679407 -0.032548841710432333 0 -0.0020905416189653894 -0.032759545536890304 0 -0.0025939502552033539 -0.032523490326909751 0 6.3914332945946392e-05 -0.035344156333098453 0 -0.00031481934564585225 -0.03900228868775777 0 -0.0030921989946129341 -0.039957654937704735 0 -0.00031481934564585225 -0.03900228868775777 0 -0.0030921989946129341 -0.039957654937704735 0 -0.0014297589304498848 -0.040855099079397418 0 -0.0017751851883480666 -0.032455405513344956 0 -0.0017138753345679407 -0.032548841710432333 0 -0.0017100110796367453 -0.033206784902622237 0 -0.0023438631163435844 -0.036113706400881698 0 -0.001787207223478334 -0.033390983768798309 0 -0.0014297589304498848 -0.040855099079397418 0 -0.0025381305396178382 -0.042321151614596049 0 -0.001165392798804787 -0.041839592774400837 0 -0.0030921989946129341 -0.039957654937704735 0 -0.0014297589304498848 -0.040855099079397418 0 -0.0025381305396178382 -0.042321151614596049 0 -0.0017751851883480666 -0.032455405513344956 0 -0.0020905416189653894 -0.032759545536890304 0 -0.0018385342080024527 -0.033331279813043187 0 -0.0023438631163435844 -0.036113706400881698 0 -0.0022159527637199638 -0.03778168118556164 0 -0.0020905416189653894 -0.032759545536890304 0 -0.0025939502552033539 -0.032523490326909751 0 -0.0026134642768858231 -0.033309154903860154 0 -0.0021676099606120353 -0.032508030897238388 0 -0.0028082808133404738 -0.032028137487606502 0 -0.0033387590084711636 -0.03282496278215128 0 -0.0025939502552033539 -0.032523490326909751 0 -0.0035992316897569803 -0.032798598632588709 0 -0.0026134642768858231 -0.033309154903860154 0 -0.0023794541767278208 -0.032537127173723618 0 -0.0034802015909174474 -0.032806449265380788 0 -0.0021676099606120353 -0.032508030897238388 0 -0.0028082808133404738 -0.032028137487606502 0 -0.0023959829930792075 -0.031491814123679684 0 -0.0021676099606120353 -0.032508030897238388 0 -0.0023959829930792075 -0.031491814123679684 0 -0.0018156550014132231 -0.03211390366138675 0 -0.0023959829930792075 -0.031491814123679684 0 -0.0019503584437889413 -0.03090288496956942 0 -0.0018156550014132231 -0.03211390366138675 0 -0.0028082808133404738 -0.032028137487606502 0 -0.0023959829930792075 -0.031491814123679684 0 -0.0031424811572266622 -0.030971736899808346 0 -0.0023959829930792075 -0.031491814123679684 0 -0.0024918454829796102 -0.030314939152589346 0 -0.0031424811572266622 -0.030971736899808346 0 -0.0024918454829796102 -0.030314939152589346 0 -0.0019503584437889413 -0.03090288496956942 0 -0.0022001396040735441 -0.029373273527447251 0 -0.0023959829930792075 -0.031491814123679684 0 -0.0024918454829796102 -0.030314939152589346 0 -0.0019503584437889413 -0.03090288496956942 0 -0.0019503584437889413 -0.03090288496956942 0 -0.0017325300094428375 -0.031753389698360959 0 -0.0018156550014132231 -0.03211390366138675 0 -0.0019503584437889413 -0.03090288496956942 0 -0.0017325300094428375 -0.031753389698360959 0 -0.0015815584011040862 -0.03055825523658837 0 -0.0017325300094428375 -0.031753389698360959 0 -0.0011127489742957866 -0.03142504484320309 0 -0.0015815584011040862 -0.03055825523658837 0 -0.0017138753345679407 -0.032548841710432333 0 -0.0018156550014132231 -0.03211390366138675 0 -0.0017100110796367453 -0.033206784902622237 0 -0.0017325300094428375 -0.031753389698360959 0 -0.0018156550014132231 -0.03211390366138675 0 -0.0017100110796367453 -0.033206784902622237 0 6.3914332945946392e-05 -0.035344156333098453 0 -0.0030921989946129341 -0.039957654937704735 0 -0.0017100110796367453 -0.033206784902622237 0 0.00023538692930473012 -0.031966275515125465 0 6.3914332945946392e-05 -0.035344156333098453 0 -0.0017100110796367453 -0.033206784902622237 0 0.00023538692930473012 -0.031966275515125465 0 -0.0017100110796367453 -0.033206784902622237 0 -0.0011127489742957866 -0.03142504484320309 0 -0.0017325300094428375 -0.031753389698360959 0 -0.0017100110796367453 -0.033206784902622237 0 -0.0011127489742957866 -0.03142504484320309 0 0.00023538692930473012 -0.031966275515125465 0 -0.0011127489742957866 -0.03142504484320309 0 -0.00013989234520609631 -0.03079747062238308 0 -0.00087609141402542252 -0.030383039120842358 0 -0.000641738951814837 -0.030102425648604766 0 -0.0016085658258511739 -0.029220364372936992 0 -0.0011127489742957866 -0.03142504484320309 0 -0.00013989234520609631 -0.03079747062238308 0 -0.00087609141402542252 -0.030383039120842358 0 -0.00013989234520609631 -0.03079747062238308 0 -0.00087609141402542252 -0.030383039120842358 0 -0.0004419071281914986 -0.029684236565372446 0 -0.0011127489742957866 -0.03142504484320309 0 -0.00087609141402542252 -0.030383039120842358 0 -0.0015815584011040862 -0.03055825523658837 0 -0.00043368452114471255 -0.030361445761343159 0 0.00012904271009396781 -0.030033420543958019 0 -0.00087609141402542252 -0.030383039120842358 0 -0.0015815584011040862 -0.03055825523658837 0 -0.0016085658258511739 -0.029220364372936992 0 -0.0015815584011040862 -0.03055825523658837 0 -0.0016085658258511739 -0.029220364372936992 0 -0.0018247455088832546 -0.029879540179003999 0 -0.0019503584437889413 -0.03090288496956942 0 -0.0015815584011040862 -0.03055825523658837 0 -0.0018247455088832546 -0.029879540179003999 0 -4.7659310190304004e-05 -0.027176379166887758 0 -0.0009427758680590633 -0.026801551157847426 0 -0.00056080224163065071 -0.026638786738991345 0 0.00012904271009396781 -0.030033420543958019 0 -0.0014443472094651166 -0.027777463093617165 0 -0.0009427758680590633 -0.026801551157847426 0 -0.00056080224163065071 -0.026638786738991345 0 -0.001078983914908314 -0.026340647864475337 0 0.00042518538690461427 -0.026607959165931162 0 -0.00018059049574498299 -0.02666236143448282 0 -0.00054719250583663511 -0.026216120488115873 0 0.00042518538690461427 -0.026607959165931162 0 -4.7659310190304004e-05 -0.027176379166887758 0 -0.00018059049574498299 -0.02666236143448282 0 -4.7659310190304004e-05 -0.027176379166887758 0 -0.00056080224163065071 -0.026638786738991345 0 -0.00018059049574498299 -0.02666236143448282 0 -0.00056080224163065071 -0.026638786738991345 0 -0.00018059049574498299 -0.02666236143448282 0 -0.00054719250583663511 -0.026216120488115873 0 0.00012349304533547161 -0.029009648238522659 0 -0.0017438294662720909 -0.025481574057020537 0 -0.0022483066334832279 -0.02565708524808212 0 -0.0022151029751095006 -0.025752169561024815 0 -0.0023319893595858576 -0.025640691663854926 0 -0.0022483066334832279 -0.02565708524808212 0 -0.0022807288334737962 -0.025547474677437808 0 -0.0023319893595858576 -0.025640691663854926 0 -0.0022807288334737962 -0.025547474677437808 0 -0.0023319893595858576 -0.025640691663854926 0 -0.0023446618687058014 -0.025559998191417847 0 -0.0017438294662720909 -0.025481574057020537 0 -0.0019339583024577394 -0.025704724538319991 0 -0.00054719250583663511 -0.026216120488115873 0 -0.0014920225297480822 -0.025813660055562484 0 -0.001078983914908314 -0.026340647864475337 0 -0.00056080224163065071 -0.026638786738991345 0 -0.00054719250583663511 -0.026216120488115873 0 -0.001078983914908314 -0.026340647864475337 0 -0.0023319893595858576 -0.025640691663854926 0 -0.0024146994756612393 -0.025514396913583193 0 -0.0025461403503463176 -0.025449974740082343 0 -0.0023319893595858576 -0.025640691663854926 0 -0.0023446618687058014 -0.025559998191417847 0 -0.0024146994756612393 -0.025514396913583193 0 -0.002351925749568239 -0.025555864874787282 0 -0.0024146994756612393 -0.025514396913583193 0 -0.0024101049308360026 -0.025516340783957668 0 -0.0023446618687058014 -0.025559998191417847 0 -0.002351925749568239 -0.025555864874787282 0 -0.0024146994756612393 -0.025514396913583193 0 -0.0024877860775748876 -0.025400169468242018 0 -0.0024146994756612393 -0.025514396913583193 0 -0.0024957833682954429 -0.025422402262983566 0 -0.0024877860775748876 -0.025400169468242018 0 -0.0024146994756612393 -0.025514396913583193 0 -0.0024101049308360026 -0.025516340783957668 0 -0.002351925749568239 -0.025555864874787282 0 -0.0024101049308360026 -0.025516340783957668 0 -0.0023716693795932959 -0.025674956932724723 0 -0.0024592978219409966 -0.025424320108868807 0 -0.0024101049308360026 -0.025516340783957668 0 -0.0023716693795932959 -0.025674956932724723 0 -0.0027189712988378583 -0.025937429138099519 0 -0.0022807288334737962 -0.025547474677437808 0 -0.0023716693795932959 -0.025674956932724723 0 -0.0022057928774434458 -0.025787610944531837 0 -0.0022807288334737962 -0.025547474677437808 0 -0.0022538332082402443 -0.025658017392311692 0 -0.0023922587354346862 -0.025644538570957318 0 -0.0023529007108066941 -0.025682755958166173 0 -0.0022483066334832279 -0.02565708524808212 0 -0.0022807288334737962 -0.025547474677437808 0 -0.0022538332082402443 -0.025658017392311692 0 -0.0022807288334737962 -0.025547474677437808 0 -0.002351925749568239 -0.025555864874787282 0 -0.0023716693795932959 -0.025674956932724723 0 -0.0022807288334737962 -0.025547474677437808 0 -0.0023446618687058014 -0.025559998191417847 0 -0.002351925749568239 -0.025555864874787282 0 -0.0025735144172729565 -0.025259113573739254 0 -0.0025461403503463176 -0.025449974740082343 0 -0.0026132183322255102 -0.025175836043569468 0 -0.0019339583024577394 -0.025704724538319991 0 -0.0025423393795133949 -0.025230332208751486 0 -0.0014920225297480822 -0.025813660055562484 0 -0.0021296813690407715 -0.025913971928050498 0 -0.0024627347315326377 -0.025353157181287059 0 -0.0024146994756612393 -0.025514396913583193 0 -0.0025461403503463176 -0.025449974740082343 0 -0.0024957833682954429 -0.025422402262983566 0 -0.002539279568581714 -0.025320282796292344 0 -0.0025735144172729565 -0.025259113573739254 0 -0.0025461403503463176 -0.025449974740082343 0 -0.002539279568581714 -0.025320282796292344 0 -0.0025461403503463176 -0.025449974740082343 0 -0.0024957833682954429 -0.025422402262983566 0 -0.002539279568581714 -0.025320282796292344 0 -0.0024877860775748876 -0.025400169468242018 0 -0.0024957833682954429 -0.025422402262983566 0 -0.0014920225297480822 -0.025813660055562484 0 -0.001078983914908314 -0.026340647864475337 0 -0.0018209820745957235 -0.026428420109732727 0 -0.0014920225297480822 -0.025813660055562484 0 -0.0021296813690407715 -0.025913971928050498 0 -0.0018209820745957235 -0.026428420109732727 0 -0.0022355846372094828 -0.027822154984902703 0 -0.0022001396040735441 -0.029373273527447251 0 -0.003061882799989344 -0.028760500903118016 0 -0.0014443472094651166 -0.027777463093617165 0 -0.0020504497633622902 -0.027105166889203496 0 -0.0009427758680590633 -0.026801551157847426 0 -0.001078983914908314 -0.026340647864475337 0 -0.0018209820745957235 -0.026428420109732727 0 -0.0016085658258511739 -0.029220364372936992 0 -0.0022355846372094828 -0.027822154984902703 0 -0.0022001396040735441 -0.029373273527447251 0 -0.0016085658258511739 -0.029220364372936992 0 -0.0022001396040735441 -0.029373273527447251 0 -0.0018247455088832546 -0.029879540179003999 0 -0.0019503584437889413 -0.03090288496956942 0 -0.0022001396040735441 -0.029373273527447251 0 -0.0018247455088832546 -0.029879540179003999 0 -0.0024918454829796102 -0.030314939152589346 0 -0.0022001396040735441 -0.029373273527447251 0 -0.003061882799989344 -0.028760500903118016 0 -0.003061882799989344 -0.028760500903118016 0 -0.0036398805427169372 -0.028183626120760166 0 -0.0037638394568138317 -0.028320342005701667 0 -0.003061882799989344 -0.028760500903118016 0 -0.0036398805427169372 -0.028183626120760166 0 -0.0035198868079638658 -0.027592471385743281 0 -0.0030870806033582022 -0.028732610078865205 0 -0.0042166607288498569 -0.029327730455900952 0 -0.0032739690230314902 -0.026333326680809406 0 -0.0029109377008247118 -0.02741321395048249 0 -0.002773595603517203 -0.026065269068811427 0 -0.003061882799989344 -0.028760500903118016 0 -0.0035198868079638658 -0.027592471385743281 0 -0.0029109377008247118 -0.02741321395048249 0 -0.0035198868079638658 -0.027592471385743281 0 -0.0032739690230314902 -0.026333326680809406 0 -0.0029109377008247118 -0.02741321395048249 0 -0.0022355846372094828 -0.027822154984902703 0 -0.003061882799989344 -0.028760500903118016 0 -0.0029109377008247118 -0.02741321395048249 0 -0.0020504497633622902 -0.027105166889203496 0 -0.0028489889287602941 -0.026178005329490328 0 -0.0021296813690407715 -0.025913971928050498 0 -0.0018209820745957235 -0.026428420109732727 0 -0.002773595603517203 -0.026065269068811427 0 -0.0021296813690407715 -0.025913971928050498 0 -0.002773595603517203 -0.026065269068811427 0 -0.0024627347315326377 -0.025353157181287059 0 -0.0022355846372094828 -0.027822154984902703 0 -0.0029109377008247118 -0.02741321395048249 0 -0.002773595603517203 -0.026065269068811427 0 -0.002773595603517203 -0.026065269068811427 0 -0.0026975024425996202 -0.025346067824691957 0 -0.0028344943404337753 -0.025295654559494122 0 -0.0032739690230314902 -0.026333326680809406 0 -0.002773595603517203 -0.026065269068811427 0 -0.0028344943404337753 -0.025295654559494122 0 -0.0026175402514731477 -0.024831378364375982 0 -0.0026975024425996202 -0.025346067824691957 0 -0.0028344943404337753 -0.025295654559494122 0 -0.0026175402514731477 -0.024831378364375982 0 -0.0026975024425996202 -0.025346067824691957 0 -0.0024627347315326377 -0.025353157181287059 0 -0.002773595603517203 -0.026065269068811427 0 -0.0026975024425996202 -0.025346067824691957 0 -0.0024627347315326377 -0.025353157181287059 0 -0.0026316122111884068 -0.024897778647499678 0 -0.0025423393795133949 -0.025230332208751486 0 -0.0023361875435659982 -0.024497202772037156 0 -0.0025281521264333127 -0.024763157858000238 0 -0.0027060147787992127 -0.025092770603201257 0 -0.0020840078418138848 -0.024190165121736922 0 -0.0023361875435659982 -0.024497202772037156 0 -0.0025281521264333127 -0.024763157858000238 0 -0.0025281521264333127 -0.024763157858000238 0 -0.0028344943404337753 -0.025295654559494122 0 -0.0027060147787992127 -0.025092770603201257 0 -0.0026175402514731477 -0.024831378364375982 0 -0.0025281521264333127 -0.024763157858000238 0 -0.0028344943404337753 -0.025295654559494122 0 -0.0032739690230314902 -0.026333326680809406 0 -0.0028344943404337753 -0.025295654559494122 0 -0.0027060147787992127 -0.025092770603201257 0 -0.0023361875435659982 -0.024497202772037156 0 -0.0027060147787992127 -0.025092770603201257 0 -0.0023993670014708958 -0.024628354965540118 0 -0.0027060147787992127 -0.025092770603201257 0 -0.0023993670014708958 -0.024628354965540118 0 -0.0025568432797504546 -0.024662859116931758 0 -0.0023143870464988362 -0.024425147932999974 0 -0.0023993670014708958 -0.024628354965540118 0 -0.0025568432797504546 -0.024662859116931758 0 -0.0032739690230314902 -0.026333326680809406 0 -0.0027060147787992127 -0.025092770603201257 0 -0.0025568432797504546 -0.024662859116931758 0 -0.0032043212679915348 -0.02620464891825984 0 -0.0035007678577194971 -0.026106704677304096 0 -0.0035198868079638658 -0.027592471385743281 0 -0.0032739690230314902 -0.026333326680809406 0 -0.0046109239481928379 -0.027332362019689263 0 -0.0035198868079638658 -0.027592471385743281 0 -0.0046109239481928379 -0.027332362019689263 0 -0.0040876593438867632 -0.027892261514291691 0 -0.0036398805427169372 -0.028183626120760166 0 -0.0035198868079638658 -0.027592471385743281 0 -0.0040876593438867632 -0.027892261514291691 0 -0.0040876593438867632 -0.027892261514291691 0 -0.0045008885549714054 -0.027858619956022838 0 -0.0042518242464017041 -0.028087825995132553 0 -0.0040876593438867632 -0.027892261514291691 0 -0.0042518242464017041 -0.028087825995132553 0 -0.0039639891830871221 -0.02815127044557119 0 -0.0036398805427169372 -0.028183626120760166 0 -0.0040876593438867632 -0.027892261514291691 0 -0.0039639891830871221 -0.02815127044557119 0 -0.0036398805427169372 -0.028183626120760166 0 -0.0039639891830871221 -0.02815127044557119 0 -0.0038204192233225361 -0.028228353561060134 0 -0.0047577902345454018 -0.02772991211240378 0 -0.0046109239481928379 -0.027332362019689263 0 -0.0045008885549714054 -0.027858619956022838 0 -0.0046109239481928379 -0.027332362019689263 0 -0.0040876593438867632 -0.027892261514291691 0 -0.0045008885549714054 -0.027858619956022838 0 -0.0045008885549714054 -0.027858619956022838 0 -0.0045094339032256091 -0.028112882516947501 0 -0.0042518242464017041 -0.028087825995132553 0 -0.0047577902345454018 -0.02772991211240378 0 -0.0045008885549714054 -0.027858619956022838 0 -0.0046867682441921023 -0.027941075763215147 0 -0.0045008885549714054 -0.027858619956022838 0 -0.0046867682441921023 -0.027941075763215147 0 -0.0045094339032256091 -0.028112882516947501 0 -0.0047425722368588698 -0.028090890614044239 0 -0.0045094339032256091 -0.028112882516947501 0 -0.0046070222387431387 -0.028260078112543819 0 -0.0047425722368588698 -0.028090890614044239 0 -0.0046867682441921023 -0.027941075763215147 0 -0.0045094339032256091 -0.028112882516947501 0 -0.0045094339032256091 -0.028112882516947501 0 -0.0042892463861416352 -0.028235504432240748 0 -0.0042518242464017041 -0.028087825995132553 0 -0.0045094339032256091 -0.028112882516947501 0 -0.0044424552809232912 -0.02828540897154358 0 -0.0042892463861416352 -0.028235504432240748 0 -0.0044424552809232912 -0.02828540897154358 0 -0.0042756872202199961 -0.028329638144373028 0 -0.0042892463861416352 -0.028235504432240748 0 -0.0044424552809232912 -0.02828540897154358 0 -0.0045287226367396677 -0.028384181767298067 0 -0.0044246956810525886 -0.028373867981979405 0 -0.0044424552809232912 -0.02828540897154358 0 -0.0044246956810525886 -0.028373867981979405 0 -0.0042756872202199961 -0.028329638144373028 0 -0.0045094339032256091 -0.028112882516947501 0 -0.0044424552809232912 -0.02828540897154358 0 -0.0046070222387431387 -0.028260078112543819 0 -0.0044424552809232912 -0.02828540897154358 0 -0.0046070222387431387 -0.028260078112543819 0 -0.0045287226367396677 -0.028384181767298067 0 -0.0048098286713287239 -0.028373942560492645 0 -0.0046563367476440149 -0.02834993015315471 0 -0.0045231102744829601 -0.028489899127404589 0 -0.0046563367476440149 -0.02834993015315471 0 -0.0045287226367396677 -0.028384181767298067 0 -0.0045231102744829601 -0.028489899127404589 0 -0.0046961949692319264 -0.030188925795300688 0 -0.0049501746297765893 -0.030437657568265258 0 -0.0049650808147047552 -0.030394957457366849 0 -0.0046070222387431387 -0.028260078112543819 0 -0.0046563367476440149 -0.02834993015315471 0 -0.0045287226367396677 -0.028384181767298067 0 -0.0044246956810525886 -0.028373867981979405 0 -0.0045231102744829601 -0.028489899127404589 0 -0.0042756872202199961 -0.028329638144373028 0 -0.0045287226367396677 -0.028384181767298067 0 -0.0044246956810525886 -0.028373867981979405 0 -0.0045231102744829601 -0.028489899127404589 0 -0.0055374086210936571 -0.031596267649450137 0 -0.0049682546409545517 -0.031309177693006403 0 -0.0047368891431514657 -0.030456300879410207 0 -0.005144186552891495 -0.030818458766121708 0 -0.0047827305394602523 -0.030532870047427645 0 -0.0049501746297765893 -0.030437657568265258 0 -0.0049650808147047552 -0.030394957457366849 0 -0.0047368891431514657 -0.030456300879410207 0 -0.0049682546409545517 -0.031309177693006403 0 -0.0046742122433330365 -0.031413022035808862 0 -0.0049158303536810301 -0.031706990394973635 0 -0.0049682546409545517 -0.031309177693006403 0 -0.0046742122433330365 -0.031413022035808862 0 -0.0046231654622116893 -0.031015938228780206 0 -0.0055374086210936571 -0.031596267649450137 0 -0.0049682546409545517 -0.031309177693006403 0 -0.0052332709703171434 -0.03174137527229582 0 -0.0049682546409545517 -0.031309177693006403 0 -0.0047368891431514657 -0.030456300879410207 0 -0.0046231654622116893 -0.031015938228780206 0 -0.0045231102744829601 -0.028489899127404589 0 -0.0040287429406604333 -0.028325730164719953 0 -0.0037638394568138317 -0.028320342005701667 0 -0.0049501746297765893 -0.030437657568265258 0 -0.0047368891431514657 -0.030456300879410207 0 -0.0047484616053389559 -0.030350844068565995 0 -0.0046682395968914957 -0.029339391199949019 0 -0.0042166607288498569 -0.029327730455900952 0 -0.0045231102744829601 -0.028489899127404589 0 -0.0040287429406604333 -0.028325730164719953 0 -0.0042756872202199961 -0.028329638144373028 0 -0.0040287429406604333 -0.028325730164719953 0 -0.0042756872202199961 -0.028329638144373028 0 -0.0041220581277835611 -0.028232592298147091 0 -0.0042756872202199961 -0.028329638144373028 0 -0.0042892463861416352 -0.028235504432240748 0 -0.0041220581277835611 -0.028232592298147091 0 -0.0041220581277835611 -0.028232592298147091 0 -0.0042518242464017041 -0.028087825995132553 0 -0.0039639891830871221 -0.02815127044557119 0 -0.0042892463861416352 -0.028235504432240748 0 -0.0041220581277835611 -0.028232592298147091 0 -0.0042518242464017041 -0.028087825995132553 0 -0.0040287429406604333 -0.028325730164719953 0 -0.0039249705089978437 -0.028253448600458652 0 -0.0037638394568138317 -0.028320342005701667 0 -0.0039249705089978437 -0.028253448600458652 0 -0.0038204192233225361 -0.028228353561060134 0 -0.0037638394568138317 -0.028320342005701667 0 -0.0040287429406604333 -0.028325730164719953 0 -0.0041220581277835611 -0.028232592298147091 0 -0.0039249705089978437 -0.028253448600458652 0 -0.0039249705089978437 -0.028253448600458652 0 -0.0039639891830871221 -0.02815127044557119 0 -0.0038204192233225361 -0.028228353561060134 0 -0.0041220581277835611 -0.028232592298147091 0 -0.0039249705089978437 -0.028253448600458652 0 -0.0039639891830871221 -0.02815127044557119 0 -0.0036398805427169372 -0.028183626120760166 0 -0.0038204192233225361 -0.028228353561060134 0 -0.0037638394568138317 -0.028320342005701667 0 -0.003061882799989344 -0.028760500903118016 0 -0.0047484616053389559 -0.030350844068565995 0 -0.0039982725041659735 -0.030683948361702379 0 -0.0047484616053389559 -0.030350844068565995 0 -0.0039982725041659735 -0.030683948361702379 0 -0.0044169105884642994 -0.030699553605914538 0 -0.0047368891431514657 -0.030456300879410207 0 -0.0047484616053389559 -0.030350844068565995 0 -0.0044169105884642994 -0.030699553605914538 0 -0.003061882799989344 -0.028760500903118016 0 -0.0039982725041659735 -0.030683948361702379 0 -0.0031424811572266622 -0.030971736899808346 0 -0.0024918454829796102 -0.030314939152589346 0 -0.003061882799989344 -0.028760500903118016 0 -0.0031424811572266622 -0.030971736899808346 0 -0.0039982725041659735 -0.030683948361702379 0 -0.0031424811572266622 -0.030971736899808346 0 -0.0036394133334710661 -0.031659164382322587 0 -0.0028082808133404738 -0.032028137487606502 0 -0.0031424811572266622 -0.030971736899808346 0 -0.0036394133334710661 -0.031659164382322587 0 -0.0039982725041659735 -0.030683948361702379 0 -0.0042912071764416252 -0.03123148804844415 0 -0.0036394133334710661 -0.031659164382322587 0 -0.0047368891431514657 -0.030456300879410207 0 -0.0044169105884642994 -0.030699553605914538 0 -0.0046231654622116893 -0.031015938228780206 0 -0.0044169105884642994 -0.030699553605914538 0 -0.0046231654622116893 -0.031015938228780206 0 -0.0042912071764416252 -0.03123148804844415 0 -0.0039982725041659735 -0.030683948361702379 0 -0.0044169105884642994 -0.030699553605914538 0 -0.0042912071764416252 -0.03123148804844415 0 -0.0046742122433330365 -0.031413022035808862 0 -0.0046231654622116893 -0.031015938228780206 0 -0.0042912071764416252 -0.03123148804844415 0 -0.0046742122433330365 -0.031413022035808862 0 -0.0042912071764416252 -0.03123148804844415 0 -0.0043432697247884969 -0.031942371018925969 0 -0.0042912071764416252 -0.03123148804844415 0 -0.0043432697247884969 -0.031942371018925969 0 -0.0036394133334710661 -0.031659164382322587 0 -0.0028082808133404738 -0.032028137487606502 0 -0.0036394133334710661 -0.031659164382322587 0 -0.0033387590084711636 -0.03282496278215128 0 -0.0043432697247884969 -0.031942371018925969 0 -0.0036394133334710661 -0.031659164382322587 0 -0.0033387590084711636 -0.03282496278215128 0 -0.0033387590084711636 -0.03282496278215128 0 -0.0047581219422614292 -0.032472200948910214 0 -0.0045925635200755209 -0.033078651246422675 0 -0.0043432697247884969 -0.031942371018925969 0 -0.0033387590084711636 -0.03282496278215128 0 -0.0047581219422614292 -0.032472200948910214 0 -0.0034802015909174474 -0.032806449265380788 0 -0.0045253314653870714 -0.033078888865649234 0 -0.0047581219422614292 -0.032472200948910214 0 -0.0054378538965158679 -0.032501419768117212 0 -0.0052191559220538895 -0.032060871586094795 0 -0.0047581219422614292 -0.032472200948910214 0 -0.0054378538965158679 -0.032501419768117212 0 -0.0045925635200755209 -0.033078651246422675 0 -0.0059372142867428054 -0.032446161506436692 0 -0.0058806577858108609 -0.032797290465484137 0 -0.0054378538965158679 -0.032501419768117212 0 -0.0059372142867428054 -0.032446161506436692 0 -0.0054378538965158679 -0.032501419768117212 0 -0.0057871435567871188 -0.032117031540662262 0 -0.0054378538965158679 -0.032501419768117212 0 -0.005486666280321119 -0.031976170470608564 0 -0.0052191559220538895 -0.032060871586094795 0 -0.005486666280321119 -0.031976170470608564 0 -0.0052332709703171434 -0.03174137527229582 0 -0.0052191559220538895 -0.032060871586094795 0 -0.0054378538965158679 -0.032501419768117212 0 -0.005486666280321119 -0.031976170470608564 0 -0.0057871435567871188 -0.032117031540662262 0 -0.0055374086210936571 -0.031596267649450137 0 -0.005486666280321119 -0.031976170470608564 0 -0.0057871435567871188 -0.032117031540662262 0 -0.0055374086210936571 -0.031596267649450137 0 -0.005486666280321119 -0.031976170470608564 0 -0.0052332709703171434 -0.03174137527229582 0 -0.0049682546409545517 -0.031309177693006403 0 -0.0052332709703171434 -0.03174137527229582 0 -0.0049158303536810301 -0.031706990394973635 0 -0.0052332709703171434 -0.03174137527229582 0 -0.0049158303536810301 -0.031706990394973635 0 -0.0052191559220538895 -0.032060871586094795 0 -0.0047581219422614292 -0.032472200948910214 0 -0.0049158303536810301 -0.031706990394973635 0 -0.0052191559220538895 -0.032060871586094795 0 -0.0043432697247884969 -0.031942371018925969 0 -0.0047581219422614292 -0.032472200948910214 0 -0.0049158303536810301 -0.031706990394973635 0 -0.0046742122433330365 -0.031413022035808862 0 -0.0043432697247884969 -0.031942371018925969 0 -0.0049158303536810301 -0.031706990394973635 0 -0.0055033403751445498 -0.033324289473154481 0 -0.0045925635200755209 -0.033078651246422675 0 -0.0047166022470349908 -0.034167042996734225 0 -0.0061435174802823905 -0.033700654103393936 0 -0.0055033403751445498 -0.033324289473154481 0 -0.0054839938415437196 -0.033989060363750774 0 -0.0055033403751445498 -0.033324289473154481 0 -0.0047166022470349908 -0.034167042996734225 0 -0.0054839938415437196 -0.033989060363750774 0 -0.0058806577858108609 -0.032797290465484137 0 -0.0054378538965158679 -0.032501419768117212 0 -0.0055033403751445498 -0.033324289473154481 0 -0.0054378538965158679 -0.032501419768117212 0 -0.0055033403751445498 -0.033324289473154481 0 -0.0045925635200755209 -0.033078651246422675 0 -0.0035992316897569803 -0.032798598632588709 0 -0.0045925635200755209 -0.033078651246422675 0 -0.0040345209215243384 -0.033688788738596383 0 -0.0035992316897569803 -0.032798598632588709 0 -0.0040345209215243384 -0.033688788738596383 0 -0.0032282706314982297 -0.033966666759222268 0 -0.0040345209215243384 -0.033688788738596383 0 -0.0038830221518142416 -0.034487361243408871 0 -0.0032282706314982297 -0.033966666759222268 0 -0.0045925635200755209 -0.033078651246422675 0 -0.0040345209215243384 -0.033688788738596383 0 -0.0047166022470349908 -0.034167042996734225 0 -0.0040345209215243384 -0.033688788738596383 0 -0.0038830221518142416 -0.034487361243408871 0 -0.0047166022470349908 -0.034167042996734225 0 -0.0038830221518142416 -0.034487361243408871 0 -0.0046177479707034423 -0.03507426900752772 0 -0.0047166022470349908 -0.034167042996734225 0 -0.0038830221518142416 -0.034487361243408871 0 -0.0037467576134140031 -0.035215095403890027 0 -0.0029759516309159463 -0.034816834246533625 0 -0.0038830221518142416 -0.034487361243408871 0 -0.0037467576134140031 -0.035215095403890027 0 -0.0046177479707034423 -0.03507426900752772 0 -0.0046177479707034423 -0.03507426900752772 0 -0.0047166022470349908 -0.034167042996734225 0 -0.0056663193892648178 -0.034822194652990378 0 -0.0046177479707034423 -0.03507426900752772 0 -0.0056663193892648178 -0.034822194652990378 0 -0.0051696612763843797 -0.035776685974420255 0 -0.0061435174802823905 -0.033700654103393936 0 -0.0054839938415437196 -0.033989060363750774 0 -0.0056663193892648178 -0.034822194652990378 0 -0.0047166022470349908 -0.034167042996734225 0 -0.0054839938415437196 -0.033989060363750774 0 -0.0056663193892648178 -0.034822194652990378 0 -0.0060157250802340256 -0.035214204037046649 0 -0.0057142253048857753 -0.03443786029692307 0 -0.0051882590000831988 -0.035430425218043966 0 -0.0056916358829808269 -0.034620049853389449 0 -0.0051771743927616388 -0.035615526696589607 0 -0.0046177479707034423 -0.03507426900752772 0 -0.0051696612763843797 -0.035776685974420255 0 -0.0044185641717080183 -0.035967812184252129 0 -0.0051696612763843797 -0.035776685974420255 0 -0.004707341979717645 -0.036583445643234201 0 -0.0044185641717080183 -0.035967812184252129 0 -0.0051771743927616388 -0.035615526696589607 0 -0.0047344784113367401 -0.036526056845889061 0 -0.0060157250802340256 -0.035214204037046649 0 -0.0051882590000831988 -0.035430425218043966 0 -0.0056220481292861028 -0.036448578043125547 0 -0.0051882590000831988 -0.035430425218043966 0 -0.0056220481292861028 -0.036448578043125547 0 -0.004707341979717645 -0.036583445643234201 0 -0.0055405872429192858 -0.035100747338556393 0 -0.0055148226232819191 -0.035292046663660266 0 -0.0051226238917806907 -0.035415902688593501 0 -0.0056220481292861028 -0.036448578043125547 0 -0.004707341979717645 -0.036583445643234201 0 -0.0046823090265991048 -0.036991226576671678 0 -0.0057221804625400786 -0.036259874606367412 0 -0.0049390076914317439 -0.036120128436692864 0 -0.004707341979717645 -0.036583445643234201 0 -0.0046823090265991048 -0.036991226576671678 0 -0.0043366826702149423 -0.0367954911231387 0 -0.0055148226232819191 -0.035292046663660266 0 -0.0051089114636904825 -0.035529292831966271 0 -0.0051226238917806907 -0.035415902688593501 0 -0.0060853156059815193 -0.036387603598332152 0 -0.00581818682854323 -0.036108156260857595 0 -0.0062645893224081081 -0.036786268175842636 0 -0.0066564869246380437 -0.03673957433341532 0 -0.0063130183506153259 -0.036656437789418947 0 -0.0060684747103512023 -0.03661803410986756 0 -0.0062645893224081081 -0.036786268175842636 0 -0.0063130183506153259 -0.036656437789418947 0 -0.0039381730485560339 -0.037347795696088086 0 -0.0040199064894999356 -0.036618516275196793 0 -0.0034608021397146268 -0.036794031823205724 0 -0.0046823090265991048 -0.036991226576671678 0 -0.0039381730485560339 -0.037347795696088086 0 -0.0043366826702149423 -0.0367954911231387 0 -0.00581818682854323 -0.036108156260857595 0 -0.0060237255141284115 -0.036002793083363391 0 -0.0051089114636904825 -0.035529292831966271 0 -0.0051226238917806907 -0.035415902688593501 0 -0.0047565472711531154 -0.035693927899507989 0 -0.0051089114636904825 -0.035529292831966271 0 -0.0047565472711531154 -0.035693927899507989 0 -0.0047505395891990002 -0.035745282389169152 0 -0.0039381730485560339 -0.037347795696088086 0 -0.0043366826702149423 -0.0367954911231387 0 -0.0040199064894999356 -0.036618516275196793 0 -0.0049390076914317439 -0.036120128436692864 0 -0.0041619940173624132 -0.036587117366292825 0 -0.004707341979717645 -0.036583445643234201 0 -0.0043366826702149423 -0.0367954911231387 0 -0.0043750819483552106 -0.036457341768035868 0 -0.0043366826702149423 -0.0367954911231387 0 -0.0043750819483552106 -0.036457341768035868 0 -0.0040199064894999356 -0.036618516275196793 0 -0.0040199064894999356 -0.036618516275196793 0 -0.003532205485668211 -0.036119510721290958 0 -0.0032980559309560282 -0.036863745699277341 0 -0.0038816755334079049 -0.036678152973422064 0 -0.0035812607793825166 -0.036652446502616239 0 -0.0040199064894999356 -0.036618516275196793 0 -0.003532205485668211 -0.036119510721290958 0 -0.0044185641717080183 -0.035967812184252129 0 -0.0043750819483552106 -0.036457341768035868 0 -0.0040199064894999356 -0.036618516275196793 0 -0.0044185641717080183 -0.035967812184252129 0 -0.004707341979717645 -0.036583445643234201 0 -0.0043750819483552106 -0.036457341768035868 0 -0.0044185641717080183 -0.035967812184252129 0 -0.0037467576134140031 -0.035215095403890027 0 -0.0046177479707034423 -0.03507426900752772 0 -0.0044185641717080183 -0.035967812184252129 0 -0.0037467576134140031 -0.035215095403890027 0 -0.003532205485668211 -0.036119510721290958 0 -0.0044185641717080183 -0.035967812184252129 0 -0.0037467576134140031 -0.035215095403890027 0 -0.003532205485668211 -0.036119510721290958 0 -0.0029476547744785408 -0.035669375716802044 0 -0.0029476547744785408 -0.035669375716802044 0 -0.0023957716544275691 -0.036138487025985107 0 -0.0022072860352168127 -0.035208362324172265 0 -0.0029476547744785408 -0.035669375716802044 0 -0.0023957716544275691 -0.036138487025985107 0 -0.0029501701702232355 -0.036372719069331594 0 -0.003532205485668211 -0.036119510721290958 0 -0.0029476547744785408 -0.035669375716802044 0 -0.0029501701702232355 -0.036372719069331594 0 -0.003532205485668211 -0.036119510721290958 0 -0.0029501701702232355 -0.036372719069331594 0 -0.0032980559309560282 -0.036863745699277341 0 -0.0035812607793825166 -0.036652446502616239 0 -0.0022638449639334848 -0.039774316700799076 0 -0.0029501701702232355 -0.036372719069331594 0 -0.0032980559309560282 -0.036863745699277341 0 -0.0025766749432412947 -0.037081747601649277 0 -0.0023957716544275691 -0.036138487025985107 0 -0.0029501701702232355 -0.036372719069331594 0 -0.0025766749432412947 -0.037081747601649277 0 -0.0023254423548807021 -0.040450732395451598 0 -0.0022638449639334848 -0.039774316700799076 0 -0.0021731261760735061 -0.044276147160656081 0 -0.0022347402458171039 -0.044706308200067921 0 -0.0019570172708197613 -0.044566684839873777 0 -0.0029089639734839455 -0.036961901758129787 0 -0.0033328896647434993 -0.037314763143601708 0 -0.0030883569444844525 -0.037792369846719902 0 -0.0039381730485560339 -0.037347795696088086 0 -0.0034608021397146268 -0.036794031823205724 0 -0.0033328896647434993 -0.037314763143601708 0 -0.0034608021397146268 -0.036794031823205724 0 -0.0029089639734839455 -0.036961901758129787 0 -0.0033328896647434993 -0.037314763143601708 0 -0.0025546431066419953 -0.039593631636133206 0 -0.002478670246426313 -0.039619634033404731 0 -0.0025160373067360828 -0.03964806339695176 0 -0.0022347402458171039 -0.044706308200067921 0 -0.0017441678795376593 -0.044866694616131825 0 -0.0019570172708197613 -0.044566684839873777 0 -0.0022638449639334848 -0.039774316700799076 0 -0.0020823597264652549 -0.042550711401351617 0 -0.0017441678795376593 -0.044866694616131825 0 -0.0019570172708197613 -0.044566684839873777 0 -0.0016770009606489336 -0.044424639637869218 0 -0.0017441678795376593 -0.044866694616131825 0 -0.0016770009606489336 -0.044424639637869218 0 -0.0013604307349457359 -0.044619578949249075 0 -0.0021731261760735061 -0.044276147160656081 0 -0.0019570172708197613 -0.044566684839873777 0 -0.0016770009606489336 -0.044424639637869218 0 -0.0021731261760735061 -0.044276147160656081 0 -0.0016770009606489336 -0.044424639637869218 0 -0.0016565409919423446 -0.044001706397240194 0 -0.0021731261760735061 -0.044276147160656081 0 -0.0016565409919423446 -0.044001706397240194 0 -0.0021758080556930439 -0.043811263794085412 0 -0.0023254423548807021 -0.040450732395451598 0 -0.0021832317102728591 -0.039448169070694296 0 -0.0016770009606489336 -0.044424639637869218 0 -0.0016565409919423446 -0.044001706397240194 0 -0.0012050868390142602 -0.044194063258622455 0 -0.0022488211031108088 -0.043243255483677467 0 -0.0021758080556930439 -0.043811263794085412 0 -0.0013919495778798069 -0.043624064872957731 0 -0.0016565409919423446 -0.044001706397240194 0 -0.0021758080556930439 -0.043811263794085412 0 -0.0013919495778798069 -0.043624064872957731 0 -0.0022488211031108088 -0.043243255483677467 0 -0.0014903419759716772 -0.042960582570807877 0 -0.0013919495778798069 -0.043624064872957731 0 -0.0021400608861667325 -0.038751302611759776 0 -0.0021832317102728591 -0.039448169070694296 0 -0.0020160486543771955 -0.034271689383940575 0 -0.0029759516309159463 -0.034816834246533625 0 -0.0032282706314982297 -0.033966666759222268 0 -0.0029476547744785408 -0.035669375716802044 0 -0.0022072860352168127 -0.035208362324172265 0 -0.0029759516309159463 -0.034816834246533625 0 -0.0020160486543771955 -0.034271689383940575 0 -0.0022072860352168127 -0.035208362324172265 0 -0.0029759516309159463 -0.034816834246533625 0 -0.0037467576134140031 -0.035215095403890027 0 -0.0029476547744785408 -0.035669375716802044 0 -0.0029759516309159463 -0.034816834246533625 0 -0.0038830221518142416 -0.034487361243408871 0 -0.0029759516309159463 -0.034816834246533625 0 -0.0032282706314982297 -0.033966666759222268 0 -0.0020160486543771955 -0.034271689383940575 0 -0.0032282706314982297 -0.033966666759222268 0 -0.0026134642768858231 -0.033309154903860154 0 -0.0035992316897569803 -0.032798598632588709 0 -0.0032282706314982297 -0.033966666759222268 0 -0.0026134642768858231 -0.033309154903860154 0 -0.0020905416189653894 -0.032759545536890304 0 -0.0026134642768858231 -0.033309154903860154 0 -0.0018385342080024527 -0.033331279813043187 0 -0.0025381305396178382 -0.042321151614596049 0 -0.0014903419759716772 -0.042960582570807877 0 -0.001165392798804787 -0.041839592774400837 0 -0.0022488211031108088 -0.043243255483677467 0 -0.0025381305396178382 -0.042321151614596049 0 -0.0014903419759716772 -0.042960582570807877 0 -0.0021400608861667325 -0.038751302611759776 0 -0.0022159527637199638 -0.03778168118556164 0 -0.0020160486543771955 -0.034271689383940575 0 -0.0026134642768858231 -0.033309154903860154 0 -0.0018385342080024527 -0.033331279813043187 0 -0.00064584600416490849 -0.043281039269809161 0 -0.0014903419759716772 -0.042960582570807877 0 -0.00096677828476532325 -0.04244226988190513 0 -0.0014903419759716772 -0.042960582570807877 0 -0.001165392798804787 -0.041839592774400837 0 -0.00096677828476532325 -0.04244226988190513 0 -0.00039236406431866907 -0.041993881984045814 0 -0.001165392798804787 -0.041839592774400837 0 -0.00096677828476532325 -0.04244226988190513 0 -0.00039236406431866907 -0.041993881984045814 0 -0.00064584600416490849 -0.043281039269809161 0 -0.00096677828476532325 -0.04244226988190513 0 -0.00064584600416490849 -0.043281039269809161 0 -0.00023948369345671254 -0.042878509752065766 0 -0.0002874012279807434 -0.044164373684772391 0 -0.00023948369345671254 -0.042878509752065766 0 -0.0002874012279807434 -0.044164373684772391 0 -6.5761917840570304e-06 -0.043957147043867509 0 -0.00039236406431866907 -0.041993881984045814 0 -0.00064584600416490849 -0.043281039269809161 0 -0.00023948369345671254 -0.042878509752065766 0 -2.2196473735424477e-05 -0.043129786060387573 0 -0.00023948369345671254 -0.042878509752065766 0 -6.5761917840570304e-06 -0.043957147043867509 0 -0.00065078653617236333 -0.043351625979538289 0 -0.00037265180120715682 -0.043931790116603336 0 -0.00064584600416490849 -0.043281039269809161 0 -0.00047932114540504667 -0.043729988554034128 0 -0.00084399443128027683 -0.043816916868984514 0 -0.00047932114540504667 -0.043729988554034128 0 -0.00064394303414896492 -0.044205082025241954 0 -0.00022349184362144433 -0.044130909936028716 0 -0.00047932114540504667 -0.043729988554034128 0 -0.00084399443128027683 -0.043816916868984514 0 -0.00064394303414896492 -0.044205082025241954 0 -0.00084399443128027683 -0.043816916868984514 0 -0.0013919495778798069 -0.043624064872957731 0 -0.0012050868390142602 -0.044194063258622455 0 -0.00064584600416490849 -0.043281039269809161 0 -0.00084399443128027683 -0.043816916868984514 0 -0.0013919495778798069 -0.043624064872957731 0 -0.00064584600416490849 -0.043281039269809161 0 -0.0014903419759716772 -0.042960582570807877 0 -0.0013919495778798069 -0.043624064872957731 0 -0.00084399443128027683 -0.043816916868984514 0 -0.0012050868390142602 -0.044194063258622455 0 -0.00064394303414896492 -0.044205082025241954 0 -0.0016565409919423446 -0.044001706397240194 0 -0.0013919495778798069 -0.043624064872957731 0 -0.0012050868390142602 -0.044194063258622455 0 -0.0012050868390142602 -0.044194063258622455 0 -0.00095995351361338516 -0.044627638216777545 0 -0.00064394303414896492 -0.044205082025241954 0 -0.0012050868390142602 -0.044194063258622455 0 -0.0013604307349457359 -0.044619578949249075 0 -0.00095995351361338516 -0.044627638216777545 0 -0.0016770009606489336 -0.044424639637869218 0 -0.0012050868390142602 -0.044194063258622455 0 -0.0013604307349457359 -0.044619578949249075 0 -0.0013604307349457359 -0.044619578949249075 0 -0.00095995351361338516 -0.044627638216777545 0 -0.0012347563105306865 -0.044980499822435772 0 -0.00095995351361338516 -0.044627638216777545 0 -0.0012347563105306865 -0.044980499822435772 0 -0.0007790965139381678 -0.045054271553511868 0 -0.0020823597264652549 -0.042550711401351617 0 -0.0018225761500884497 -0.042236835373027873 0 -0.0017441678795376593 -0.044866694616131825 0 -0.0013604307349457359 -0.044619578949249075 0 -0.0012347563105306865 -0.044980499822435772 0 -0.00095995351361338516 -0.044627638216777545 0 -0.00061000772601509632 -0.044826072449966357 0 -0.0007790965139381678 -0.045054271553511868 0 -0.00095995351361338516 -0.044627638216777545 0 -0.00061000772601509632 -0.044826072449966357 0 -0.00060661336789190464 -0.044542965399154213 0 -0.00061000772601509632 -0.044826072449966357 0 -0.00060661336789190464 -0.044542965399154213 0 -0.00036363621768257544 -0.044755834107833778 0 -0.00060661336789190464 -0.044542965399154213 0 -0.00064394303414896492 -0.044205082025241954 0 -0.00032015170996945136 -0.044482869905052964 0 -0.00095995351361338516 -0.044627638216777545 0 -0.00060661336789190464 -0.044542965399154213 0 -0.00064394303414896492 -0.044205082025241954 0 -0.00064394303414896492 -0.044205082025241954 0 -0.00022349184362144433 -0.044130909936028716 0 -0.00032015170996945136 -0.044482869905052964 0 -0.00012603964930372539 -0.044416578044143153 0 9.8143992786247941e-06 -0.044734214750014809 0 -0.00022349184362144433 -0.044130909936028716 0 -0.00032015170996945136 -0.044482869905052964 0 -6.464443851740789e-06 -0.04453973180050641 0 -0.00032015170996945136 -0.044482869905052964 0 -0.00014767347067663191 -0.044685788256818744 0 -6.464443851740789e-06 -0.04453973180050641 0 -0.00032015170996945136 -0.044482869905052964 0 -0.00036363621768257544 -0.044755834107833778 0 -0.00014767347067663191 -0.044685788256818744 0 -0.00060661336789190464 -0.044542965399154213 0 -0.00032015170996945136 -0.044482869905052964 0 -0.00036363621768257544 -0.044755834107833778 0 -0.00036363621768257544 -0.044755834107833778 0 -0.00014767347067663191 -0.044685788256818744 0 -0.00013789115360875333 -0.044896216166927801 0 -0.00015670025496439713 -0.044585386263247005 0 -9.967169499833784e-05 -0.045210038799631792 0 -0.00036363621768257544 -0.044755834107833778 0 -0.00013789115360875333 -0.044896216166927801 0 -0.00040753256617307115 -0.045092494903999407 0 -0.00061000772601509632 -0.044826072449966357 0 -0.00036363621768257544 -0.044755834107833778 0 -0.00040753256617307115 -0.045092494903999407 0 1.8091440427089461e-08 -0.044999893576033297 0 -1.9474786469950395e-06 -0.044948532573122139 0 1.0856061213769545e-05 -0.044983472879129842 0 1.8091440427089461e-08 -0.044999893576033297 0 -1.9474786469950395e-06 -0.044948532573122139 0 -2.2282038308307035e-05 -0.044997102498608908 0 -0.00010928065623768 -0.044967286716204896 0 -4.4583900604507572e-05 -0.044911328723139562 0 -2.2282038308307035e-05 -0.044997102498608908 0 -1.9474786469950395e-06 -0.044948532573122139 0 -4.4583900604507572e-05 -0.044911328723139562 0 -2.2282038308307035e-05 -0.044997102498608908 0 -0.00014767347067663191 -0.044685788256818744 0 -4.4583900604507572e-05 -0.044911328723139562 0 -2.1129375562532693e-05 -0.044821710682394329 0 -2.1129375562532693e-05 -0.044821710682394329 0 1.0856061213769545e-05 -0.044983472879129842 0 -6.464443851740789e-06 -0.04453973180050641 0 -1.9474786469950395e-06 -0.044948532573122139 0 -4.4583900604507572e-05 -0.044911328723139562 0 -2.1129375562532693e-05 -0.044821710682394329 0 -0.00014767347067663191 -0.044685788256818744 0 -0.00010928065623768 -0.044967286716204896 0 -4.4583900604507572e-05 -0.044911328723139562 0 -1.9474786469950395e-06 -0.044948532573122139 0 -2.1129375562532693e-05 -0.044821710682394329 0 1.0856061213769545e-05 -0.044983472879129842 0 1.8091440427089461e-08 -0.044999893576033297 0 4.3877452406634434e-08 -0.044999862763380832 0 1.0856061213769545e-05 -0.044983472879129842 0 4.3877452406634434e-08 -0.044999862763380832 0 1.0856061213769545e-05 -0.044983472879129842 0 5.2004507434259771e-05 -0.044927205904849096 0 4.3877452406634434e-08 -0.044999862763380832 0 5.2004507434259771e-05 -0.044927205904849096 0 1.3765393688039925e-07 -0.044999722901135256 0 1.6622567527849451e-05 -0.044946732089413015 0 9.8143992786247941e-06 -0.044734214750014809 0 -0.00014767347067663191 -0.044685788256818744 0 -2.1129375562532693e-05 -0.044821710682394329 0 -6.464443851740789e-06 -0.04453973180050641 0 -3.2253974733157894e-05 -0.044706801861344118 0 5.2004507434259771e-05 -0.044927205904849096 0 8.4966433066700474e-05 -0.044818619251587137 0 5.2004507434259771e-05 -0.044927205904849096 0 1.3765393688039925e-07 -0.044999722901135256 0 8.4966433066700474e-05 -0.044818619251587137 0 1.3765393688039925e-07 -0.044999722901135256 0 -3.3971787873144342e-08 -0.044999884690753125 0 8.4966433066700474e-05 -0.044818619251587137 0 -3.3971787873144342e-08 -0.044999884690753125 0 0.00013134387545077548 -0.044545783850565818 0 8.4966433066700474e-05 -0.044818619251587137 0 -0.0002874012279807434 -0.044164373684772391 0 -3.2253974733157894e-05 -0.044706801861344118 0 -6.5761917840570304e-06 -0.043957147043867509 0 -3.2253974733157894e-05 -0.044706801861344118 0 0.00013134387545077548 -0.044545783850565818 0 8.4966433066700474e-05 -0.044818619251587137 0 -3.2253974733157894e-05 -0.044706801861344118 0 0.00013134387545077548 -0.044545783850565818 0 -6.5761917840570304e-06 -0.043957147043867509 0 -0.00037265180120715682 -0.043931790116603336 0 -0.00012603964930372539 -0.044416578044143153 0 0.00013134387545077548 -0.044545783850565818 0 -6.5761917840570304e-06 -0.043957147043867509 0 0.00013060795380815112 -0.044051684698648876 0 0.00014697371337705112 -0.043378046437554163 0 -2.2196473735424477e-05 -0.043129786060387573 0 0.00013060795380815112 -0.044051684698648876 0 -2.2196473735424477e-05 -0.043129786060387573 0 -6.5761917840570304e-06 -0.043957147043867509 0 0.00013060795380815112 -0.044051684698648876 0 0.00038110616958183174 -0.043842297882953636 0 0.00013060795380815112 -0.044051684698648876 0 0.00014985705026612279 -0.04467533058872946 0 0.00038110616958183174 -0.043842297882953636 0 1.1415885320381653e-06 -0.044997385512926209 0 0.00014985705026612279 -0.04467533058872946 0 -3.3971787873144342e-08 -0.044999884690753125 0 1.1415885320381653e-06 -0.044997385512926209 0 0.00014985705026612279 -0.04467533058872946 0 -3.3971787873144342e-08 -0.044999884690753125 0 0.00013134387545077548 -0.044545783850565818 0 0.00014985705026612279 -0.04467533058872946 0 0.00013134387545077548 -0.044545783850565818 0 0.00013060795380815112 -0.044051684698648876 0 0.00014985705026612279 -0.04467533058872946 0 -0.00036621431128008034 -0.044154466314337976 0 -0.00013790821790027376 -0.044465793502542941 0 -0.00019836540581479289 -0.043857014419104709 0 -0.00036621431128008034 -0.044154466314337976 0 -0.00013790821790027376 -0.044465793502542941 0 -1.7328387839292891e-07 -0.044999087373741142 0 -0.00013790821790027376 -0.044465793502542941 0 -1.7328387839292891e-07 -0.044999087373741142 0 1.3171019056635734e-07 -0.044998634940182802 0 -0.00036621431128008034 -0.044154466314337976 0 -1.7328387839292891e-07 -0.044999087373741142 0 -0.00039088560295732019 -0.044315439796070194 0 -1.7328387839292891e-07 -0.044999087373741142 0 -0.00039088560295732019 -0.044315439796070194 0 -2.6913670910197108e-07 -0.044999124971079905 0 -0.00036621431128008034 -0.044154466314337976 0 -0.00085680571859856442 -0.043721164245475272 0 -0.00039088560295732019 -0.044315439796070194 0 -0.00036621431128008034 -0.044154466314337976 0 -0.0007368961340344822 -0.043585261366719655 0 -0.00085680571859856442 -0.043721164245475272 0 -0.0012007150755948832 -0.043295040262671322 0 -0.0007368961340344822 -0.043585261366719655 0 -0.00085680571859856442 -0.043721164245475272 0 -0.0010897689320421647 -0.043127860066065872 0 -0.0007368961340344822 -0.043585261366719655 0 -0.00078107799765577952 -0.043148495736246503 0 -0.0012007150755948832 -0.043295040262671322 0 -0.0010897689320421647 -0.043127860066065872 0 -0.0007368961340344822 -0.043585261366719655 0 -0.00036621431128008034 -0.044154466314337976 0 -0.0007368961340344822 -0.043585261366719655 0 -0.00019836540581479289 -0.043857014419104709 0 -0.00078107799765577952 -0.043148495736246503 0 -0.00048985146381320705 -0.043108153278774528 0 -0.00019836540581479289 -0.043857014419104709 0 -0.0007368961340344822 -0.043585261366719655 0 -0.00078107799765577952 -0.043148495736246503 0 -0.00019836540581479289 -0.043857014419104709 0 -0.0010897689320421647 -0.043127860066065872 0 -0.00078107799765577952 -0.043148495736246503 0 -0.0013487931102371346 -0.042615204028571579 0 -0.00078107799765577952 -0.043148495736246503 0 -0.001089798930898849 -0.042443455107704635 0 -0.0013487931102371346 -0.042615204028571579 0 -0.00078107799765577952 -0.043148495736246503 0 -0.001089798930898849 -0.042443455107704635 0 -0.00048985146381320705 -0.043108153278774528 0 -0.001089798930898849 -0.042443455107704635 0 -0.00048985146381320705 -0.043108153278774528 0 -0.00082907427871749186 -0.0420907651486793 0 -0.001089798930898849 -0.042443455107704635 0 -0.00082907427871749186 -0.0420907651486793 0 -0.0013173005359268968 -0.041702839728679629 0 -0.00048985146381320705 -0.043108153278774528 0 0.00016339435692812378 -0.043644426628891411 0 -0.00019836540581479289 -0.043857014419104709 0 -0.00048985146381320705 -0.043108153278774528 0 0.00016339435692812378 -0.043644426628891411 0 -0.00082907427871749186 -0.0420907651486793 0 0.00016339435692812378 -0.043644426628891411 0 -0.00019836540581479289 -0.043857014419104709 0 1.3171019056635734e-07 -0.044998634940182802 0 -0.00013790821790027376 -0.044465793502542941 0 -0.00019836540581479289 -0.043857014419104709 0 1.3171019056635734e-07 -0.044998634940182802 0 0.00016339435692812378 -0.043644426628891411 0 1.3171019056635734e-07 -0.044998634940182802 0 -2.2213220281144948e-07 -0.044998985289480105 0 0.00016339435692812378 -0.043644426628891411 0 -2.2213220281144948e-07 -0.044998985289480105 0 4.3114679845188575e-05 -0.044898348394451129 0 0.00016339435692812378 -0.043644426628891411 0 0.00046060397272334021 -0.044762142489543091 0 4.3114679845188575e-05 -0.044898348394451129 0 0.00022935415102409544 -0.043679778017109705 0 0.00039042172074971215 -0.042843870388746159 0 0.00046060397272334021 -0.044762142489543091 0 4.3114679845188575e-05 -0.044898348394451129 0 0.00013252263258370077 -0.045126069635712807 0 -2.2213220281144948e-07 -0.044998985289480105 0 4.3114679845188575e-05 -0.044898348394451129 0 6.8150916642402108e-08 -0.045000494326968052 0 -2.2979833528245243e-08 -0.045000099715869366 0 -2.3780315025914703e-05 -0.045014505386493882 0 -2.2282038308307035e-05 -0.044997102498608908 0 4.3114679845188575e-05 -0.044898348394451129 0 6.8150916642402108e-08 -0.045000494326968052 0 0.00013252263258370077 -0.045126069635712807 0 -5.4972837944590751e-08 -0.045000018326813038 0 0.00017349010215299453 -0.045064062580508067 0 0.00039042172074971215 -0.042843870388746159 0 -0.00017200681986579835 -0.043793029669610739 0 -2.3780315025914703e-05 -0.045014505386493882 0 -2.2282038308307035e-05 -0.044997102498608908 0 -6.6709226581428656e-05 -0.04502122814087179 0 0.00046060397272334021 -0.044762142489543091 0 0.00013252263258370077 -0.045126069635712807 0 0.00046068037487881065 -0.045200585178660921 0 0.00017349010215299453 -0.045064062580508067 0 -0.00017200681986579835 -0.043793029669610739 0 -0.00010928065623768 -0.044967286716204896 0 -2.2282038308307035e-05 -0.044997102498608908 0 -6.6709226581428656e-05 -0.04502122814087179 0 1.8091440427089461e-08 -0.044999893576033297 0 -2.2979833528245243e-08 -0.045000099715869366 0 -2.2282038308307035e-05 -0.044997102498608908 0 -9.967169499833784e-05 -0.045210038799631792 0 -0.00017200681986579835 -0.043793029669610739 0 -0.00013789115360875333 -0.044896216166927801 0 -0.00040753256617307115 -0.045092494903999407 0 -0.00012024278276205879 -0.045143130743759224 0 0.00034047075099712825 -0.041390502494547392 0 0.00021658932559756537 -0.040096039097441645 0 -0.00073689047414575405 -0.040690059953071088 0 -0.00070486702851796216 -0.042279756412643012 0 -0.00017200681986579835 -0.043793029669610739 0 -0.0010408852266022379 -0.039763180140174756 0 0.00021658932559756537 -0.040096039097441645 0 -0.00073689047414575405 -0.040690059953071088 0 -0.0010408852266022379 -0.039763180140174756 0 -0.00073689047414575405 -0.040690059953071088 0 -0.0016842965030064981 -0.040088309310831675 0 -0.00073689047414575405 -0.040690059953071088 0 -0.00082907427871749186 -0.0420907651486793 0 -0.0014036682060597804 -0.041006104415141652 0 0.00034047075099712825 -0.041390502494547392 0 -0.00073689047414575405 -0.040690059953071088 0 -0.00082907427871749186 -0.0420907651486793 0 0.00016339435692812378 -0.043644426628891411 0 0.00034047075099712825 -0.041390502494547392 0 -0.00082907427871749186 -0.0420907651486793 0 -0.00082907427871749186 -0.0420907651486793 0 -0.0013173005359268968 -0.041702839728679629 0 -0.0014036682060597804 -0.041006104415141652 0 -0.0013173005359268968 -0.041702839728679629 0 -0.0016868818799033378 -0.041131619034375705 0 -0.0015444261175883327 -0.041790643367737856 0 -0.0013173005359268968 -0.041702839728679629 0 -0.0016868818799033378 -0.041131619034375705 0 -0.0014036682060597804 -0.041006104415141652 0 -0.0018533542246216687 -0.041177943249058158 0 -0.0016868818799033378 -0.041131619034375705 0 -0.0020571917928811087 -0.040605351235095233 0 -0.0018533542246216687 -0.041177943249058158 0 -0.0016868818799033378 -0.041131619034375705 0 -0.0015444261175883327 -0.041790643367737856 0 -0.0016868818799033378 -0.041131619034375705 0 -0.001874805909612189 -0.040533052325211073 0 -0.0020571917928811087 -0.040605351235095233 0 -0.001874805909612189 -0.040533052325211073 0 -0.0016842965030064981 -0.040088309310831675 0 -0.0021301861533130897 -0.040046310347680782 0 -0.001874805909612189 -0.040533052325211073 0 -0.002156922703182958 -0.040217087866964762 0 -0.0020571917928811087 -0.040605351235095233 0 -0.001874805909612189 -0.040533052325211073 0 -0.0021301861533130897 -0.040046310347680782 0 -0.002156922703182958 -0.040217087866964762 0 -0.001874805909612189 -0.040533052325211073 0 -0.0014036682060597804 -0.041006104415141652 0 -0.0016842965030064981 -0.040088309310831675 0 -0.0016868818799033378 -0.041131619034375705 0 -0.001874805909612189 -0.040533052325211073 0 -0.0014036682060597804 -0.041006104415141652 0 -0.00073689047414575405 -0.040690059953071088 0 -0.0014036682060597804 -0.041006104415141652 0 -0.0016842965030064981 -0.040088309310831675 0 -0.0016842965030064981 -0.040088309310831675 0 -0.0021301861533130897 -0.040046310347680782 0 -0.0021554627346885248 -0.039763448741522579 0 -0.0016842965030064981 -0.040088309310831675 0 -0.0019449835722284408 -0.0395633600114337 0 -0.0021554627346885248 -0.039763448741522579 0 -0.00070486702851796216 -0.042279756412643012 0 -0.0013547156387978721 -0.042339323402610748 0 -0.00061000772601509632 -0.044826072449966357 0 -0.00040753256617307115 -0.045092494903999407 0 -0.0007790965139381678 -0.045054271553511868 0 -0.0010408852266022379 -0.039763180140174756 0 -0.0016842965030064981 -0.040088309310831675 0 -0.0019449835722284408 -0.0395633600114337 0 -0.0023982280871173212 -0.039587403444859455 0 -0.0023621864909868775 -0.039774059192390951 0 -0.0024537191188707236 -0.039708738300765989 0 -0.0023982280871173212 -0.039587403444859455 0 -0.0024537191188707236 -0.039708738300765989 0 -0.0024795581291763204 -0.039674242850828115 0 -0.0018225761500884497 -0.042236835373027873 0 -0.0013547156387978721 -0.042339323402610748 0 -0.0023982280871173212 -0.039587403444859455 0 -0.0023621864909868775 -0.039774059192390951 0 -0.0021554627346885248 -0.039763448741522579 0 -0.0023982280871173212 -0.039587403444859455 0 -0.0019449835722284408 -0.0395633600114337 0 -0.0021554627346885248 -0.039763448741522579 0 -0.0021301861533130897 -0.040046310347680782 0 -0.0023621864909868775 -0.039774059192390951 0 -0.0021554627346885248 -0.039763448741522579 0 -0.0021301861533130897 -0.040046310347680782 0 -0.0023621864909868775 -0.039774059192390951 0 -0.0023352989971782323 -0.039906631481022296 0 -0.0023621864909868775 -0.039774059192390951 0 -0.002458420553726783 -0.039740647468063287 0 -0.0023352989971782323 -0.039906631481022296 0 -0.002458420553726783 -0.039740647468063287 0 -0.0024757270485340011 -0.039695025127275942 0 -0.0024965496234912476 -0.039615879551915457 0 -0.0023621864909868775 -0.039774059192390951 0 -0.002458420553726783 -0.039740647468063287 0 -0.0024537191188707236 -0.039708738300765989 0 -0.0024537191188707236 -0.039708738300765989 0 -0.0024757270485340011 -0.039695025127275942 0 -0.0024696134564639663 -0.039703342168279587 0 -0.002458420553726783 -0.039740647468063287 0 -0.0024537191188707236 -0.039708738300765989 0 -0.0024757270485340011 -0.039695025127275942 0 -0.002458420553726783 -0.039740647468063287 0 -0.0024274930664849883 -0.039783873227747513 0 -0.0024965496234912476 -0.039615879551915457 0 -0.0024274930664849883 -0.039783873227747513 0 -0.0024965496234912476 -0.039615879551915457 0 -0.0024896871290526379 -0.039680126997348776 0 -0.0024965496234912476 -0.039615879551915457 0 -0.0024896871290526379 -0.039680126997348776 0 -0.0025115066458524212 -0.039431402677113328 0 -0.0024274930664849883 -0.039783873227747513 0 -0.0024896871290526379 -0.039680126997348776 0 -0.0023214323536520165 -0.04005260966307421 0 -0.0024896871290526379 -0.039680126997348776 0 -0.0023214323536520165 -0.04005260966307421 0 -0.0025766467681171607 -0.039871917748527816 0 -0.0029215516645842172 -0.039239296252831277 0 -0.0025115066458524212 -0.039431402677113328 0 -0.0031907469173863886 -0.038717281755657397 0 -0.0026718443887503557 -0.039522479228508697 0 -0.0029215516645842172 -0.039239296252831277 0 -0.0025115066458524212 -0.039431402677113328 0 -0.0024896871290526379 -0.039680126997348776 0 -0.0026718443887503557 -0.039522479228508697 0 -0.0025115066458524212 -0.039431402677113328 0 -0.0021301861533130897 -0.040046310347680782 0 -0.0023352989971782323 -0.039906631481022296 0 -0.002156922703182958 -0.040217087866964762 0 -0.002458420553726783 -0.039740647468063287 0 -0.0024274930664849883 -0.039783873227747513 0 -0.0023352989971782323 -0.039906631481022296 0 -0.0024274930664849883 -0.039783873227747513 0 -0.0023352989971782323 -0.039906631481022296 0 -0.0023214323536520165 -0.04005260966307421 0 -0.0023352989971782323 -0.039906631481022296 0 -0.0023214323536520165 -0.04005260966307421 0 -0.002156922703182958 -0.040217087866964762 0 -0.0023214323536520165 -0.04005260966307421 0 -0.002156922703182958 -0.040217087866964762 0 -0.0020571917928811087 -0.040605351235095233 0 -0.0023214323536520165 -0.04005260966307421 0 -0.0022917824428900784 -0.040355509993152738 0 -0.0025766467681171607 -0.039871917748527816 0 -0.0023214323536520165 -0.04005260966307421 0 -0.0020571917928811087 -0.040605351235095233 0 -0.0022917824428900784 -0.040355509993152738 0 -0.0022917824428900784 -0.040355509993152738 0 -0.0021352662698962488 -0.040817660947113234 0 -0.0024088274011985775 -0.040447685297230231 0 -0.0018533542246216687 -0.041177943249058158 0 -0.0020571917928811087 -0.040605351235095233 0 -0.0021352662698962488 -0.040817660947113234 0 -0.0020571917928811087 -0.040605351235095233 0 -0.0022917824428900784 -0.040355509993152738 0 -0.0021352662698962488 -0.040817660947113234 0 -0.0026718443887503557 -0.039522479228508697 0 -0.0025766467681171607 -0.039871917748527816 0 -0.003027590015458193 -0.039456917467606573 0 -0.0025766467681171607 -0.039871917748527816 0 -0.0029160366372019916 -0.040032478372420036 0 -0.003027590015458193 -0.039456917467606573 0 -0.0026718443887503557 -0.039522479228508697 0 -0.0029215516645842172 -0.039239296252831277 0 -0.003027590015458193 -0.039456917467606573 0 -0.0024896871290526379 -0.039680126997348776 0 -0.0026718443887503557 -0.039522479228508697 0 -0.0025766467681171607 -0.039871917748527816 0 -0.0022917824428900784 -0.040355509993152738 0 -0.0025766467681171607 -0.039871917748527816 0 -0.0024088274011985775 -0.040447685297230231 0 -0.0025766467681171607 -0.039871917748527816 0 -0.0024088274011985775 -0.040447685297230231 0 -0.0029160366372019916 -0.040032478372420036 0 -0.0029160366372019916 -0.040032478372420036 0 -0.0025723827746150295 -0.040667346135673778 0 -0.0029140395896096855 -0.040643748758227731 0 -0.0024088274011985775 -0.040447685297230231 0 -0.0025723827746150295 -0.040667346135673778 0 -0.0022821328452080677 -0.040919073941081047 0 -0.0024088274011985775 -0.040447685297230231 0 -0.0029160366372019916 -0.040032478372420036 0 -0.0025723827746150295 -0.040667346135673778 0 -0.0025723827746150295 -0.040667346135673778 0 -0.0029140395896096855 -0.040643748758227731 0 -0.002382712535076395 -0.041258001104935486 0 -0.0025723827746150295 -0.040667346135673778 0 -0.002382712535076395 -0.041258001104935486 0 -0.0022821328452080677 -0.040919073941081047 0 -0.0029140395896096855 -0.040643748758227731 0 -0.0028013152116941366 -0.041292418894683602 0 -0.002382712535076395 -0.041258001104935486 0 -0.0028013152116941366 -0.041292418894683602 0 -0.002382712535076395 -0.041258001104935486 0 -0.0022745735258639377 -0.042038300909256955 0 -0.002382712535076395 -0.041258001104935486 0 -0.0019638164125193387 -0.041907783261607705 0 -0.0022745735258639377 -0.042038300909256955 0 -0.002382712535076395 -0.041258001104935486 0 -0.0019638164125193387 -0.041907783261607705 0 -0.0019561871691698182 -0.04141494702301117 0 -0.002382712535076395 -0.041258001104935486 0 -0.0019561871691698182 -0.04141494702301117 0 -0.0022821328452080677 -0.040919073941081047 0 -0.0021352662698962488 -0.040817660947113234 0 -0.0024088274011985775 -0.040447685297230231 0 -0.0022821328452080677 -0.040919073941081047 0 -0.0018533542246216687 -0.041177943249058158 0 -0.0021352662698962488 -0.040817660947113234 0 -0.0019561871691698182 -0.04141494702301117 0 -0.0021352662698962488 -0.040817660947113234 0 -0.0019561871691698182 -0.04141494702301117 0 -0.0022821328452080677 -0.040919073941081047 0 -0.0018533542246216687 -0.041177943249058158 0 -0.0019561871691698182 -0.04141494702301117 0 -0.0015444261175883327 -0.041790643367737856 0 -0.0019561871691698182 -0.04141494702301117 0 -0.0015444261175883327 -0.041790643367737856 0 -0.0016820347147081078 -0.042038408234585871 0 -0.001089798930898849 -0.042443455107704635 0 -0.0015444261175883327 -0.041790643367737856 0 -0.0013487931102371346 -0.042615204028571579 0 -0.001089798930898849 -0.042443455107704635 0 -0.0013173005359268968 -0.041702839728679629 0 -0.0015444261175883327 -0.041790643367737856 0 -0.0015444261175883327 -0.041790643367737856 0 -0.0013487931102371346 -0.042615204028571579 0 -0.0016820347147081078 -0.042038408234585871 0 -0.0013487931102371346 -0.042615204028571579 0 -0.0016820347147081078 -0.042038408234585871 0 -0.0017044974958752191 -0.042503142938886108 0 -0.0019638164125193387 -0.041907783261607705 0 -0.0016820347147081078 -0.042038408234585871 0 -0.0017044974958752191 -0.042503142938886108 0 -0.0019638164125193387 -0.041907783261607705 0 -0.0019561871691698182 -0.04141494702301117 0 -0.0016820347147081078 -0.042038408234585871 0 -0.0013487931102371346 -0.042615204028571579 0 -0.0017044974958752191 -0.042503142938886108 0 -0.0014410716009338586 -0.042925538245090933 0 -0.0012007150755948832 -0.043295040262671322 0 -0.0010897689320421647 -0.043127860066065872 0 -0.0014410716009338586 -0.042925538245090933 0 -0.0010897689320421647 -0.043127860066065872 0 -0.0013487931102371346 -0.042615204028571579 0 -0.0014410716009338586 -0.042925538245090933 0 -0.0012007150755948832 -0.043295040262671322 0 -0.0014410716009338586 -0.042925538245090933 0 -0.0016589959814636958 -0.042921612730763045 0 -0.0014410716009338586 -0.042925538245090933 0 -0.0016527747771310987 -0.042776088796958232 0 -0.0016589959814636958 -0.042921612730763045 0 -0.0017044974958752191 -0.042503142938886108 0 -0.0016527747771310987 -0.042776088796958232 0 -0.0018199386632752061 -0.042619534071216353 0 -0.0016527747771310987 -0.042776088796958232 0 -0.0016860296921520966 -0.04267265907422077 0 -0.0016589959814636958 -0.042921612730763045 0 -0.0017044974958752191 -0.042503142938886108 0 -0.0014410716009338586 -0.042925538245090933 0 -0.0016527747771310987 -0.042776088796958232 0 -0.0016527747771310987 -0.042776088796958232 0 -0.0018199386632752061 -0.042619534071216353 0 -0.0016860296921520966 -0.04267265907422077 0 -0.0018199386632752061 -0.042619534071216353 0 -0.0022745735258639377 -0.042038300909256955 0 -0.0027075644554997612 -0.042765524933571226 0 -0.0018199386632752061 -0.042619534071216353 0 -0.0027075644554997612 -0.042765524933571226 0 -0.0014528799808535215 -0.042396758274632775 0 -0.0022745735258639377 -0.042038300909256955 0 -0.0031828848550284109 -0.041789840257813599 0 -0.0027075644554997612 -0.042765524933571226 0 -0.0028013152116941366 -0.041292418894683602 0 -0.0022745735258639377 -0.042038300909256955 0 -0.0031828848550284109 -0.041789840257813599 0 -0.0017044974958752191 -0.042503142938886108 0 -0.0018199386632752061 -0.042619534071216353 0 -0.0022745735258639377 -0.042038300909256955 0 -0.0019638164125193387 -0.041907783261607705 0 -0.0017044974958752191 -0.042503142938886108 0 -0.0022745735258639377 -0.042038300909256955 0 -0.0044073796725311379 -0.04206754670207228 0 -0.0031828848550284109 -0.041789840257813599 0 -0.0039039349953274142 -0.041163256034440224 0 -0.0044073796725311379 -0.04206754670207228 0 -0.0031828848550284109 -0.041789840257813599 0 -0.0027075644554997612 -0.042765524933571226 0 -0.0034943890092648663 -0.040968984417774433 0 -0.0023498904526979485 -0.041573224119382517 0 -0.0031953610795096574 -0.03907197291074048 0 -0.0016689189687431102 -0.040621227458760775 0 -0.0024917203904333044 -0.041146124879248916 0 -0.0031953610795096574 -0.03907197291074048 0 -0.0037451623212000781 -0.040516362730851734 0 -0.0024917203904333044 -0.041146124879248916 0 -0.0037451623212000781 -0.040516362730851734 0 -0.004811335701268577 -0.039501792615924389 0 -0.0048208209493384247 -0.041121838968523672 0 -0.0031953610795096574 -0.03907197291074048 0 -0.0037451623212000781 -0.040516362730851734 0 -0.004811335701268577 -0.039501792615924389 0 -0.0076497369180087644 -0.034703267125234798 0 -0.0044523185120213023 -0.035556249096638237 0 -0.0097412868994378159 -0.030744371924571762 0 -0.0086372779764380368 -0.030482124441759201 0 -0.0095233135750996713 -0.029623602909245324 0 -0.0076497369180087644 -0.034703267125234798 0 -0.0067231300462133863 -0.036992152845915484 0 -0.0097412868994378159 -0.030744371924571762 0 -0.010151196523383164 -0.032168816950820155 0 -0.0090446802447299128 -0.031525167102048189 0 -0.0031953610795096574 -0.03907197291074048 0 -0.004811335701268577 -0.039501792615924389 0 -0.0047886275570417072 -0.037853850369385933 0 -0.0034943890092648663 -0.040968984417774433 0 -0.0067231300462133863 -0.036992152845915484 0 -0.0044073796725311379 -0.04206754670207228 0 -0.0054700483286588041 -0.040366189625417138 0 -0.0064666509736213563 -0.040499861984524849 0 -0.0044073796725311379 -0.04206754670207228 0 -0.0054700483286588041 -0.040366189625417138 0 -0.0047128105688053574 -0.040361157631643517 0 -0.0054700483286588041 -0.040366189625417138 0 -0.0064666509736213563 -0.040499861984524849 0 -0.0063523901520719924 -0.039200418622228159 0 -0.0054700483286588041 -0.040366189625417138 0 -0.0055405442064981837 -0.039331809382902469 0 -0.0047128105688053574 -0.040361157631643517 0 -0.0067231300462133863 -0.036992152845915484 0 -0.0085378697052328235 -0.03559022064933863 0 -0.0063750717982750445 -0.039868250086166457 0 -0.0063523901520719924 -0.039200418622228159 0 -0.0073840039319943325 -0.03835317183080033 0 -0.010151196523383164 -0.032168816950820155 0 -0.0094337486434758963 -0.033190854088353296 0 -0.0090446802447299128 -0.031525167102048189 0 -0.0067231300462133863 -0.036992152845915484 0 -0.0065461831719241205 -0.039766817314422935 0 -0.0063523901520719924 -0.039200418622228159 0 -0.0067687308319722955 -0.038217767468536307 0 -0.0073840039319943325 -0.03835317183080033 0 -0.0063523901520719924 -0.039200418622228159 0 -0.0061643604597995862 -0.038500989343447249 0 -0.0067687308319722955 -0.038217767468536307 0 -0.0061643604597995862 -0.038500989343447249 0 -0.0067687308319722955 -0.038217767468536307 0 -0.0066690027314887683 -0.037650423118656511 0 -0.0055405442064981837 -0.039331809382902469 0 -0.0047994143423505066 -0.039445603280515072 0 -0.0047128105688053574 -0.040361157631643517 0 -0.0054700483286588041 -0.040366189625417138 0 -0.0063523901520719924 -0.039200418622228159 0 -0.0055405442064981837 -0.039331809382902469 0 -0.0063523901520719924 -0.039200418622228159 0 -0.0061643604597995862 -0.038500989343447249 0 -0.0055405442064981837 -0.039331809382902469 0 -0.0061643604597995862 -0.038500989343447249 0 -0.0055405442064981837 -0.039331809382902469 0 -0.0055179608038727771 -0.03861594847857211 0 -0.0055405442064981837 -0.039331809382902469 0 -0.0047994143423505066 -0.039445603280515072 0 -0.0055179608038727771 -0.03861594847857211 0 -0.0047994143423505066 -0.039445603280515072 0 -0.0048972125989145878 -0.038865232894842623 0 -0.0055179608038727771 -0.03861594847857211 0 -0.0047994143423505066 -0.039445603280515072 0 -0.0048972125989145878 -0.038865232894842623 0 -0.0042349026758454252 -0.039318969184715287 0 -0.0040746598453776008 -0.040156989498983407 0 -0.0035085821757960991 -0.039998002368170527 0 -0.0042349026758454252 -0.039318969184715287 0 -0.0047994143423505066 -0.039445603280515072 0 -0.0040746598453776008 -0.040156989498983407 0 -0.0042349026758454252 -0.039318969184715287 0 -0.0047994143423505066 -0.039445603280515072 0 -0.0040746598453776008 -0.040156989498983407 0 -0.0047128105688053574 -0.040361157631643517 0 -0.0044073796725311379 -0.04206754670207228 0 -0.0047128105688053574 -0.040361157631643517 0 -0.0039039349953274142 -0.041163256034440224 0 -0.0040746598453776008 -0.040156989498983407 0 -0.0047128105688053574 -0.040361157631643517 0 -0.0039039349953274142 -0.041163256034440224 0 -0.0028013152116941366 -0.041292418894683602 0 -0.0031828848550284109 -0.041789840257813599 0 -0.0034206035551278642 -0.040703205187926403 0 -0.0031828848550284109 -0.041789840257813599 0 -0.0039039349953274142 -0.041163256034440224 0 -0.0034206035551278642 -0.040703205187926403 0 -0.0040746598453776008 -0.040156989498983407 0 -0.0039039349953274142 -0.041163256034440224 0 -0.0034206035551278642 -0.040703205187926403 0 -0.0029140395896096855 -0.040643748758227731 0 -0.0028013152116941366 -0.041292418894683602 0 -0.0034206035551278642 -0.040703205187926403 0 -0.0029140395896096855 -0.040643748758227731 0 -0.0034206035551278642 -0.040703205187926403 0 -0.0035085821757960991 -0.039998002368170527 0 -0.0040746598453776008 -0.040156989498983407 0 -0.0034206035551278642 -0.040703205187926403 0 -0.0035085821757960991 -0.039998002368170527 0 -0.0029160366372019916 -0.040032478372420036 0 -0.0029140395896096855 -0.040643748758227731 0 -0.0035085821757960991 -0.039998002368170527 0 -0.0029160366372019916 -0.040032478372420036 0 -0.003583378965080368 -0.039398600947803154 0 -0.003027590015458193 -0.039456917467606573 0 -0.0029160366372019916 -0.040032478372420036 0 -0.0035085821757960991 -0.039998002368170527 0 -0.003583378965080368 -0.039398600947803154 0 -0.0035085821757960991 -0.039998002368170527 0 -0.003583378965080368 -0.039398600947803154 0 -0.0042349026758454252 -0.039318969184715287 0 -0.003583378965080368 -0.039398600947803154 0 -0.0039024475948476194 -0.038815201190458018 0 -0.003514827464826906 -0.039059265229275442 0 -0.003583378965080368 -0.039398600947803154 0 -0.0039024475948476194 -0.038815201190458018 0 -0.0041007428631390378 -0.03898925317279274 0 -0.0039024475948476194 -0.038815201190458018 0 -0.003514827464826906 -0.039059265229275442 0 -0.0037135506882533414 -0.038622227339874304 0 -0.003514827464826906 -0.039059265229275442 0 -0.003027590015458193 -0.039456917467606573 0 -0.0033411815500990496 -0.038912932715832974 0 -0.003583378965080368 -0.039398600947803154 0 -0.003514827464826906 -0.039059265229275442 0 -0.003027590015458193 -0.039456917467606573 0 -0.0029215516645842172 -0.039239296252831277 0 -0.003027590015458193 -0.039456917467606573 0 -0.0033411815500990496 -0.038912932715832974 0 -0.0048972125989145878 -0.038865232894842623 0 -0.0042349026758454252 -0.039318969184715287 0 -0.0046880437194064045 -0.038581248707739574 0 -0.0048972125989145878 -0.038865232894842623 0 -0.0046880437194064045 -0.038581248707739574 0 -0.0052425292186433275 -0.038271162822235923 0 -0.0042349026758454252 -0.039318969184715287 0 -0.0041007428631390378 -0.03898925317279274 0 -0.0046880437194064045 -0.038581248707739574 0 -0.003583378965080368 -0.039398600947803154 0 -0.0042349026758454252 -0.039318969184715287 0 -0.0041007428631390378 -0.03898925317279274 0 -0.0041007428631390378 -0.03898925317279274 0 -0.0043721798524807721 -0.038439014841484626 0 -0.0046880437194064045 -0.038581248707739574 0 -0.0039024475948476194 -0.038815201190458018 0 -0.0041007428631390378 -0.03898925317279274 0 -0.0043721798524807721 -0.038439014841484626 0 -0.0043721798524807721 -0.038439014841484626 0 -0.0046880437194064045 -0.038581248707739574 0 -0.0049957204972485595 -0.037958191502338576 0 -0.0046880437194064045 -0.038581248707739574 0 -0.0049957204972485595 -0.037958191502338576 0 -0.0052425292186433275 -0.038271162822235923 0 -0.0049957204972485595 -0.037958191502338576 0 -0.0046179933361872507 -0.037891120224106005 0 -0.0051275748359732856 -0.037389145748663845 0 -0.0043721798524807721 -0.038439014841484626 0 -0.0049957204972485595 -0.037958191502338576 0 -0.0046179933361872507 -0.037891120224106005 0 -0.0046179933361872507 -0.037891120224106005 0 -0.0041145834724895594 -0.038242580360209798 0 -0.0043723264901256486 -0.03778078901170627 0 -0.0043721798524807721 -0.038439014841484626 0 -0.0046179933361872507 -0.037891120224106005 0 -0.0041145834724895594 -0.038242580360209798 0 -0.0039024475948476194 -0.038815201190458018 0 -0.0043721798524807721 -0.038439014841484626 0 -0.0041145834724895594 -0.038242580360209798 0 -0.0041145834724895594 -0.038242580360209798 0 -0.0040894046632651533 -0.037819522077904337 0 -0.0039093587438904986 -0.038237280395731807 0 -0.0041145834724895594 -0.038242580360209798 0 -0.0040894046632651533 -0.037819522077904337 0 -0.0043723264901256486 -0.03778078901170627 0 -0.0040894046632651533 -0.037819522077904337 0 -0.003733039647039446 -0.038241667438549544 0 -0.0042454729191447101 -0.036802683502809463 0 -0.0040894046632651533 -0.037819522077904337 0 -0.0044566683948732448 -0.037359380522079433 0 -0.0042454729191447101 -0.036802683502809463 0 -0.0040894046632651533 -0.037819522077904337 0 -0.0044566683948732448 -0.037359380522079433 0 -0.0043723264901256486 -0.03778078901170627 0 -0.0044566683948732448 -0.037359380522079433 0 -0.0048184050697334642 -0.037156695940193545 0 -0.0045860619805348016 -0.037042615144632321 0 -0.0044566683948732448 -0.037359380522079433 0 -0.0043723264901256486 -0.03778078901170627 0 -0.0046456891498382995 -0.037507884174803857 0 -0.0046179933361872507 -0.037891120224106005 0 -0.0043723264901256486 -0.03778078901170627 0 -0.0046456891498382995 -0.037507884174803857 0 -0.0046179933361872507 -0.037891120224106005 0 -0.0046456891498382995 -0.037507884174803857 0 -0.0051275748359732856 -0.037389145748663845 0 -0.0046456891498382995 -0.037507884174803857 0 -0.0048184050697334642 -0.037156695940193545 0 -0.0051275748359732856 -0.037389145748663845 0 -0.0044566683948732448 -0.037359380522079433 0 -0.0046456891498382995 -0.037507884174803857 0 -0.0048184050697334642 -0.037156695940193545 0 -0.0051275748359732856 -0.037389145748663845 0 -0.0050750938318284786 -0.036905424194156169 0 -0.0054109626242077003 -0.036922986376670845 0 -0.0048184050697334642 -0.037156695940193545 0 -0.0051275748359732856 -0.037389145748663845 0 -0.0050750938318284786 -0.036905424194156169 0 -0.0025115066458524212 -0.039431402677113328 0 -0.0031907469173863886 -0.038717281755657397 0 -0.0042454729191447101 -0.036802683502809463 0 -0.0024965496234912476 -0.039615879551915457 0 -0.0025115066458524212 -0.039431402677113328 0 -0.0025282630169503042 -0.039390154885802296 0 -0.0025115066458524212 -0.039431402677113328 0 -0.0025282630169503042 -0.039390154885802296 0 -0.0025584015646833696 -0.039426145860559043 0 -0.0024928211614332024 -0.039285919613544107 0 -0.00365734977230132 -0.038067983734144439 0 -0.0031907469173863886 -0.038717281755657397 0 -0.0033411815500990496 -0.038912932715832974 0 -0.003733039647039446 -0.038241667438549544 0 -0.0029215516645842172 -0.039239296252831277 0 -0.0031907469173863886 -0.038717281755657397 0 -0.0033411815500990496 -0.038912932715832974 0 -0.003514827464826906 -0.039059265229275442 0 -0.0033411815500990496 -0.038912932715832974 0 -0.0037135506882533414 -0.038622227339874304 0 -0.0033411815500990496 -0.038912932715832974 0 -0.0037135506882533414 -0.038622227339874304 0 -0.003733039647039446 -0.038241667438549544 0 -0.0039024475948476194 -0.038815201190458018 0 -0.0041145834724895594 -0.038242580360209798 0 -0.0037135506882533414 -0.038622227339874304 0 -0.0040894046632651533 -0.037819522077904337 0 -0.0039093587438904986 -0.038237280395731807 0 -0.003733039647039446 -0.038241667438549544 0 -0.0037135506882533414 -0.038622227339874304 0 -0.0039093587438904986 -0.038237280395731807 0 -0.003733039647039446 -0.038241667438549544 0 -0.0041145834724895594 -0.038242580360209798 0 -0.0037135506882533414 -0.038622227339874304 0 -0.0039093587438904986 -0.038237280395731807 0 -0.0031907469173863886 -0.038717281755657397 0 -0.003733039647039446 -0.038241667438549544 0 -0.0042454729191447101 -0.036802683502809463 0 -0.0026316279062832317 -0.039508082251229745 0 -0.0022428896654898829 -0.039819829259003958 0 -0.0024757270485340011 -0.039695025127275942 0 -0.0024965496234912476 -0.039615879551915457 0 -0.0024695619214657434 -0.039722100699128265 0 -0.0024757270485340011 -0.039695025127275942 0 -0.0024711048707238346 -0.039707354008122225 0 -0.0024695619214657434 -0.039722100699128265 0 -0.0024757270485340011 -0.039695025127275942 0 -0.0024696134564639663 -0.039703342168279587 0 -0.0024711048707238346 -0.039707354008122225 0 -0.0024537191188707236 -0.039708738300765989 0 -0.0024696134564639663 -0.039703342168279587 0 -0.0024795581291763204 -0.039674242850828115 0 -0.0024696134564639663 -0.039703342168279587 0 -0.0024764807029584984 -0.039699484605661854 0 -0.0024795581291763204 -0.039674242850828115 0 -0.0024764807029584984 -0.039699484605661854 0 -0.0024711048707238346 -0.039707354008122225 0 -0.0024695619214657434 -0.039722100699128265 0 -0.0024696134564639663 -0.039703342168279587 0 -0.0024764807029584984 -0.039699484605661854 0 -0.0024711048707238346 -0.039707354008122225 0 -0.0022428896654898829 -0.039819829259003958 0 -0.0038628520002422281 -0.037818070441462778 0 -0.0025282630169503042 -0.039390154885802296 0 -0.0025584015646833696 -0.039426145860559043 0 -0.0031810224072830943 -0.039038648639597162 0 -0.0024695619214657434 -0.039722100699128265 0 -0.0025005346564133447 -0.039681254508358722 0 -0.0025881971543212871 -0.039671930183584385 0 -0.0042454729191447101 -0.036802683502809463 0 -0.0045860619805348016 -0.037042615144632321 0 -0.0047892179694518497 -0.036911649831653792 0 -0.0044566683948732448 -0.037359380522079433 0 -0.0042454729191447101 -0.036802683502809463 0 -0.0045860619805348016 -0.037042615144632321 0 -0.0042454729191447101 -0.036802683502809463 0 -0.0047892179694518497 -0.036911649831653792 0 -0.0051980372793075181 -0.036638067143224762 0 -0.0050750938318284786 -0.036905424194156169 0 -0.0047892179694518497 -0.036911649831653792 0 -0.0051980372793075181 -0.036638067143224762 0 -0.0050750938318284786 -0.036905424194156169 0 -0.0051980372793075181 -0.036638067143224762 0 -0.0054109626242077003 -0.036922986376670845 0 -0.0048184050697334642 -0.037156695940193545 0 -0.0050750938318284786 -0.036905424194156169 0 -0.0047892179694518497 -0.036911649831653792 0 -0.0048184050697334642 -0.037156695940193545 0 -0.0045860619805348016 -0.037042615144632321 0 -0.0047892179694518497 -0.036911649831653792 0 -0.0024764807029584984 -0.039699484605661854 0 -0.0024695619214657434 -0.039722100699128265 0 -0.0025005346564133447 -0.039681254508358722 0 -0.0025005346564133447 -0.039681254508358722 0 -0.0025160373067360828 -0.03964806339695176 0 -0.0025881971543212871 -0.039671930183584385 0 -0.0025005346564133447 -0.039681254508358722 0 -0.0025160373067360828 -0.03964806339695176 0 -0.0024795581291763204 -0.039674242850828115 0 -0.002478670246426313 -0.039619634033404731 0 -0.0025160373067360828 -0.03964806339695176 0 -0.0024795581291763204 -0.039674242850828115 0 -0.002478670246426313 -0.039619634033404731 0 -0.0023982280871173212 -0.039587403444859455 0 -0.0024795581291763204 -0.039674242850828115 0 -0.0024764807029584984 -0.039699484605661854 0 -0.0025005346564133447 -0.039681254508358722 0 -0.0024795581291763204 -0.039674242850828115 0 -0.0066622421743931168 -0.036215155945240399 0 -0.0067731513777005573 -0.036324670261138788 0 -0.0070066819834262049 -0.036444484627617416 0 -0.0033328896647434993 -0.037314763143601708 0 -0.0032824878196697983 -0.037689014041774875 0 -0.0030883569444844525 -0.037792369846719902 0 -0.0039381730485560339 -0.037347795696088086 0 -0.0033328896647434993 -0.037314763143601708 0 -0.0032824878196697983 -0.037689014041774875 0 -0.0066622421743931168 -0.036215155945240399 0 -0.0064516927877180793 -0.036231527548790839 0 -0.006562584983194111 -0.036271847282744067 0 -0.0047760280890495931 -0.036672231427527451 0 -0.0038628520002422281 -0.037818070441462778 0 -0.0022638449639334848 -0.039774316700799076 0 -0.0038628520002422281 -0.037818070441462778 0 -0.0025546431066419953 -0.039593631636133206 0 -0.0025160373067360828 -0.03964806339695176 0 -0.0025881971543212871 -0.039671930183584385 0 -0.0042454729191447101 -0.036802683502809463 0 -0.0051980372793075181 -0.036638067143224762 0 -0.006268933724511358 -0.035736739655445764 0 -0.0038628520002422281 -0.037818070441462778 0 -0.004847960473172425 -0.036611248763515923 0 -0.0064516927877180793 -0.036231527548790839 0 -0.0063783829933419843 -0.036338874978284919 0 -0.006562584983194111 -0.036271847282744067 0 -0.00365734977230132 -0.038067983734144439 0 -0.0038628520002422281 -0.037818070441462778 0 -0.006268933724511358 -0.035736739655445764 0 -0.0063783829933419843 -0.036338874978284919 0 -0.0059291564122469107 -0.036657352494514024 0 -0.0051980372793075181 -0.036638067143224762 0 -0.006268933724511358 -0.035736739655445764 0 -0.0059291564122469107 -0.036657352494514024 0 -0.0051980372793075181 -0.036638067143224762 0 -0.0054109626242077003 -0.036922986376670845 0 -0.0059291564122469107 -0.036657352494514024 0 -0.0063783829933419843 -0.036338874978284919 0 -0.0059291564122469107 -0.036657352494514024 0 -0.0065196493878314065 -0.036593243235199101 0 -0.0059291564122469107 -0.036657352494514024 0 -0.0065196493878314065 -0.036593243235199101 0 -0.0061721763948207027 -0.036938464171996241 0 -0.0063783829933419843 -0.036338874978284919 0 -0.0065196493878314065 -0.036593243235199101 0 -0.0067731513777005573 -0.036324670261138788 0 -0.0063783829933419843 -0.036338874978284919 0 -0.006562584983194111 -0.036271847282744067 0 -0.0067731513777005573 -0.036324670261138788 0 -0.0066622421743931168 -0.036215155945240399 0 -0.006562584983194111 -0.036271847282744067 0 -0.0067731513777005573 -0.036324670261138788 0 -0.0065196493878314065 -0.036593243235199101 0 -0.0067731513777005573 -0.036324670261138788 0 -0.0068732581846826218 -0.036553788917002207 0 -0.0067731513777005573 -0.036324670261138788 0 -0.0068732581846826218 -0.036553788917002207 0 -0.0069765276177192201 -0.036397514288658589 0 -0.0068732581846826218 -0.036553788917002207 0 -0.0066358105501704706 -0.036888387269581428 0 -0.0070600670761387261 -0.036708127731712094 0 -0.0065196493878314065 -0.036593243235199101 0 -0.0066358105501704706 -0.036888387269581428 0 -0.0061721763948207027 -0.036938464171996241 0 -0.0065196493878314065 -0.036593243235199101 0 -0.0068732581846826218 -0.036553788917002207 0 -0.0066358105501704706 -0.036888387269581428 0 -0.0066358105501704706 -0.036888387269581428 0 -0.0060558075553938471 -0.037322371800168369 0 -0.0063214284071991082 -0.037423352681814986 0 -0.0066358105501704706 -0.036888387269581428 0 -0.0061721763948207027 -0.036938464171996241 0 -0.0060558075553938471 -0.037322371800168369 0 -0.0066358105501704706 -0.036888387269581428 0 -0.0067924124124248723 -0.037156804076049502 0 -0.0063214284071991082 -0.037423352681814986 0 -0.0066358105501704706 -0.036888387269581428 0 -0.0067924124124248723 -0.037156804076049502 0 -0.0070600670761387261 -0.036708127731712094 0 -0.0051275748359732856 -0.037389145748663845 0 -0.0054109626242077003 -0.036922986376670845 0 -0.0057234613843953844 -0.037106667275396847 0 -0.0051275748359732856 -0.037389145748663845 0 -0.0057234613843953844 -0.037106667275396847 0 -0.0055423103550948996 -0.037660369254158825 0 -0.0054109626242077003 -0.036922986376670845 0 -0.0059291564122469107 -0.036657352494514024 0 -0.0057234613843953844 -0.037106667275396847 0 -0.0057234613843953844 -0.037106667275396847 0 -0.0061721763948207027 -0.036938464171996241 0 -0.0060558075553938471 -0.037322371800168369 0 -0.0059291564122469107 -0.036657352494514024 0 -0.0057234613843953844 -0.037106667275396847 0 -0.0061721763948207027 -0.036938464171996241 0 -0.0060558075553938471 -0.037322371800168369 0 -0.0055423103550948996 -0.037660369254158825 0 -0.0057864130603395804 -0.037968159388148293 0 -0.0057234613843953844 -0.037106667275396847 0 -0.0060558075553938471 -0.037322371800168369 0 -0.0055423103550948996 -0.037660369254158825 0 -0.0049957204972485595 -0.037958191502338576 0 -0.0051275748359732856 -0.037389145748663845 0 -0.0055423103550948996 -0.037660369254158825 0 -0.0049957204972485595 -0.037958191502338576 0 -0.0055423103550948996 -0.037660369254158825 0 -0.0052425292186433275 -0.038271162822235923 0 -0.0055423103550948996 -0.037660369254158825 0 -0.0052425292186433275 -0.038271162822235923 0 -0.0057864130603395804 -0.037968159388148293 0 -0.0060558075553938471 -0.037322371800168369 0 -0.0057864130603395804 -0.037968159388148293 0 -0.0063214284071991082 -0.037423352681814986 0 -0.0057864130603395804 -0.037968159388148293 0 -0.0063214284071991082 -0.037423352681814986 0 -0.0062386127432442146 -0.03785489050801337 0 -0.0057864130603395804 -0.037968159388148293 0 -0.0055179608038727771 -0.03861594847857211 0 -0.0062386127432442146 -0.03785489050801337 0 -0.0061643604597995862 -0.038500989343447249 0 -0.0055179608038727771 -0.03861594847857211 0 -0.0062386127432442146 -0.03785489050801337 0 -0.0052425292186433275 -0.038271162822235923 0 -0.0057864130603395804 -0.037968159388148293 0 -0.0055179608038727771 -0.03861594847857211 0 -0.0048972125989145878 -0.038865232894842623 0 -0.0052425292186433275 -0.038271162822235923 0 -0.0055179608038727771 -0.03861594847857211 0 -0.0067924124124248723 -0.037156804076049502 0 -0.0073185062437389889 -0.036814424434750963 0 -0.0070600670761387261 -0.036708127731712094 0 -0.0067924124124248723 -0.037156804076049502 0 -0.0063214284071991082 -0.037423352681814986 0 -0.0062386127432442146 -0.03785489050801337 0 -0.0067924124124248723 -0.037156804076049502 0 -0.0062386127432442146 -0.03785489050801337 0 -0.0066690027314887683 -0.037650423118656511 0 -0.0061643604597995862 -0.038500989343447249 0 -0.0062386127432442146 -0.03785489050801337 0 -0.0066690027314887683 -0.037650423118656511 0 -0.0067924124124248723 -0.037156804076049502 0 -0.0066690027314887683 -0.037650423118656511 0 -0.0073185062437389889 -0.036814424434750963 0 -0.0067687308319722955 -0.038217767468536307 0 -0.0066690027314887683 -0.037650423118656511 0 -0.0073185062437389889 -0.036814424434750963 0 -0.0073185062437389889 -0.036814424434750963 0 -0.0074692406432825395 -0.036302168023604163 0 -0.0079297478319510506 -0.035336541334856392 0 -0.0073185062437389889 -0.036814424434750963 0 -0.0074692406432825395 -0.036302168023604163 0 -0.0070600670761387261 -0.036708127731712094 0 -0.0079297478319510506 -0.035336541334856392 0 -0.0070973042076049554 -0.035858037039013163 0 -0.0070884955456765016 -0.033687443513109337 0 -0.0074692406432825395 -0.036302168023604163 0 -0.0079297478319510506 -0.035336541334856392 0 -0.0070973042076049554 -0.035858037039013163 0 -0.0074692406432825395 -0.036302168023604163 0 -0.0070973042076049554 -0.035858037039013163 0 -0.0071753494942549869 -0.03632367755859655 0 -0.0070973042076049554 -0.035858037039013163 0 -0.0071753494942549869 -0.03632367755859655 0 -0.0067826007868285838 -0.036395326213871988 0 -0.0074692406432825395 -0.036302168023604163 0 -0.0070600670761387261 -0.036708127731712094 0 -0.0071553272904833183 -0.036455264081357373 0 -0.0074692406432825395 -0.036302168023604163 0 -0.0071753494942549869 -0.03632367755859655 0 -0.0071553272904833183 -0.036455264081357373 0 -0.0068732581846826218 -0.036553788917002207 0 -0.0070600670761387261 -0.036708127731712094 0 -0.0071553272904833183 -0.036455264081357373 0 -0.0068732581846826218 -0.036553788917002207 0 -0.0071553272904833183 -0.036455264081357373 0 -0.0069765276177192201 -0.036397514288658589 0 -0.0071553272904833183 -0.036455264081357373 0 -0.0069765276177192201 -0.036397514288658589 0 -0.0070207012495356975 -0.03641256337004603 0 -0.0071753494942549869 -0.03632367755859655 0 -0.0071553272904833183 -0.036455264081357373 0 -0.0070207012495356975 -0.03641256337004603 0 -0.0070207012495356975 -0.03641256337004603 0 -0.0067485338350723369 -0.036520400363246872 0 -0.0067826007868285838 -0.036395326213871988 0 -0.0071753494942549869 -0.03632367755859655 0 -0.0070207012495356975 -0.03641256337004603 0 -0.0067826007868285838 -0.036395326213871988 0 -0.0066564869246380437 -0.03673957433341532 0 -0.0070066819834262049 -0.036444484627617416 0 -0.0067485338350723369 -0.036520400363246872 0 -0.0070207012495356975 -0.03641256337004603 0 -0.0070066819834262049 -0.036444484627617416 0 -0.0067485338350723369 -0.036520400363246872 0 -0.0041619940173624132 -0.036587117366292825 0 -0.0047760280890495931 -0.036672231427527451 0 -0.0047760280890495931 -0.036672231427527451 0 -0.0060237255141284115 -0.036002793083363391 0 -0.0047565472711531154 -0.035693927899507989 0 -0.0044155034383975946 -0.035948591874852491 0 -0.0047505395891990002 -0.035745282389169152 0 -0.0069765276177192201 -0.036397514288658589 0 -0.0070207012495356975 -0.03641256337004603 0 -0.0070066819834262049 -0.036444484627617416 0 -0.0067731513777005573 -0.036324670261138788 0 -0.0069765276177192201 -0.036397514288658589 0 -0.0070066819834262049 -0.036444484627617416 0 -0.006404614428240525 -0.036535381892305908 0 -0.0062054208176634896 -0.036532684100949044 0 -0.0062307341677385929 -0.036442803268773354 0 -0.006404614428240525 -0.036535381892305908 0 -0.0065438634610537495 -0.036455298468424803 0 -0.0062307341677385929 -0.036442803268773354 0 -0.0063130183506153259 -0.036656437789418947 0 -0.006404614428240525 -0.036535381892305908 0 -0.0062054208176634896 -0.036532684100949044 0 -0.006404614428240525 -0.036535381892305908 0 -0.0067485338350723369 -0.036520400363246872 0 -0.0065438634610537495 -0.036455298468424803 0 -0.0066564869246380437 -0.03673957433341532 0 -0.006404614428240525 -0.036535381892305908 0 -0.0067485338350723369 -0.036520400363246872 0 -0.0066564869246380437 -0.03673957433341532 0 -0.0063130183506153259 -0.036656437789418947 0 -0.006404614428240525 -0.036535381892305908 0 -0.0067485338350723369 -0.036520400363246872 0 -0.0065438634610537495 -0.036455298468424803 0 -0.0067826007868285838 -0.036395326213871988 0 -0.0065438634610537495 -0.036455298468424803 0 -0.0067826007868285838 -0.036395326213871988 0 -0.0063146185048826844 -0.03633272526296228 0 -0.0067826007868285838 -0.036395326213871988 0 -0.0063146185048826844 -0.03633272526296228 0 -0.0063918767168238272 -0.036052937820811683 0 -0.0063146185048826844 -0.03633272526296228 0 -0.0061593090304219392 -0.036336666980628519 0 -0.0060855578439794637 -0.036182866520224191 0 -0.0063146185048826844 -0.03633272526296228 0 -0.0062307341677385929 -0.036442803268773354 0 -0.0061593090304219392 -0.036336666980628519 0 -0.0065438634610537495 -0.036455298468424803 0 -0.0063146185048826844 -0.03633272526296228 0 -0.0062307341677385929 -0.036442803268773354 0 -0.0062307341677385929 -0.036442803268773354 0 -0.0061593090304219392 -0.036336666980628519 0 -0.0060890637953465773 -0.036399999892018885 0 -0.0062054208176634896 -0.036532684100949044 0 -0.0062307341677385929 -0.036442803268773354 0 -0.0060890637953465773 -0.036399999892018885 0 -0.0061593090304219392 -0.036336666980628519 0 -0.0060855578439794637 -0.036182866520224191 0 -0.0060890637953465773 -0.036399999892018885 0 -0.0060855578439794637 -0.036182866520224191 0 -0.0056020497156388403 -0.035678213471552554 0 -0.0060890637953465773 -0.036399999892018885 0 -0.0060855578439794637 -0.036182866520224191 0 -0.0063918767168238272 -0.036052937820811683 0 -0.0056020497156388403 -0.035678213471552554 0 -0.0058633562548119859 -0.032935817734635962 0 -0.0063631080409831155 -0.033754041610728654 0 -0.0060117158615962309 -0.030644371126620423 0 -0.0062857559883314562 -0.029784079922826369 0 -0.0063812613789023488 -0.030755709304634487 0 -0.0063146185048826844 -0.03633272526296228 0 -0.0060855578439794637 -0.036182866520224191 0 -0.0063918767168238272 -0.036052937820811683 0 -0.0063918767168238272 -0.036052937820811683 0 -0.0064248372619681538 -0.035594457431996865 0 -0.0056020497156388403 -0.035678213471552554 0 -0.0070973042076049554 -0.035858037039013163 0 -0.0067826007868285838 -0.036395326213871988 0 -0.0063918767168238272 -0.036052937820811683 0 -0.0070973042076049554 -0.035858037039013163 0 -0.0063918767168238272 -0.036052937820811683 0 -0.0064248372619681538 -0.035594457431996865 0 -0.0065435870816220824 -0.034624546114287905 0 -0.0056020497156388403 -0.035678213471552554 0 -0.0062245325528851314 -0.032122597862226224 0 -0.0070973042076049554 -0.035858037039013163 0 -0.0065435870816220824 -0.034624546114287905 0 -0.0070884955456765016 -0.033687443513109337 0 -0.0070973042076049554 -0.035858037039013163 0 -0.0064248372619681538 -0.035594457431996865 0 -0.0065435870816220824 -0.034624546114287905 0 -0.0064248372619681538 -0.035594457431996865 0 -0.0065435870816220824 -0.034624546114287905 0 -0.0056020497156388403 -0.035678213471552554 0 -0.0060117158615962309 -0.030644371126620423 0 -0.0061986022342104411 -0.031204474908991309 0 -0.0063812613789023488 -0.030755709304634487 0 -0.0058633562548119859 -0.032935817734635962 0 -0.0062079136869639248 -0.032180243230756002 0 -0.0060117158615962309 -0.030644371126620423 0 -0.0061986022342104411 -0.031204474908991309 0 -0.0062245325528851314 -0.032122597862226224 0 -0.0061986022342104411 -0.031204474908991309 0 -0.0060286975515250665 -0.031128871044314242 0 -0.0063812613789023488 -0.030755709304634487 0 -0.0061986022342104411 -0.031204474908991309 0 -0.0060286975515250665 -0.031128871044314242 0 -0.0062245325528851314 -0.032122597862226224 0 -0.0035916115502884795 -0.025227582014207866 0 -0.0041613029364917821 -0.024599082191743383 0 -0.0060286975515250665 -0.031128871044314242 0 -0.0067536272777399854 -0.031283866974596036 0 -0.0064735635575693022 -0.02959975497108288 0 -0.0060286975515250665 -0.031128871044314242 0 -0.0067536272777399854 -0.031283866974596036 0 -0.0062245325528851314 -0.032122597862226224 0 -0.0067536272777399854 -0.031283866974596036 0 -0.0062245325528851314 -0.032122597862226224 0 -0.0070884955456765016 -0.033687443513109337 0 -0.0065435870816220824 -0.034624546114287905 0 -0.0062245325528851314 -0.032122597862226224 0 -0.0070884955456765016 -0.033687443513109337 0 -0.0079297478319510506 -0.035336541334856392 0 -0.0070884955456765016 -0.033687443513109337 0 -0.0081031973782100548 -0.032402108418924415 0 -0.0067687308319722955 -0.038217767468536307 0 -0.0073185062437389889 -0.036814424434750963 0 -0.0073840039319943325 -0.03835317183080033 0 -0.0077696035712926251 -0.035668347882534486 0 -0.0085378697052328235 -0.03559022064933863 0 -0.0079297478319510506 -0.035336541334856392 0 -0.0094337486434758963 -0.033190854088353296 0 -0.0081031973782100548 -0.032402108418924415 0 -0.0073185062437389889 -0.036814424434750963 0 -0.0079297478319510506 -0.035336541334856392 0 -0.0073840039319943325 -0.03835317183080033 0 -0.0094337486434758963 -0.033190854088353296 0 -0.0081031973782100548 -0.032402108418924415 0 -0.0090446802447299128 -0.031525167102048189 0 -0.0067536272777399854 -0.031283866974596036 0 -0.0070884955456765016 -0.033687443513109337 0 -0.0081031973782100548 -0.032402108418924415 0 -0.0081031973782100548 -0.032402108418924415 0 -0.0078616277724716261 -0.030841300089834014 0 -0.0090446802447299128 -0.031525167102048189 0 -0.0067536272777399854 -0.031283866974596036 0 -0.0081031973782100548 -0.032402108418924415 0 -0.0078616277724716261 -0.030841300089834014 0 -0.0078616277724716261 -0.030841300089834014 0 -0.0090446802447299128 -0.031525167102048189 0 -0.0086372779764380368 -0.030482124441759201 0 -0.0097412868994378159 -0.030744371924571762 0 -0.0090446802447299128 -0.031525167102048189 0 -0.0086372779764380368 -0.030482124441759201 0 -0.0086372779764380368 -0.030482124441759201 0 -0.0073220438313329073 -0.02977677242077412 0 -0.0080790895925914423 -0.029598787211871886 0 -0.0078616277724716261 -0.030841300089834014 0 -0.0086372779764380368 -0.030482124441759201 0 -0.0073220438313329073 -0.02977677242077412 0 -0.0073220438313329073 -0.02977677242077412 0 -0.0064735635575693022 -0.02959975497108288 0 -0.0070681772812056258 -0.030298130511681391 0 -0.0073220438313329073 -0.02977677242077412 0 -0.0064735635575693022 -0.02959975497108288 0 -0.0069636221941554634 -0.029353500852390444 0 -0.0015559760541307025 -0.019024557532510668 0 -0.001941811607083705 -0.017793202854355941 0 -0.0012429316245557505 -0.017822959672335111 0 -0.0041613029364917821 -0.024599082191743383 0 -0.0031787875011509981 -0.022316945053261209 0 -0.0067536272777399854 -0.031283866974596036 0 -0.0078616277724716261 -0.030841300089834014 0 -0.0070681772812056258 -0.030298130511681391 0 -0.0067536272777399854 -0.031283866974596036 0 -0.0064735635575693022 -0.02959975497108288 0 -0.0070681772812056258 -0.030298130511681391 0 -0.0078616277724716261 -0.030841300089834014 0 -0.0073220438313329073 -0.02977677242077412 0 -0.0070681772812056258 -0.030298130511681391 0 -0.0026494659595825672 -0.025973356254341374 0 -0.0028618079809456356 -0.024918873137271286 0 -0.0018700062173147656 -0.025504580764419259 0 -0.0026494659595825672 -0.025973356254341374 0 -0.0018700062173147656 -0.025504580764419259 0 -0.0016637761167797496 -0.026432526678123597 0 -0.0019031365197657983 -0.016879272287281741 0 -0.0019162506993868874 -0.017380911131463422 0 -0.001411666987492004 -0.016914261727343859 0 -0.0023472897712865314 -0.021132388462574033 0 -0.0031787875011509981 -0.022316945053261209 0 -0.0031787875011509981 -0.022316945053261209 0 -0.0011791968503307014 -0.016671565966447567 0 -0.0073220438313329073 -0.02977677242077412 0 -0.0069636221941554634 -0.029353500852390444 0 -0.0076452597473084171 -0.029375968248069092 0 -0.0031787875011509981 -0.022316945053261209 0 -0.0046669790145576241 -0.027985305907968033 0 -0.0073220438313329073 -0.02977677242077412 0 -0.0080790895925914423 -0.029598787211871886 0 -0.0076452597473084171 -0.029375968248069092 0 -0.0080790895925914423 -0.029598787211871886 0 -0.0078111707539328295 -0.029784406210697265 0 -0.0075410364716045827 -0.029734464737115041 0 -0.0099919328150102054 -0.028127074044893233 0 -0.0044523185120213023 -0.035556249096638237 0 -0.0086372779764380368 -0.030482124441759201 0 -0.0080790895925914423 -0.029598787211871886 0 -0.0095233135750996713 -0.029623602909245324 0 -0.0080790895925914423 -0.029598787211871886 0 -0.0078111707539328295 -0.029784406210697265 0 -0.0078834895656656901 -0.029847172811404244 0 -0.0078111707539328295 -0.029784406210697265 0 -0.0078834895656656901 -0.029847172811404244 0 -0.0076913646745719365 -0.030059197035108197 0 -0.0046669790145576241 -0.027985305907968033 0 -0.0049698952007831412 -0.027338793523869052 0 -0.0080790895925914423 -0.029598787211871886 0 -0.0076452597473084171 -0.029375968248069092 0 -0.0078834895656656901 -0.029847172811404244 0 -0.0018700062173147656 -0.025504580764419259 0 -0.0016637761167797496 -0.026432526678123597 0 -0.00098656714573710038 -0.026081341519995156 0 -0.0016637761167797496 -0.026432526678123597 0 -0.00098656714573710038 -0.026081341519995156 0 -0.00092468937758334645 -0.026806521735809902 0 -0.0049698952007831412 -0.027338793523869052 0 -0.0019133055243675222 -0.033146302116616046 0 -0.00098656714573710038 -0.026081341519995156 0 -0.00092468937758334645 -0.026806521735809902 0 -0.00024959081825764041 -0.026736423509506075 0 -0.00092468937758334645 -0.026806521735809902 0 -0.00071564375393449781 -0.027330789324536808 0 -0.0012021100867783045 -0.027228257508189056 0 -0.00092468937758334645 -0.026806521735809902 0 -0.00071564375393449781 -0.027330789324536808 0 -0.00024959081825764041 -0.026736423509506075 0 -0.0012021100867783045 -0.027228257508189056 0 -0.0016444995320097227 -0.027063283173831748 0 -0.0014260746932969865 -0.02731407561789909 0 -0.0016637761167797496 -0.026432526678123597 0 -0.0012021100867783045 -0.027228257508189056 0 -0.0024320537811689069 -0.026973495811853571 0 -0.0014975798045886528 -0.028232148297581229 0 -0.0008963548362877961 -0.022131165982349391 0 -0.0016637761167797496 -0.026432526678123597 0 -0.00092468937758334645 -0.026806521735809902 0 -0.0012021100867783045 -0.027228257508189056 0 -0.0023472897712865314 -0.021132388462574033 0 -0.0008963548362877961 -0.022131165982349391 0 -0.0026494659595825672 -0.025973356254341374 0 -0.0016637761167797496 -0.026432526678123597 0 -0.0024320537811689069 -0.026973495811853571 0 -0.0019031365197657983 -0.016879272287281741 0 -0.0019348179067102908 -0.016556671271649819 0 -0.0014655985165580149 -0.016593411579743259 0 -0.0019031365197657983 -0.016879272287281741 0 -0.001411666987492004 -0.016914261727343859 0 -0.0014655985165580149 -0.016593411579743259 0 0.0022183419572300816 -0.017392428449649555 0 0.0014254771174084379 -0.018290349240648606 0 0.00053601425425104873 -0.016982789522214221 0 -0.0008963548362877961 -0.022131165982349391 0 -0.00034953141385295309 -0.016175410392009888 0 0.0014254771174084379 -0.018290349240648606 0 0.0015845119185049902 -0.019147106376676767 0 0.00078177266546383304 -0.019404773248507125 0 0.0014254771174084379 -0.018290349240648606 0 0.0015845119185049902 -0.019147106376676767 0 0.0025405704263682157 -0.018935951483760025 0 0.0022183419572300816 -0.017392428449649555 0 0.0014254771174084379 -0.018290349240648606 0 0.0025405704263682157 -0.018935951483760025 0 -0.0016444995320097227 -0.027063283173831748 0 -0.0015594231470047401 -0.027543570217473206 0 -0.0014260746932969865 -0.02731407561789909 0 -0.0008963548362877961 -0.022131165982349391 0 0.00056032107343384203 -0.023362227822523951 0 0.0025405704263682157 -0.018935951483760025 0 0.00179392996515205 -0.019979841733327824 0 0.0028374440919576335 -0.020566280304906891 0 0.00056032107343384203 -0.023362227822523951 0 0.0012251511191325535 -0.023838275216923385 0 -0.0015594231470047401 -0.027543570217473206 0 -0.001451401231988251 -0.028003759403753464 0 -0.0012679753538007571 -0.027817966894148734 0 0.0015845119185049902 -0.019147106376676767 0 0.0025405704263682157 -0.018935951483760025 0 0.00179392996515205 -0.019979841733327824 0 0.0019665424621881987 -0.020129159531729956 0 0.0012251511191325535 -0.023838275216923385 0 0.0019665424621881987 -0.020129159531729956 0 0.00089813326385874048 -0.019494688438284617 0 0.0015845119185049902 -0.019147106376676767 0 0.00179392996515205 -0.019979841733327824 0 0.00078177266546383304 -0.019404773248507125 0 0.0021238961155873454 -0.020227752824492191 0 0.0012034162052365583 -0.020458576117954669 0 0.001992082393049226 -0.021029753750566 0 0.0021238961155873454 -0.020227752824492191 0 0.0012034162052365583 -0.020458576117954669 0 0.00078177266546383304 -0.019404773248507125 0 6.0716698266808767e-06 -0.02202744021428232 0 2.8819567260602372e-05 -0.0221949337615523 0 0.00028949779842543302 -0.0209928220382932 0 0.0012034162052365583 -0.020458576117954669 0 0.001992082393049226 -0.021029753750566 0 0.00028949779842543302 -0.0209928220382932 0 0.0011538740915403203 -0.02147322202309259 0 0.00021302819295195043 -0.021164664598884591 0 6.0716698266808767e-06 -0.02202744021428232 0 0.00015022633333747944 -0.022490047727234969 0 2.8819567260602372e-05 -0.0221949337615523 0 6.0716698266808767e-06 -0.02202744021428232 0 0.00090668808556985643 -0.022077813827146891 0 0.00015022633333747944 -0.022490047727234969 0 0.001992082393049226 -0.021029753750566 0 0.0034544635896899549 -0.020978422502457243 0 0.0034760902151139976 -0.021104840981334656 0 0.0021238961155873454 -0.020227752824492191 0 0.001992082393049226 -0.021029753750566 0 0.0034544635896899549 -0.020978422502457243 0 0.00029879145117578046 -0.026672310530298143 0 0.00017622155872441315 -0.026669932174195849 0 3.3910262002960262e-07 -0.025497307405131491 0 0.0011538740915403203 -0.02147322202309259 0 0.001075676064315701 -0.02395123516029771 0 0.0012251511191325535 -0.023838275216923385 0 0.001075676064315701 -0.02395123516029771 0 0.001075676064315701 -0.02395123516029771 0 0.0003681968891298657 -0.025022886221102318 0 0.00082585583141836375 -0.024516521450931538 0 0.00082936389138402406 -0.024537730560106694 0 0.00086716304198059522 -0.024540421244043324 0 0.0012251511191325535 -0.023838275216923385 0 0.0003681968891298657 -0.025022886221102318 0 0.00090668808556985643 -0.022077813827146891 0 0.00015022633333747944 -0.022490047727234969 0 5.005161616921326e-05 -0.023412115487000538 0 0.001075676064315701 -0.02395123516029771 0 2.8379554989998255e-08 -0.025493780329275781 0 0.00090668808556985643 -0.022077813827146891 0 5.005161616921326e-05 -0.023412115487000538 0 2.6635172342444766e-06 -0.025489694851420334 0 5.005161616921326e-05 -0.023412115487000538 0 -6.9132086716554194e-07 -0.022997761229992905 0 2.6635172342444766e-06 -0.025489694851420334 0 -6.9132086716554194e-07 -0.022997761229992905 0 2.8819567260602372e-05 -0.0221949337615523 0 0.00016310346979957619 -0.021375372233748711 0 5.005161616921326e-05 -0.023412115487000538 0 -6.9132086716554194e-07 -0.022997761229992905 0 2.8819567260602372e-05 -0.0221949337615523 0 0.00015022633333747944 -0.022490047727234969 0 5.005161616921326e-05 -0.023412115487000538 0 2.8819567260602372e-05 -0.0221949337615523 0 0.00070947807571446956 -0.028155091969716318 0 0.0006857441999891721 -0.028999070541305356 0 0.003290610626376928 -0.030546878143807476 0 0.00025377153813764883 -0.02893190542687208 0 0.00078405050392393871 -0.030123853232645451 0 5.2823488501821099e-05 -0.027668015594741451 0 -9.1213341288590866e-06 -0.027097301023398176 0 0.00025377153813764883 -0.02893190542687208 0 5.2823488501821099e-05 -0.027668015594741451 0 -2.1373364392770502e-05 -0.026336051856914639 0 7.4778246649812302e-07 -0.028182881319809082 0 5.2823488501821099e-05 -0.027668015594741451 0 -2.1373364392770502e-05 -0.026336051856914639 0 -9.1213341288590866e-06 -0.027097301023398176 0 5.2823488501821099e-05 -0.027668015594741451 0 0.00025377153813764883 -0.02893190542687208 0 7.4778246649812302e-07 -0.028182881319809082 0 -2.1373364392770502e-05 -0.026336051856914639 0 3.3910262002960262e-07 -0.025497307405131491 0 7.4778246649812302e-07 -0.028182881319809082 0 0.00017622155872441315 -0.026669932174195849 0 -2.1373364392770502e-05 -0.026336051856914639 0 3.3910262002960262e-07 -0.025497307405131491 0 0.00017622155872441315 -0.026669932174195849 0 -2.1373364392770502e-05 -0.026336051856914639 0 -7.0877710830338268e-05 -0.026558410245954137 0 0.00017354715693855086 -0.026157026117331825 0 0.00070947807571446956 -0.028155091969716318 0 0.0003681968891298657 -0.025022886221102318 0 -0.00017814919879454639 -0.029694471159635395 0 -0.0013948102053143393 -0.02803620357094528 0 -0.0010522588241521685 -0.028072598827352514 0 -0.0012679753538007571 -0.027817966894148734 0 -2.2531368348073158e-05 -0.027268045523705379 0 0.00059430024938097721 -0.027610817538339803 0 0.00067808424215655568 -0.027316849304686017 0 0.0003681968891298657 -0.025022886221102318 0 0.00070947807571446956 -0.028155091969716318 0 -0.001451401231988251 -0.028003759403753464 0 -0.0013948102053143393 -0.02803620357094528 0 -0.0012679753538007571 -0.027817966894148734 0 0.003290610626376928 -0.030546878143807476 0 0.0021135782259246757 -0.030821690749626676 0 0.00078405050392393871 -0.030123853232645451 0 0.0028796090082890578 -0.031541796731851528 0 0.0014562060207315693 -0.031020888861643978 0 6.5068721346300733e-05 -0.031303521172941454 0 -0.0018132544204467267 -0.032487742036269057 0 -0.00074772363809954764 -0.031761104631059627 0 0.00028780780625692277 -0.032595156506512492 0 -0.00017814919879454639 -0.029694471159635395 0 0.0013955898357998877 -0.032459649855695168 0 0.0028796090082890578 -0.031541796731851528 0 0.0021135782259246757 -0.030821690749626676 0 0.0014562060207315693 -0.031020888861643978 0 0.003290610626376928 -0.030546878143807476 0 0.0028796090082890578 -0.031541796731851528 0 0.0021135782259246757 -0.030821690749626676 0 0.00070947807571446956 -0.028155091969716318 0 -0.00017814919879454639 -0.029694471159635395 0 0.0021135782259246757 -0.030821690749626676 0 0.0014562060207315693 -0.031020888861643978 0 0.00078405050392393871 -0.030123853232645451 0 -0.0018132544204467267 -0.032487742036269057 0 -0.00074772363809954764 -0.031761104631059627 0 -0.0013288776011132425 -0.030671350009007552 0 -0.00017814919879454639 -0.029694471159635395 0 -0.0012298838136398605 -0.029341752841676581 0 -0.00074772363809954764 -0.031761104631059627 0 -0.0013288776011132425 -0.030671350009007552 0 -0.00035171436716319513 -0.03120887432281777 0 -0.0010522588241521685 -0.028072598827352514 0 -0.00093165958700256097 -0.027709985502299177 0 -0.0012679753538007571 -0.027817966894148734 0 -0.00093165958700256097 -0.027709985502299177 0 -0.0012679753538007571 -0.027817966894148734 0 -0.0012091616876358034 -0.027519110161983943 0 -0.0015594231470047401 -0.027543570217473206 0 -0.0012679753538007571 -0.027817966894148734 0 -0.0012091616876358034 -0.027519110161983943 0 -0.0015594231470047401 -0.027543570217473206 0 -0.0012091616876358034 -0.027519110161983943 0 -0.0014260746932969865 -0.02731407561789909 0 -0.0012021100867783045 -0.027228257508189056 0 -0.0012091616876358034 -0.027519110161983943 0 -0.0014260746932969865 -0.02731407561789909 0 -0.00071564375393449781 -0.027330789324536808 0 -0.00093165958700256097 -0.027709985502299177 0 -0.0012091616876358034 -0.027519110161983943 0 -0.00071564375393449781 -0.027330789324536808 0 -0.0012021100867783045 -0.027228257508189056 0 -0.0012091616876358034 -0.027519110161983943 0 -0.00087631624635293223 -0.028730336496170249 0 -0.0013288776011132425 -0.030671350009007552 0 0.00037558679604837838 -0.029801665797277409 0 -0.00074700974066368075 -0.027958934754511479 0 -0.0012298838136398605 -0.029341752841676581 0 0.0027764670653815473 -0.03716177947527298 0 0.0017657296377239448 -0.0377121026344008 0 0.0026975138298932226 -0.038430571140074678 0 0.0027764670653815473 -0.03716177947527298 0 0.0026975138298932226 -0.038430571140074678 0 0.0032626447103682702 -0.037843526225646622 0 0.0041946543347836217 -0.037035596352432587 0 0.0027764670653815473 -0.03716177947527298 0 0.0032626447103682702 -0.037843526225646622 0 0.0041946543347836217 -0.037035596352432587 0 0.0027764670653815473 -0.03716177947527298 0 0.0028615846120192078 -0.03534556053176964 0 0.0027764670653815473 -0.03716177947527298 0 0.0016383850007504939 -0.036045450164987287 0 0.0017657296377239448 -0.0377121026344008 0 0.0027764670653815473 -0.03716177947527298 0 0.0028615846120192078 -0.03534556053176964 0 0.0016383850007504939 -0.036045450164987287 0 0.0028615846120192078 -0.03534556053176964 0 0.0010047061581083812 -0.032725998533867567 0 0.0016383850007504939 -0.036045450164987287 0 -0.0013288776011132425 -0.030671350009007552 0 0.00037558679604837838 -0.029801665797277409 0 -0.00035171436716319513 -0.03120887432281777 0 0.0029497845459652522 -0.033469009414689874 0 0.0013955898357998877 -0.032459649855695168 0 0.0041946543347836217 -0.037035596352432587 0 0.0028615846120192078 -0.03534556053176964 0 0.0045013837502979161 -0.032995766791782684 0 0.00037558679604837838 -0.029801665797277409 0 -0.00035171436716319513 -0.03120887432281777 0 0.00028780780625692277 -0.032595156506512492 0 -0.00074772363809954764 -0.031761104631059627 0 -0.00035171436716319513 -0.03120887432281777 0 0.00028780780625692277 -0.032595156506512492 0 0.0014562060207315693 -0.031020888861643978 0 0.00062024537178318752 -0.030765875405534351 0 6.5068721346300733e-05 -0.031303521172941454 0 0.00062024537178318752 -0.030765875405534351 0 0.00028603396129936275 -0.030687621034588327 0 6.5068721346300733e-05 -0.031303521172941454 0 0.00062024537178318752 -0.030765875405534351 0 0.00028603396129936275 -0.030687621034588327 0 0.00078405050392393871 -0.030123853232645451 0 0.0014562060207315693 -0.031020888861643978 0 0.00062024537178318752 -0.030765875405534351 0 0.00078405050392393871 -0.030123853232645451 0 0.00028603396129936275 -0.030687621034588327 0 0.00046445787801039875 -0.031151865448193247 0 0.00023262262948257618 -0.03026776843511722 0 0.00028603396129936275 -0.030687621034588327 0 0.00030863708371967161 -0.030657438073614672 0 0.00046445787801039875 -0.031151865448193247 0 0.0010566825070166808 -0.031219546914795615 0 0.0013955898357998877 -0.032459649855695168 0 0.0013955898357998877 -0.032459649855695168 0 0.0013238848348418153 -0.032415928740368784 0 0.00030863708371967161 -0.030657438073614672 0 0.0010047061581083812 -0.032725998533867567 0 0.00046445787801039875 -0.031151865448193247 0 0.0028615846120192078 -0.03534556053176964 0 0.0045013837502979161 -0.032995766791782684 0 0.0010047061581083812 -0.032725998533867567 0 0.0010047061581083812 -0.032725998533867567 0 0.00046445787801039875 -0.031151865448193247 0 0.00020086600990487958 -0.030470392936359895 0 0.0010047061581083812 -0.032725998533867567 0 1.0370136411979859e-06 -0.030873939778653822 0 0.00020086600990487958 -0.030470392936359895 0 1.0370136411979859e-06 -0.030873939778653822 0 0.00020086600990487958 -0.030470392936359895 0 7.4778246649812302e-07 -0.028182881319809082 0 0.00020086600990487958 -0.030470392936359895 0 0.00025377153813764883 -0.02893190542687208 0 7.4778246649812302e-07 -0.028182881319809082 0 0.00028603396129936275 -0.030687621034588327 0 0.00078405050392393871 -0.030123853232645451 0 0.00023262262948257618 -0.03026776843511722 0 0.00025377153813764883 -0.02893190542687208 0 0.00078405050392393871 -0.030123853232645451 0 0.00023262262948257618 -0.03026776843511722 0 0.00046445787801039875 -0.031151865448193247 0 0.00020086600990487958 -0.030470392936359895 0 0.00023262262948257618 -0.03026776843511722 0 0.00020086600990487958 -0.030470392936359895 0 0.00025377153813764883 -0.02893190542687208 0 0.00023262262948257618 -0.03026776843511722 0 -1.0712125205590198e-06 -0.033560520919500167 0 9.2702408034848783e-05 -0.032716174792867266 0 -0.00033733162423042496 -0.034288892650828177 0 0.0010047061581083812 -0.032725998533867567 0 1.0370136411979859e-06 -0.030873939778653822 0 9.2702408034848783e-05 -0.032716174792867266 0 1.0370136411979859e-06 -0.030873939778653822 0 -1.0712125205590198e-06 -0.033560520919500167 0 9.2702408034848783e-05 -0.032716174792867266 0 0.0010047061581083812 -0.032725998533867567 0 -3.871868814949565e-05 -0.034454938165406797 0 0.00058501553601921104 -0.035178222639284482 0 0.0010047061581083812 -0.032725998533867567 0 9.2702408034848783e-05 -0.032716174792867266 0 -3.871868814949565e-05 -0.034454938165406797 0 9.2702408034848783e-05 -0.032716174792867266 0 -3.871868814949565e-05 -0.034454938165406797 0 -0.00033733162423042496 -0.034288892650828177 0 -3.871868814949565e-05 -0.034454938165406797 0 0.00017184355393928195 -0.036679597463802754 0 -0.00053115361098919134 -0.035325815237763333 0 -3.871868814949565e-05 -0.034454938165406797 0 0.00058501553601921104 -0.035178222639284482 0 0.00017184355393928195 -0.036679597463802754 0 0.0010047061581083812 -0.032725998533867567 0 0.00058501553601921104 -0.035178222639284482 0 0.0016383850007504939 -0.036045450164987287 0 0.00058501553601921104 -0.035178222639284482 0 0.0016383850007504939 -0.036045450164987287 0 0.00017184355393928195 -0.036679597463802754 0 0.0017657296377239448 -0.0377121026344008 0 0.00017184355393928195 -0.036679597463802754 0 0.00095128260247824396 -0.038519750579874973 0 0.0016383850007504939 -0.036045450164987287 0 0.0017657296377239448 -0.0377121026344008 0 0.00017184355393928195 -0.036679597463802754 0 0.00017184355393928195 -0.036679597463802754 0 9.0331701959152629e-05 -0.038535595953967397 0 0.00095128260247824396 -0.038519750579874973 0 9.0331701959152629e-05 -0.038535595953967397 0 0.00078939580705279951 -0.040044155408782312 0 -0.00048585923972030057 -0.039862112398918438 0 9.0331701959152629e-05 -0.038535595953967397 0 0.00078939580705279951 -0.040044155408782312 0 0.00095128260247824396 -0.038519750579874973 0 0.00078939580705279951 -0.040044155408782312 0 -0.00013026231845963867 -0.040970867891850837 0 -0.00048585923972030057 -0.039862112398918438 0 0.00078939580705279951 -0.040044155408782312 0 0.0018940372938961413 -0.039142518545142467 0 0.002204427895727573 -0.040351106617501395 0 0.00078939580705279951 -0.040044155408782312 0 0.002204427895727573 -0.040351106617501395 0 0.0013923758848937014 -0.040931499602451071 0 0.00078939580705279951 -0.040044155408782312 0 0.0018940372938961413 -0.039142518545142467 0 0.00095128260247824396 -0.038519750579874973 0 0.0017657296377239448 -0.0377121026344008 0 0.0018940372938961413 -0.039142518545142467 0 0.00095128260247824396 -0.038519750579874973 0 0.0017657296377239448 -0.0377121026344008 0 0.0018940372938961413 -0.039142518545142467 0 0.0026975138298932226 -0.038430571140074678 0 0.0026975138298932226 -0.038430571140074678 0 0.0032626447103682702 -0.037843526225646622 0 0.0033986899302215997 -0.038691224056183665 0 0.0026975138298932226 -0.038430571140074678 0 0.0033986899302215997 -0.038691224056183665 0 0.0028033396071369707 -0.039426443572808459 0 0.0033986899302215997 -0.038691224056183665 0 0.0032946962536870481 -0.039516948624634562 0 0.0028033396071369707 -0.039426443572808459 0 0.0018940372938961413 -0.039142518545142467 0 0.0026975138298932226 -0.038430571140074678 0 0.0028033396071369707 -0.039426443572808459 0 0.0029497845459652522 -0.033469009414689874 0 -0.0019133055243675222 -0.033146302116616046 0 -0.00087631624635293223 -0.028730336496170249 0 -7.1282277512409455e-05 -0.027765460916351407 0 -0.00024959081825764041 -0.026736423509506075 0 0.00037558679604837838 -0.029801665797277409 0 -7.1282277512409455e-05 -0.027765460916351407 0 0.00016062759405095935 -0.026854360648576783 0 0.0041946543347836217 -0.037035596352432587 0 0.0033986899302215997 -0.038691224056183665 0 0.003833806280123522 -0.039585651875307985 0 0.0041946543347836217 -0.037035596352432587 0 0.0032626447103682702 -0.037843526225646622 0 0.0033986899302215997 -0.038691224056183665 0 -0.00074700974066368075 -0.027958934754511479 0 -0.00032982903266739056 -0.026844878335738717 0 -0.00087631624635293223 -0.028730336496170249 0 0.00037558679604837838 -0.029801665797277409 0 -7.1282277512409455e-05 -0.027765460916351407 0 -0.0078834895656656901 -0.029847172811404244 0 -0.0075236458414608548 -0.030331168756564043 0 -0.0076913646745719365 -0.030059197035108197 0 -0.00098656714573710038 -0.026081341519995156 0 -0.00024959081825764041 -0.026736423509506075 0 0.00016062759405095935 -0.026854360648576783 0 -7.1282277512409455e-05 -0.027765460916351407 0 -0.00024959081825764041 -0.026736423509506075 0 0.00016062759405095935 -0.026854360648576783 0 0.003833806280123522 -0.039585651875307985 0 0.0032946962536870481 -0.039516948624634562 0 0.0030867689733423964 -0.040023488405673956 0 0.0033986899302215997 -0.038691224056183665 0 0.003833806280123522 -0.039585651875307985 0 0.0032946962536870481 -0.039516948624634562 0 0.0018940372938961413 -0.039142518545142467 0 0.0028033396071369707 -0.039426443572808459 0 0.002204427895727573 -0.040351106617501395 0 0.0032946962536870481 -0.039516948624634562 0 0.0028033396071369707 -0.039426443572808459 0 0.0030867689733423964 -0.040023488405673956 0 0.003833806280123522 -0.039585651875307985 0 0.0030867689733423964 -0.040023488405673956 0 0.0030834327586679328 -0.040739227913622458 0 0.0030867689733423964 -0.040023488405673956 0 0.002204427895727573 -0.040351106617501395 0 0.0030834327586679328 -0.040739227913622458 0 0.0028033396071369707 -0.039426443572808459 0 0.0030867689733423964 -0.040023488405673956 0 0.002204427895727573 -0.040351106617501395 0 0.0030834327586679328 -0.040739227913622458 0 0.0035265307621907714 -0.041732799639135731 0 0.0020457146253484212 -0.041642351641312143 0 0.002204427895727573 -0.040351106617501395 0 0.0030834327586679328 -0.040739227913622458 0 0.0020457146253484212 -0.041642351641312143 0 0.003833806280123522 -0.039585651875307985 0 0.0030834327586679328 -0.040739227913622458 0 0.0035265307621907714 -0.041732799639135731 0 -0.0075236458414608548 -0.030331168756564043 0 -0.0076913646745719365 -0.030059197035108197 0 -0.0075410364716045827 -0.029734464737115041 0 -0.0078111707539328295 -0.029784406210697265 0 -0.0076913646745719365 -0.030059197035108197 0 -0.0075410364716045827 -0.029734464737115041 0 -0.0019133055243675222 -0.033146302116616046 0 -0.0044523185120213023 -0.035556249096638237 0 -0.0044523185120213023 -0.035556249096638237 0 0.00025646263643752388 -0.042218268980023191 0 -0.0037451623212000781 -0.040516362730851734 0 -0.0048208209493384247 -0.041121838968523672 0 -0.0033511439523752173 -0.041692136072107033 0 -0.0037451623212000781 -0.040516362730851734 0 -0.0024917203904333044 -0.041146124879248916 0 -0.0033511439523752173 -0.041692136072107033 0 -0.0024917203904333044 -0.041146124879248916 0 -0.0019841417364995467 -0.042039552949169279 0 -0.0033511439523752173 -0.041692136072107033 0 -0.0016689189687431102 -0.040621227458760775 0 -0.0024917203904333044 -0.041146124879248916 0 -0.0015464301888331628 -0.041722513448294245 0 -0.0024917203904333044 -0.041146124879248916 0 -0.0019841417364995467 -0.042039552949169279 0 -0.0015464301888331628 -0.041722513448294245 0 0.00078939580705279951 -0.040044155408782312 0 0.00050190940608509809 -0.041650908274971726 0 -0.00013026231845963867 -0.040970867891850837 0 0.00078939580705279951 -0.040044155408782312 0 0.00050190940608509809 -0.041650908274971726 0 0.0013923758848937014 -0.040931499602451071 0 0.00050190940608509809 -0.041650908274971726 0 0.0013923758848937014 -0.040931499602451071 0 0.0020457146253484212 -0.041642351641312143 0 0.002204427895727573 -0.040351106617501395 0 0.0013923758848937014 -0.040931499602451071 0 0.0020457146253484212 -0.041642351641312143 0 -0.00099249808720711184 -0.041761390529772964 0 0.00025646263643752388 -0.042218268980023191 0 -0.0011165408838532073 -0.041895457650095731 0 -0.0017058682498563857 -0.042502994654913008 0 -0.0018400908230048019 -0.042124120894908648 0 -0.0011165408838532073 -0.041895457650095731 0 -0.0018400908230048019 -0.042124120894908648 0 -0.0013443764699191652 -0.041127102224105427 0 -0.0011165408838532073 -0.041895457650095731 0 -0.0014528799808535215 -0.042396758274632775 0 -0.0017058682498563857 -0.042502994654913008 0 0.00050190940608509809 -0.041650908274971726 0 -0.0011165408838532073 -0.041895457650095731 0 -0.00013026231845963867 -0.040970867891850837 0 -0.00099249808720711184 -0.041761390529772964 0 -0.0010529905490570895 -0.041883305889666274 0 -0.0019841417364995467 -0.042039552949169279 0 -0.0011165408838532073 -0.041895457650095731 0 -0.0015464301888331628 -0.041722513448294245 0 -0.0011165408838532073 -0.041895457650095731 0 -0.0013443764699191652 -0.041127102224105427 0 -0.00013026231845963867 -0.040970867891850837 0 -0.0023498904526979485 -0.041573224119382517 0 -0.0015244538875962184 -0.042319438174377465 0 -0.0011165408838532073 -0.041895457650095731 0 -0.0015464301888331628 -0.041722513448294245 0 -0.0014528799808535215 -0.042396758274632775 0 -0.0016689189687431102 -0.040621227458760775 0 -0.0015464301888331628 -0.041722513448294245 0 -0.0014528799808535215 -0.042396758274632775 0 -0.0018199386632752061 -0.042619534071216353 0 -0.0014528799808535215 -0.042396758274632775 0 -0.0016860296921520966 -0.04267265907422077 0 -0.0014528799808535215 -0.042396758274632775 0 -0.0016860296921520966 -0.04267265907422077 0 -0.0017058682498563857 -0.042502994654913008 0 -0.0016860296921520966 -0.04267265907422077 0 -0.0017058682498563857 -0.042502994654913008 0 -0.0016589959814636958 -0.042921612730763045 0 -0.0017058682498563857 -0.042502994654913008 0 -0.0016589959814636958 -0.042921612730763045 0 -0.0018992931382133614 -0.042765307155810027 0 -0.0012007150755948832 -0.043295040262671322 0 -0.0016589959814636958 -0.042921612730763045 0 -0.0014491324852307838 -0.043239256217736804 0 -0.0016589959814636958 -0.042921612730763045 0 -0.0018992931382133614 -0.042765307155810027 0 -0.0014491324852307838 -0.043239256217736804 0 -0.0018992931382133614 -0.042765307155810027 0 -0.0018400908230048019 -0.042124120894908648 0 -0.0024792948516689415 -0.042542563356162029 0 -0.0017058682498563857 -0.042502994654913008 0 -0.0018992931382133614 -0.042765307155810027 0 -0.0018400908230048019 -0.042124120894908648 0 -0.0018400908230048019 -0.042124120894908648 0 -0.0018675077973229655 -0.041106756259941271 0 -0.0024792948516689415 -0.042542563356162029 0 -0.0018400908230048019 -0.042124120894908648 0 -0.0018675077973229655 -0.041106756259941271 0 -0.0013443764699191652 -0.041127102224105427 0 -0.0018992931382133614 -0.042765307155810027 0 -0.0024792948516689415 -0.042542563356162029 0 -0.0015797026704065535 -0.04320140281605251 0 -0.002581077768365166 -0.042388635245763542 0 -0.0028150507160396294 -0.041622444913762713 0 -0.0024792948516689415 -0.042542563356162029 0 -0.0022288196235662047 -0.039531694732132895 0 -0.0038451351527854557 -0.038938494819714738 0 -0.0018675077973229655 -0.041106756259941271 0 -0.0024792948516689415 -0.042542563356162029 0 -0.0022288196235662047 -0.039531694732132895 0 -0.0018675077973229655 -0.041106756259941271 0 -0.0022288196235662047 -0.039531694732132895 0 -0.0013510821212789959 -0.039796328311423587 0 -0.0022288196235662047 -0.039531694732132895 0 -0.0013510821212789959 -0.039796328311423587 0 -0.0014838409332588651 -0.038310113436037546 0 -0.0013510821212789959 -0.039796328311423587 0 -0.00065633784467520088 -0.038302647356674227 0 -0.0014838409332588651 -0.038310113436037546 0 -0.0018675077973229655 -0.041106756259941271 0 -0.0013510821212789959 -0.039796328311423587 0 -0.0013443764699191652 -0.041127102224105427 0 -0.0013510821212789959 -0.039796328311423587 0 -0.0013443764699191652 -0.041127102224105427 0 -0.00048585923972030057 -0.039862112398918438 0 -0.0013443764699191652 -0.041127102224105427 0 -0.00013026231845963867 -0.040970867891850837 0 -0.00048585923972030057 -0.039862112398918438 0 9.0331701959152629e-05 -0.038535595953967397 0 -0.00048585923972030057 -0.039862112398918438 0 -0.00065633784467520088 -0.038302647356674227 0 -0.0013510821212789959 -0.039796328311423587 0 -0.00048585923972030057 -0.039862112398918438 0 -0.00065633784467520088 -0.038302647356674227 0 0.00017184355393928195 -0.036679597463802754 0 9.0331701959152629e-05 -0.038535595953967397 0 -0.00065633784467520088 -0.038302647356674227 0 0.00017184355393928195 -0.036679597463802754 0 -0.00065633784467520088 -0.038302647356674227 0 -0.0009296214700256852 -0.036704178450875501 0 -0.00065633784467520088 -0.038302647356674227 0 -0.0014838409332588651 -0.038310113436037546 0 -0.0009296214700256852 -0.036704178450875501 0 -0.0014838409332588651 -0.038310113436037546 0 -0.0009296214700256852 -0.036704178450875501 0 -0.0023048214229445061 -0.037240029687196953 0 -0.0009296214700256852 -0.036704178450875501 0 -0.00096524283270841811 -0.035229454753101554 0 -0.0016658986912687533 -0.035993834045328181 0 -0.0009296214700256852 -0.036704178450875501 0 -0.0016658986912687533 -0.035993834045328181 0 -0.0023048214229445061 -0.037240029687196953 0 0.00017184355393928195 -0.036679597463802754 0 -0.0009296214700256852 -0.036704178450875501 0 -0.00053115361098919134 -0.035325815237763333 0 -0.0009296214700256852 -0.036704178450875501 0 -0.00053115361098919134 -0.035325815237763333 0 -0.00096524283270841811 -0.035229454753101554 0 -3.871868814949565e-05 -0.034454938165406797 0 -0.00053115361098919134 -0.035325815237763333 0 -0.00033733162423042496 -0.034288892650828177 0 -0.00096524283270841811 -0.035229454753101554 0 -0.00079592706128299797 -0.034691528447311798 0 -0.00033733162423042496 -0.034288892650828177 0 -0.00053115361098919134 -0.035325815237763333 0 -0.00096524283270841811 -0.035229454753101554 0 -0.00033733162423042496 -0.034288892650828177 0 -0.00096524283270841811 -0.035229454753101554 0 -0.0016658986912687533 -0.035993834045328181 0 -0.0015670238237559969 -0.03504553111929367 0 -0.00096524283270841811 -0.035229454753101554 0 -0.0015670238237559969 -0.03504553111929367 0 -0.00079592706128299797 -0.034691528447311798 0 -0.00079592706128299797 -0.034691528447311798 0 -4.6095728782208367e-05 -0.034657892391896407 0 -0.0018613889124418793 -0.034109338947393042 0 -2.4121251519801724e-07 -0.036251321281773843 0 -4.6095728782208367e-05 -0.034657892391896407 0 -1.9150137310835572e-05 -0.03702123057691202 0 -0.00022053291284793514 -0.034906390912960626 0 -0.0012191761177875915 -0.035299350081654135 0 -0.0015670238237559969 -0.03504553111929367 0 -0.00079592706128299797 -0.034691528447311798 0 -0.0018613889124418793 -0.034109338947393042 0 -1.0712125205590198e-06 -0.033560520919500167 0 -2.4121251519801724e-07 -0.036251321281773843 0 -4.6095728782208367e-05 -0.034657892391896407 0 -1.0712125205590198e-06 -0.033560520919500167 0 -4.6095728782208367e-05 -0.034657892391896407 0 -0.00033733162423042496 -0.034288892650828177 0 -0.00079592706128299797 -0.034691528447311798 0 -4.6095728782208367e-05 -0.034657892391896407 0 -0.00033733162423042496 -0.034288892650828177 0 3.7792613217522788e-05 -0.038557405292964073 0 2.1042975781667653e-07 -0.038938005530046324 0 -1.9150137310835572e-05 -0.03702123057691202 0 -0.00085112504196756451 -0.039688219683147674 0 -5.4832971707009464e-07 -0.038940066186522716 0 -2.4121251519801724e-07 -0.036251321281773843 0 2.1042975781667653e-07 -0.038938005530046324 0 -1.9150137310835572e-05 -0.03702123057691202 0 -0.0038225080454171389 -0.034409985006488515 0 -0.0018613889124418793 -0.034109338947393042 0 -0.002633372653816328 -0.035387184075495827 0 -0.0015670238237559969 -0.03504553111929367 0 -0.0018613889124418793 -0.034109338947393042 0 -0.002633372653816328 -0.035387184075495827 0 -0.00085112504196756451 -0.039688219683147674 0 -0.0012191761177875915 -0.035299350081654135 0 -0.0016658986912687533 -0.035993834045328181 0 -0.0015670238237559969 -0.03504553111929367 0 -0.002633372653816328 -0.035387184075495827 0 -0.0038225080454171389 -0.034409985006488515 0 -0.002633372653816328 -0.035387184075495827 0 -0.0038958962212957212 -0.036451402735214855 0 -0.0015070407527798546 -0.045393550958682471 0 -0.0015895518463876811 -0.044958889732371714 0 -0.0012208247956902918 -0.045114065891821091 0 -0.00085112504196756451 -0.039688219683147674 0 -0.0029414467492498669 -0.040750790722326111 0 -0.0029414467492498669 -0.040750790722326111 0 -0.0028150507160396294 -0.041622444913762713 0 -0.0038958962212957212 -0.036451402735214855 0 -0.0023048214229445061 -0.037240029687196953 0 -0.0038451351527854557 -0.038938494819714738 0 -0.0015895518463876811 -0.044958889732371714 0 -0.0019592802377422841 -0.044423024539244509 0 -0.0012026013159526839 -0.044920394062932273 0 -0.002633372653816328 -0.035387184075495827 0 -0.0038958962212957212 -0.036451402735214855 0 -0.0023048214229445061 -0.037240029687196953 0 -0.0016658986912687533 -0.035993834045328181 0 -0.002633372653816328 -0.035387184075495827 0 -0.0023048214229445061 -0.037240029687196953 0 -0.0022288196235662047 -0.039531694732132895 0 -0.0023048214229445061 -0.037240029687196953 0 -0.0038451351527854557 -0.038938494819714738 0 -0.0022288196235662047 -0.039531694732132895 0 -0.0014838409332588651 -0.038310113436037546 0 -0.0023048214229445061 -0.037240029687196953 0 1.2717168112170627e-06 -0.038945259901771105 0 -2.537674017296157e-05 -0.041940559690972976 0 -8.0520911068946157e-07 -0.044997869183021316 0 -0.0019592802377422841 -0.044423024539244509 0 -0.00085359514365473846 -0.044614872827192308 0 -0.0012026013159526839 -0.044920394062932273 0 -0.00085359514365473846 -0.044614872827192308 0 -0.00074685775023793555 -0.044962567477536963 0 -0.00033939648865906926 -0.044893474060545217 0 -0.00085359514365473846 -0.044614872827192308 0 -0.00074685775023793555 -0.044962567477536963 0 -0.0012026013159526839 -0.044920394062932273 0 -0.00074685775023793555 -0.044962567477536963 0 -0.0012026013159526839 -0.044920394062932273 0 -0.00095975221931363422 -0.045081439938277602 0 -0.0015895518463876811 -0.044958889732371714 0 -0.0012026013159526839 -0.044920394062932273 0 -0.0012208247956902918 -0.045114065891821091 0 -0.0015070407527798546 -0.045393550958682471 0 -0.0012208247956902918 -0.045114065891821091 0 -0.00085143792720928095 -0.045280300612095953 0 -0.0012026013159526839 -0.044920394062932273 0 -0.0012208247956902918 -0.045114065891821091 0 -0.00095975221931363422 -0.045081439938277602 0 -0.00086163606491338439 -0.045025818568385882 0 -0.00035229309768975488 -0.04487899867671772 0 -0.00095975221931363422 -0.045081439938277602 0 -0.00085143792720928095 -0.045280300612095953 0 -0.00021242142389633263 -0.044500858155283901 0 -0.00074685775023793555 -0.044962567477536963 0 -0.00095975221931363422 -0.045081439938277602 0 -0.0004415163676429523 -0.045158110009955836 0 -0.0012208247956902918 -0.045114065891821091 0 -0.00095975221931363422 -0.045081439938277602 0 -0.00085143792720928095 -0.045280300612095953 0 -0.00085112504196756451 -0.039688219683147674 0 -0.000577662576623432 -0.044020671448613519 0 0.00020098503855412746 -0.039774069496587718 0 1.2717168112170627e-06 -0.038945259901771105 0 -2.537674017296157e-05 -0.041940559690972976 0 -2.537674017296157e-05 -0.041940559690972976 0 -8.0520911068946157e-07 -0.044997869183021316 0 -8.038164427855927e-05 -0.044465512231665713 0 -8.0520911068946157e-07 -0.044997869183021316 0 -8.038164427855927e-05 -0.044465512231665713 0 1.6455253945258823e-07 -0.044999408600461872 0 -0.00085143792720928095 -0.045280300612095953 0 -0.00021242142389633263 -0.044500858155283901 0 -8.038164427855927e-05 -0.044465512231665713 0 -0.000577662576623432 -0.044020671448613519 0 -0.00024641098899849201 -0.044246755943377347 0 -0.00035229309768975488 -0.04487899867671772 0 -1.897330163781073e-07 -0.044999919215705557 0 -0.00021242142389633263 -0.044500858155283901 0 -8.038164427855927e-05 -0.044465512231665713 0 1.6455253945258823e-07 -0.044999408600461872 0 -0.0004415163676429523 -0.045158110009955836 0 -1.7627108328406194e-07 -0.045000537366350374 0 -0.00033939648865906926 -0.044893474060545217 0 -0.00074685775023793555 -0.044962567477536963 0 -0.0004415163676429523 -0.045158110009955836 0 -0.00033939648865906926 -0.044893474060545217 0 -0.00085359514365473846 -0.044614872827192308 0 -0.00033939648865906926 -0.044893474060545217 0 -0.0004000088301487453 -0.044515617630617475 0 -1.7627108328406194e-07 -0.045000537366350374 0 -0.00033939648865906926 -0.044893474060545217 0 -1.3754663772898508e-07 -0.044999548952990923 0 -0.00033939648865906926 -0.044893474060545217 0 -1.3754663772898508e-07 -0.044999548952990923 0 -0.0004000088301487453 -0.044515617630617475 0 -1.3754663772898508e-07 -0.044999548952990923 0 -2.0675670718321913e-07 -0.044999289435973713 0 -0.0004000088301487453 -0.044515617630617475 0 -2.0675670718321913e-07 -0.044999289435973713 0 -0.0004000088301487453 -0.044515617630617475 0 -0.00030491444898200022 -0.04450486583102637 0 -0.0004000088301487453 -0.044515617630617475 0 -0.00087556727162482924 -0.043823638514828671 0 -0.00030491444898200022 -0.04450486583102637 0 -0.00085359514365473846 -0.044614872827192308 0 -0.0004000088301487453 -0.044515617630617475 0 -0.0010911017472065567 -0.04385966619984176 0 -0.0019592802377422841 -0.044423024539244509 0 -0.00085359514365473846 -0.044614872827192308 0 -0.0010911017472065567 -0.04385966619984176 0 -0.0024792948516689415 -0.042542563356162029 0 -0.0019592802377422841 -0.044423024539244509 0 -0.0010911017472065567 -0.04385966619984176 0 -0.0024792948516689415 -0.042542563356162029 0 -0.0010911017472065567 -0.04385966619984176 0 -0.0015797026704065535 -0.04320140281605251 0 -0.0004000088301487453 -0.044515617630617475 0 -0.0010911017472065567 -0.04385966619984176 0 -0.00087556727162482924 -0.043823638514828671 0 -0.0010911017472065567 -0.04385966619984176 0 -0.0015797026704065535 -0.04320140281605251 0 -0.00087556727162482924 -0.043823638514828671 0 -0.0015797026704065535 -0.04320140281605251 0 -0.00087556727162482924 -0.043823638514828671 0 -0.0014491324852307838 -0.043239256217736804 0 -0.0018992931382133614 -0.042765307155810027 0 -0.0015797026704065535 -0.04320140281605251 0 -0.0014491324852307838 -0.043239256217736804 0 -0.0012007150755948832 -0.043295040262671322 0 -0.0014491324852307838 -0.043239256217736804 0 -0.00085680571859856442 -0.043721164245475272 0 -0.00087556727162482924 -0.043823638514828671 0 -0.00085680571859856442 -0.043721164245475272 0 -0.00039088560295732019 -0.044315439796070194 0 -0.00087556727162482924 -0.043823638514828671 0 -0.0014491324852307838 -0.043239256217736804 0 -0.00085680571859856442 -0.043721164245475272 0 -0.00039088560295732019 -0.044315439796070194 0 -2.6913670910197108e-07 -0.044999124971079905 0 -0.00030491444898200022 -0.04450486583102637 0 -2.0675670718321913e-07 -0.044999289435973713 0 -2.6913670910197108e-07 -0.044999124971079905 0 -0.00030491444898200022 -0.04450486583102637 0 -0.00087556727162482924 -0.043823638514828671 0 -0.00039088560295732019 -0.044315439796070194 0 -0.00030491444898200022 -0.04450486583102637 0 5.0818000432868754e-05 -0.0048818531357833917 0 0.0013622255900223861 -0.005987342112149352 0 -0.0004441401301247295 -0.0044643079522306813 0 0.00106730039773691 -0.0057521002116214014 0 0.00011410701440025212 -0.0066864940661584497 0 0.00062958869375890063 -0.0053776387725032876 0 0.0016642982177298507 -0.0048630772703256381 0 0.0016380854924437811 -0.0061672357093969406 0 0.00062958869375890063 -0.0053776387725032876 0 0.0016642982177298507 -0.0048630772703256381 0 0.00036492688457584146 -0.0038472077777147373 0 0.0016642982177298507 -0.0048630772703256381 0 0.0026515300626883771 -0.0051315348881337645 0 0.002266808841745033 -0.0058704181928823417 0 0.0016642982177298507 -0.0048630772703256381 0 0.0026515300626883771 -0.0051315348881337645 0 0.0024749573494439034 -0.00391797393316485 0 -0.0020353852986069163 -0.015846994660355815 0 -0.0017015035687958761 -0.015962725568867898 0 -0.0016552442125271378 -0.015828088476204549 0 -0.0020353852986069163 -0.015846994660355815 0 -0.0017243033644388508 -0.01561927022395011 0 -0.0016552442125271378 -0.015828088476204549 0 -0.0017015035687958761 -0.015962725568867898 0 -0.0017430104350089834 -0.016111363713977606 0 -0.0017012760246244453 -0.016119971141418367 0 0.0026515300626883771 -0.0051315348881337645 0 0.002266808841745033 -0.0058704181928823417 0 0.0027919060889146424 -0.0063466912743871404 0 0.0003108247791287811 -0.010532712815722264 0 0.00050381947744920113 -0.010873531322995313 0 -0.0020353852986069163 -0.015846994660355815 0 -0.0017015035687958761 -0.015962725568867898 0 -0.0017430104350089834 -0.016111363713977606 0 0.0016642982177298507 -0.0048630772703256381 0 0.002266808841745033 -0.0058704181928823417 0 0.0016380854924437811 -0.0061672357093969406 0 0.0024437160087928556 -0.007024450265468293 0 0.0014222617544953767 -0.007249875506924585 0 0.00106730039773691 -0.0057521002116214014 0 0.002266808841745033 -0.0058704181928823417 0 0.0024437160087928556 -0.007024450265468293 0 0.0016380854924437811 -0.0061672357093969406 0 0.0023967111863941984 -0.0069356695885681848 0 0.0013622255900223861 -0.005987342112149352 0 0.0027919060889146424 -0.0063466912743871404 0 0.0024437160087928556 -0.007024450265468293 0 0.0030101676115569594 -0.0077677375683993678 0 0.00050381947744920113 -0.010873531322995313 0 0.0003572757532062098 -0.013557929845753689 0 0.002266808841745033 -0.0058704181928823417 0 0.0027919060889146424 -0.0063466912743871404 0 0.0024437160087928556 -0.007024450265468293 0 -0.0017430104350089834 -0.016111363713977606 0 -0.0016922984097203322 -0.016022141039169688 0 -0.0017012760246244453 -0.016119971141418367 0 0.0024437160087928556 -0.007024450265468293 0 0.0022582238513789502 -0.0076899472526856909 0 0.0030101676115569594 -0.0077677375683993678 0 0.0022582238513789502 -0.0076899472526856909 0 0.0030101676115569594 -0.0077677375683993678 0 0.0022091021511002396 -0.0083065344389226074 0 0.0003572757532062098 -0.013557929845753689 0 0.00062434500236795349 -0.014840136748769699 0 0.00055808745238453432 -0.016065628228392571 0 0.0002321999403572631 -0.015943615935753136 0 0.00070086293629554079 -0.015664626530034764 0 0.0014222617544953767 -0.007249875506924585 0 0.0016633040699939323 -0.0080763663183570904 0 0.00064226198277388916 -0.0080740286230968992 0 0.0024437160087928556 -0.007024450265468293 0 0.0022582238513789502 -0.0076899472526856909 0 0.0014222617544953767 -0.007249875506924585 0 0.0022582238513789502 -0.0076899472526856909 0 0.0014222617544953767 -0.007249875506924585 0 0.0016633040699939323 -0.0080763663183570904 0 0.0022582238513789502 -0.0076899472526856909 0 0.0016633040699939323 -0.0080763663183570904 0 0.0022091021511002396 -0.0083065344389226074 0 0.0014222617544953767 -0.007249875506924585 0 0.00064226198277388916 -0.0080740286230968992 0 0.00011410701440025212 -0.0066864940661584497 0 0.0014222617544953767 -0.007249875506924585 0 0.00106730039773691 -0.0057521002116214014 0 0.00011410701440025212 -0.0066864940661584497 0 -0.0004441401301247295 -0.0044643079522306813 0 0.00011410701440025212 -0.0066864940661584497 0 -0.0011915812095998426 -0.0063320025342163463 0 0.00064226198277388916 -0.0080740286230968992 0 0.00011410701440025212 -0.0066864940661584497 0 -0.00086202301182178548 -0.0082287003204352463 0 0.00011410701440025212 -0.0066864940661584497 0 -0.0011915812095998426 -0.0063320025342163463 0 -0.00086202301182178548 -0.0082287003204352463 0 -0.0018624914623789858 -0.0074427528238331367 0 -0.0011915812095998426 -0.0063320025342163463 0 -0.00086202301182178548 -0.0082287003204352463 0 -0.0018624914623789858 -0.0074427528238331367 0 -0.0030424422085586962 -0.0068532463757753287 0 -0.0011915812095998426 -0.0063320025342163463 0 -0.0018624914623789858 -0.0074427528238331367 0 -0.0030424422085586962 -0.0068532463757753287 0 -0.0023646725134314843 -0.0084766887245398825 0 -0.0030424422085586962 -0.0068532463757753287 0 -0.0011915812095998426 -0.0063320025342163463 0 -0.0020373872393468356 -0.0045704748110241625 0 -0.0023637263598275957 -0.0044899897953068106 0 -0.0023413668787314211 -0.0044107538801060071 0 -0.0020373872393468356 -0.0045704748110241625 0 -0.0030069862807630475 -0.0060015930206335048 0 -0.0019599512326430864 -0.0044357477772048685 0 -0.0024434341741775083 -0.0044571837139830853 0 -0.0024461782126215998 -0.0044355673629244315 0 -0.0024712984516249131 -0.0044435773149427808 0 -0.0024434341741775083 -0.0044571837139830853 0 -0.0024652530990021404 -0.0044335688579452102 0 -0.0024712984516249131 -0.0044435773149427808 0 -0.0030069862807630475 -0.0060015930206335048 0 -0.0013898033814577135 -0.0053378132594140313 0 -0.0023637263598275957 -0.0044899897953068106 0 -0.0024434341741775083 -0.0044571837139830853 0 -0.0024652530990021404 -0.0044335688579452102 0 -0.0023637263598275957 -0.0044899897953068106 0 -0.0024434341741775083 -0.0044571837139830853 0 -0.0024497027208980711 -0.0044440827895829175 0 -0.0023637263598275957 -0.0044899897953068106 0 -0.0024652530990021404 -0.0044335688579452102 0 -0.0023413668787314211 -0.0044107538801060071 0 -0.0024652530990021404 -0.0044335688579452102 0 -0.0024712984516249131 -0.0044435773149427808 0 -0.0026441028990855865 -0.0043077205064560743 0 -0.0025240707777430399 -0.0041275612936194179 0 -0.0027406919320712856 -0.0037037599157342606 0 -0.0026441028990855865 -0.0043077205064560743 0 -0.0024652530990021404 -0.0044335688579452102 0 -0.0025240707777430399 -0.0041275612936194179 0 -0.0026441028990855865 -0.0043077205064560743 0 -0.0025240707777430399 -0.0041275612936194179 0 -0.0023413668787314211 -0.0044107538801060071 0 -0.0022919336056887499 -0.00399545752649788 0 -0.0024652530990021404 -0.0044335688579452102 0 -0.0025240707777430399 -0.0041275612936194179 0 -0.0023413668787314211 -0.0044107538801060071 0 -0.0025240707777430399 -0.0041275612936194179 0 -0.0022919336056887499 -0.00399545752649788 0 -0.0025219920388751984 -0.0037564557547616483 0 -0.0025240707777430399 -0.0041275612936194179 0 -0.0025219920388751984 -0.0037564557547616483 0 -0.0027406919320712856 -0.0037037599157342606 0 -0.0039512289370847373 0.0025797258195752303 0 -0.0029884398823622027 0.0075978427317972726 0 -0.0039512289370847373 0.0025797258195752303 0 -0.0025496022808313957 -0.0013013146224059907 0 -0.004916045565730524 0.0078972098099766505 0 -0.0051547356424520565 0.0070259977330107337 0 -0.0033624011581482854 0.0089964543443495811 0 -0.0004441401301247295 -0.0044643079522306813 0 -0.0011915812095998426 -0.0063320025342163463 0 -0.0020373872393468356 -0.0045704748110241625 0 -0.0023413668787314211 -0.0044107538801060071 0 -0.0022919336056887499 -0.00399545752649788 0 -0.0020373872393468356 -0.0045704748110241625 0 -0.0022919336056887499 -0.00399545752649788 0 -0.0020373872393468356 -0.0045704748110241625 0 -0.0017551805977754893 -0.0037054489525565272 0 5.0818000432868754e-05 -0.0048818531357833917 0 -0.0010857631553513915 -0.0044201499868131884 0 -0.0004441401301247295 -0.0044643079522306813 0 -0.0020373872393468356 -0.0045704748110241625 0 -0.0017551805977754893 -0.0037054489525565272 0 0.00062958869375890063 -0.0053776387725032876 0 -0.00061307236802970902 -0.0045003479764712971 0 0.00036492688457584146 -0.0038472077777147373 0 -0.00061307236802970902 -0.0045003479764712971 0 -0.0010692961883658353 -0.0030456767666197484 0 0.00036492688457584146 -0.0038472077777147373 0 -0.0010857631553513915 -0.0044201499868131884 0 -0.0020279480735432816 -0.0012701409576931677 0 -0.00061307236802970902 -0.0045003479764712971 0 -0.0010692961883658353 -0.0030456767666197484 0 -0.002048228225723724 -0.0034586718733898465 0 -0.0022919336056887499 -0.00399545752649788 0 -0.0017551805977754893 -0.0037054489525565272 0 -0.0022936409020262974 -0.0033611192502183448 0 -0.0011763535052602588 -0.0026591095922191216 0 -0.0023161345548658378 -0.0029598971263524723 0 -0.0022265784105924631 -0.0016197781214237991 0 -0.0011763535052602588 -0.0026591095922191216 0 -5.0661759020596214e-05 -0.0025654018413787936 0 -0.0013003819140419335 -0.00085146678497529922 0 -0.0012320040635266758 -0.0028505894920904952 0 -0.0020279480735432816 -0.0012701409576931677 0 -0.0012320040635266758 -0.0028505894920904952 0 -0.00014350501744396125 -0.0025349670637448201 0 -0.0010692961883658353 -0.0030456767666197484 0 -5.0661759020596214e-05 -0.0025654018413787936 0 0.00036492688457584146 -0.0038472077777147373 0 -0.0067201620897741439 0.010924229562111339 0 -0.0052195771191750765 0.0071223902492099696 0 -0.0067081893007112491 0.015143538315339402 0 -0.0068164385393850013 0.014449089232074913 0 -0.0073195516738977289 0.015446060302115918 0 -0.0039512289370847373 0.0025797258195752303 0 -0.0052195771191750765 0.0071223902492099696 0 -0.0025219920388751984 -0.0037564557547616483 0 -0.0027070293920916223 -0.0035163612821418637 0 -0.0025621561021352615 -0.0034949901555033484 0 -0.0052195771191750765 0.0071223902492099696 0 -0.0042420699690019241 0.0037782795950500798 0 -0.0025219920388751984 -0.0037564557547616483 0 -0.0027406919320712856 -0.0037037599157342606 0 -0.0027070293920916223 -0.0035163612821418637 0 -0.0057599846974761308 0.0078170698661958766 0 -0.0059285151335844192 0.0063421005245014603 0 -0.0046975441585864501 0.0068715512569299314 0 -0.0067201620897741439 0.010924229562111339 0 -0.0042420699690019241 0.0037782795950500798 0 -0.0025219920388751984 -0.0037564557547616483 0 -0.0025621561021352615 -0.0034949901555033484 0 -0.0022936409020262974 -0.0033611192502183448 0 -0.0022919336056887499 -0.00399545752649788 0 -0.0025219920388751984 -0.0037564557547616483 0 -0.0022936409020262974 -0.0033611192502183448 0 -0.0042420699690019241 0.0037782795950500798 0 -0.0020279480735432816 -0.0012701409576931677 0 -0.0050251283339798969 0.0035409006628134569 0 -0.0027061024420956775 0.0045184693371574138 0 -0.0054131244383251878 0.0065102975755053777 0 -0.0023161345548658378 -0.0029598971263524723 0 -0.0022265784105924631 -0.0016197781214237991 0 -0.0035338944703689431 -0.0018141625247933679 0 -0.0020279480735432816 -0.0012701409576931677 0 -0.0062938114407946446 0.0068924869801710162 0 -0.0071793969789230765 0.014627247194786834 0 -0.0081584177520482373 0.014649936831642557 0 -0.0091018284408332026 0.01595507310711039 0 -0.0062412658130342981 0.0046244743794043421 0 -0.0050251283339798969 0.0035409006628134569 0 -0.0054131244383251878 0.0065102975755053777 0 -0.0076363281058975455 0.013520315055960791 0 -0.0071793969789230765 0.014627247194786834 0 -0.007570120786368731 0.013934935514257922 0 -0.0067201620897741439 0.010924229562111339 0 -0.0062938114407946446 0.0068924869801710162 0 -0.0076550051722611779 0.013521998886767111 0 -0.0081584177520482373 0.014649936831642557 0 -0.007570120786368731 0.013934935514257922 0 -0.0071793969789230765 0.014627247194786834 0 -0.0081584177520482373 0.014649936831642557 0 -0.007570120786368731 0.013934935514257922 0 -0.0067201620897741439 0.010924229562111339 0 -0.0067004886048817993 0.012195758511530206 0 -0.0079474357574139468 0.0097642719404405793 0 -0.008520294988838991 0.011570970246509538 0 -0.0094208382223410145 0.01149364022343354 0 -0.0062938114407946446 0.0068924869801710162 0 -0.0053391274418904608 0.0051757905559109887 0 -0.0079474357574139468 0.0097642719404405793 0 -0.008520294988838991 0.011570970246509538 0 -0.0074751371304395469 0.011780959341507843 0 -0.0062938114407946446 0.0068924869801710162 0 -0.009724220385822973 0.014507016231424972 0 -0.0022265784105924631 -0.0016197781214237991 0 -0.0030469046510857825 1.4945735070105026e-06 0 -0.0013003819140419335 -0.00085146678497529922 0 -0.0022265784105924631 -0.0016197781214237991 0 -0.0035338944703689431 -0.0018141625247933679 0 -0.0030469046510857825 1.4945735070105026e-06 0 -0.0047749154318358477 0.0084597928482189524 0 -0.0053391274418904608 0.0051757905559109887 0 -0.0081265265051686537 0.013159111797844491 0 -0.0071787316336727278 0.013473351663407443 0 -0.0074751371304395469 0.011780959341507843 0 -0.0025915521009985082 0.0018449293739770277 0 -0.0030469046510857825 1.4945735070105026e-06 0 -0.0015320170224366579 0.00072820291299318957 0 -0.0081265265051686537 0.013159111797844491 0 -0.0074751371304395469 0.011780959341507843 0 -0.0085615158689141546 0.012488676964567383 0 -0.008520294988838991 0.011570970246509538 0 -0.0074751371304395469 0.011780959341507843 0 -0.0085615158689141546 0.012488676964567383 0 -0.0081265265051686537 0.013159111797844491 0 -0.0085615158689141546 0.012488676964567383 0 -0.0089382851881740135 0.013411069820189903 0 -0.008520294988838991 0.011570970246509538 0 -0.0085615158689141546 0.012488676964567383 0 -0.0090605936787413067 0.012289617078143191 0 -5.0661759020596214e-05 -0.0025654018413787936 0 -2.0036001027202665e-05 -0.0013098528792427041 0 -0.0013003819140419335 -0.00085146678497529922 0 -5.0661759020596214e-05 -0.0025654018413787936 0 -2.0036001027202665e-05 -0.0013098528792427041 0 0.0011138909029406573 -0.0019713408480537915 0 -0.0011763535052602588 -0.0026591095922191216 0 -0.0022265784105924631 -0.0016197781214237991 0 -0.0013003819140419335 -0.00085146678497529922 0 -0.0013003819140419335 -0.00085146678497529922 0 -0.0015320170224366579 0.00072820291299318957 0 0.00020435862725864715 0.00038066007569954381 0 -0.0030469046510857825 1.4945735070105026e-06 0 -0.0013003819140419335 -0.00085146678497529922 0 -0.0015320170224366579 0.00072820291299318957 0 -2.0036001027202665e-05 -0.0013098528792427041 0 -0.0013003819140419335 -0.00085146678497529922 0 0.00020435862725864715 0.00038066007569954381 0 -2.0036001027202665e-05 -0.0013098528792427041 0 0.00020435862725864715 0.00038066007569954381 0 0.0011138909029406573 -0.0019713408480537915 0 0.00051435455664390454 -0.00075117743861952298 0 0.0011582100645319232 -0.0018998138408491739 0 0.0012043428894937902 -0.0022307578410018878 0 0.0013675491538911837 -0.0022408186951162492 0 0.0011138909029406573 -0.0019713408480537915 0 0.0012311278017616066 -0.0022748243524069634 0 0.0012043428894937902 -0.0022307578410018878 0 0.0011138909029406573 -0.0019713408480537915 0 0.0014188610040659214 -0.0020995385542397823 0 0.0013675491538911837 -0.0022408186951162492 0 0.0020192545659565905 -0.0026533041058363922 0 0.0012043428894937902 -0.0022307578410018878 0 0.0014188610040659214 -0.0020995385542397823 0 0.0013675491538911837 -0.0022408186951162492 0 0.0013675491538911837 -0.0022408186951162492 0 0.0014929855211702225 -0.0027774530952118588 0 0.0020192545659565905 -0.0026533041058363922 0 0.0013675491538911837 -0.0022408186951162492 0 0.0011138909029406573 -0.0019713408480537915 0 0.0014929855211702225 -0.0027774530952118588 0 0.0011138909029406573 -0.0019713408480537915 0 0.000892917583357505 -0.0028810155660961103 0 0.0014929855211702225 -0.0027774530952118588 0 0.000892917583357505 -0.0028810155660961103 0 0.0013674101804263211 -0.0035884151001453674 0 0.00036492688457584146 -0.0038472077777147373 0 -5.0661759020596214e-05 -0.0025654018413787936 0 0.000892917583357505 -0.0028810155660961103 0 0.00036492688457584146 -0.0038472077777147373 0 -5.0661759020596214e-05 -0.0025654018413787936 0 0.0011138909029406573 -0.0019713408480537915 0 0.000892917583357505 -0.0028810155660961103 0 0.000892917583357505 -0.0028810155660961103 0 0.0014929855211702225 -0.0027774530952118588 0 0.0013674101804263211 -0.0035884151001453674 0 0.0014929855211702225 -0.0027774530952118588 0 0.0013674101804263211 -0.0035884151001453674 0 0.0024749573494439034 -0.00391797393316485 0 0.0016642982177298507 -0.0048630772703256381 0 0.0013674101804263211 -0.0035884151001453674 0 0.00036492688457584146 -0.0038472077777147373 0 0.0016642982177298507 -0.0048630772703256381 0 0.0013674101804263211 -0.0035884151001453674 0 0.0024749573494439034 -0.00391797393316485 0 -0.001884707842711219 -0.015360470770581704 0 -0.0024342743120431953 -0.015197939334501023 0 -0.0017243033644388508 -0.01561927022395011 0 -0.0020353852986069163 -0.015846994660355815 0 -0.0024342743120431953 -0.015197939334501023 0 -0.0017243033644388508 -0.01561927022395011 0 0.0003108247791287811 -0.010532712815722264 0 5.246754601511637e-06 -0.0095494536334228761 0 5.246754601511637e-06 -0.0095494536334228761 0 -0.00042991328352944762 -0.0084049536724135551 0 -0.0024342743120431953 -0.015197939334501023 0 -0.0023172066494699891 -0.014615463102740789 0 -0.0028683361566939039 -0.014324620174119852 0 0.0014929855211702225 -0.0027774530952118588 0 0.0024749573494439034 -0.00391797393316485 0 0.0020192545659565905 -0.0026533041058363922 0 -0.001884707842711219 -0.015360470770581704 0 -0.0024342743120431953 -0.015197939334501023 0 -0.002000732796260144 -0.015083915757288957 0 -0.0024342743120431953 -0.015197939334501023 0 -0.002000732796260144 -0.015083915757288957 0 -0.0023172066494699891 -0.014615463102740789 0 -0.001884707842711219 -0.015360470770581704 0 -0.002000732796260144 -0.015083915757288957 0 -0.0017309551033938809 -0.015412750741303528 0 -0.0028092220324909289 -0.015167730511158649 0 -0.0021483036300549191 -0.015275391328712438 0 -0.002000732796260144 -0.015083915757288957 0 -0.0023172066494699891 -0.014615463102740789 0 -0.001803144015140585 -0.014789669595176858 0 -0.0023172066494699891 -0.014615463102740789 0 -0.0023581194012377584 -0.013927764499442791 0 -0.001803144015140585 -0.014789669595176858 0 -0.003111691267897032 -0.015414267340909997 0 -0.0025753724605502471 -0.015333280781843053 0 -0.00236805711718439 -0.015883116192905274 0 -0.0023172066494699891 -0.014615463102740789 0 -0.0028683361566939039 -0.014324620174119852 0 -0.0023581194012377584 -0.013927764499442791 0 -0.00088914537596250878 -0.0082398459476399257 0 -0.0028092220324909289 -0.015167730511158649 0 -0.0029408564420224932 -0.014921503964928451 0 -0.0037785144004707514 -0.01481897048862745 0 -0.003111691267897032 -0.015414267340909997 0 -0.0031087700245670236 -0.013287068341615029 0 -0.0028683361566939039 -0.014324620174119852 0 -0.0023581194012377584 -0.013927764499442791 0 -0.00088914537596250878 -0.0082398459476399257 0 -0.00042991328352944762 -0.0084049536724135551 0 -0.002334486379247836 -0.014917473117624211 0 -0.0029408564420224932 -0.014921503964928451 0 -0.0025753724605502471 -0.015333280781843053 0 -0.0029408564420224932 -0.014921503964928451 0 -0.003111691267897032 -0.015414267340909997 0 -0.0025753724605502471 -0.015333280781843053 0 -0.002334486379247836 -0.014917473117624211 0 -0.0020916258145902179 -0.015443027698158137 0 -0.0018164515639683243 -0.015173384288276073 0 -0.002334486379247836 -0.014917473117624211 0 -0.0020916258145902179 -0.015443027698158137 0 -0.0025753724605502471 -0.015333280781843053 0 -0.0021483036300549191 -0.015275391328712438 0 -0.0016195267494969691 -0.015915511407460187 0 -0.00236805711718439 -0.015883116192905274 0 -0.0018153622828898151 -0.015820143963090848 0 -0.0015534543584678701 -0.016040085529963659 0 -0.0020916258145902179 -0.015443027698158137 0 -0.0025753724605502471 -0.015333280781843053 0 -0.00236805711718439 -0.015883116192905274 0 -0.0020916258145902179 -0.015443027698158137 0 -0.00236805711718439 -0.015883116192905274 0 -0.0018153622828898151 -0.015820143963090848 0 -0.0018153622828898151 -0.015820143963090848 0 -0.0014460703583570227 -0.015988843080544629 0 -0.0015534543584678701 -0.016040085529963659 0 -0.0020916258145902179 -0.015443027698158137 0 -0.0018153622828898151 -0.015820143963090848 0 -0.0017432537937866579 -0.015580918557672883 0 -0.0018153622828898151 -0.015820143963090848 0 -0.0017432537937866579 -0.015580918557672883 0 -0.0014460703583570227 -0.015988843080544629 0 -0.0017432537937866579 -0.015580918557672883 0 -0.0018164515639683243 -0.015173384288276073 0 -0.0014621260811179151 -0.015420584764999913 0 -0.0020916258145902179 -0.015443027698158137 0 -0.0017432537937866579 -0.015580918557672883 0 -0.0018164515639683243 -0.015173384288276073 0 -0.001408031544348652 -0.014948965030556786 0 -0.0018164515639683243 -0.015173384288276073 0 -0.0014621260811179151 -0.015420584764999913 0 -0.001408031544348652 -0.014948965030556786 0 -0.0014621260811179151 -0.015420584764999913 0 -0.0010905869059155376 -0.015364903794262828 0 -0.0014621260811179151 -0.015420584764999913 0 -0.0010905869059155376 -0.015364903794262828 0 -0.001217250762082583 -0.015790512442170987 0 -0.0010905869059155376 -0.015364903794262828 0 -0.0008550207024906227 -0.015840455597424186 0 -0.00064821382445253253 -0.015315964021166863 0 -0.0010905869059155376 -0.015364903794262828 0 -0.0008550207024906227 -0.015840455597424186 0 -0.001217250762082583 -0.015790512442170987 0 -0.0008550207024906227 -0.015840455597424186 0 -0.0011028077749983449 -0.01617509629951568 0 -0.001217250762082583 -0.015790512442170987 0 -0.0008550207024906227 -0.015840455597424186 0 -0.0011028077749983449 -0.01617509629951568 0 -0.00085611461121622764 -0.01634943565157047 0 -0.0014621260811179151 -0.015420584764999913 0 -0.001217250762082583 -0.015790512442170987 0 -0.0014460703583570227 -0.015988843080544629 0 -0.0017432537937866579 -0.015580918557672883 0 -0.0014621260811179151 -0.015420584764999913 0 -0.0014460703583570227 -0.015988843080544629 0 -0.0011028077749983449 -0.01617509629951568 0 -0.001217250762082583 -0.015790512442170987 0 -0.0014460703583570227 -0.015988843080544629 0 -0.0014460703583570227 -0.015988843080544629 0 -0.0011979619763666002 -0.016399038157718118 0 -0.001286302790574539 -0.016502745702628385 0 -0.0011028077749983449 -0.01617509629951568 0 -0.0014460703583570227 -0.015988843080544629 0 -0.0011979619763666002 -0.016399038157718118 0 -0.0011979619763666002 -0.016399038157718118 0 -0.001286302790574539 -0.016502745702628385 0 -0.0011051076083904484 -0.016735412373050693 0 -0.00085611461121622764 -0.01634943565157047 0 -0.00099906657825863353 -0.016584659266785338 0 -0.00080024800192574357 -0.016838488771940746 0 -0.0011028077749983449 -0.01617509629951568 0 -0.00085611461121622764 -0.01634943565157047 0 -0.00099906657825863353 -0.016584659266785338 0 -0.0011028077749983449 -0.01617509629951568 0 -0.0011979619763666002 -0.016399038157718118 0 -0.00099906657825863353 -0.016584659266785338 0 -0.0011979619763666002 -0.016399038157718118 0 -0.00099906657825863353 -0.016584659266785338 0 -0.0011051076083904484 -0.016735412373050693 0 -0.00099906657825863353 -0.016584659266785338 0 -0.00095526618966999236 -0.016914482026376694 0 -0.0011051076083904484 -0.016735412373050693 0 -0.00099906657825863353 -0.016584659266785338 0 -0.00095526618966999236 -0.016914482026376694 0 -0.00080024800192574357 -0.016838488771940746 0 -0.00095526618966999236 -0.016914482026376694 0 -0.00080024800192574357 -0.016838488771940746 0 -0.00084246217950339553 -0.017232545731219833 0 -0.00095526618966999236 -0.016914482026376694 0 -0.0010005301182068923 -0.017100102709741879 0 -0.0011051076083904484 -0.016735412373050693 0 -0.00095526618966999236 -0.016914482026376694 0 -0.0010005301182068923 -0.017100102709741879 0 -0.00084246217950339553 -0.017232545731219833 0 -0.001286302790574539 -0.016502745702628385 0 -0.0011510331115295279 -0.016891431834499059 0 -0.0013949353963743651 -0.016551038424146017 0 -0.001286302790574539 -0.016502745702628385 0 -0.0011051076083904484 -0.016735412373050693 0 -0.0011510331115295279 -0.016891431834499059 0 -0.0010005301182068923 -0.017100102709741879 0 -0.0011051076083904484 -0.016735412373050693 0 -0.0011510331115295279 -0.016891431834499059 0 -0.0011510331115295279 -0.016891431834499059 0 -0.0013949353963743651 -0.016551038424146017 0 -0.0013172759247226729 -0.016969338304637243 0 -0.0013949353963743651 -0.016551038424146017 0 -0.001540080787958616 -0.016326479383603633 0 -0.0014767911081891101 -0.016748333714192352 0 -0.0013949353963743651 -0.016551038424146017 0 -0.0014767911081891101 -0.016748333714192352 0 -0.0013172759247226729 -0.016969338304637243 0 -0.001540080787958616 -0.016326479383603633 0 -0.0014767911081891101 -0.016748333714192352 0 -0.0016800031941642706 -0.017011882597984612 0 -0.0014767911081891101 -0.016748333714192352 0 -0.0016800031941642706 -0.017011882597984612 0 -0.0013172759247226729 -0.016969338304637243 0 -0.0014870104450030973 -0.016305672582064161 0 -0.0017724098324651161 -0.015477807261459036 0 -0.0014029472006390255 -0.015594623416856624 0 -0.0017309551033938809 -0.015412750741303528 0 -0.001788869804236702 -0.015410086459178834 0 -0.001540080787958616 -0.016326479383603633 0 -0.0016800031941642706 -0.017011882597984612 0 -0.001788869804236702 -0.015410086459178834 0 -0.001884707842711219 -0.015360470770581704 0 -0.0017243033644388508 -0.01561927022395011 0 -0.0016705328676858663 -0.015491498453556421 0 -0.0014029472006390255 -0.015594623416856624 0 -0.0017243033644388508 -0.01561927022395011 0 -0.0016705328676858663 -0.015491498453556421 0 -0.0014029472006390255 -0.015594623416856624 0 -0.0016705328676858663 -0.015491498453556421 0 -0.0017309551033938809 -0.015412750741303528 0 -0.001884707842711219 -0.015360470770581704 0 -0.0016705328676858663 -0.015491498453556421 0 -0.0017309551033938809 -0.015412750741303528 0 -0.001803144015140585 -0.014789669595176858 0 -0.001788869804236702 -0.015410086459178834 0 -0.0015534543584678701 -0.016040085529963659 0 -0.002000732796260144 -0.015083915757288957 0 -0.0017309551033938809 -0.015412750741303528 0 -0.001788869804236702 -0.015410086459178834 0 -0.002000732796260144 -0.015083915757288957 0 -0.001803144015140585 -0.014789669595176858 0 -0.001788869804236702 -0.015410086459178834 0 -0.0014460703583570227 -0.015988843080544629 0 -0.001286302790574539 -0.016502745702628385 0 -0.0015534543584678701 -0.016040085529963659 0 -0.001286302790574539 -0.016502745702628385 0 -0.0013949353963743651 -0.016551038424146017 0 -0.0015534543584678701 -0.016040085529963659 0 -0.0013949353963743651 -0.016551038424146017 0 -0.001540080787958616 -0.016326479383603633 0 -0.0015534543584678701 -0.016040085529963659 0 -0.001540080787958616 -0.016326479383603633 0 -0.001788869804236702 -0.015410086459178834 0 -0.0015534543584678701 -0.016040085529963659 0 -0.0042182694048143923 -0.029466634248267828 0 -0.00365818895443684 -0.024885405545810761 0 -0.0064651225895480478 -0.02914370258163235 0 -0.0064314182341730928 -0.029805892140210719 0 -0.0062857559883314562 -0.029784079922826369 0 -0.0042182694048143923 -0.029466634248267828 0 -0.0063631080409831155 -0.033754041610728654 0 -0.0060684747103512023 -0.03661803410986756 0 -0.0062054208176634896 -0.036532684100949044 0 -0.0060890637953465773 -0.036399999892018885 0 -0.0060684747103512023 -0.03661803410986756 0 -0.0063130183506153259 -0.036656437789418947 0 -0.0062054208176634896 -0.036532684100949044 0 0.00010687736466290445 -0.022841050283634395 0 -0.00071287669246818868 -0.022768952954797143 0 1.3729177641796069e-06 -0.02169288432629958 0 -0.00071287669246818868 -0.022768952954797143 0 -0.00093806359793279599 -0.021511131067000078 0 1.3729177641796069e-06 -0.02169288432629958 0 0.0002370083988112293 -0.018762888892894746 0 0.00011060786381590052 -0.018899607227521934 0 -0.00093806359793279599 -0.021511131067000078 0 1.3729177641796069e-06 -0.02169288432629958 0 -0.00012066290659300074 -0.020402383152755242 0 0.00024018761694660941 -0.016045778783730605 0 -0.00028662541905449893 -0.015804325039828902 0 -0.00041403842627070052 -0.016499529855660992 0 -0.00028496895015364882 -0.015248392409660529 0 0.00020280308669132707 -0.015100362012667054 0 -0.00028662541905449893 -0.015804325039828902 0 0.00020280308669132707 -0.015100362012667054 0 0.00024018761694660941 -0.016045778783730605 0 -0.00028662541905449893 -0.015804325039828902 0 -0.0008550207024906227 -0.015840455597424186 0 -0.00028662541905449893 -0.015804325039828902 0 -0.00064821382445253253 -0.015315964021166863 0 -0.00028496895015364882 -0.015248392409660529 0 -0.00028662541905449893 -0.015804325039828902 0 -0.00064821382445253253 -0.015315964021166863 0 -0.0008550207024906227 -0.015840455597424186 0 -0.00028662541905449893 -0.015804325039828902 0 -0.00058700977317262639 -0.01613369647859602 0 -0.00028662541905449893 -0.015804325039828902 0 -0.00058700977317262639 -0.01613369647859602 0 -0.00041403842627070052 -0.016499529855660992 0 -0.00085611461121622764 -0.01634943565157047 0 -0.00058700977317262639 -0.01613369647859602 0 -0.00041403842627070052 -0.016499529855660992 0 -0.0008550207024906227 -0.015840455597424186 0 -0.00085611461121622764 -0.01634943565157047 0 -0.00058700977317262639 -0.01613369647859602 0 -0.00085611461121622764 -0.01634943565157047 0 -0.00080024800192574357 -0.016838488771940746 0 -0.00041403842627070052 -0.016499529855660992 0 -0.00080024800192574357 -0.016838488771940746 0 -0.00062309126713483941 -0.017240686376504836 0 -0.00041403842627070052 -0.016499529855660992 0 -0.00080024800192574357 -0.016838488771940746 0 -0.00084246217950339553 -0.017232545731219833 0 -0.00062309126713483941 -0.017240686376504836 0 -0.00084246217950339553 -0.017232545731219833 0 -0.00062309126713483941 -0.017240686376504836 0 -0.00073116833166855571 -0.017634398182511564 0 -0.00062309126713483941 -0.017240686376504836 0 0.00014434895945227022 -0.01711867432401825 0 -0.00052249406058306859 -0.017958809323525064 0 -0.00062309126713483941 -0.017240686376504836 0 -0.00052249406058306859 -0.017958809323525064 0 -0.00073116833166855571 -0.017634398182511564 0 -0.00062309126713483941 -0.017240686376504836 0 -0.00041403842627070052 -0.016499529855660992 0 0.00014434895945227022 -0.01711867432401825 0 0.00024018761694660941 -0.016045778783730605 0 -0.00041403842627070052 -0.016499529855660992 0 0.00014434895945227022 -0.01711867432401825 0 0.00011060786381590052 -0.018899607227521934 0 -3.5333424662394085e-05 -0.018734070855572025 0 0.00014434895945227022 -0.01711867432401825 0 -0.0004489396792478455 -0.018829746620185668 0 -0.00052249406058306859 -0.017958809323525064 0 -3.5333424662394085e-05 -0.018734070855572025 0 -0.0003647956480864614 -0.01877596507775561 0 -0.00012066290659300074 -0.020402383152755242 0 -0.0011416683702077551 -0.020121952512951867 0 -0.0004489396792478455 -0.018829746620185668 0 -0.00093806359793279599 -0.021511131067000078 0 -0.00012066290659300074 -0.020402383152755242 0 -0.0011416683702077551 -0.020121952512951867 0 -0.00365818895443684 -0.024885405545810761 0 -0.0037260825960008619 -0.025633375110360342 0 -0.0064314182341730928 -0.029805892140210719 0 -0.0062857559883314562 -0.029784079922826369 0 -0.0063812613789023488 -0.030755709304634487 0 -0.0010828421365036312 -0.019582386295875769 0 -0.0004489396792478455 -0.018829746620185668 0 -0.00099304274427955853 -0.018766283318268268 0 -0.0010828421365036312 -0.019582386295875769 0 -0.0011416683702077551 -0.020121952512951867 0 -0.0004489396792478455 -0.018829746620185668 0 -0.0035916115502884795 -0.025227582014207866 0 -0.0037260825960008619 -0.025633375110360342 0 -0.0004489396792478455 -0.018829746620185668 0 -0.0006491663967969852 -0.018385509401266455 0 -0.00052249406058306859 -0.017958809323525064 0 -0.0004489396792478455 -0.018829746620185668 0 -0.0006491663967969852 -0.018385509401266455 0 -0.00099304274427955853 -0.018766283318268268 0 -0.0006491663967969852 -0.018385509401266455 0 -0.00069752539325131948 -0.017983698429763884 0 -0.00077242549328446295 -0.01789156096973148 0 -0.0006491663967969852 -0.018385509401266455 0 -0.00052249406058306859 -0.017958809323525064 0 -0.00069752539325131948 -0.017983698429763884 0 -0.00052249406058306859 -0.017958809323525064 0 -0.00069752539325131948 -0.017983698429763884 0 -0.00073116833166855571 -0.017634398182511564 0 -0.00069752539325131948 -0.017983698429763884 0 -0.00073116833166855571 -0.017634398182511564 0 -0.00079273322313496949 -0.017699288030890676 0 -0.00084246217950339553 -0.017232545731219833 0 -0.00073116833166855571 -0.017634398182511564 0 -0.00088681261568323579 -0.017439953848739264 0 -0.00073116833166855571 -0.017634398182511564 0 -0.00079273322313496949 -0.017699288030890676 0 -0.00088681261568323579 -0.017439953848739264 0 -0.00079273322313496949 -0.017699288030890676 0 -0.00077242549328446295 -0.01789156096973148 0 -0.00085977556975618636 -0.017546181343396836 0 -0.00079273322313496949 -0.017699288030890676 0 -0.00088681261568323579 -0.017439953848739264 0 -0.00085977556975618636 -0.017546181343396836 0 -0.00069752539325131948 -0.017983698429763884 0 -0.00079273322313496949 -0.017699288030890676 0 -0.00077242549328446295 -0.01789156096973148 0 -0.0008301722454352946 -0.017492999995832637 0 -0.00077242549328446295 -0.01789156096973148 0 -0.00085977556975618636 -0.017546181343396836 0 -0.0008301722454352946 -0.017492999995832637 0 -0.00089406045240422456 -0.017326082534801772 0 -0.00077242549328446295 -0.01789156096973148 0 -0.00089406045240422456 -0.017326082534801772 0 -0.00085300836495245805 -0.01712378590019404 0 -0.00082239577706329811 -0.016809754125326096 0 -0.0008301722454352946 -0.017492999995832637 0 -0.00089406045240422456 -0.017326082534801772 0 -0.00085300836495245805 -0.01712378590019404 0 -0.00089406045240422456 -0.017326082534801772 0 -0.000883263821072999 -0.018053294063658545 0 -0.0010480781860432394 -0.017406263931603935 0 -0.00089406045240422456 -0.017326082534801772 0 -0.0010480781860432394 -0.017406263931603935 0 -0.0010894052307379972 -0.016658722004754628 0 -0.00089406045240422456 -0.017326082534801772 0 -0.00077242549328446295 -0.01789156096973148 0 -0.000883263821072999 -0.018053294063658545 0 -0.0006491663967969852 -0.018385509401266455 0 -0.00077242549328446295 -0.01789156096973148 0 -0.000883263821072999 -0.018053294063658545 0 -0.000883263821072999 -0.018053294063658545 0 -0.0012429316245557505 -0.017822959672335111 0 -0.00099304274427955853 -0.018766283318268268 0 -0.0006491663967969852 -0.018385509401266455 0 -0.000883263821072999 -0.018053294063658545 0 -0.00099304274427955853 -0.018766283318268268 0 -0.000883263821072999 -0.018053294063658545 0 -0.0010480781860432394 -0.017406263931603935 0 -0.0012429316245557505 -0.017822959672335111 0 -0.0010828421365036312 -0.019582386295875769 0 -0.0015559760541307025 -0.019024557532510668 0 -0.00099304274427955853 -0.018766283318268268 0 -0.0015559760541307025 -0.019024557532510668 0 -0.0012429316245557505 -0.017822959672335111 0 -0.00099304274427955853 -0.018766283318268268 0 -0.00099469532897373701 -0.017287662346163392 0 -0.00093768994085367753 -0.017331718263557581 0 -0.0011623927599805268 -0.017214465806179545 0 -0.00099469532897373701 -0.017287662346163392 0 -0.0011623927599805268 -0.017214465806179545 0 -0.0010232272181365748 -0.017298298231697526 0 -0.00099469532897373701 -0.017287662346163392 0 -0.00093768994085367753 -0.017331718263557581 0 -0.00090561095833409247 -0.017092265540568041 0 -0.0011920058393998911 -0.015578966164944445 0 -0.0012580866736001681 -0.016929538180097101 0 -0.0017015035687958761 -0.015962725568867898 0 -0.0013441671913992116 -0.015837609791736821 0 -0.0017012760246244453 -0.016119971141418367 0 -0.00050520067242782775 -0.016655536310135267 0 -0.0013441671913992116 -0.015837609791736821 0 -0.00046351510369676234 -0.016743316662512522 0 -0.0014870104450030973 -0.016305672582064161 0 -0.00077059746935353459 -0.016950208600826681 0 -0.0014029472006390255 -0.015594623416856624 0 -0.00050520067242782775 -0.016655536310135267 0 -0.0013441671913992116 -0.015837609791736821 0 -0.0017015035687958761 -0.015962725568867898 0 -0.0016552442125271378 -0.015828088476204549 0 -0.0013441671913992116 -0.015837609791736821 0 -0.0017243033644388508 -0.01561927022395011 0 -0.0016552442125271378 -0.015828088476204549 0 -0.0013441671913992116 -0.015837609791736821 0 -0.0014029472006390255 -0.015594623416856624 0 -0.0017243033644388508 -0.01561927022395011 0 -0.0013441671913992116 -0.015837609791736821 0 -0.0016800031941642706 -0.017011882597984612 0 -0.00093768994085367753 -0.017331718263557581 0 -0.0011623927599805268 -0.017214465806179545 0 -0.0016800031941642706 -0.017011882597984612 0 -0.0011623927599805268 -0.017214465806179545 0 -0.0013172759247226729 -0.016969338304637243 0 -0.0011623927599805268 -0.017214465806179545 0 -0.0013172759247226729 -0.016969338304637243 0 -0.0011432388413726597 -0.017118471513699666 0 -0.0011510331115295279 -0.016891431834499059 0 -0.0013172759247226729 -0.016969338304637243 0 -0.0011432388413726597 -0.017118471513699666 0 -0.0011510331115295279 -0.016891431834499059 0 -0.0011432388413726597 -0.017118471513699666 0 -0.0010178419067455784 -0.017247953279848249 0 -0.0010005301182068923 -0.017100102709741879 0 -0.0011510331115295279 -0.016891431834499059 0 -0.0010178419067455784 -0.017247953279848249 0 -0.0010178419067455784 -0.017247953279848249 0 -0.00094771427537346687 -0.017386772913187489 0 -0.0010232272181365748 -0.017298298231697526 0 -0.0011623927599805268 -0.017214465806179545 0 -0.0011432388413726597 -0.017118471513699666 0 -0.0010232272181365748 -0.017298298231697526 0 -0.0011432388413726597 -0.017118471513699666 0 -0.0010178419067455784 -0.017247953279848249 0 -0.0010232272181365748 -0.017298298231697526 0 -0.0010005301182068923 -0.017100102709741879 0 -0.00084246217950339553 -0.017232545731219833 0 -0.00088681261568323579 -0.017439953848739264 0 -0.0010005301182068923 -0.017100102709741879 0 -0.0010178419067455784 -0.017247953279848249 0 -0.00088681261568323579 -0.017439953848739264 0 -0.0010178419067455784 -0.017247953279848249 0 -0.00088681261568323579 -0.017439953848739264 0 -0.00094771427537346687 -0.017386772913187489 0 -0.00094771427537346687 -0.017386772913187489 0 -0.00085977556975618636 -0.017546181343396836 0 -0.00094220339092171543 -0.01730842621593837 0 -0.00088681261568323579 -0.017439953848739264 0 -0.00094771427537346687 -0.017386772913187489 0 -0.00085977556975618636 -0.017546181343396836 0 -0.00094771427537346687 -0.017386772913187489 0 -0.0010232272181365748 -0.017298298231697526 0 -0.00094220339092171543 -0.01730842621593837 0 -0.00099469532897373701 -0.017287662346163392 0 -0.0010232272181365748 -0.017298298231697526 0 -0.00094220339092171543 -0.01730842621593837 0 -0.00094220339092171543 -0.01730842621593837 0 -0.00090240957521307613 -0.017085866430663257 0 -0.00090561095833409247 -0.017092265540568041 0 -0.00099469532897373701 -0.017287662346163392 0 -0.00094220339092171543 -0.01730842621593837 0 -0.00090561095833409247 -0.017092265540568041 0 -0.00094220339092171543 -0.01730842621593837 0 -0.00090240957521307613 -0.017085866430663257 0 -0.00088571398369435351 -0.017265038273094554 0 -0.00090240957521307613 -0.017085866430663257 0 -0.00088571398369435351 -0.017265038273094554 0 -0.00088105862263390439 -0.016901047423436726 0 -0.00090240957521307613 -0.017085866430663257 0 -0.00081643269170156947 -0.016765827202848822 0 -0.00090561095833409247 -0.017092265540568041 0 -0.00085977556975618636 -0.017546181343396836 0 -0.00094220339092171543 -0.01730842621593837 0 -0.00088571398369435351 -0.017265038273094554 0 -0.0008301722454352946 -0.017492999995832637 0 -0.00085977556975618636 -0.017546181343396836 0 -0.00088571398369435351 -0.017265038273094554 0 -0.0008301722454352946 -0.017492999995832637 0 -0.00088571398369435351 -0.017265038273094554 0 -0.00085300836495245805 -0.01712378590019404 0 -0.00086257350398438628 -0.016767182036382812 0 -0.00085300836495245805 -0.01712378590019404 0 -0.00088105862263390439 -0.016901047423436726 0 -0.00088571398369435351 -0.017265038273094554 0 -0.00085300836495245805 -0.01712378590019404 0 -0.00088105862263390439 -0.016901047423436726 0 -0.00081643269170156947 -0.016765827202848822 0 -0.00088105862263390439 -0.016901047423436726 0 -0.00083739453175930227 -0.016180171506279366 0 -0.00086257350398438628 -0.016767182036382812 0 -0.00088105862263390439 -0.016901047423436726 0 -0.00083739453175930227 -0.016180171506279366 0 -0.00090240957521307613 -0.017085866430663257 0 -0.00081643269170156947 -0.016765827202848822 0 -0.00088105862263390439 -0.016901047423436726 0 -0.00081643269170156947 -0.016765827202848822 0 -0.00054939344780063101 -0.016479963868545371 0 -0.00083739453175930227 -0.016180171506279366 0 -0.00081643269170156947 -0.016765827202848822 0 -0.00054939344780063101 -0.016479963868545371 0 -0.00090561095833409247 -0.017092265540568041 0 -0.00077059746935353459 -0.016950208600826681 0 -0.00057647859894375511 -0.01649424128901757 0 -0.00093768994085367753 -0.017331718263557581 0 -0.00054939344780063101 -0.016479963868545371 0 -0.00090561095833409247 -0.017092265540568041 0 0.0003572757532062098 -0.013557929845753689 0 -0.0012580866736001681 -0.016929538180097101 0 -0.00050520067242782775 -0.016655536310135267 0 -0.00046351510369676234 -0.016743316662512522 0 -0.00021491973315113693 -0.016450930759059013 0 0.00055808745238453432 -0.016065628228392571 0 -0.00046351510369676234 -0.016743316662512522 0 -0.00021491973315113693 -0.016450930759059013 0 -0.00050520067242782775 -0.016655536310135267 0 -0.00054939344780063101 -0.016479963868545371 0 -0.00021491973315113693 -0.016450930759059013 0 -0.00054939344780063101 -0.016479963868545371 0 -6.8122605474904774e-05 -0.016036760372961555 0 9.1356119033856378e-05 -0.014878144295668179 0 -0.00054939344780063101 -0.016479963868545371 0 -0.00021491973315113693 -0.016450930759059013 0 -6.8122605474904774e-05 -0.016036760372961555 0 -0.00021491973315113693 -0.016450930759059013 0 -6.8122605474904774e-05 -0.016036760372961555 0 0.0002321999403572631 -0.015943615935753136 0 -6.8122605474904774e-05 -0.016036760372961555 0 0.0002321999403572631 -0.015943615935753136 0 9.1356119033856378e-05 -0.014878144295668179 0 0.00055808745238453432 -0.016065628228392571 0 -0.00021491973315113693 -0.016450930759059013 0 0.0002321999403572631 -0.015943615935753136 0 0.0002321999403572631 -0.015943615935753136 0 9.1356119033856378e-05 -0.014878144295668179 0 0.00070086293629554079 -0.015664626530034764 0 9.1356119033856378e-05 -0.014878144295668179 0 0.00034294571316414356 -0.012694884496732881 0 -0.00082603347589219956 -0.013539261583053722 0 0.00034294571316414356 -0.012694884496732881 0 -0.00082603347589219956 -0.013539261583053722 0 -0.00037743985979226465 -0.01204775718810764 0 -0.001059671441126176 -0.012866154253378016 0 -0.00082603347589219956 -0.013539261583053722 0 -0.0016130919016228548 -0.013667869254995772 0 -0.00082603347589219956 -0.013539261583053722 0 -0.0015879660299119045 -0.014436502739302727 0 -0.0016130919016228548 -0.013667869254995772 0 -0.001059671441126176 -0.012866154253378016 0 -0.0016130919016228548 -0.013667869254995772 0 -0.0013444072902461318 -0.012183678576519748 0 -0.001059671441126176 -0.012866154253378016 0 -0.00082603347589219956 -0.013539261583053722 0 -0.00037743985979226465 -0.01204775718810764 0 9.1356119033856378e-05 -0.014878144295668179 0 -0.00082603347589219956 -0.013539261583053722 0 -0.0015879660299119045 -0.014436502739302727 0 -0.00054939344780063101 -0.016479963868545371 0 9.1356119033856378e-05 -0.014878144295668179 0 -0.00083739453175930227 -0.016180171506279366 0 0.0001022548165896207 -0.0149592860939756 0 -0.0011224169661610093 -0.015313158009498284 0 -0.0011224169661610093 -0.015313158009498284 0 -0.0015488366974563991 -0.015948855140948362 0 -0.00086257350398438628 -0.016767182036382812 0 -0.00083739453175930227 -0.016180171506279366 0 -0.00082239577706329811 -0.016809754125326096 0 -0.0015879660299119045 -0.014436502739302727 0 -0.0022111221471489469 -0.015038771984038232 0 -0.002148456011579019 -0.014370488364069022 0 -0.00086257350398438628 -0.016767182036382812 0 -0.00085300836495245805 -0.01712378590019404 0 -0.00082239577706329811 -0.016809754125326096 0 -0.0022111221471489469 -0.015038771984038232 0 -0.002148456011579019 -0.014370488364069022 0 -0.0019543835588892167 -0.015651628829276933 0 -0.0018007414964920059 -0.016648156396186553 0 -0.0019543835588892167 -0.015651628829276933 0 -0.0016672428510698398 -0.016457864300485806 0 -0.0019694884919734777 -0.014680696475100124 0 -0.0019384445463293749 -0.015406175090654744 0 -0.002148456011579019 -0.014370488364069022 0 -0.0024469307502020367 -0.01283617295957256 0 -0.0019543835588892167 -0.015651628829276933 0 -0.0015879660299119045 -0.014436502739302727 0 -0.002148456011579019 -0.014370488364069022 0 -0.0016130919016228548 -0.013667869254995772 0 -0.002148456011579019 -0.014370488364069022 0 -0.0016130919016228548 -0.013667869254995772 0 -0.0024469307502020367 -0.01283617295957256 0 -0.0016130919016228548 -0.013667869254995772 0 -0.0024469307502020367 -0.01283617295957256 0 -0.0013444072902461318 -0.012183678576519748 0 -0.0019694884919734777 -0.014680696475100124 0 -0.00092209942061294476 -0.013179681313447215 0 -0.0024469307502020367 -0.01283617295957256 0 -0.0012524882002403728 -0.010537264500000717 0 -0.0013444072902461318 -0.012183678576519748 0 -0.0018007414964920059 -0.016648156396186553 0 -0.0018266983104284465 -0.016686948424891938 0 -0.0016672428510698398 -0.016457864300485806 0 -0.0018266983104284465 -0.016686948424891938 0 -0.0013982727808890187 -0.016014172145561362 0 -0.0020189551037797897 -0.017481152617328244 0 -0.0018007414964920059 -0.016648156396186553 0 -0.0018266983104284465 -0.016686948424891938 0 -0.0013982727808890187 -0.016014172145561362 0 -0.0013308062886279988 -0.016147367083448369 0 -0.0014426443485264346 -0.016393664994718268 0 -0.0018007414964920059 -0.016648156396186553 0 -0.0013982727808890187 -0.016014172145561362 0 -0.00056795942370115461 -0.015799753865275191 0 -0.0013982727808890187 -0.016014172145561362 0 -0.00056795942370115461 -0.015799753865275191 0 -0.00091126935330844503 -0.015048339535953501 0 -0.0012524882002403728 -0.010537264500000717 0 -0.00023910004445003131 -0.010767428376589996 0 0.00027586294296915207 -0.0095189192172902282 0 -0.0012524882002403728 -0.010537264500000717 0 -0.00023910004445003131 -0.010767428376589996 0 -0.0013444072902461318 -0.012183678576519748 0 0.00040211129788913754 -0.01005036089140315 0 -0.00023910004445003131 -0.010767428376589996 0 0.00054953109831146706 -0.010906822395747889 0 0.00040211129788913754 -0.01005036089140315 0 -0.00023910004445003131 -0.010767428376589996 0 0.00027586294296915207 -0.0095189192172902282 0 0.00034294571316414356 -0.012694884496732881 0 0.00054953109831146706 -0.010906822395747889 0 -0.00037743985979226465 -0.01204775718810764 0 -0.00023910004445003131 -0.010767428376589996 0 0.00054953109831146706 -0.010906822395747889 0 -0.00037743985979226465 -0.01204775718810764 0 -0.001059671441126176 -0.012866154253378016 0 -0.00037743985979226465 -0.01204775718810764 0 -0.0013444072902461318 -0.012183678576519748 0 -0.00023910004445003131 -0.010767428376589996 0 -0.00037743985979226465 -0.01204775718810764 0 -0.0013444072902461318 -0.012183678576519748 0 -0.0019162506993868874 -0.017380911131463422 0 -0.0012429316245557505 -0.017822959672335111 0 -0.001411666987492004 -0.016914261727343859 0 -0.0012429316245557505 -0.017822959672335111 0 -0.001411666987492004 -0.016914261727343859 0 -0.0011235455980390776 -0.016885478446749487 0 -0.0010480781860432394 -0.017406263931603935 0 -0.0012429316245557505 -0.017822959672335111 0 -0.0011235455980390776 -0.016885478446749487 0 -0.001411666987492004 -0.016914261727343859 0 -0.0011235455980390776 -0.016885478446749487 0 -0.0011109537889866788 -0.016645515643716025 0 -0.0011235455980390776 -0.016885478446749487 0 -0.0012475769933498748 -0.01645881142461306 0 -0.0010894052307379972 -0.016658722004754628 0 -0.0011235455980390776 -0.016885478446749487 0 -0.0012475769933498748 -0.01645881142461306 0 -0.0011109537889866788 -0.016645515643716025 0 -0.0010480781860432394 -0.017406263931603935 0 -0.0011235455980390776 -0.016885478446749487 0 -0.0010894052307379972 -0.016658722004754628 0 -0.00089406045240422456 -0.017326082534801772 0 -0.00082239577706329811 -0.016809754125326096 0 -0.0010894052307379972 -0.016658722004754628 0 -0.0015488366974563991 -0.015948855140948362 0 -0.0012166750869423957 -0.016518754260500337 0 -0.0022111221471489469 -0.015038771984038232 0 -0.0010894052307379972 -0.016658722004754628 0 -0.0019543835588892167 -0.015651628829276933 0 -0.0012475769933498748 -0.01645881142461306 0 -0.0010894052307379972 -0.016658722004754628 0 -0.0019543835588892167 -0.015651628829276933 0 -0.0012475769933498748 -0.01645881142461306 0 -0.0019543835588892167 -0.015651628829276933 0 -0.0016672428510698398 -0.016457864300485806 0 -0.0018266983104284465 -0.016686948424891938 0 -0.0016672428510698398 -0.016457864300485806 0 -0.0014777034929370346 -0.017208190372866153 0 -0.0018266983104284465 -0.016686948424891938 0 -0.0014777034929370346 -0.017208190372866153 0 -0.0020189551037797897 -0.017481152617328244 0 -0.0014777034929370346 -0.017208190372866153 0 -0.00087859563657060507 -0.016644840417186287 0 -0.00057433897509044836 -0.017912503939704377 0 -0.001624472526083632 -0.016455856062789348 0 -0.0010160589378833882 -0.016715592233883633 0 -0.0016672428510698398 -0.016457864300485806 0 -0.0014777034929370346 -0.017208190372866153 0 -0.00087859563657060507 -0.016644840417186287 0 -0.0012475769933498748 -0.01645881142461306 0 -0.0016672428510698398 -0.016457864300485806 0 -0.0011109537889866788 -0.016645515643716025 0 -0.0010160589378833882 -0.016715592233883633 0 -0.00034953141385295309 -0.016175410392009888 0 -0.00087859563657060507 -0.016644840417186287 0 0.00053601425425104873 -0.016982789522214221 0 -0.00057433897509044836 -0.017912503939704377 0 0.00053601425425104873 -0.016982789522214221 0 0.00038695063701878343 -0.018337974124240198 0 -0.00057433897509044836 -0.017912503939704377 0 0.0014254771174084379 -0.018290349240648606 0 0.00053601425425104873 -0.016982789522214221 0 0.00038695063701878343 -0.018337974124240198 0 -0.001411666987492004 -0.016914261727343859 0 -0.0011109537889866788 -0.016645515643716025 0 -0.0014655985165580149 -0.016593411579743259 0 0.0012034162052365583 -0.020458576117954669 0 0.00078177266546383304 -0.019404773248507125 0 0.00028949779842543302 -0.0209928220382932 0 0.00078177266546383304 -0.019404773248507125 0 -0.00027609089080485251 -0.019328940789305454 0 0.00028949779842543302 -0.0209928220382932 0 0.00078177266546383304 -0.019404773248507125 0 0.00038695063701878343 -0.018337974124240198 0 -0.00027609089080485251 -0.019328940789305454 0 0.0014254771174084379 -0.018290349240648606 0 0.00078177266546383304 -0.019404773248507125 0 0.00038695063701878343 -0.018337974124240198 0 -0.00057433897509044836 -0.017912503939704377 0 -0.00027609089080485251 -0.019328940789305454 0 -0.0015945580377073536 -0.018950051861155344 0 0.00038695063701878343 -0.018337974124240198 0 -0.00057433897509044836 -0.017912503939704377 0 -0.00027609089080485251 -0.019328940789305454 0 -0.00027609089080485251 -0.019328940789305454 0 -0.00068003483342347437 -0.020576850591126451 0 0.00028949779842543302 -0.0209928220382932 0 -0.00027609089080485251 -0.019328940789305454 0 -0.0015945580377073536 -0.018950051861155344 0 -0.00068003483342347437 -0.020576850591126451 0 -0.00092893768193633586 -0.017513477982523687 0 -0.00026142541909795721 -0.019304040121697768 0 -0.0014777034929370346 -0.017208190372866153 0 -0.00057433897509044836 -0.017912503939704377 0 -0.0015945580377073536 -0.018950051861155344 0 -0.0014777034929370346 -0.017208190372866153 0 -0.0015945580377073536 -0.018950051861155344 0 -0.0020189551037797897 -0.017481152617328244 0 -0.00092893768193633586 -0.017513477982523687 0 -0.0014426443485264346 -0.016393664994718268 0 -0.00024359171688465538 -0.016008630899004086 0 -0.0010341348181412083 -0.015134976979599373 0 -0.00061542697898592344 -0.015772285601364185 0 -0.00024359171688465538 -0.016008630899004086 0 -0.00020762253393862687 -0.017316737976159652 0 -0.00061542697898592344 -0.015772285601364185 0 -6.5158605189079474e-07 -0.018005139803021861 0 -0.00020762253393862687 -0.017316737976159652 0 -0.00061542697898592344 -0.015772285601364185 0 -6.5158605189079474e-07 -0.018005139803021861 0 2.4160191267007345e-05 -0.018858714429794553 0 -0.00020762253393862687 -0.017316737976159652 0 -6.5158605189079474e-07 -0.018005139803021861 0 2.4160191267007345e-05 -0.018858714429794553 0 7.0197578280829796e-07 -0.020500919030010192 0 -0.00024359171688465538 -0.016008630899004086 0 -0.00020762253393862687 -0.017316737976159652 0 0.00036226313472975875 -0.01799820046865791 0 2.4160191267007345e-05 -0.018858714429794553 0 -0.00020762253393862687 -0.017316737976159652 0 0.00036226313472975875 -0.01799820046865791 0 2.4160191267007345e-05 -0.018858714429794553 0 0.00036226313472975875 -0.01799820046865791 0 0.00016310346979957619 -0.021375372233748711 0 -0.00026142541909795721 -0.019304040121697768 0 0.0001526405014532877 -0.020969674514853692 0 2.4160191267007345e-05 -0.018858714429794553 0 7.0197578280829796e-07 -0.020500919030010192 0 0.00016310346979957619 -0.021375372233748711 0 -6.9132086716554194e-07 -0.022997761229992905 0 7.0197578280829796e-07 -0.020500919030010192 0 0.00016310346979957619 -0.021375372233748711 0 2.8819567260602372e-05 -0.0221949337615523 0 0.00016310346979957619 -0.021375372233748711 0 0.00028949779842543302 -0.0209928220382932 0 -0.00068003483342347437 -0.020576850591126451 0 0.00016310346979957619 -0.021375372233748711 0 0.00028949779842543302 -0.0209928220382932 0 9.1994206998438058e-05 -0.0139531221035395 0 -0.00082282468007915835 -0.014482000005248234 0 -0.00020774488071708633 -0.012900587178364252 0 9.1994206998438058e-05 -0.0139531221035395 0 -0.00020774488071708633 -0.012900587178364252 0 0.00038152296513830697 -0.010684868185835738 0 6.1010392819726915e-05 -0.011791690130019251 0 0.00032647627144387505 -0.010919575129189511 0 0.00040211129788913754 -0.01005036089140315 0 0.00027586294296915207 -0.0095189192172902282 0 0.00042942944520082846 -0.0093520833421658518 0 -0.00056795942370115461 -0.015799753865275191 0 9.1994206998438058e-05 -0.0139531221035395 0 -0.00091126935330844503 -0.015048339535953501 0 -0.00092209942061294476 -0.013179681313447215 0 6.1010392819726915e-05 -0.011791690130019251 0 9.1994206998438058e-05 -0.0139531221035395 0 -0.00091126935330844503 -0.015048339535953501 0 -0.00082282468007915835 -0.014482000005248234 0 -0.00091126935330844503 -0.015048339535953501 0 -0.0010341348181412083 -0.015134976979599373 0 -0.00082282468007915835 -0.014482000005248234 0 -0.0013982727808890187 -0.016014172145561362 0 -0.00091126935330844503 -0.015048339535953501 0 -0.0010341348181412083 -0.015134976979599373 0 -0.0010341348181412083 -0.015134976979599373 0 -0.00082282468007915835 -0.014482000005248234 0 -0.00061542697898592344 -0.015772285601364185 0 -0.00082282468007915835 -0.014482000005248234 0 -0.00038273836098448881 -0.014353295987079458 0 -0.00020774488071708633 -0.012900587178364252 0 -0.00082282468007915835 -0.014482000005248234 0 -0.00038273836098448881 -0.014353295987079458 0 -0.00061542697898592344 -0.015772285601364185 0 -6.5158605189079474e-07 -0.018005139803021861 0 -0.00061542697898592344 -0.015772285601364185 0 -8.3020966625512889e-07 -0.015509600889151206 0 -0.00038273836098448881 -0.014353295987079458 0 -0.00061542697898592344 -0.015772285601364185 0 -8.3020966625512889e-07 -0.015509600889151206 0 -0.00038273836098448881 -0.014353295987079458 0 -8.3020966625512889e-07 -0.015509600889151206 0 -2.1897577991778e-07 -0.013013476895459414 0 -0.00038273836098448881 -0.014353295987079458 0 -2.1897577991778e-07 -0.013013476895459414 0 -0.00020774488071708633 -0.012900587178364252 0 -0.00020774488071708633 -0.012900587178364252 0 8.0394094135060332e-05 -0.011456043606203795 0 0.00038152296513830697 -0.010684868185835738 0 -2.1897577991778e-07 -0.013013476895459414 0 8.0394094135060332e-05 -0.011456043606203795 0 1.5118926144007937e-07 -0.010517845346410598 0 -2.1897577991778e-07 -0.013013476895459414 0 -0.00020774488071708633 -0.012900587178364252 0 8.0394094135060332e-05 -0.011456043606203795 0 8.0394094135060332e-05 -0.011456043606203795 0 1.5118926144007937e-07 -0.010517845346410598 0 3.7108017866241972e-05 -0.0091067858782641498 0 1.5118926144007937e-07 -0.010517845346410598 0 3.7108017866241972e-05 -0.0091067858782641498 0 -1.3938022449145877e-07 -0.0080221063583061046 0 8.0394094135060332e-05 -0.011456043606203795 0 3.7108017866241972e-05 -0.0091067858782641498 0 0.00038152296513830697 -0.010684868185835738 0 -0.00012846406321669223 -0.0070772049095809714 0 -1.3938022449145877e-07 -0.0080221063583061046 0 -3.8440180723793745e-07 -0.0055262134761237302 0 3.7108017866241972e-05 -0.0091067858782641498 0 -0.00012846406321669223 -0.0070772049095809714 0 -1.3938022449145877e-07 -0.0080221063583061046 0 3.7108017866241972e-05 -0.0091067858782641498 0 -0.00012846406321669223 -0.0070772049095809714 0 -0.0002829655454206213 -0.007122935941140174 0 -0.00012846406321669223 -0.0070772049095809714 0 -0.0002829655454206213 -0.007122935941140174 0 -0.00025999178016911068 -0.0052240523692370011 0 3.7108017866241972e-05 -0.0091067858782641498 0 -0.0002829655454206213 -0.007122935941140174 0 0.00010705424879412755 -0.008795364391151474 0 -0.0002829655454206213 -0.007122935941140174 0 -0.00035197075800654485 -0.0073331323981137191 0 0.00010705424879412755 -0.008795364391151474 0 -0.00035197075800654485 -0.0073331323981137191 0 0.00010705424879412755 -0.008795364391151474 0 0.00056110063016103428 -0.0087893796803610088 0 0.00038152296513830697 -0.010684868185835738 0 0.00010705424879412755 -0.008795364391151474 0 0.00042942944520082846 -0.0093520833421658518 0 3.7108017866241972e-05 -0.0091067858782641498 0 0.00038152296513830697 -0.010684868185835738 0 0.00010705424879412755 -0.008795364391151474 0 0.00010705424879412755 -0.008795364391151474 0 0.00042942944520082846 -0.0093520833421658518 0 0.00056110063016103428 -0.0087893796803610088 0 0.00027586294296915207 -0.0095189192172902282 0 0.00038152296513830697 -0.010684868185835738 0 0.00042942944520082846 -0.0093520833421658518 0 0.00040211129788913754 -0.01005036089140315 0 0.00042942944520082846 -0.0093520833421658518 0 0.00083123392125469895 -0.0098591681962920605 0 0.00040211129788913754 -0.01005036089140315 0 0.00054953109831146706 -0.010906822395747889 0 0.00083123392125469895 -0.0098591681962920605 0 0.00054953109831146706 -0.010906822395747889 0 0.00083123392125469895 -0.0098591681962920605 0 0.0015271203440867544 -0.010672171040374647 0 0.00034294571316414356 -0.012694884496732881 0 0.00054953109831146706 -0.010906822395747889 0 0.0015271203440867544 -0.010672171040374647 0 0.0015271203440867544 -0.010672171040374647 0 0.00092695424184217271 -0.0098705576950979292 0 0.00098427595900071256 -0.0093685579856084868 0 0.00083123392125469895 -0.0098591681962920605 0 0.0015271203440867544 -0.010672171040374647 0 0.00092695424184217271 -0.0098705576950979292 0 0.00083123392125469895 -0.0098591681962920605 0 0.00056110063016103428 -0.0087893796803610088 0 0.00092695424184217271 -0.0098705576950979292 0 0.00042942944520082846 -0.0093520833421658518 0 0.00083123392125469895 -0.0098591681962920605 0 0.00056110063016103428 -0.0087893796803610088 0 0.00056110063016103428 -0.0087893796803610088 0 0.00072258875064305523 -0.0097412702797893928 0 0.00092695424184217271 -0.0098705576950979292 0 0.00048421199073563645 -0.0086866818225967788 0 0.00012525201786936862 -0.0082933050568643231 0 -0.00035197075800654485 -0.0073331323981137191 0 0.00056110063016103428 -0.0087893796803610088 0 -0.00036622841282590564 -0.0068418718135002526 0 -0.00035197075800654485 -0.0073331323981137191 0 -0.00036622841282590564 -0.0068418718135002526 0 -0.00064140478202509728 -0.0065581306894121625 0 0.00072258875064305523 -0.0097412702797893928 0 0.00043527883615703114 -0.0091012881318868668 0 -0.00021533247757366461 -0.0090312885494303677 0 0.00012525201786936862 -0.0082933050568643231 0 -0.00041422969834979505 -0.0079574471858020832 0 0.00072258875064305523 -0.0097412702797893928 0 0.00092695424184217271 -0.0098705576950979292 0 0.00043527883615703114 -0.0091012881318868668 0 0.00092695424184217271 -0.0098705576950979292 0 0.00098427595900071256 -0.0093685579856084868 0 0.00043527883615703114 -0.0091012881318868668 0 0.00056036515806911678 -0.0080889124105524238 0 -0.00031848117949815464 -0.008246305249160122 0 0.00043527883615703114 -0.0091012881318868668 0 8.2442929967545497e-05 -0.0083382838952575644 0 -3.8721246294201401e-05 -0.0086841764876012528 0 0.00064226198277388916 -0.0080740286230968992 0 0.00043527883615703114 -0.0091012881318868668 0 8.2442929967545497e-05 -0.0083382838952575644 0 0.00064226198277388916 -0.0080740286230968992 0 0.00098427595900071256 -0.0093685579856084868 0 0.0015865856709861806 -0.0089753924033999441 0 0.00064226198277388916 -0.0080740286230968992 0 0.00098427595900071256 -0.0093685579856084868 0 0.00043527883615703114 -0.0091012881318868668 0 0.0016633040699939323 -0.0080763663183570904 0 0.00064226198277388916 -0.0080740286230968992 0 0.0015865856709861806 -0.0089753924033999441 0 0.0016633040699939323 -0.0080763663183570904 0 0.0015865856709861806 -0.0089753924033999441 0 0.0022091021511002396 -0.0083065344389226074 0 0.0003572757532062098 -0.013557929845753689 0 0.0020836426020762293 -0.011101985100867039 0 0.00082589383434921197 -0.016271939849479299 0 0.00070086293629554079 -0.015664626530034764 0 0.0015892573700644189 -0.01391703358046676 0 0.0030101676115569594 -0.0077677375683993678 0 0.0022091021511002396 -0.0083065344389226074 0 0.0025327308894089635 -0.0090652463400475326 0 9.1356119033856378e-05 -0.014878144295668179 0 0.00070086293629554079 -0.015664626530034764 0 0.0015892573700644189 -0.01391703358046676 0 9.1356119033856378e-05 -0.014878144295668179 0 0.00034294571316414356 -0.012694884496732881 0 0.0015892573700644189 -0.01391703358046676 0 0.0015865856709861806 -0.0089753924033999441 0 0.0022091021511002396 -0.0083065344389226074 0 0.0025327308894089635 -0.0090652463400475326 0 0.0016778305463433368 -0.010950177660666178 0 0.0020836426020762293 -0.011101985100867039 0 0.00034294571316414356 -0.012694884496732881 0 0.0015271203440867544 -0.010672171040374647 0 0.0015892573700644189 -0.01391703358046676 0 0.0015271203440867544 -0.010672171040374647 0 0.0015865856709861806 -0.0089753924033999441 0 0.0025327308894089635 -0.0090652463400475326 0 0.0015271203440867544 -0.010672171040374647 0 0.00098427595900071256 -0.0093685579856084868 0 0.0015865856709861806 -0.0089753924033999441 0 -0.000133829475614628 -0.0073268643083728713 0 2.642512558976091e-05 -0.0078026621420381565 0 0.00057355830894143976 -0.0066396231722664128 0 -0.000133829475614628 -0.0073268643083728713 0 2.642512558976091e-05 -0.0078026621420381565 0 -0.00016295131481614938 -0.0079822655144914257 0 0.0013028139581146142 -7.8589435977872554e-05 0 0.0014679211346154562 -0.00046250192659474015 0 0.0011427676778330217 -0.00026870435833893744 0 -0.0013898033814577135 -0.0053378132594140313 0 0.0013519890426688238 -0.0031900637819252098 0 0.0013028139581146142 -7.8589435977872554e-05 0 0.0015506788507945368 -6.4809893716887099e-05 0 0.0014679211346154562 -0.00046250192659474015 0 -0.0024323084649570063 -0.0043899627656569414 0 -0.0024461782126215998 -0.0044355673629244315 0 -0.0024712984516249131 -0.0044435773149427808 0 -0.0024434341741775083 -0.0044571837139830853 0 -0.0024461782126215998 -0.0044355673629244315 0 -0.0024497027208980711 -0.0044440827895829175 0 -0.0024323084649570063 -0.0043899627656569414 0 -0.0024461782126215998 -0.0044355673629244315 0 -0.0024497027208980711 -0.0044440827895829175 0 -0.0004260891275075503 -0.0022095899659689161 0 -0.0013898033814577135 -0.0053378132594140313 0 2.642512558976091e-05 -0.0078026621420381565 0 -0.00016295131481614938 -0.0079822655144914257 0 -0.00033667288992723752 -0.0083237693937123283 0 -0.0013898033814577135 -0.0053378132594140313 0 -0.0015438030327137658 -0.0086198529280420329 0 -0.0030424422085586962 -0.0068532463757753287 0 -0.0038117825438929872 -0.0087718085345603863 0 -0.0023646725134314843 -0.0084766887245398825 0 8.2442929967545497e-05 -0.0083382838952575644 0 -0.00033667288992723752 -0.0083237693937123283 0 -3.8721246294201401e-05 -0.0086841764876012528 0 -0.00031848117949815464 -0.008246305249160122 0 -0.0015438030327137658 -0.0086198529280420329 0 -0.0018624914623789858 -0.0074427528238331367 0 -0.00086202301182178548 -0.0082287003204352463 0 -0.0023646725134314843 -0.0084766887245398825 0 -0.00033667288992723752 -0.0083237693937123283 0 -0.00021533247757366461 -0.0090312885494303677 0 -3.8721246294201401e-05 -0.0086841764876012528 0 0.00043527883615703114 -0.0091012881318868668 0 -0.00021533247757366461 -0.0090312885494303677 0 -3.8721246294201401e-05 -0.0086841764876012528 0 -0.0001460889494872381 -0.0080368031634173807 0 -0.00041422969834979505 -0.0079574471858020832 0 -0.000133829475614628 -0.0073268643083728713 0 -0.00077900949530082726 -0.0068389136337745219 0 -0.00021542570499057408 -0.0068614337366654015 0 -0.000133829475614628 -0.0073268643083728713 0 -0.00016295131481614938 -0.0079822655144914257 0 -0.00077900949530082726 -0.0068389136337745219 0 -0.00016295131481614938 -0.0079822655144914257 0 -0.00033667288992723752 -0.0083237693937123283 0 -0.00021533247757366461 -0.0090312885494303677 0 -0.00077900949530082726 -0.0068389136337745219 0 -0.00052669185711273574 -0.0065630985511244515 0 -0.00021542570499057408 -0.0068614337366654015 0 -0.00052669185711273574 -0.0065630985511244515 0 -0.00026355677588627311 -0.0058955321675061888 0 -0.00021542570499057408 -0.0068614337366654015 0 -0.00077900949530082726 -0.0068389136337745219 0 -0.00052669185711273574 -0.0065630985511244515 0 -0.00064140478202509728 -0.0065581306894121625 0 -0.00036622841282590564 -0.0068418718135002526 0 -0.00077900949530082726 -0.0068389136337745219 0 -0.00064140478202509728 -0.0065581306894121625 0 -0.00052669185711273574 -0.0065630985511244515 0 -0.00064140478202509728 -0.0065581306894121625 0 -0.00026355677588627311 -0.0058955321675061888 0 -0.00064140478202509728 -0.0065581306894121625 0 -0.00026355677588627311 -0.0058955321675061888 0 -0.00047989416708489819 -0.0055972642315553689 0 -0.00026355677588627311 -0.0058955321675061888 0 -0.00021542570499057408 -0.0068614337366654015 0 0.00057355830894143976 -0.0066396231722664128 0 -0.000133829475614628 -0.0073268643083728713 0 -0.00021542570499057408 -0.0068614337366654015 0 0.00057355830894143976 -0.0066396231722664128 0 0.0014679211346154562 -0.00046250192659474015 0 0.0010594021635350454 -0.0009025303770865353 0 0.0012969073432668075 -0.0011583617199694598 0 -0.00026355677588627311 -0.0058955321675061888 0 0.00057355830894143976 -0.0066396231722664128 0 0.00091046881329191515 -0.0050784425015750357 0 0.0013519890426688238 -0.0031900637819252098 0 0.00095803973520039074 -0.0031918998069992892 0 -1.9917132129954783e-05 -0.0043501268410271248 0 0.00069763135113358455 -0.0019800302518712368 0 0.00091046881329191515 -0.0050784425015750357 0 -0.00026355677588627311 -0.0058955321675061888 0 -1.9917132129954783e-05 -0.0043501268410271248 0 0.00091046881329191515 -0.0050784425015750357 0 -0.00026355677588627311 -0.0058955321675061888 0 -1.9917132129954783e-05 -0.0043501268410271248 0 -0.00047989416708489819 -0.0055972642315553689 0 -1.9917132129954783e-05 -0.0043501268410271248 0 -0.00047989416708489819 -0.0055972642315553689 0 -0.00012167153473185577 -0.0030326161829454098 0 -1.9917132129954783e-05 -0.0043501268410271248 0 -0.00012167153473185577 -0.0030326161829454098 0 0.00069763135113358455 -0.0019800302518712368 0 -0.00047989416708489819 -0.0055972642315553689 0 -0.00025999178016911068 -0.0052240523692370011 0 -0.00012167153473185577 -0.0030326161829454098 0 -0.00035197075800654485 -0.0073331323981137191 0 -0.00064140478202509728 -0.0065581306894121625 0 -0.00047989416708489819 -0.0055972642315553689 0 -0.0002829655454206213 -0.007122935941140174 0 -0.00035197075800654485 -0.0073331323981137191 0 -0.00047989416708489819 -0.0055972642315553689 0 -0.0002829655454206213 -0.007122935941140174 0 -0.00047989416708489819 -0.0055972642315553689 0 -0.00025999178016911068 -0.0052240523692370011 0 -0.00025999178016911068 -0.0052240523692370011 0 -4.6764377962464685e-07 -0.0030302494150787761 0 -0.00012167153473185577 -0.0030326161829454098 0 -0.00012846406321669223 -0.0070772049095809714 0 -0.00025999178016911068 -0.0052240523692370011 0 -3.8440180723793745e-07 -0.0055262134761237302 0 -0.00025999178016911068 -0.0052240523692370011 0 -4.6764377962464685e-07 -0.0030302494150787761 0 -3.8440180723793745e-07 -0.0055262134761237302 0 -4.6764377962464685e-07 -0.0030302494150787761 0 -0.00012167153473185577 -0.0030326161829454098 0 1.9238314913614011e-07 -0.00053476759038492032 0 -0.00012167153473185577 -0.0030326161829454098 0 1.9238314913614011e-07 -0.00053476759038492032 0 0.00020629210439461072 -0.00055294129124714114 0 1.9238314913614011e-07 -0.00053476759038492032 0 0.00020629210439461072 -0.00055294129124714114 0 -4.7416278827943141e-07 0.0019612630912787476 0 -0.00012167153473185577 -0.0030326161829454098 0 0.00020629210439461072 -0.00055294129124714114 0 0.00069763135113358455 -0.0019800302518712368 0 0.00020629210439461072 -0.00055294129124714114 0 0.00040597222892505724 0.00088471172794365234 0 0.00069763135113358455 -0.0019800302518712368 0 0.00040597222892505724 0.00088471172794365234 0 0.0011703897205468127 -0.00050912027854558347 0 0.00069763135113358455 -0.0019800302518712368 0 0.00020629210439461072 -0.00055294129124714114 0 0.00040597222892505724 0.00088471172794365234 0 -4.7416278827943141e-07 0.0019612630912787476 0 0.00040597222892505724 0.00088471172794365234 0 0.00034546660282551125 0.0031744243851695598 0 0.00058417891019947555 0.0030605778336018617 0 -4.7416278827943141e-07 0.0019612630912787476 0 0.00034546660282551125 0.0031744243851695598 0 3.9127794190486621e-06 0.0044541589033771697 0 0.00040597222892505724 0.00088471172794365234 0 -4.7416278827943141e-07 0.0019612630912787476 0 0.00034546660282551125 0.0031744243851695598 0 -0.00089315745766104697 0.013260724422766282 0 -0.0001187622715107487 0.012241343905650298 0 0.00056811167762005235 0.012966588018141866 0 5.2739571148943081e-07 0.0044602153491801319 0 5.7050617145176553e-05 0.0046550237386810567 0 6.6735485632125204e-06 0.0072704974751377242 0 -2.9401992627395336e-07 0.0044593261846303427 0 0.00027988876777275705 0.0068820039879722581 0 0.00034546660282551125 0.0031744243851695598 0 3.9127794190486621e-06 0.0044541589033771697 0 0.00049127979084767767 0.0032468838473727365 0 0.00036260910724607504 0.0066826727196592521 0 0.00027988876777275705 0.0068820039879722581 0 -0.00089315745766104697 0.013260724422766282 0 -0.0001187622715107487 0.012241343905650298 0 -0.0016402272855045449 0.011337583949612179 0 0.00027988876777275705 0.0068820039879722581 0 -0.00032451322176350357 0.005729626556125079 0 0.00040597222892505724 0.00088471172794365234 0 0.00058417891019947555 0.0030605778336018617 0 0.0011703897205468127 -0.00050912027854558347 0 -0.00032451322176350357 0.005729626556125079 0 -0.00062759285650930776 0.0038283585817788382 0 -0.0001187622715107487 0.012241343905650298 0 -0.0016402272855045449 0.011337583949612179 0 -0.00038922283157499034 0.01013578330898322 0 -0.0016402272855045449 0.011337583949612179 0 -0.00038922283157499034 0.01013578330898322 0 -0.0020634055003766506 0.0093862202297473989 0 -0.00038922283157499034 0.01013578330898322 0 -0.0020634055003766506 0.0093862202297473989 0 -0.0011164013355062774 0.0087731351415219535 0 0.00073520583119891011 -0.0011943198186338292 0 0.00087033207410243374 -0.0012422629335672208 0 0.00069763135113358455 -0.0019800302518712368 0 0.00082711607128184775 -0.0021194931643239629 0 0.00095803973520039074 -0.0031918998069992892 0 0.00087033207410243374 -0.0012422629335672208 0 0.00069763135113358455 -0.0019800302518712368 0 0.0012969073432668075 -0.0011583617199694598 0 0.0011703897205468127 -0.00050912027854558347 0 0.00073520583119891011 -0.0011943198186338292 0 0.00069763135113358455 -0.0019800302518712368 0 0.00039252943510813612 0.013056802832446738 0 0.0005694550822153881 0.012909275641835903 0 0.00011834942319493903 0.012893967601200131 0 0.00049289163743262466 0.013040647502534196 0 0.00056355544169022214 0.012965392780470021 0 0.00043749225141798251 0.013247572830291874 0 0.00023855095152869356 0.011469602816587706 0 -4.3973610436448955e-05 0.012720085285972314 0 0.00039252943510813612 0.013056802832446738 0 0.00043749225141798251 0.013247572830291874 0 0.00025815647861307598 0.013143667060378035 0 0.00039252943510813612 0.013056802832446738 0 0.00049289163743262466 0.013040647502534196 0 0.00043749225141798251 0.013247572830291874 0 0.00039252943510813612 0.013056802832446738 0 0.00049289163743262466 0.013040647502534196 0 0.0005694550822153881 0.012909275641835903 0 5.2793202540386353e-05 0.011491992940281444 0 2.677518675546512e-05 0.010743158937753306 0 3.4030418432827258e-05 0.010027704389629978 0 5.2793202540386353e-05 0.011491992940281444 0 3.4030418432827258e-05 0.010027704389629978 0 0.00011834942319493903 0.012893967601200131 0 2.677518675546512e-05 0.010743158937753306 0 1.1356573280268145e-07 0.0094638252391741895 0 1.4149837514614614e-07 0.011966350033644735 0 5.2793202540386353e-05 0.011491992940281444 0 2.677518675546512e-05 0.010743158937753306 0 1.4149837514614614e-07 0.011966350033644735 0 2.677518675546512e-05 0.010743158937753306 0 3.4030418432827258e-05 0.010027704389629978 0 1.1356573280268145e-07 0.0094638252391741895 0 3.4030418432827258e-05 0.010027704389629978 0 1.1356573280268145e-07 0.0094638252391741895 0 6.6735485632125204e-06 0.0072704974751377242 0 0.0005694550822153881 0.012909275641835903 0 0.00056355544169022214 0.012965392780470021 0 0.00058898419296246813 0.012899816354568397 0 0.00049289163743262466 0.013040647502534196 0 0.0005694550822153881 0.012909275641835903 0 0.00056355544169022214 0.012965392780470021 0 0.00051832103612758831 0.012737637144525041 0 0.00058898419296246813 0.012899816354568397 0 0.00059657941715554261 0.012978380574397151 0 0.00056355544169022214 0.012965392780470021 0 0.00058898419296246813 0.012899816354568397 0 0.00059657941715554261 0.012978380574397151 0 0.00051832103612758831 0.012737637144525041 0 0.00058898419296246813 0.012899816354568397 0 0.00056811167762005235 0.012966588018141866 0 0.00023855095152869356 0.011469602816587706 0 -5.0933975427485306e-05 0.010457161180484561 0 1.1356573280268145e-07 0.0094638252391741895 0 6.6735485632125204e-06 0.0072704974751377242 0 -1.3124835309883926e-07 0.0069607535771393893 0 0.0005694550822153881 0.012909275641835903 0 0.00058898419296246813 0.012899816354568397 0 0.00056811167762005235 0.012966588018141866 0 5.2739571148943081e-07 0.0044602153491801319 0 6.6735485632125204e-06 0.0072704974751377242 0 -1.3124835309883926e-07 0.0069607535771393893 0 0.00027988876777275705 0.0068820039879722581 0 -5.0933975427485306e-05 0.010457161180484561 0 -0.0001187622715107487 0.012241343905650298 0 0.00051832103612758831 0.012737637144525041 0 0.00056811167762005235 0.012966588018141866 0 -0.0001187622715107487 0.012241343905650298 0 0.00051832103612758831 0.012737637144525041 0 0.0006804147014356001 0.012972073167428962 0 -0.0001187622715107487 0.012241343905650298 0 -0.00038922283157499034 0.01013578330898322 0 0.00087979767424978175 0.010809026477825718 0 -7.8017246030436769e-05 0.012313593230133877 0 0.00070445750930173937 0.011914469390924658 0 -0.00038922283157499034 0.01013578330898322 0 0.00081268301476290273 0.0096770132901155825 0 0.00014412181618898151 0.0088507314620137681 0 -0.00038922283157499034 0.01013578330898322 0 0.00081268301476290273 0.0096770132901155825 0 0.00087979767424978175 0.010809026477825718 0 0.00070445750930173937 0.011914469390924658 0 0.0011085711123517594 0.011790739222847776 0 0.00081268301476290273 0.0096770132901155825 0 0.00087979767424978175 0.010809026477825718 0 0.0016868528771913805 0.0097161402181244385 0 0.00051832103612758831 0.012737637144525041 0 0.0006804147014356001 0.012972073167428962 0 0.00059657941715554261 0.012978380574397151 0 0.0006804147014356001 0.012972073167428962 0 0.00059657941715554261 0.012978380574397151 0 0.00060019468710119719 0.013717797867832825 0 0.0006107125108236474 0.01303867165539825 0 0.00039260175894967694 0.013423147230236441 0 0.00059657941715554261 0.012978380574397151 0 0.00060019468710119719 0.013717797867832825 0 0.0003185041262307896 0.013631848646577864 0 0.00056355544169022214 0.012965392780470021 0 0.00059657941715554261 0.012978380574397151 0 0.00043749225141798251 0.013247572830291874 0 0.00038865379295976998 0.013926008039936658 0 0.0003185041262307896 0.013631848646577864 0 0.00027666045444213483 0.014031616395093189 0 0.00060019468710119719 0.013717797867832825 0 0.00038865379295976998 0.013926008039936658 0 0.0003185041262307896 0.013631848646577864 0 0.0014416104645372445 0.011110330648994231 0 0.002897649497873763 0.01420334771964055 0 0.0026138250831254464 0.0080255363489668118 0 0.0024861710713941572 0.0088369064657448128 0 0.003258066153951941 0.0080970861509465156 0 0.0026138250831254464 0.0080255363489668118 0 0.0024861710713941572 0.0088369064657448128 0 0.0021962882341799773 0.0083400003203028556 0 0.0026138250831254464 0.0080255363489668118 0 0.0021962882341799773 0.0083400003203028556 0 0.0022292616169385013 0.0079748332210126272 0 0.00038865379295976998 0.013926008039936658 0 0.0004374591701882029 0.014185509353496408 0 0.00028109631158807136 0.014214013924097919 0 0.0011085711123517594 0.011790739222847776 0 0.0014416104645372445 0.011110330648994231 0 0.00060019468710119719 0.013717797867832825 0 0.00038865379295976998 0.013926008039936658 0 0.0004374591701882029 0.014185509353496408 0 0.0016868528771913805 0.0097161402181244385 0 0.0024861710713941572 0.0088369064657448128 0 0.0014742631159040615 0.0087350862345981009 0 0.0024861710713941572 0.0088369064657448128 0 0.0021962882341799773 0.0083400003203028556 0 0.0014742631159040615 0.0087350862345981009 0 0.0021962882341799773 0.0083400003203028556 0 0.0017716015339407983 0.0080332671978204338 0 0.0014742631159040615 0.0087350862345981009 0 0.0021962882341799773 0.0083400003203028556 0 0.0022292616169385013 0.0079748332210126272 0 0.0017716015339407983 0.0080332671978204338 0 0.0017716015339407983 0.0080332671978204338 0 0.0014742631159040615 0.0087350862345981009 0 0.00089542572441526859 0.0076023409563425633 0 0.0014742631159040615 0.0087350862345981009 0 0.00014412181618898151 0.0088507314620137681 0 0.00089542572441526859 0.0076023409563425633 0 0.00081268301476290273 0.0096770132901155825 0 0.0014742631159040615 0.0087350862345981009 0 0.00014412181618898151 0.0088507314620137681 0 0.00081268301476290273 0.0096770132901155825 0 0.0016868528771913805 0.0097161402181244385 0 0.0014742631159040615 0.0087350862345981009 0 0.00014412181618898151 0.0088507314620137681 0 0.00089542572441526859 0.0076023409563425633 0 -0.0007521052839002593 0.007723441904506907 0 -0.00046159007353303085 0.0093920019232259736 0 -0.0020704693520651189 0.010535613839787987 0 -0.0023814073653009135 0.011758774472837264 0 -0.0022702744590280249 0.011924619019649495 0 -0.0025527974395703349 0.011816005973757844 0 -0.0023814073653009135 0.011758774472837264 0 -0.0022737920915652217 0.011873763365982747 0 -0.0022702744590280249 0.011924619019649495 0 -0.0022737920915652217 0.011873763365982747 0 -0.0022702744590280249 0.011924619019649495 0 -0.0021791961008432396 0.011981217891360136 0 -0.0022702744590280249 0.011924619019649495 0 -0.0021791961008432396 0.011981217891360136 0 -0.0021292243587564754 0.012015153884637381 0 0.0017716015339407983 0.0080332671978204338 0 0.00089542572441526859 0.0076023409563425633 0 0.0023293193875428973 0.0074998855396933494 0 -0.00046159007353303085 0.0093920019232259736 0 -0.00038534127362321857 0.011512839390009345 0 0.0022292616169385013 0.0079748332210126272 0 0.0017716015339407983 0.0080332671978204338 0 0.0023293193875428973 0.0074998855396933494 0 -0.0021853940198156918 0.011573442047387932 0 -0.00038534127362321857 0.011512839390009345 0 -0.0021791961008432396 0.011981217891360136 0 -0.0020922681502306265 0.012016010051663356 0 -0.0021006821158601452 0.012074182543439243 0 -0.0022737920915652217 0.011873763365982747 0 -0.0021791961008432396 0.011981217891360136 0 -0.0021812193731207815 0.011954512945281973 0 -0.0021791961008432396 0.011981217891360136 0 -0.0021812193731207815 0.011954512945281973 0 -0.0020922681502306265 0.012016010051663356 0 -0.0020922681502306265 0.012016010051663356 0 -0.0021006821158601452 0.012074182543439243 0 -0.0019961872439814856 0.012115873861967658 0 -0.0020922681502306265 0.012016010051663356 0 -0.0020066990787170939 0.012039050358816254 0 -0.0019961872439814856 0.012115873861967658 0 0.0029292799686500863 0.0128712267262329 0 0.0019238315724236757 0.016217128434042629 0 -0.00038534127362321857 0.011512839390009345 0 0.0019238315724236757 0.016217128434042629 0 0.00098495344009984242 0.013593687639045166 0 0.0014686605608786869 0.013865030237898717 0 0.0018187157312762917 0.013459458445118602 0 0.0026138250831254464 0.0080255363489668118 0 0.0023293193875428973 0.0074998855396933494 0 0.0028148090774670694 0.0077943771392701222 0 -0.00038534127362321857 0.011512839390009345 0 0.0029292799686500863 0.0128712267262329 0 0.0026138250831254464 0.0080255363489668118 0 0.0022292616169385013 0.0079748332210126272 0 0.0023293193875428973 0.0074998855396933494 0 0.0039217782109398696 0.0099538969242341496 0 0.0029292799686500863 0.0128712267262329 0 0.0026138250831254464 0.0080255363489668118 0 0.0027958239494850637 0.0078317663245887313 0 0.003258066153951941 0.0080970861509465156 0 0.00088584872106856288 -0.00076273489417602721 0 0.00065972937364830789 -0.00058644647167356242 0 0.00080405582295380918 -0.00097187281604006921 0 -0.001224389522977813 0.0048806659410152798 0 0.0017322060828507337 -0.00011399247436480898 0 0.00088584872106856288 -0.00076273489417602721 0 0.00065972937364830789 -0.00058644647167356242 0 0.0010246021996715216 -0.00058488661993270962 0 -0.0027892782965674239 0.011591082026881409 0 -0.0026967823554210958 0.011677522484041107 0 -0.0027642526234928446 0.011618301713627266 0 2.3005000987974619e-05 -0.00038320180806468071 0 0.00085250612330279934 -0.00027019896799789297 0 0.00030946049203624558 0.0010400106947609526 0 2.3005000987974619e-05 -0.00038320180806468071 0 0.00085250612330279934 -0.00027019896799789297 0 0.0010246021996715216 -0.00058488661993270962 0 0.00085250612330279934 -0.00027019896799789297 0 0.0010246021996715216 -0.00058488661993270962 0 0.0011427676778330217 -0.00026870435833893744 0 0.0014679211346154562 -0.00046250192659474015 0 0.0010246021996715216 -0.00058488661993270962 0 0.0011427676778330217 -0.00026870435833893744 0 0.0014679211346154562 -0.00046250192659474015 0 0.0010246021996715216 -0.00058488661993270962 0 0.0010594021635350454 -0.0009025303770865353 0 0.00088584872106856288 -0.00076273489417602721 0 0.0010246021996715216 -0.00058488661993270962 0 0.0010594021635350454 -0.0009025303770865353 0 0.00088584872106856288 -0.00076273489417602721 0 0.0010594021635350454 -0.0009025303770865353 0 0.00080405582295380918 -0.00097187281604006921 0 0.00087033207410243374 -0.0012422629335672208 0 0.0010594021635350454 -0.0009025303770865353 0 0.0012969073432668075 -0.0011583617199694598 0 0.00087033207410243374 -0.0012422629335672208 0 0.0010594021635350454 -0.0009025303770865353 0 0.00080405582295380918 -0.00097187281604006921 0 0.00073520583119891011 -0.0011943198186338292 0 0.00087033207410243374 -0.0012422629335672208 0 0.00080405582295380918 -0.00097187281604006921 0 0.00073520583119891011 -0.0011943198186338292 0 0.00065972937364830789 -0.00058644647167356242 0 0.00080405582295380918 -0.00097187281604006921 0 -0.00062759285650930776 0.0038283585817788382 0 -0.001224389522977813 0.0048806659410152798 0 -0.0020634055003766506 0.0093862202297473989 0 -0.0023946194839850649 0.0079356917932096611 0 -0.0011164013355062774 0.0087731351415219535 0 -0.00038922283157499034 0.01013578330898322 0 0.00014412181618898151 0.0088507314620137681 0 -0.0011164013355062774 0.0087731351415219535 0 0.00014412181618898151 0.0088507314620137681 0 -0.0011164013355062774 0.0087731351415219535 0 -0.0007521052839002593 0.007723441904506907 0 -0.0023946194839850649 0.0079356917932096611 0 -0.0011164013355062774 0.0087731351415219535 0 -0.0007521052839002593 0.007723441904506907 0 -0.0027892782965674239 0.011591082026881409 0 -0.0025527974395703349 0.011816005973757844 0 -0.0026967823554210958 0.011677522484041107 0 -0.001224389522977813 0.0048806659410152798 0 -0.0020704693520651189 0.010535613839787987 0 -0.0026967823554210958 0.011677522484041107 0 -0.0027614750976390008 0.011620355548525141 0 -0.0027642526234928446 0.011618301713627266 0 -0.0026967823554210958 0.011677522484041107 0 -0.0026276891782679702 0.011656829409843427 0 -0.0027715579758949495 0.011600409377614017 0 -0.0025527974395703349 0.011816005973757844 0 -0.0026967823554210958 0.011677522484041107 0 -0.0026276891782679702 0.011656829409843427 0 -0.0026967823554210958 0.011677522484041107 0 -0.0027715579758949495 0.011600409377614017 0 -0.0027614750976390008 0.011620355548525141 0 -0.0023814073653009135 0.011758774472837264 0 -0.0025527974395703349 0.011816005973757844 0 -0.0026276891782679702 0.011656829409843427 0 -0.0023814073653009135 0.011758774472837264 0 -0.0026276891782679702 0.011656829409843427 0 -0.0025794044024159239 0.011522704083434684 0 -0.0026276891782679702 0.011656829409843427 0 -0.0027274136303182873 0.011506552155286291 0 -0.0025794044024159239 0.011522704083434684 0 -0.0026276891782679702 0.011656829409843427 0 -0.0027715579758949495 0.011600409377614017 0 -0.0027274136303182873 0.011506552155286291 0 -0.0027715579758949495 0.011600409377614017 0 -0.0029427302312841548 0.011522927699092954 0 -0.0027274136303182873 0.011506552155286291 0 -0.0027715579758949495 0.011600409377614017 0 -0.0027990598629882716 0.011582669647263314 0 -0.0029427302312841548 0.011522927699092954 0 -0.0016286545351806038 0.0061360130825656367 0 -0.0027942088135874802 0.0077582024782565746 0 -0.0027715579758949495 0.011600409377614017 0 -0.0027614750976390008 0.011620355548525141 0 -0.0027990598629882716 0.011582669647263314 0 -0.001224389522977813 0.0048806659410152798 0 -0.0016286545351806038 0.0061360130825656367 0 -0.0027892782965674239 0.011591082026881409 0 -0.0027990598629882716 0.011582669647263314 0 -0.0027642526234928446 0.011618301713627266 0 -0.0027614750976390008 0.011620355548525141 0 -0.0027990598629882716 0.011582669647263314 0 -0.0027642526234928446 0.011618301713627266 0 -0.0004260891275075503 -0.0022095899659689161 0 -0.00055225216244013072 0.00033388732454547719 0 0.0013028139581146142 -7.8589435977872554e-05 0 0.0011427676778330217 -0.00026870435833893744 0 0.0010008194760831354 -8.9605030807442718e-05 0 0.00085250612330279934 -0.00027019896799789297 0 0.00030946049203624558 0.0010400106947609526 0 0.0011752170314858507 0.0012350751284486735 0 0.00079778825755388849 1.3782768007747011e-05 0 -0.00055225216244013072 0.00033388732454547719 0 0.00085250612330279934 -0.00027019896799789297 0 0.0011427676778330217 -0.00026870435833893744 0 0.0010008194760831354 -8.9605030807442718e-05 0 -0.0016286545351806038 0.0061360130825656367 0 -0.00055225216244013072 0.00033388732454547719 0 -0.0023835660061089442 0.0040121411976466867 0 -0.0024011109630363995 0.0035338313064937712 0 -0.0025218481220571063 0.0035001049208954619 0 -0.00055225216244013072 0.00033388732454547719 0 -0.0027555432434379569 -0.00046206399863407699 0 -0.0024323084649570063 -0.0043899627656569414 0 -0.002376899800957294 -0.0043369522892353751 0 -0.0024712984516249131 -0.0044435773149427808 0 -0.002207442067605397 0.0040615867232026729 0 -0.0023835660061089442 0.0040121411976466867 0 -0.0024011109630363995 0.0035338313064937712 0 -0.0024011109630363995 0.0035338313064937712 0 -0.0025218481220571063 0.0035001049208954619 0 -0.0026441709368762757 0.00301723711401295 0 -0.0029427302312841548 0.011522927699092954 0 -0.0028246168063169657 0.011330892129852763 0 -0.0027274136303182873 0.011506552155286291 0 -0.0029427302312841548 0.011522927699092954 0 -0.0028246168063169657 0.011330892129852763 0 -0.0034322475748658028 0.01126535925056546 0 -0.0027942088135874802 0.0077582024782565746 0 -0.0029884398823622027 0.0075978427317972726 0 -0.0027555432434379569 -0.00046206399863407699 0 -0.0025496022808313957 -0.0013013146224059907 0 -0.0025218481220571063 0.0035001049208954619 0 -0.0026441709368762757 0.00301723711401295 0 -0.0027090890645307428 0.0030008290300897996 0 -0.0028246168063169657 0.011330892129852763 0 -0.0034322475748658028 0.01126535925056546 0 -0.0028434826062730787 0.011037620053451882 0 -0.0029592502406423364 0.0024815152504212763 0 -0.0026441709368762757 0.00301723711401295 0 -0.0027090890645307428 0.0030008290300897996 0 -0.0034322475748658028 0.01126535925056546 0 -0.0029149551653589044 0.010778326560066482 0 -0.0033624011581482854 0.0089964543443495811 0 -0.0034322475748658028 0.01126535925056546 0 -0.0029149551653589044 0.010778326560066482 0 -0.0028434826062730787 0.011037620053451882 0 -0.0028246168063169657 0.011330892129852763 0 -0.0028434826062730787 0.011037620053451882 0 -0.0027539757203337511 0.011150593922156254 0 -0.0029149551653589044 0.010778326560066482 0 -0.0027984959667663283 0.011002786650627679 0 -0.0026985706722538008 0.011184778686259108 0 -0.0028434826062730787 0.011037620053451882 0 -0.0027539757203337511 0.011150593922156254 0 -0.0027984959667663283 0.011002786650627679 0 -0.0027539757203337511 0.011150593922156254 0 -0.0027617843417405705 0.011113563573768692 0 -0.0027984959667663283 0.011002786650627679 0 -0.0029149551653589044 0.010778326560066482 0 -0.0028434826062730787 0.011037620053451882 0 -0.0027984959667663283 0.011002786650627679 0 -0.0027984959667663283 0.011002786650627679 0 -0.0027527917601952437 0.011109619516497702 0 -0.0026985706722538008 0.011184778686259108 0 -0.0022776865017624429 0.010078873144843138 0 -0.0046487692548467744 0.011155244734567776 0 -0.0027617843417405705 0.011113563573768692 0 -0.0027984959667663283 0.011002786650627679 0 -0.0027527917601952437 0.011109619516497702 0 -0.0027617843417405705 0.011113563573768692 0 -0.002722244619387402 0.011172229347693756 0 -0.0027647247091336126 0.011185874186377081 0 -0.0027617843417405705 0.011113563573768692 0 -0.0027527917601952437 0.011109619516497702 0 -0.002722244619387402 0.011172229347693756 0 -0.0027527917601952437 0.011109619516497702 0 -0.002722244619387402 0.011172229347693756 0 -0.0026985706722538008 0.011184778686259108 0 -0.002722244619387402 0.011172229347693756 0 -0.0026842035571480786 0.011193298254688708 0 -0.0027933850630941772 0.011261155013249459 0 -0.0040527378110761236 0.011328985996491039 0 -0.0046487692548467744 0.011155244734567776 0 -0.0029149551653589044 0.010778326560066482 0 -0.0015246564325020742 0.0087166081602355044 0 -0.0033624011581482854 0.0089964543443495811 0 -0.0051547356424520565 0.0070259977330107337 0 -0.0015246564325020742 0.0087166081602355044 0 -0.0033624011581482854 0.0089964543443495811 0 -0.004916045565730524 0.0078972098099766505 0 -0.0034322475748658028 0.01126535925056546 0 -0.0033624011581482854 0.0089964543443495811 0 -0.0052195771191750765 0.0071223902492099696 0 -0.0046487692548467744 0.011155244734567776 0 -0.0025516433722392214 0.011323153780711005 0 -0.0025712247466402596 0.011280503441758894 0 -0.0025298937386338534 0.011299786602605544 0 -0.0024058458174610739 0.010776192448994963 0 -0.0028903448253738556 0.011439580622351578 0 -0.0025516433722392214 0.011323153780711005 0 -0.002721823243690366 0.011193388671422064 0 -0.0025712247466402596 0.011280503441758894 0 -0.0030387072852448792 0.011330464222510548 0 -0.0027933850630941772 0.011261155013249459 0 -0.002721823243690366 0.011193388671422064 0 -0.002722244619387402 0.011172229347693756 0 -0.0027933850630941772 0.011261155013249459 0 -0.0027647247091336126 0.011185874186377081 0 -0.0027617843417405705 0.011113563573768692 0 -0.0027647247091336126 0.011185874186377081 0 -0.002721823243690366 0.011193388671422064 0 -0.0027933850630941772 0.011261155013249459 0 -0.0027647247091336126 0.011185874186377081 0 -0.002721823243690366 0.011193388671422064 0 -0.0027539757203337511 0.011150593922156254 0 -0.002721823243690366 0.011193388671422064 0 -0.0026474410243510112 0.011333554372859399 0 -0.0027539757203337511 0.011150593922156254 0 -0.0027617843417405705 0.011113563573768692 0 -0.002721823243690366 0.011193388671422064 0 -0.002721823243690366 0.011193388671422064 0 -0.0025712247466402596 0.011280503441758894 0 -0.0026474410243510112 0.011333554372859399 0 -0.0025712247466402596 0.011280503441758894 0 -0.0026474410243510112 0.011333554372859399 0 -0.0024414724283246809 0.011388404214460674 0 -0.0028246168063169657 0.011330892129852763 0 -0.0026474410243510112 0.011333554372859399 0 -0.0027274136303182873 0.011506552155286291 0 -0.0028246168063169657 0.011330892129852763 0 -0.0027539757203337511 0.011150593922156254 0 -0.0026474410243510112 0.011333554372859399 0 -0.0026474410243510112 0.011333554372859399 0 -0.0027274136303182873 0.011506552155286291 0 -0.0025794044024159239 0.011522704083434684 0 -0.0026474410243510112 0.011333554372859399 0 -0.0025794044024159239 0.011522704083434684 0 -0.0024414724283246809 0.011388404214460674 0 -0.0023814073653009135 0.011758774472837264 0 -0.0022737920915652217 0.011873763365982747 0 -0.00231685308939256 0.011885544384539865 0 -0.0023814073653009135 0.011758774472837264 0 -0.0025794044024159239 0.011522704083434684 0 -0.0024414724283246809 0.011388404214460674 0 -0.0023826144789240223 0.011761134482037649 0 -0.0023871123278740862 0.011645695708749917 0 -0.0022737920915652217 0.011873763365982747 0 -0.0022318850416554051 0.011919104810629397 0 -0.00231685308939256 0.011885544384539865 0 -0.0022737920915652217 0.011873763365982747 0 -0.0021812193731207815 0.011954512945281973 0 -0.0022318850416554051 0.011919104810629397 0 -0.00231685308939256 0.011885544384539865 0 -0.002223827327653991 0.011888978913519543 0 -0.0023782627519391502 0.01182240093846962 0 -0.0022318850416554051 0.011919104810629397 0 -0.00231685308939256 0.011885544384539865 0 -0.002223827327653991 0.011888978913519543 0 -0.0023871123278740862 0.011645695708749917 0 -0.0024478885387236434 0.011555107274527786 0 -0.0020922681502306265 0.012016010051663356 0 -0.0021095853961018182 0.011968352037682921 0 -0.0020066990787170939 0.012039050358816254 0 -0.0021095853961018182 0.011968352037682921 0 -0.0019831893948176393 0.012002235646444922 0 -0.0020066990787170939 0.012039050358816254 0 -0.0021812193731207815 0.011954512945281973 0 -0.0020922681502306265 0.012016010051663356 0 -0.0021095853961018182 0.011968352037682921 0 -0.0021812193731207815 0.011954512945281973 0 -0.0022318850416554051 0.011919104810629397 0 -0.0021095853961018182 0.011968352037682921 0 -0.0021095853961018182 0.011968352037682921 0 -0.002223827327653991 0.011888978913519543 0 -0.0020423217604767546 0.011921039214849733 0 -0.0022318850416554051 0.011919104810629397 0 -0.0021095853961018182 0.011968352037682921 0 -0.002223827327653991 0.011888978913519543 0 -0.0021095853961018182 0.011968352037682921 0 -0.0020423217604767546 0.011921039214849733 0 -0.0019831893948176393 0.012002235646444922 0 -0.0020423217604767546 0.011921039214849733 0 -0.0020487504492488211 0.011841326980875904 0 -0.0019256964295396226 0.011885122216521347 0 -0.0020423217604767546 0.011921039214849733 0 -0.0021453653452301355 0.011830857973901375 0 -0.0020487504492488211 0.011841326980875904 0 -0.002223827327653991 0.011888978913519543 0 -0.0020423217604767546 0.011921039214849733 0 -0.0021453653452301355 0.011830857973901375 0 -0.002223827327653991 0.011888978913519543 0 -0.0021453653452301355 0.011830857973901375 0 -0.0022707132651167404 0.011791869933359657 0 -0.0021453653452301355 0.011830857973901375 0 -0.0021980138681236697 0.011728254800467351 0 -0.0022707132651167404 0.011791869933359657 0 -0.0021980138681236697 0.011728254800467351 0 -0.0021004646812500167 0.011763073319817201 0 -0.0021423998343963442 0.01168813987361691 0 -0.0021453653452301355 0.011830857973901375 0 -0.0021980138681236697 0.011728254800467351 0 -0.0021004646812500167 0.011763073319817201 0 -0.0021453653452301355 0.011830857973901375 0 -0.0021004646812500167 0.011763073319817201 0 -0.0020487504492488211 0.011841326980875904 0 -0.0021004646812500167 0.011763073319817201 0 -0.0020163859112358358 0.011788067824043787 0 -0.0020601598343021701 0.011733946417757482 0 -0.0021004646812500167 0.011763073319817201 0 -0.0020163859112358358 0.011788067824043787 0 -0.0020487504492488211 0.011841326980875904 0 -0.0025712247466402596 0.011280503441758894 0 -0.0024414724283246809 0.011388404214460674 0 -0.0025298937386338534 0.011299786602605544 0 -0.002223827327653991 0.011888978913519543 0 -0.0023782627519391502 0.01182240093846962 0 -0.0022707132651167404 0.011791869933359657 0 -0.0022707132651167404 0.011791869933359657 0 -0.0024724185799428031 0.011488592900711475 0 -0.0022992541789817467 0.011632871058097762 0 -0.0023782627519391502 0.01182240093846962 0 -0.0022707132651167404 0.011791869933359657 0 -0.0024724185799428031 0.011488592900711475 0 -0.0021980138681236697 0.011728254800467351 0 -0.0022707132651167404 0.011791869933359657 0 -0.0022992541789817467 0.011632871058097762 0 -0.0025516433722392214 0.011323153780711005 0 -0.0025298937386338534 0.011299786602605544 0 -0.0024724185799428031 0.011488592900711475 0 -0.0024478885387236434 0.011555107274527786 0 -0.002467691741414479 0.011480763065031376 0 -0.0025516433722392214 0.011323153780711005 0 -0.0024724185799428031 0.011488592900711475 0 -0.0025417997856775824 0.011419218952999135 0 -0.0024724185799428031 0.011488592900711475 0 -0.0023030060306145493 0.011488009953246567 0 -0.0025417997856775824 0.011419218952999135 0 -0.0024778226383199748 0.011469744643614933 0 -0.0048674780011504987 0.014335141358028063 0 -0.0022992541789817467 0.011632871058097762 0 -0.0023246038565158935 0.011554848749552921 0 -0.002233035443557887 0.011608760888441726 0 -0.0024724185799428031 0.011488592900711475 0 -0.0022992541789817467 0.011632871058097762 0 -0.0023246038565158935 0.011554848749552921 0 -0.0023246038565158935 0.011554848749552921 0 -0.0023030060306145493 0.011488009953246567 0 -0.002233035443557887 0.011608760888441726 0 -0.0024724185799428031 0.011488592900711475 0 -0.0023246038565158935 0.011554848749552921 0 -0.0023030060306145493 0.011488009953246567 0 -0.0036435172547171608 0.019045275158533291 0 -0.0028162858497429374 0.018193529842047775 0 -0.0047917178230374568 0.01782134042111418 0 -0.0031489131663593609 0.012078540759341271 0 -0.0031243316236179461 0.011916774416013163 0 -0.0046701665677268975 0.012005226664097481 0 -0.0036435172547171608 0.019045275158533291 0 -0.0056314607093227364 0.018990191022850267 0 -0.0047917178230374568 0.01782134042111418 0 -0.0031267170330491873 0.015150454456761712 0 -0.0064042081415059066 0.018472284475461939 0 -0.0031489131663593609 0.012078540759341271 0 -0.0047990717809182418 0.012196572301467191 0 -0.0046701665677268975 0.012005226664097481 0 -0.0090910097580485794 0.021912354603091246 0 -0.0087292341255475019 0.022432761481486332 0 -0.0080502488402038851 0.021469998996123611 0 -0.0064042081415059066 0.018472284475461939 0 -0.005970440228863852 0.02112536631571562 0 -0.0089640976741121037 0.022558407208633405 0 -0.0088335315073863954 0.022373791699320435 0 -0.0096964201463879702 0.022384399063249242 0 -0.0048674780011504987 0.014335141358028063 0 -0.0064042081415059066 0.018472284475461939 0 -0.0031489131663593609 0.012078540759341271 0 -0.0020389994464157391 0.011705458947791165 0 -0.0020700478175033981 0.0116305091058786 0 -0.0020389994464157391 0.011705458947791165 0 -0.0020700478175033981 0.0116305091058786 0 -0.0019746134293306462 0.011723086799442992 0 -0.0020389994464157391 0.011705458947791165 0 -0.0020067396564089944 0.011744799650791508 0 -0.0020601598343021701 0.011733946417757482 0 -0.0020389994464157391 0.011705458947791165 0 -0.0020067396564089944 0.011744799650791508 0 -0.0019746134293306462 0.011723086799442992 0 -0.0020163859112358358 0.011788067824043787 0 -0.0020067396564089944 0.011744799650791508 0 -0.0020601598343021701 0.011733946417757482 0 -0.0020389994464157391 0.011705458947791165 0 -0.0020601598343021701 0.011733946417757482 0 -0.0021423998343963442 0.01168813987361691 0 -0.0021004646812500167 0.011763073319817201 0 -0.0020601598343021701 0.011733946417757482 0 -0.0021423998343963442 0.01168813987361691 0 -0.0020389994464157391 0.011705458947791165 0 -0.0021423998343963442 0.01168813987361691 0 -0.002233035443557887 0.011608760888441726 0 -0.0023030060306145493 0.011488009953246567 0 -0.0020389994464157391 0.011705458947791165 0 -0.002233035443557887 0.011608760888441726 0 -0.0024778226383199748 0.011469744643614933 0 -0.0022184898230137627 0.011793969882128285 0 -0.0021980138681236697 0.011728254800467351 0 -0.0021423998343963442 0.01168813987361691 0 -0.002233035443557887 0.011608760888441726 0 -0.0021980138681236697 0.011728254800467351 0 -0.0022992541789817467 0.011632871058097762 0 -0.002233035443557887 0.011608760888441726 0 -0.0031267170330491873 0.015150454456761712 0 -0.001863403876355627 0.015459344856576608 0 -0.0036435172547171608 0.019045275158533291 0 -0.0028162858497429374 0.018193529842047775 0 -0.0016702672129401631 0.019093957512178173 0 -0.0031489131663593609 0.012078540759341271 0 -0.0031243316236179461 0.011916774416013163 0 -0.0020700478175033981 0.0116305091058786 0 -0.0028162858497429374 0.018193529842047775 0 -0.0016702672129401631 0.019093957512178173 0 -0.00086500741639054888 0.018564475242108885 0 -0.002413330998235476 0.020753030072105726 0 -9.592616941315362e-05 0.021517494880319989 0 -0.0012069931531502006 0.021273636477320491 0 0.0010076459853030264 0.020551070792458492 0 0.00082811179044339214 0.024444280997839258 0 -0.0022757669595976507 0.023482749106591958 0 -0.0012069931531502006 0.021273636477320491 0 0.00082811179044339214 0.024444280997839258 0 -0.0022757669595976507 0.023482749106591958 0 -0.0012069931531502006 0.021273636477320491 0 -0.0045219933508594771 0.020572592782026632 0 -0.0012069931531502006 0.021273636477320491 0 -0.0025299130738129947 0.019078441313659031 0 -0.0011145744002265473 0.019269089540394888 0 -0.0012069931531502006 0.021273636477320491 0 -0.0025299130738129947 0.019078441313659031 0 -0.0045219933508594771 0.020572592782026632 0 -0.0012069931531502006 0.021273636477320491 0 0.0010076459853030264 0.020551070792458492 0 -0.0011145744002265473 0.019269089540394888 0 -0.0080502488402038851 0.021469998996123611 0 -0.009415511552839248 0.021211647744892145 0 -0.0091336323078539915 0.021582016640419456 0 -0.005970440228863852 0.02112536631571562 0 -0.0095987646131660293 0.021334212749210529 0 -0.0072240946305621636 0.020097216996244536 0 -0.0059380493338138498 0.022113291031772911 0 -0.009415511552839248 0.021211647744892145 0 -0.0090910097580485794 0.021912354603091246 0 -0.0080502488402038851 0.021469998996123611 0 -0.0091336323078539915 0.021582016640419456 0 -0.0072240946305621636 0.020097216996244536 0 -0.0059380493338138498 0.022113291031772911 0 -0.0045219933508594771 0.020572592782026632 0 -0.0022757669595976507 0.023482749106591958 0 -0.0059416386755374653 0.022554821073528294 0 -0.0045219933508594771 0.020572592782026632 0 -0.002413330998235476 0.020753030072105726 0 -0.005970440228863852 0.02112536631571562 0 -0.005970440228863852 0.02112536631571562 0 -0.0049322308930035514 0.020974188403065967 0 -0.0025299130738129947 0.019078441313659031 0 -0.0060614487694173897 0.018721211157005046 0 -0.0066942215902563622 0.016323368552359899 0 -0.0025299130738129947 0.019078441313659031 0 -0.0045219933508594771 0.020572592782026632 0 -0.0060614487694173897 0.018721211157005046 0 -0.0072240946305621636 0.020097216996244536 0 -0.0045219933508594771 0.020572592782026632 0 -0.0060614487694173897 0.018721211157005046 0 -0.0060614487694173897 0.018721211157005046 0 -0.0083658610340190537 0.01735588550347221 0 -0.0066942215902563622 0.016323368552359899 0 -0.0072240946305621636 0.020097216996244536 0 -0.0083658610340190537 0.01735588550347221 0 -0.009415511552839248 0.021211647744892145 0 -0.0072240946305621636 0.020097216996244536 0 -0.0060614487694173897 0.018721211157005046 0 -0.0083658610340190537 0.01735588550347221 0 -0.0083658610340190537 0.01735588550347221 0 -0.0093124180338979845 0.016549233788359579 0 -0.0089414146884284375 0.016254733563606048 0 -0.0083658610340190537 0.01735588550347221 0 -0.0094014055206303702 0.016910079300225006 0 -0.0097207197337707534 0.016828618530265529 0 -0.0083658610340190537 0.01735588550347221 0 -0.0093124180338979845 0.016549233788359579 0 -0.0094014055206303702 0.016910079300225006 0 -0.0082764806486801384 0.017073632630422109 0 -0.010301829132167895 0.019548654754901636 0 -0.0093124180338979845 0.016549233788359579 0 -0.0094014055206303702 0.016910079300225006 0 -0.0098309794326684602 0.016452634514512433 0 -0.0094014055206303702 0.016910079300225006 0 -0.0095904400804501556 0.016786913639039731 0 -0.0098309794326684602 0.016452634514512433 0 -0.0094014055206303702 0.016910079300225006 0 -0.0095728718302964099 0.016850956253801706 0 -0.0095904400804501556 0.016786913639039731 0 -0.0083658610340190537 0.01735588550347221 0 -0.010142099588669429 0.02120217868416701 0 -0.009415511552839248 0.021211647744892145 0 -0.0094014055206303702 0.016910079300225006 0 -0.0097207197337707534 0.016828618530265529 0 -0.0095728718302964099 0.016850956253801706 0 -0.010142099588669429 0.02120217868416701 0 -0.009415511552839248 0.021211647744892145 0 -0.0097869188357985609 0.021830052665303058 0 -0.009415511552839248 0.021211647744892145 0 -0.0091336323078539915 0.021582016640419456 0 -0.0097869188357985609 0.021830052665303058 0 -0.0094438346964196476 0.016447808706985312 0 -0.009380975755613797 0.016717243557849239 0 -0.0095365202265412022 0.016762051518236402 0 -0.0094438346964196476 0.016447808706985312 0 -0.009380975755613797 0.016717243557849239 0 -0.0090734348697695359 0.016329211595899253 0 -0.0097207197337707534 0.016828618530265529 0 -0.0094438346964196476 0.016447808706985312 0 -0.0095365202265412022 0.016762051518236402 0 -0.0097207197337707534 0.016828618530265529 0 -0.0095365202265412022 0.016762051518236402 0 -0.0095728718302964099 0.016850956253801706 0 -0.009380975755613797 0.016717243557849239 0 -0.0095365202265412022 0.016762051518236402 0 -0.0095296727435692698 0.016817171056931986 0 -0.0095365202265412022 0.016762051518236402 0 -0.0095728718302964099 0.016850956253801706 0 -0.0095296727435692698 0.016817171056931986 0 -0.009380975755613797 0.016717243557849239 0 -0.0095296727435692698 0.016817171056931986 0 -0.0091763281418059915 0.016954582078872564 0 -0.0098309794326684602 0.016452634514512433 0 -0.010272215231967821 0.016562675311332698 0 -0.010273910064898684 0.016291437241088825 0 -0.0098309794326684602 0.016452634514512433 0 -0.010272215231967821 0.016562675311332698 0 -0.009963856999379744 0.015464898588772317 0 -0.010026098380402918 0.014769038811505106 0 -0.0099955410650560267 0.015338649427449329 0 -0.0095296727435692698 0.016817171056931986 0 -0.0098309794326684602 0.016452634514512433 0 -0.0091763281418059915 0.016954582078872564 0 -0.0097925165614235355 0.016488246537369376 0 -0.0095891246742607142 0.016450129193916318 0 -0.0095296727435692698 0.016817171056931986 0 -0.0095904400804501556 0.016786913639039731 0 -0.0098309794326684602 0.016452634514512433 0 -0.0095728718302964099 0.016850956253801706 0 -0.0095296727435692698 0.016817171056931986 0 -0.0095904400804501556 0.016786913639039731 0 -0.010062678491862705 0.013911568538351701 0 -0.01033653455029891 0.013387706162332813 0 -0.010168393683445342 0.014527713925000315 0 -0.010026098380402918 0.014769038811505106 0 -0.009724220385822973 0.014507016231424972 0 -0.01033653455029891 0.013387706162332813 0 -0.0095915103797770945 0.012893772335715724 0 -0.0094208382223410145 0.01149364022343354 0 -0.010062678491862705 0.013911568538351701 0 -0.009890478753151374 0.013583330406096081 0 -0.01033653455029891 0.013387706162332813 0 -0.009890478753151374 0.013583330406096081 0 -0.01033653455029891 0.013387706162332813 0 -0.0095915103797770945 0.012893772335715724 0 -0.0091599466253836949 0.01291976285561576 0 -0.0095014236049586025 0.013501151290909749 0 -0.0089382851881740135 0.013411069820189903 0 -0.0085615158689141546 0.012488676964567383 0 -0.0091599466253836949 0.01291976285561576 0 -0.0089382851881740135 0.013411069820189903 0 -0.0091599466253836949 0.01291976285561576 0 -0.0095014236049586025 0.013501151290909749 0 -0.0095915103797770945 0.012893772335715724 0 -0.009890478753151374 0.013583330406096081 0 -0.0095014236049586025 0.013501151290909749 0 -0.0095915103797770945 0.012893772335715724 0 -0.0095915103797770945 0.012893772335715724 0 -0.0090605936787413067 0.012289617078143191 0 -0.0094208382223410145 0.01149364022343354 0 -0.0091599466253836949 0.01291976285561576 0 -0.0095915103797770945 0.012893772335715724 0 -0.0090605936787413067 0.012289617078143191 0 -0.0085615158689141546 0.012488676964567383 0 -0.0091599466253836949 0.01291976285561576 0 -0.0090605936787413067 0.012289617078143191 0 -0.0091018284408332026 0.01595507310711039 0 -0.010273910064898684 0.016291437241088825 0 -0.0092805661536949427 0.015084140951893163 0 -0.008520294988838991 0.011570970246509538 0 -0.0090605936787413067 0.012289617078143191 0 -0.0094208382223410145 0.01149364022343354 0 -0.0081584177520482373 0.014649936831642557 0 -0.0091018284408332026 0.01595507310711039 0 -0.0092805661536949427 0.015084140951893163 0 -0.0095891246742607142 0.016450129193916318 0 -0.0089274651204854158 0.016151780485495874 0 -0.010272215231967821 0.016562675311332698 0 -0.0091018284408332026 0.01595507310711039 0 -0.010273910064898684 0.016291437241088825 0 -0.0091763281418059915 0.016954582078872564 0 -0.0090734348697695359 0.016329211595899253 0 -0.00803605077056487 0.016288128710060471 0 -0.009380975755613797 0.016717243557849239 0 -0.0091763281418059915 0.016954582078872564 0 -0.0090734348697695359 0.016329211595899253 0 -0.0086071402132676077 0.015621840967050344 0 -0.0090734348697695359 0.016329211595899253 0 -0.009488925440721302 0.015796478998507869 0 -0.0086071402132676077 0.015621840967050344 0 -0.0090734348697695359 0.016329211595899253 0 -0.00803605077056487 0.016288128710060471 0 -0.0088806417910359415 0.015464200754144366 0 -0.0076354406355080709 0.01653007807339784 0 -0.0067081893007112491 0.015143538315339402 0 -0.00803605077056487 0.016288128710060471 0 -0.0073195516738977289 0.015446060302115918 0 -0.0076550051722611779 0.013521998886767111 0 -0.0081584177520482373 0.014649936831642557 0 -0.0092805661536949427 0.015084140951893163 0 -0.0086071402132676077 0.015621840967050344 0 -0.00803605077056487 0.016288128710060471 0 -0.0073195516738977289 0.015446060302115918 0 -0.0067201620897741439 0.010924229562111339 0 -0.0089274651204854158 0.016151780485495874 0 -0.0088806417910359415 0.015464200754144366 0 -0.0073125447840936718 0.015474814438862087 0 -0.0068164385393850013 0.014449089232074913 0 -0.0085222826008878247 0.01535615899203783 0 -0.0073195516738977289 0.015446060302115918 0 -0.0068164385393850013 0.014449089232074913 0 -0.0086755821459161796 0.013630446711421374 0 -0.0085222826008878247 0.01535615899203783 0 -0.0086755821459161796 0.013630446711421374 0 -0.0085222826008878247 0.01535615899203783 0 -0.0097216168275015991 0.015306270724638582 0 -0.0046487692548467744 0.011155244734567776 0 -0.0076354406355080709 0.01653007807339784 0 -0.0026842035571480786 0.011193298254688708 0 -0.0027933850630941772 0.011261155013249459 0 -0.0028238537209599205 0.011603300378620856 0 -0.0030387072852448792 0.011330464222510548 0 -0.0027933850630941772 0.011261155013249459 0 -0.0028238537209599205 0.011603300378620856 0 -0.0024058458174610739 0.010776192448994963 0 -0.0048674780011504987 0.014335141358028063 0 -0.0030387072852448792 0.011330464222510548 0 -0.0032641069059255565 0.011625116143512684 0 -0.0028238537209599205 0.011603300378620856 0 -0.0089640976741121037 0.022558407208633405 0 -0.0096964201463879702 0.022384399063249242 0 -0.010675625384725699 0.022518058673905824 0 -0.010142099588669429 0.02120217868416701 0 -0.0097869188357985609 0.021830052665303058 0 -0.010675625384725699 0.022518058673905824 0 -0.0096964201463879702 0.022384399063249242 0 -0.0097869188357985609 0.021830052665303058 0 -0.010675625384725699 0.022518058673905824 0 -0.0048674780011504987 0.014335141358028063 0 -0.0076354406355080709 0.01653007807339784 0 -0.0064042081415059066 0.018472284475461939 0 -0.010124667681425283 0.021809168928174687 0 -0.0090910097580485794 0.021912354603091246 0 -0.0087292341255475019 0.022432761481486332 0 -0.0096964201463879702 0.022384399063249242 0 -0.0090910097580485794 0.021912354603091246 0 -0.0096964201463879702 0.022384399063249242 0 -0.0097869188357985609 0.021830052665303058 0 -0.0090910097580485794 0.021912354603091246 0 -0.0091336323078539915 0.021582016640419456 0 -0.0097869188357985609 0.021830052665303058 0 -0.010301829132167895 0.019548654754901636 0 -0.0076354406355080709 0.01653007807339784 0 -0.0097207197337707534 0.016828618530265529 0 -0.0094438346964196476 0.016447808706985312 0 -0.009488925440721302 0.015796478998507869 0 -0.0094438346964196476 0.016447808706985312 0 -0.0090734348697695359 0.016329211595899253 0 -0.009488925440721302 0.015796478998507869 0 0.0018308756192321771 0.021463627050273233 0 0.0062936805030766414 0.027159337466571346 0 0.005791975966558836 0.025360497123794821 0 0.0052365920166653583 0.026237364323036895 0 0.0058113722623921093 0.026221452938981139 0 0.0061689786101855621 0.025675976538844465 0 0.005791975966558836 0.025360497123794821 0 0.0062600625643176398 0.025668070366608561 0 0.0061689786101855621 0.025675976538844465 0 0.005791975966558836 0.025360497123794821 0 0.0058113722623921093 0.026221452938981139 0 -0.0013702156184272341 0.012040167968738219 0 -0.0015139120083059068 0.011914908377018424 0 -0.0015377956956701383 0.01206390072323376 0 0.0018308756192321771 0.021463627050273233 0 0.0023277313047078206 0.018471229124644037 0 0.0061464037200747975 0.025027462563249222 0 0.0050074507453117508 0.024804100542656995 0 0.0052365920166653583 0.026237364323036895 0 0.0018308756192321771 0.021463627050273233 0 0.0014117789368985779 0.025531094046587797 0 -0.0013035940303275271 0.025866805229781326 0 -0.0026923498903940147 0.025577260309451004 0 -0.0018226662054418898 0.024704534641465447 0 0.0037688875464387366 0.024487605234715441 0 0.0042761228903225694 0.025634814095979928 0 0.0032952879729506524 0.025317079498617334 0 0.0050074507453117508 0.024804100542656995 0 0.0037688875464387366 0.024487605234715441 0 0.0042761228903225694 0.025634814095979928 0 0.0014117789368985779 0.025531094046587797 0 -0.00034348022292403487 0.024683705191815938 0 0.0042761228903225694 0.025634814095979928 0 0.0042502898037276261 0.026811895728262657 0 0.0033567050255211652 0.026348337972900076 0 0.0042761228903225694 0.025634814095979928 0 0.0052365920166653583 0.026237364323036895 0 0.0042502898037276261 0.026811895728262657 0 0.0050074507453117508 0.024804100542656995 0 0.0042761228903225694 0.025634814095979928 0 0.0052365920166653583 0.026237364323036895 0 0.0052365920166653583 0.026237364323036895 0 0.0048840567469425351 0.027175925340906886 0 0.0042502898037276261 0.026811895728262657 0 0.0052365920166653583 0.026237364323036895 0 0.0048840567469425351 0.027175925340906886 0 0.0054530744571360161 0.027048935112848074 0 0.0048840567469425351 0.027175925340906886 0 0.0042502898037276261 0.026811895728262657 0 0.0044394867305253844 0.027798183144813925 0 0.0042502898037276261 0.026811895728262657 0 0.0044394867305253844 0.027798183144813925 0 0.0035777912093592147 0.027518564896678414 0 0.0044394867305253844 0.027798183144813925 0 0.0035777912093592147 0.027518564896678414 0 0.0040227625138315884 0.028605449431966985 0 0.0044394867305253844 0.027798183144813925 0 0.0049549850025008349 0.027868670626699933 0 0.0044063057140224576 0.028418154598349617 0 0.0040227625138315884 0.028605449431966985 0 0.0040889484353828975 0.028943375206540424 0 0.0044063057140224576 0.028418154598349617 0 0.0044394867305253844 0.027798183144813925 0 0.0040227625138315884 0.028605449431966985 0 0.0044063057140224576 0.028418154598349617 0 0.0048840567469425351 0.027175925340906886 0 0.0049549850025008349 0.027868670626699933 0 0.0054530744571360161 0.027048935112848074 0 0.0048840567469425351 0.027175925340906886 0 0.0044394867305253844 0.027798183144813925 0 0.0049549850025008349 0.027868670626699933 0 0.0049549850025008349 0.027868670626699933 0 0.0054530744571360161 0.027048935112848074 0 0.0057343732986661934 0.027654509136025157 0 0.0054530744571360161 0.027048935112848074 0 0.0059038602549603379 0.02694870192174131 0 0.0057343732986661934 0.027654509136025157 0 0.0054530744571360161 0.027048935112848074 0 0.0058113722623921093 0.026221452938981139 0 0.0059038602549603379 0.02694870192174131 0 0.0052365920166653583 0.026237364323036895 0 0.0054530744571360161 0.027048935112848074 0 0.0058113722623921093 0.026221452938981139 0 0.0058113722623921093 0.026221452938981139 0 0.0059038602549603379 0.02694870192174131 0 0.0061840414726549416 0.026410254785014329 0 0.0061689786101855621 0.025675976538844465 0 0.0058113722623921093 0.026221452938981139 0 0.0061840414726549416 0.026410254785014329 0 0.0059038602549603379 0.02694870192174131 0 0.0061840414726549416 0.026410254785014329 0 0.0063328691681349301 0.027337929364023829 0 0.0067217949150885315 0.026836817476586172 0 0.0061840414726549416 0.026410254785014329 0 0.0063328691681349301 0.027337929364023829 0 0.0060205329959695372 0.02423284587698776 0 0.006431239595557546 0.02508864922074535 0 0.005354939283597618 0.021390288608437873 0 0.0046717976886943933 0.023793847426173839 0 0.0064821287289953877 0.025274827900489592 0 0.005354939283597618 0.021390288608437873 0 0.0046717976886943933 0.023793847426173839 0 0.0030384840008757814 0.022762340060795541 0 0.0067217949150885315 0.026836817476586172 0 0.0061840414726549416 0.026410254785014329 0 0.0064821287289953877 0.025274827900489592 0 0.0061689786101855621 0.025675976538844465 0 0.0061840414726549416 0.026410254785014329 0 0.0064821287289953877 0.025274827900489592 0 0.005354939283597618 0.021390288608437873 0 0.0031699432898802662 0.020451561516560142 0 0.0030384840008757814 0.022762340060795541 0 0.005354939283597618 0.021390288608437873 0 0.0031699432898802662 0.020451561516560142 0 0.0039260196113173234 0.018522672126498746 0 0.0010076459853030264 0.020551070792458492 0 0.0031699432898802662 0.020451561516560142 0 0.0030384840008757814 0.022762340060795541 0 0.0046717976886943933 0.023793847426173839 0 0.0030384840008757814 0.022762340060795541 0 0.0039209340724191506 0.025441749482576565 0 0.0010076459853030264 0.020551070792458492 0 0.0030384840008757814 0.022762340060795541 0 0.00082811179044339214 0.024444280997839258 0 -0.001863403876355627 0.015459344856576608 0 -0.0010830240869120738 0.015053630627291797 0 -0.0016702672129401631 0.019093957512178173 0 -0.00086500741639054888 0.018564475242108885 0 0.00027171312591801514 0.019140589392085055 0 0.00027171312591801514 0.019140589392085055 0 0.0010573102282181908 0.018921020893334809 0 0.0022121020030100016 0.019134009539814124 0 -0.00086500741639054888 0.018564475242108885 0 0.00027171312591801514 0.019140589392085055 0 0.0010573102282181908 0.018921020893334809 0 -9.592616941315362e-05 0.021517494880319989 0 0.0028707356364205648 0.022120102161815439 0 0.0030384840008757814 0.022762340060795541 0 0.00082811179044339214 0.024444280997839258 0 0.0039209340724191506 0.025441749482576565 0 -0.0010830240869120738 0.015053630627291797 0 0.0017565498072352091 0.018815204179225192 0 -0.0018240801315087896 0.011747921962311088 0 -0.0019312960053839224 0.011789658980077391 0 -0.0018229363806278088 0.011868335828042791 0 -0.0018240801315087896 0.011747921962311088 0 -0.001715895387882706 0.011865575540241736 0 -0.0018229363806278088 0.011868335828042791 0 -0.001715895387882706 0.011865575540241736 0 -0.0017280488302511472 0.011927099192032442 0 -0.0018229363806278088 0.011868335828042791 0 -0.0020700478175033981 0.0116305091058786 0 -0.0018240801315087896 0.011747921962311088 0 -0.0019746134293306462 0.011723086799442992 0 -0.0018240801315087896 0.011747921962311088 0 -0.0019312960053839224 0.011789658980077391 0 -0.0019746134293306462 0.011723086799442992 0 -0.0020163859112358358 0.011788067824043787 0 -0.0020067396564089944 0.011744799650791508 0 -0.0019312960053839224 0.011789658980077391 0 -0.0020067396564089944 0.011744799650791508 0 -0.0019312960053839224 0.011789658980077391 0 -0.0019746134293306462 0.011723086799442992 0 0.0064821287289953877 0.025274827900489592 0 0.0055790872779710255 0.025883244988566471 0 0.0062600625643176398 0.025668070366608561 0 0.0061689786101855621 0.025675976538844465 0 0.0064821287289953877 0.025274827900489592 0 0.0062600625643176398 0.025668070366608561 0 0.0046717976886943933 0.023793847426173839 0 0.0039209340724191506 0.025441749482576565 0 0.0064821287289953877 0.025274827900489592 0 0.0039209340724191506 0.025441749482576565 0 0.0064821287289953877 0.025274827900489592 0 0.0055790872779710255 0.025883244988566471 0 0.0028707356364205648 0.022120102161815439 0 0.0017565498072352091 0.018815204179225192 0 -0.0015855543727259812 0.011859003874523058 0 -0.001715895387882706 0.011865575540241736 0 -0.0016252674976608859 0.011940689038889915 0 -0.0018240801315087896 0.011747921962311088 0 -0.0015855543727259812 0.011859003874523058 0 -0.001715895387882706 0.011865575540241736 0 -0.001715895387882706 0.011865575540241736 0 -0.0016252674976608859 0.011940689038889915 0 -0.0017280488302511472 0.011927099192032442 0 -0.0016252674976608859 0.011940689038889915 0 -0.0015139120083059068 0.011914908377018424 0 -0.0015377956956701383 0.01206390072323376 0 -0.0015855543727259812 0.011859003874523058 0 -0.0016252674976608859 0.011940689038889915 0 -0.0015139120083059068 0.011914908377018424 0 0.0017565498072352091 0.018815204179225192 0 0.0023277313047078206 0.018471229124644037 0 -0.0016252674976608859 0.011940689038889915 0 -0.0015377956956701383 0.01206390072323376 0 -0.0016868562741628984 0.012005437804278958 0 -0.0016252674976608859 0.011940689038889915 0 -0.0016868562741628984 0.012005437804278958 0 -0.0017280488302511472 0.011927099192032442 0 -0.0016868562741628984 0.012005437804278958 0 -0.0017280488302511472 0.011927099192032442 0 -0.0018105992397928921 0.011964657971391011 0 -0.0016868562741628984 0.012005437804278958 0 -0.0018105992397928921 0.011964657971391011 0 -0.0017258501482216404 0.01209596711928186 0 -0.0015377956956701383 0.01206390072323376 0 -0.0016868562741628984 0.012005437804278958 0 -0.0017258501482216404 0.01209596711928186 0 -0.0012341648239492604 0.017900635727756322 0 -6.4091089120276527e-05 0.017537657470423219 0 -3.5785557480770298e-05 0.024454198115814608 0 0.0014201769860921992 0.022893590414256745 0 -0.00086802147537977218 0.023164194334892245 0 -0.0019312960053839224 0.011789658980077391 0 -0.0019256964295396226 0.011885122216521347 0 -0.0018229363806278088 0.011868335828042791 0 -0.0020163859112358358 0.011788067824043787 0 -0.0020487504492488211 0.011841326980875904 0 -0.0019256964295396226 0.011885122216521347 0 -0.0020163859112358358 0.011788067824043787 0 -0.0019312960053839224 0.011789658980077391 0 -0.0019256964295396226 0.011885122216521347 0 -0.0019256964295396226 0.011885122216521347 0 -0.0018229363806278088 0.011868335828042791 0 -0.0018105992397928921 0.011964657971391011 0 -0.0017280488302511472 0.011927099192032442 0 -0.0018229363806278088 0.011868335828042791 0 -0.0018105992397928921 0.011964657971391011 0 -0.0019256964295396226 0.011885122216521347 0 -0.0018105992397928921 0.011964657971391011 0 -0.0018781116775373884 0.012008805866799562 0 -0.0018105992397928921 0.011964657971391011 0 -0.0018781116775373884 0.012008805866799562 0 -0.0017258501482216404 0.01209596711928186 0 -0.0020423217604767546 0.011921039214849733 0 -0.0019256964295396226 0.011885122216521347 0 -0.0018781116775373884 0.012008805866799562 0 -0.0020423217604767546 0.011921039214849733 0 -0.0019831893948176393 0.012002235646444922 0 -0.0018781116775373884 0.012008805866799562 0 -0.0019831893948176393 0.012002235646444922 0 -0.0018781116775373884 0.012008805866799562 0 -0.0018860891458616846 0.012102404969277811 0 -0.0018781116775373884 0.012008805866799562 0 -0.0018860891458616846 0.012102404969277811 0 -0.0017258501482216404 0.01209596711928186 0 -0.0019831893948176393 0.012002235646444922 0 -0.0018860891458616846 0.012102404969277811 0 -0.0020066990787170939 0.012039050358816254 0 0.0014201769860921992 0.022893590414256745 0 0.0004205145850906499 0.021498783097226176 0 -0.00086802147537977218 0.023164194334892245 0 0.0014201769860921992 0.022893590414256745 0 0.0017223025728155903 0.021187718566870233 0 0.0004205145850906499 0.021498783097226176 0 0.0029027543943872208 0.021157931184474232 0 0.0014201769860921992 0.022893590414256745 0 0.0017223025728155903 0.021187718566870233 0 0.00038024592799796187 0.016567641447314159 0 -6.4091089120276527e-05 0.017537657470423219 0 0.0017223025728155903 0.021187718566870233 0 0.0004205145850906499 0.021498783097226176 0 0.0014144436665952406 0.02004859270865848 0 0.0004205145850906499 0.021498783097226176 0 -0.0010715606378265223 0.021487628544727265 0 -0.00086802147537977218 0.023164194334892245 0 0.0004205145850906499 0.021498783097226176 0 -0.0010715606378265223 0.021487628544727265 0 -0.0002829862827173093 0.020116394160489146 0 -0.0010715606378265223 0.021487628544727265 0 -0.0023385524206464346 0.022359227422748509 0 -0.0021281497220729155 0.021015438734879283 0 -0.0023385524206464346 0.022359227422748509 0 -0.00086802147537977218 0.023164194334892245 0 -0.0023433525424246199 0.023633094507495594 0 -0.0010715606378265223 0.021487628544727265 0 -0.0023385524206464346 0.022359227422748509 0 -0.00086802147537977218 0.023164194334892245 0 -3.5785557480770298e-05 0.024454198115814608 0 -0.00086802147537977218 0.023164194334892245 0 -0.0018226662054418898 0.024704534641465447 0 -0.00086802147537977218 0.023164194334892245 0 -0.0023433525424246199 0.023633094507495594 0 -0.0018226662054418898 0.024704534641465447 0 -0.0013035940303275271 0.025866805229781326 0 -3.5785557480770298e-05 0.024454198115814608 0 -0.0018226662054418898 0.024704534641465447 0 0.0018308756192321771 0.021463627050273233 0 -0.0012341648239492604 0.017900635727756322 0 -0.0040006027166277266 0.025265216333105852 0 -0.0032870260214622913 0.024260016907917695 0 -0.0043648872658079031 0.024227847824945341 0 -0.0026923498903940147 0.025577260309451004 0 -0.0040006027166277266 0.025265216333105852 0 -0.0032870260214622913 0.024260016907917695 0 -0.0026923498903940147 0.025577260309451004 0 -0.0018226662054418898 0.024704534641465447 0 -0.0032870260214622913 0.024260016907917695 0 -0.0023433525424246199 0.023633094507495594 0 -0.0032870260214622913 0.024260016907917695 0 -0.0032225681327201403 0.023163770107267573 0 -0.0023433525424246199 0.023633094507495594 0 -0.0018226662054418898 0.024704534641465447 0 -0.0032870260214622913 0.024260016907917695 0 -0.0032870260214622913 0.024260016907917695 0 -0.0040891542195949839 0.023263339081405116 0 -0.0043648872658079031 0.024227847824945341 0 -0.0032870260214622913 0.024260016907917695 0 -0.0040891542195949839 0.023263339081405116 0 -0.0032225681327201403 0.023163770107267573 0 -0.0040891542195949839 0.023263339081405116 0 -0.003578186419664372 0.022267075600257272 0 -0.0044750545301734911 0.02271431203467103 0 -0.0040891542195949839 0.023263339081405116 0 -0.0032225681327201403 0.023163770107267573 0 -0.003578186419664372 0.022267075600257272 0 -0.0023385524206464346 0.022359227422748509 0 -0.0023433525424246199 0.023633094507495594 0 -0.0032225681327201403 0.023163770107267573 0 -0.0023385524206464346 0.022359227422748509 0 -0.0032225681327201403 0.023163770107267573 0 -0.003578186419664372 0.022267075600257272 0 -0.0023385524206464346 0.022359227422748509 0 -0.0029898337031303529 0.021488406889692148 0 -0.003578186419664372 0.022267075600257272 0 -0.0023385524206464346 0.022359227422748509 0 -0.0029898337031303529 0.021488406889692148 0 -0.0021281497220729155 0.021015438734879283 0 -0.0029898337031303529 0.021488406889692148 0 -0.003578186419664372 0.022267075600257272 0 -0.0038575120854646961 0.021149561314941168 0 -0.003578186419664372 0.022267075600257272 0 -0.0046849863650166856 0.021917222249627798 0 -0.0053851755881619322 0.022498235942380585 0 -0.0036397257469536269 0.022333090542909041 0 -0.0049371449197910776 0.022596336173545749 0 -0.003578186419664372 0.022267075600257272 0 -0.0046849863650166856 0.021917222249627798 0 -0.0038575120854646961 0.021149561314941168 0 -0.0038575120854646961 0.021149561314941168 0 -0.0041232632321140357 0.019938667215980255 0 -0.0053801796846867592 0.020597808560270235 0 -0.0041232632321140357 0.019938667215980255 0 -0.0053801796846867592 0.020597808560270235 0 -0.0052062375150061105 0.019415194775016555 0 -0.0041232632321140357 0.019938667215980255 0 -0.0039042740223401541 0.01863762606465684 0 -0.0052062375150061105 0.019415194775016555 0 -0.0030444302597026065 0.019282831061900787 0 -0.0026124554368457493 0.018148973463592389 0 -0.0039042740223401541 0.01863762606465684 0 -0.0041232632321140357 0.019938667215980255 0 -0.0030444302597026065 0.019282831061900787 0 -0.0039042740223401541 0.01863762606465684 0 -0.0041232632321140357 0.019938667215980255 0 -0.0030444302597026065 0.019282831061900787 0 -0.0030432827356216847 0.020431966278200951 0 -0.0030444302597026065 0.019282831061900787 0 -0.0030432827356216847 0.020431966278200951 0 -0.0021242327960895083 0.019640265489182393 0 -0.0038575120854646961 0.021149561314941168 0 -0.0041232632321140357 0.019938667215980255 0 -0.0030432827356216847 0.020431966278200951 0 -0.0029898337031303529 0.021488406889692148 0 -0.0038575120854646961 0.021149561314941168 0 -0.0030432827356216847 0.020431966278200951 0 -0.0029898337031303529 0.021488406889692148 0 -0.0030432827356216847 0.020431966278200951 0 -0.0021281497220729155 0.021015438734879283 0 -0.0030432827356216847 0.020431966278200951 0 -0.0021281497220729155 0.021015438734879283 0 -0.0021242327960895083 0.019640265489182393 0 -0.0010715606378265223 0.021487628544727265 0 -0.0021281497220729155 0.021015438734879283 0 -0.001369138357809632 0.020204188073266564 0 -0.0021281497220729155 0.021015438734879283 0 -0.001369138357809632 0.020204188073266564 0 -0.0021242327960895083 0.019640265489182393 0 -0.0010715606378265223 0.021487628544727265 0 -0.001369138357809632 0.020204188073266564 0 -0.0002829862827173093 0.020116394160489146 0 -0.001369138357809632 0.020204188073266564 0 -0.0002829862827173093 0.020116394160489146 0 -0.001232709292564564 0.018631536625233997 0 -0.0002829862827173093 0.020116394160489146 0 -0.001232709292564564 0.018631536625233997 0 -0.00011872164677599286 0.018850939575409335 0 -0.001232709292564564 0.018631536625233997 0 -0.00056061552289670281 0.01769348720728783 0 -0.00011872164677599286 0.018850939575409335 0 -0.001232709292564564 0.018631536625233997 0 -0.0021242327960895083 0.019640265489182393 0 -0.0026124554368457493 0.018148973463592389 0 -0.001369138357809632 0.020204188073266564 0 -0.001232709292564564 0.018631536625233997 0 -0.0021242327960895083 0.019640265489182393 0 -0.0030444302597026065 0.019282831061900787 0 -0.0021242327960895083 0.019640265489182393 0 -0.0026124554368457493 0.018148973463592389 0 -0.001232709292564564 0.018631536625233997 0 -0.0026124554368457493 0.018148973463592389 0 -0.0013840466085820924 0.01690724316257998 0 -0.0026124554368457493 0.018148973463592389 0 -0.0013840466085820924 0.01690724316257998 0 -0.0028632080053500168 0.016555519250785144 0 -0.001232709292564564 0.018631536625233997 0 -0.00056061552289670281 0.01769348720728783 0 -0.0013840466085820924 0.01690724316257998 0 -0.00056061552289670281 0.01769348720728783 0 -0.0013840466085820924 0.01690724316257998 0 6.429994128987233e-05 0.016679726897759466 0 -0.0013840466085820924 0.01690724316257998 0 -0.00064852897154677586 0.015611891303543395 0 6.429994128987233e-05 0.016679726897759466 0 -0.0013840466085820924 0.01690724316257998 0 -0.00064852897154677586 0.015611891303543395 0 -0.0015810088766434255 0.015546417751895148 0 -0.0015810088766434255 0.015546417751895148 0 -0.0028632080053500168 0.016555519250785144 0 -0.0029046464033384502 0.015259294356316037 0 -0.0013840466085820924 0.01690724316257998 0 -0.0015810088766434255 0.015546417751895148 0 -0.0028632080053500168 0.016555519250785144 0 -0.0033298650567791304 0.018405390283031987 0 -0.001399284943706306 0.017724569603850791 0 -0.0028632080053500168 0.016555519250785144 0 -0.0049649693170950035 0.016439480957225229 0 -0.0029046464033384502 0.015259294356316037 0 -0.0028632080053500168 0.016555519250785144 0 -0.0049649693170950035 0.016439480957225229 0 -0.0038578854476443024 0.017317418269365899 0 4.1847889680732685e-05 0.020148810591752792 0 5.1570719295945969e-05 0.020353957845337993 0 9.3099574839025566e-05 0.020195697518571285 0 -0.0039758792091608526 0.01900668149312609 0 -0.0038383684680933987 0.018939772414229342 0 -0.0038405498513105311 0.019114349997399166 0 -0.0033298650567791304 0.018405390283031987 0 -0.0028001831221336382 0.021016879165027636 0 -0.0049435720994512938 0.016462962625526985 0 -0.0046754082503579963 0.017628252031721907 0 -0.0053775444354939366 0.016641081717817082 0 -0.0033298650567791304 0.018405390283031987 0 -0.0048952858969820061 0.01904571249179347 0 -0.0033298650567791304 0.018405390283031987 0 -0.0046161152878033875 0.016771353267987808 0 -0.0049435720994512938 0.016462962625526985 0 -0.0046754082503579963 0.017628252031721907 0 -0.0038578854476443024 0.017317418269365899 0 -0.0046754082503579963 0.017628252031721907 0 -0.0039042740223401541 0.01863762606465684 0 -0.0038578854476443024 0.017317418269365899 0 -0.0046754082503579963 0.017628252031721907 0 -0.0039042740223401541 0.01863762606465684 0 -0.0052062375150061105 0.019415194775016555 0 -0.0046754082503579963 0.017628252031721907 0 -0.0052062375150061105 0.019415194775016555 0 -0.0053775444354939366 0.016641081717817082 0 -0.0026124554368457493 0.018148973463592389 0 -0.0039042740223401541 0.01863762606465684 0 -0.0038578854476443024 0.017317418269365899 0 -0.0026124554368457493 0.018148973463592389 0 -0.0028632080053500168 0.016555519250785144 0 -0.0038578854476443024 0.017317418269365899 0 0.0019238315724236757 0.016217128434042629 0 0.0034015242036080089 0.019771741787491054 0 0.0039121209844020554 0.018656681111323976 0 0.004812341699816639 0.0192103273308105 0 0.0031957875411004373 0.019623628729524924 0 0.0029292799686500863 0.0128712267262329 0 0.002897649497873763 0.01420334771964055 0 0.0054055745962849119 0.01845448219080283 0 0.004670505923945422 0.018579440465672083 0 0.004812341699816639 0.0192103273308105 0 0.0054055745962849119 0.01845448219080283 0 0.004670505923945422 0.018579440465672083 0 0.0045509566524961379 0.017995108981208072 0 0.004670505923945422 0.018579440465672083 0 0.0039121209844020554 0.018656681111323976 0 0.0045509566524961379 0.017995108981208072 0 0.0030365616562837146 0.017736864868624642 0 0.002897649497873763 0.01420334771964055 0 0.004670505923945422 0.018579440465672083 0 0.0039121209844020554 0.018656681111323976 0 0.004812341699816639 0.0192103273308105 0 -0.0018860891458616846 0.012102404969277811 0 -0.0020066990787170939 0.012039050358816254 0 -0.0019961872439814856 0.012115873861967658 0 0.00038024592799796187 0.016567641447314159 0 0.0019238315724236757 0.016217128434042629 0 0.0029027543943872208 0.021157931184474232 0 0.0017223025728155903 0.021187718566870233 0 0.0028367333446197504 0.019741064600987783 0 0.0029027543943872208 0.021157931184474232 0 0.004279445341036984 0.019416263509651654 0 0.0028367333446197504 0.019741064600987783 0 0.0039121209844020554 0.018656681111323976 0 0.0031957875411004373 0.019623628729524924 0 0.0024089367114177962 0.018635542520848262 0 0.0031957875411004373 0.019623628729524924 0 0.0024089367114177962 0.018635542520848262 0 0.0014144436665952406 0.02004859270865848 0 0.0024089367114177962 0.018635542520848262 0 0.0014144436665952406 0.02004859270865848 0 0.00093614757394846289 0.018069018498921428 0 0.0017223025728155903 0.021187718566870233 0 0.0028367333446197504 0.019741064600987783 0 0.0014144436665952406 0.02004859270865848 0 0.0034015242036080089 0.019771741787491054 0 0.0014109667252689131 0.020019003228366555 0 -0.0002829862827173093 0.020116394160489146 0 0.0014144436665952406 0.02004859270865848 0 -0.00011872164677599286 0.018850939575409335 0 0.0004205145850906499 0.021498783097226176 0 -0.0002829862827173093 0.020116394160489146 0 0.0014144436665952406 0.02004859270865848 0 0.0014144436665952406 0.02004859270865848 0 -0.00011872164677599286 0.018850939575409335 0 0.00093614757394846289 0.018069018498921428 0 -0.00056061552289670281 0.01769348720728783 0 0.00093614757394846289 0.018069018498921428 0 6.429994128987233e-05 0.016679726897759466 0 -0.00056061552289670281 0.01769348720728783 0 -0.00011872164677599286 0.018850939575409335 0 0.00093614757394846289 0.018069018498921428 0 6.429994128987233e-05 0.016679726897759466 0 7.9196731485299624e-05 0.015190361914379384 0 0.0025310530205225148 0.016795918148795792 0 -0.00064852897154677586 0.015611891303543395 0 6.429994128987233e-05 0.016679726897759466 0 7.9196731485299624e-05 0.015190361914379384 0 9.8758103897601248e-05 0.015069444905750679 0 0.0013010501876297615 0.015916232049645901 0 7.9196731485299624e-05 0.015190361914379384 0 0.00019039440804963706 0.014435466157470947 0 0.00019523069826255101 0.014469233552181575 0 0.00093614757394846289 0.018069018498921428 0 6.429994128987233e-05 0.016679726897759466 0 0.0025310530205225148 0.016795918148795792 0 0.0024089367114177962 0.018635542520848262 0 0.00093614757394846289 0.018069018498921428 0 0.0025310530205225148 0.016795918148795792 0 0.0039121209844020554 0.018656681111323976 0 0.0024089367114177962 0.018635542520848262 0 0.0025310530205225148 0.016795918148795792 0 0.0013010501876297615 0.015916232049645901 0 0.002897649497873763 0.01420334771964055 0 0.0039121209844020554 0.018656681111323976 0 0.0025310530205225148 0.016795918148795792 0 0.0045832870377602707 0.017988999013577232 0 0.00019039440804963706 0.014435466157470947 0 0.00028109631158807136 0.014214013924097919 0 0.00021966108092076213 0.01426889093893231 0 0.00019039440804963706 0.014435466157470947 0 0.00021966108092076213 0.01426889093893231 0 0.00019523069826255101 0.014469233552181575 0 0.0004374591701882029 0.014185509353496408 0 0.00028109631158807136 0.014214013924097919 0 0.00031251304454251388 0.014377457610947221 0 0.00019039440804963706 0.014435466157470947 0 0.00028109631158807136 0.014214013924097919 0 0.00031251304454251388 0.014377457610947221 0 0.00043749225141798251 0.013247572830291874 0 0.00017054331938958222 0.013327975461203984 0 0.00025815647861307598 0.013143667060378035 0 0.00039260175894967694 0.013423147230236441 0 0.00014742509494247756 0.013920751031939346 0 0.00043749225141798251 0.013247572830291874 0 0.00017054331938958222 0.013327975461203984 0 7.9428771925863981e-05 0.01363763201380435 0 0.0003185041262307896 0.013631848646577864 0 0.00027666045444213483 0.014031616395093189 0 0.00022221605172617634 0.014150845761127878 0 0.00038865379295976998 0.013926008039936658 0 0.00028109631158807136 0.014214013924097919 0 0.00027666045444213483 0.014031616395093189 0 0.00028109631158807136 0.014214013924097919 0 0.00027666045444213483 0.014031616395093189 0 0.00021966108092076213 0.01426889093893231 0 0.00027666045444213483 0.014031616395093189 0 0.00021966108092076213 0.01426889093893231 0 0.00022221605172617634 0.014150845761127878 0 0.00021966108092076213 0.01426889093893231 0 0.00022221605172617634 0.014150845761127878 0 0.00019523069826255101 0.014469233552181575 0 0.00017054331938958222 0.013327975461203984 0 7.9428771925863981e-05 0.01363763201380435 0 4.0690123021156398e-05 0.013428772505161796 0 7.9428771925863981e-05 0.01363763201380435 0 4.0690123021156398e-05 0.013428772505161796 0 -1.4877934072109528e-05 0.013673243152755728 0 -1.4877934072109528e-05 0.013673243152755728 0 2.2527449497863552e-05 0.014482765784257475 0 -4.4526822624800784e-05 0.014117355175165198 0 4.0690123021156398e-05 0.013428772505161796 0 -0.00020550577281259918 0.013583729777967417 0 -1.4877934072109528e-05 0.013673243152755728 0 -0.00020550577281259918 0.013583729777967417 0 -1.4877934072109528e-05 0.013673243152755728 0 -0.00033433974991007367 0.013753931016896186 0 7.9428771925863981e-05 0.01363763201380435 0 -1.4877934072109528e-05 0.013673243152755728 0 2.2527449497863552e-05 0.014482765784257475 0 9.249416423034768e-06 0.013741807362394833 0 -0.00018527562043222628 0.013882940526601708 0 0.00022221605172617634 0.014150845761127878 0 0.00019523069826255101 0.014469233552181575 0 2.2527449497863552e-05 0.014482765784257475 0 0.00014742509494247756 0.013920751031939346 0 -1.401815065373881e-05 0.014402577430706765 0 2.2527449497863552e-05 0.014482765784257475 0 -0.0002783103538567244 0.014418686667002828 0 -4.4526822624800784e-05 0.014117355175165198 0 7.9196731485299624e-05 0.015190361914379384 0 0.00019523069826255101 0.014469233552181575 0 2.2527449497863552e-05 0.014482765784257475 0 -0.00064852897154677586 0.015611891303543395 0 7.9196731485299624e-05 0.015190361914379384 0 -0.00018723831063812782 0.014747113882493751 0 7.9196731485299624e-05 0.015190361914379384 0 2.2527449497863552e-05 0.014482765784257475 0 -0.00018723831063812782 0.014747113882493751 0 -0.00018723831063812782 0.014747113882493751 0 -0.0002783103538567244 0.014418686667002828 0 -0.00055447778776471766 0.014503644893987712 0 2.2527449497863552e-05 0.014482765784257475 0 -0.00018723831063812782 0.014747113882493751 0 -0.0002783103538567244 0.014418686667002828 0 -0.00020550577281259918 0.013583729777967417 0 -0.00033433974991007367 0.013753931016896186 0 -0.00066797379118933387 0.013837454108881394 0 -0.00018527562043222628 0.013882940526601708 0 -0.00056958625832179632 0.015061084478038295 0 -0.00027179247247215713 0.013350109568278703 0 -0.00056958625832179632 0.015061084478038295 0 -0.00034653609456130555 0.01350401861625404 0 -0.00054498113631113799 0.013532315221931207 0 -0.00083596438468262497 0.013863391489543015 0 -0.0002783103538567244 0.014418686667002828 0 -4.4526822624800784e-05 0.014117355175165198 0 -0.00071358418739700456 0.01423758377101865 0 -0.00024300664728364767 0.015892702213006087 0 -0.0001958158058205655 0.01595824134364866 0 -0.00020717110217435226 0.015643365180279079 0 -0.00024300664728364767 0.015892702213006087 0 -0.0001958158058205655 0.01595824134364866 0 -2.2845830349166781e-05 0.016213053693551735 0 -0.00020717110217435226 0.015643365180279079 0 -9.9252463932435011e-08 0.014468373066549651 0 -1.3868909654900809e-06 0.016971551784520061 0 -0.0001958158058205655 0.01595824134364866 0 -0.00020717110217435226 0.015643365180279079 0 -1.3868909654900809e-06 0.016971551784520061 0 -0.00020717110217435226 0.015643365180279079 0 -9.9252463932435011e-08 0.014468373066549651 0 -8.4193073607028525e-05 0.014790716422433311 0 -9.9252463932435011e-08 0.014468373066549651 0 -8.4193073607028525e-05 0.014790716422433311 0 -1.8728585186609345e-05 0.014011579424510199 0 -0.00027179247247215713 0.013350109568278703 0 2.1343330926126846e-05 0.01322156515173903 0 -0.00024300664728364767 0.015892702213006087 0 -0.00020717110217435226 0.015643365180279079 0 -8.4176553901427439e-05 0.015028069190391131 0 -0.00034653609456130555 0.01350401861625404 0 -0.00054498113631113799 0.013532315221931207 0 -0.00019239117411563647 0.013275016143073982 0 -0.00020717110217435226 0.015643365180279079 0 -8.4193073607028525e-05 0.014790716422433311 0 -8.4176553901427439e-05 0.015028069190391131 0 -0.00033522187404056824 0.014453505101601734 0 -0.0002439386236927626 0.014122219272237646 0 -8.4193073607028525e-05 0.014790716422433311 0 -8.4176553901427439e-05 0.015028069190391131 0 -1.8728585186609345e-05 0.014011579424510199 0 -0.00034653609456130555 0.01350401861625404 0 -0.00019239117411563647 0.013275016143073982 0 3.0601528435773574e-05 0.013123950207315473 0 -0.0002439386236927626 0.014122219272237646 0 3.5151885799136653e-05 0.013312637594240364 0 -8.4176553901427439e-05 0.015028069190391131 0 -1.8728585186609345e-05 0.014011579424510199 0 8.093855777109643e-05 0.013032328945349328 0 4.0690123021156398e-05 0.013428772505161796 0 -0.00020550577281259918 0.013583729777967417 0 3.0601528435773574e-05 0.013123950207315473 0 -0.00019239117411563647 0.013275016143073982 0 3.0601528435773574e-05 0.013123950207315473 0 8.093855777109643e-05 0.013032328945349328 0 0.00017054331938958222 0.013327975461203984 0 4.0690123021156398e-05 0.013428772505161796 0 0.00010159097677719413 0.013173929432814735 0 4.0690123021156398e-05 0.013428772505161796 0 3.0601528435773574e-05 0.013123950207315473 0 0.00010159097677719413 0.013173929432814735 0 3.0601528435773574e-05 0.013123950207315473 0 7.7061741477640978e-05 0.013039653901850428 0 0.00010159097677719413 0.013173929432814735 0 3.0601528435773574e-05 0.013123950207315473 0 8.093855777109643e-05 0.013032328945349328 0 7.7061741477640978e-05 0.013039653901850428 0 -9.9252463932435011e-08 0.014468373066549651 0 -1.8728585186609345e-05 0.014011579424510199 0 1.4149837514614614e-07 0.011966350033644735 0 -1.8728585186609345e-05 0.014011579424510199 0 1.4149837514614614e-07 0.011966350033644735 0 8.093855777109643e-05 0.013032328945349328 0 5.9460390268262561e-05 0.012223406395150968 0 0.00011834942319493903 0.012893967601200131 0 8.093855777109643e-05 0.013032328945349328 0 1.4149837514614614e-07 0.011966350033644735 0 5.9460390268262561e-05 0.012223406395150968 0 8.093855777109643e-05 0.013032328945349328 0 5.2793202540386353e-05 0.011491992940281444 0 1.4149837514614614e-07 0.011966350033644735 0 5.9460390268262561e-05 0.012223406395150968 0 5.2793202540386353e-05 0.011491992940281444 0 5.9460390268262561e-05 0.012223406395150968 0 0.00011834942319493903 0.012893967601200131 0 0.00039252943510813612 0.013056802832446738 0 0.00011834942319493903 0.012893967601200131 0 0.00025815647861307598 0.013143667060378035 0 0.00011834942319493903 0.012893967601200131 0 8.093855777109643e-05 0.013032328945349328 0 7.7061741477640978e-05 0.013039653901850428 0 0.00011834942319493903 0.012893967601200131 0 7.7061741477640978e-05 0.013039653901850428 0 0.00010159097677719413 0.013173929432814735 0 0.00011834942319493903 0.012893967601200131 0 0.00010159097677719413 0.013173929432814735 0 0.00025815647861307598 0.013143667060378035 0 0.00017054331938958222 0.013327975461203984 0 0.00010159097677719413 0.013173929432814735 0 0.00025815647861307598 0.013143667060378035 0 -5.3567768793664272e-05 0.020536663174816144 0 -2.2642290289268892e-06 0.020493072327300271 0 -6.4778282470678394e-05 0.020526043126660284 0 -5.7297084925101914e-05 0.020563213432772641 0 -5.3567768793664272e-05 0.020536663174816144 0 -6.4778282470678394e-05 0.020526043126660284 0 -5.7297084925101914e-05 0.020563213432772641 0 -5.3567768793664272e-05 0.020536663174816144 0 -0.00012144869393247212 0.020620362244939249 0 -5.7297084925101914e-05 0.020563213432772641 0 -9.6380272881729622e-06 0.020598499572543529 0 -0.00012144869393247212 0.020620362244939249 0 -5.3567768793664272e-05 0.020536663174816144 0 -2.2642290289268892e-06 0.020493072327300271 0 -0.00012144869393247212 0.020620362244939249 0 7.3286344554762071e-05 0.020567347220018965 0 -2.2642290289268892e-06 0.020493072327300271 0 -0.00012144869393247212 0.020620362244939249 0 7.3286344554762071e-05 0.020567347220018965 0 0.0001250648494006162 0.020473264370575533 0 0.00025703094842893055 0.020718041325600834 0 0.00027418190679842527 0.022819159171690001 0 0.00017376967477922308 0.02241024599368378 0 7.3286344554762071e-05 0.020567347220018965 0 5.7855569770862206e-05 0.020470349550984535 0 0.0001250648494006162 0.020473264370575533 0 7.3286344554762071e-05 0.020567347220018965 0 5.7855569770862206e-05 0.020470349550984535 0 -2.2642290289268892e-06 0.020493072327300271 0 0.00027418190679842527 0.022819159171690001 0 -0.0028001831221336382 0.021016879165027636 0 4.1847889680732685e-05 0.020148810591752792 0 5.1570719295945969e-05 0.020353957845337993 0 -0.00027359968041320497 0.020246367108303645 0 0.0001250648494006162 0.020473264370575533 0 5.1570719295945969e-05 0.020353957845337993 0 9.3099574839025566e-05 0.020195697518571285 0 5.7855569770862206e-05 0.020470349550984535 0 -2.2642290289268892e-06 0.020493072327300271 0 5.1570719295945969e-05 0.020353957845337993 0 5.7855569770862206e-05 0.020470349550984535 0 0.0001250648494006162 0.020473264370575533 0 5.1570719295945969e-05 0.020353957845337993 0 5.1570719295945969e-05 0.020353957845337993 0 -0.00027359968041320497 0.020246367108303645 0 -0.00027567512218088847 0.020329205441018794 0 3.6415963525828029e-05 0.020294088856326768 0 -8.8509600420209227e-05 0.020766489088623469 0 -2.2642290289268892e-06 0.020493072327300271 0 5.1570719295945969e-05 0.020353957845337993 0 -6.4778282470678394e-05 0.020526043126660284 0 -0.0015810088766434255 0.015546417751895148 0 -0.0029046464033384502 0.015259294356316037 0 -0.0010482376721446061 0.01410645843631702 0 -8.8509600420209227e-05 0.020766489088623469 0 -0.00095225084293682882 0.016880775730242735 0 -0.00027359968041320497 0.020246367108303645 0 -0.00027567512218088847 0.020329205441018794 0 -0.00052268865953864602 0.020287290556699776 0 -0.001399284943706306 0.017724569603850791 0 -0.00095225084293682882 0.016880775730242735 0 -0.0015810088766434255 0.015546417751895148 0 -0.00071965760067438779 0.014893003507079798 0 -0.0010482376721446061 0.01410645843631702 0 -0.00064852897154677586 0.015611891303543395 0 -0.00018723831063812782 0.014747113882493751 0 -0.00071965760067438779 0.014893003507079798 0 -0.00064852897154677586 0.015611891303543395 0 -0.0015810088766434255 0.015546417751895148 0 -0.00071965760067438779 0.014893003507079798 0 -0.0011888446451698751 0.014421656519657267 0 -0.00095225084293682882 0.016880775730242735 0 -0.0002783103538567244 0.014418686667002828 0 -0.00055447778776471766 0.014503644893987712 0 -0.00071358418739700456 0.01423758377101865 0 -0.00071965760067438779 0.014893003507079798 0 -0.00055447778776471766 0.014503644893987712 0 -0.00089171080446980413 0.014259895100231044 0 -0.00018723831063812782 0.014747113882493751 0 -0.00071965760067438779 0.014893003507079798 0 -0.00055447778776471766 0.014503644893987712 0 -0.00024300664728364767 0.015892702213006087 0 0.00013321857941667634 0.01584673788175173 0 -2.2845830349166781e-05 0.016213053693551735 0 -0.00033522187404056824 0.014453505101601734 0 -8.9994339023737475e-05 0.01762384308464145 0 -0.00054498113631113799 0.013532315221931207 0 -0.00083596438468262497 0.013863391489543015 0 -0.0009522299981845454 0.01377608505443738 0 -0.00055447778776471766 0.014503644893987712 0 -0.00071358418739700456 0.01423758377101865 0 -0.00089171080446980413 0.014259895100231044 0 -0.00095225084293682882 0.016880775730242735 0 -8.9994339023737475e-05 0.01762384308464145 0 -0.00056958625832179632 0.015061084478038295 0 -0.00095225084293682882 0.016880775730242735 0 -0.00083596438468262497 0.013863391489543015 0 -0.00090648436014102642 0.013882848027475383 0 -0.0009522299981845454 0.01377608505443738 0 -5.2389094717307859e-05 0.020566572880623253 0 -9.6380272881729622e-06 0.020598499572543529 0 0.00012041005452872093 0.020618152775494308 0 -6.4778282470678394e-05 0.020526043126660284 0 -2.7462686385540699e-05 0.020523015110867113 0 -4.771778223820868e-05 0.020535352805283916 0 -5.7297084925101914e-05 0.020563213432772641 0 -6.4778282470678394e-05 0.020526043126660284 0 -4.771778223820868e-05 0.020535352805283916 0 -5.7297084925101914e-05 0.020563213432772641 0 -4.771778223820868e-05 0.020535352805283916 0 -9.6380272881729622e-06 0.020598499572543529 0 -8.9994339023737475e-05 0.01762384308464145 0 -0.00044062313457995548 0.020282411403821064 0 -2.7462686385540699e-05 0.020523015110867113 0 -3.0058617383504935e-05 0.020509645906316636 0 -4.771778223820868e-05 0.020535352805283916 0 -5.2389094717307859e-05 0.020566572880623253 0 -4.771778223820868e-05 0.020535352805283916 0 -9.6380272881729622e-06 0.020598499572543529 0 -8.9994339023737475e-05 0.01762384308464145 0 0.00015210879041360989 0.018794387605134414 0 -9.6380272881729622e-06 0.020598499572543529 0 0.00012041005452872093 0.020618152775494308 0 -0.00012144869393247212 0.020620362244939249 0 0.00013321857941667634 0.01584673788175173 0 0.00025453065146997144 0.016861330490592019 0 -2.2845830349166781e-05 0.016213053693551735 0 -0.0001958158058205655 0.01595824134364866 0 -2.2845830349166781e-05 0.016213053693551735 0 -1.3868909654900809e-06 0.016971551784520061 0 0.00025453065146997144 0.016861330490592019 0 -2.2845830349166781e-05 0.016213053693551735 0 -1.3868909654900809e-06 0.016971551784520061 0 0.00025453065146997144 0.016861330490592019 0 -1.3868909654900809e-06 0.016971551784520061 0 2.4617628749708011e-06 0.019469292614632577 0 0.00015210879041360989 0.018794387605134414 0 -1.1640027000469182e-08 0.019472980215815734 0 0.00012041005452872093 0.020618152775494308 0 8.71307133070012e-07 0.01947648183887862 0 -0.00017389471210689316 0.020575377313426478 0 8.71307133070012e-07 0.01947648183887862 0 -1.1113793238566662e-06 0.02090042396264984 0 -0.00017389471210689316 0.020575377313426478 0 -1.1113793238566662e-06 0.02090042396264984 0 -0.00017389471210689316 0.020575377313426478 0 -0.00013278260030047008 0.021024602732470674 0 -0.00017389471210689316 0.020575377313426478 0 -0.00012144869393247212 0.020620362244939249 0 -0.00013278260030047008 0.021024602732470674 0 0.00012041005452872093 0.020618152775494308 0 -0.00017389471210689316 0.020575377313426478 0 -0.00012144869393247212 0.020620362244939249 0 7.3286344554762071e-05 0.020567347220018965 0 -0.00012144869393247212 0.020620362244939249 0 -0.00013278260030047008 0.021024602732470674 0 7.3286344554762071e-05 0.020567347220018965 0 0.00025703094842893055 0.020718041325600834 0 -0.00013278260030047008 0.021024602732470674 0 0.00025703094842893055 0.020718041325600834 0 1.2709575043070941e-06 0.022324892375219115 0 -0.00013278260030047008 0.021024602732470674 0 -1.1113793238566662e-06 0.02090042396264984 0 1.2709575043070941e-06 0.022324892375219115 0 -0.00013278260030047008 0.021024602732470674 0 0.00017376967477922308 0.02241024599368378 0 1.2719247680694184e-07 0.022327683735465838 0 1.5570216362030594e-06 0.022330314837618336 0 -0.00022677122174353604 0.023909535832721412 0 -1.7523604651635464e-06 0.024159042233998857 0 0.00022113399220240212 0.024219284559550806 0 1.5570216362030594e-06 0.022330314837618336 0 -0.00022677122174353604 0.023909535832721412 0 -1.7523604651635464e-06 0.024159042233998857 0 -0.00040161607616958186 0.024367431609228048 0 1.8310261218540958e-06 0.025986386535830543 0 -0.00022677122174353604 0.023909535832721412 0 -1.7523604651635464e-06 0.024159042233998857 0 -0.00040161607616958186 0.024367431609228048 0 7.397479759367636e-05 0.022985988649604511 0 -0.00090697010468137208 0.027468303388905064 0 -0.00040161607616958186 0.024367431609228048 0 -0.00025599433393184968 0.024463973812456144 0 -0.00047868766190240999 0.024553791230051646 0 -0.00022677122174353604 0.023909535832721412 0 -0.00040161607616958186 0.024367431609228048 0 -0.00025599433393184968 0.024463973812456144 0 0.00022113399220240212 0.024219284559550806 0 -0.00022677122174353604 0.023909535832721412 0 -0.00025599433393184968 0.024463973812456144 0 -2.1815787152324777e-05 0.024606217502272786 0 0.00022113399220240212 0.024219284559550806 0 -0.00025599433393184968 0.024463973812456144 0 -2.1815787152324777e-05 0.024606217502272786 0 -0.00025599433393184968 0.024463973812456144 0 -0.00028280946485703944 0.024681525852886882 0 -0.00025599433393184968 0.024463973812456144 0 -0.00028280946485703944 0.024681525852886882 0 -0.00047868766190240999 0.024553791230051646 0 -0.0050646349504536725 0.02208438650874045 0 -0.00090697010468137208 0.027468303388905064 0 -2.1815787152324777e-05 0.024606217502272786 0 -0.00028280946485703944 0.024681525852886882 0 -0.00010307468829948374 0.024767931568938705 0 -0.0050646349504536725 0.02208438650874045 0 -0.0028001831221336382 0.021016879165027636 0 0.0040663711945387549 0.036596903485298128 0 0.0037258730434775425 0.036475179302327909 0 0.0036532346816396505 0.03683988638174119 0 0.0040663711945387549 0.036596903485298128 0 0.0039345262277646655 0.036092552021788502 0 0.0037258730434775425 0.036475179302327909 0 0.0040663711945387549 0.036596903485298128 0 0.0043026399471303624 0.03600741891952873 0 0.0039345262277646655 0.036092552021788502 0 -0.0022236308264435875 0.02890013569963374 0 -0.00090697010468137208 0.027468303388905064 0 -0.0080950495564348253 0.02076101780884974 0 -0.0081769021773630494 0.02076371117310984 0 -0.0080709599558502956 0.020838524069434664 0 -0.00090697010468137208 0.027468303388905064 0 0.0020774078439617198 0.029340890743149092 0 0.0043026399471303624 0.03600741891952873 0 0.0039345262277646655 0.036092552021788502 0 0.0038267809949817976 0.035634940511192023 0 0.0039345262277646655 0.036092552021788502 0 0.0035876184899191225 0.036120053661683527 0 0.0037258730434775425 0.036475179302327909 0 0.0020774078439617198 0.029340890743149092 0 0.0022753556059472071 0.034991417475915235 0 0.0039345262277646655 0.036092552021788502 0 0.0038267809949817976 0.035634940511192023 0 0.0035876184899191225 0.036120053661683527 0 0.0020774078439617198 0.029340890743149092 0 4.2113930682772854e-05 0.028947147321339673 0 -0.00040161607616958186 0.024367431609228048 0 0.00014763235123328594 0.023303758957097038 0 0.0013149017872287269 0.024218177209356921 0 -0.00040161607616958186 0.024367431609228048 0 0.0013149017872287269 0.024218177209356921 0 1.8310261218540958e-06 0.025986386535830543 0 1.5680943387367968e-06 0.025993424875376973 0 -3.6002895806571764e-07 0.028464122434321577 0 3.964224379901766e-05 0.029241401809009002 0 0.0020774078439617198 0.029340890743149092 0 1.1464218006829507e-07 0.025987615292832517 0 0.00033043397920845888 0.029232085453045665 0 1.5680943387367968e-06 0.025993424875376973 0 3.964224379901766e-05 0.029241401809009002 0 -3.6002895806571764e-07 0.028464122434321577 0 3.964224379901766e-05 0.029241401809009002 0 -0.00029529580974945228 0.030287702202298834 0 -3.6002895806571764e-07 0.028464122434321577 0 -0.00029529580974945228 0.030287702202298834 0 -1.0555467192497865e-06 0.030939601962150471 0 -0.00029529580974945228 0.030287702202298834 0 -0.00035915337147656595 0.030665919466408974 0 3.9403532961950921e-05 0.03061960401189967 0 0.00072304270836357658 0.0299912709794816 0 5.5761178470960941e-05 0.030078164842622795 0 3.9403532961950921e-05 0.03061960401189967 0 3.964224379901766e-05 0.029241401809009002 0 -0.00029529580974945228 0.030287702202298834 0 5.5761178470960941e-05 0.030078164842622795 0 -0.00029529580974945228 0.030287702202298834 0 5.5761178470960941e-05 0.030078164842622795 0 3.9403532961950921e-05 0.03061960401189967 0 0.00072304270836357658 0.0299912709794816 0 3.964224379901766e-05 0.029241401809009002 0 5.5761178470960941e-05 0.030078164842622795 0 1.2092324388399407e-06 0.033409452520515748 0 -0.00015522152952391659 0.031703247565128871 0 0.00020481091956210437 0.031784247955175642 0 -0.00029529580974945228 0.030287702202298834 0 -0.00015522152952391659 0.031703247565128871 0 -1.0555467192497865e-06 0.030939601962150471 0 1.2092324388399407e-06 0.033409452520515748 0 -0.00015522152952391659 0.031703247565128871 0 -1.0555467192497865e-06 0.030939601962150471 0 -0.00029529580974945228 0.030287702202298834 0 -0.00015522152952391659 0.031703247565128871 0 -0.00035915337147656595 0.030665919466408974 0 -0.00015522152952391659 0.031703247565128871 0 0.00020481091956210437 0.031784247955175642 0 -0.00035915337147656595 0.030665919466408974 0 0.0011740017874736065 0.033350480404509365 0 0.0013457509672705401 0.032906611157558746 0 0.0022905119377511682 0.034871967114653041 0 0.0022084846615453625 0.03619162581348085 0 0.0032848635074026232 0.035589982235360994 0 0.0022084846615453625 0.03619162581348085 0 0.0032848635074026232 0.035589982235360994 0 0.0030466801451078866 0.036549727849691342 0 0.0022084846615453625 0.03619162581348085 0 0.0030466801451078866 0.036549727849691342 0 0.0025073254584076828 0.037662822253546092 0 0.0022084846615453625 0.03619162581348085 0 0.0025073254584076828 0.037662822253546092 0 0.001220712330911009 0.037680472505715185 0 0.0013457509672705401 0.032906611157558746 0 0.0022753556059472071 0.034991417475915235 0 0.0032848635074026232 0.035589982235360994 0 0.0040912648617479098 0.036004454104704958 0 0.0034733537900473064 0.036211970349390103 0 0.0032848635074026232 0.035589982235360994 0 0.0030466801451078866 0.036549727849691342 0 0.0034733537900473064 0.036211970349390103 0 0.0030466801451078866 0.036549727849691342 0 0.00349684106017196 0.036680038772339225 0 0.0031153318662989456 0.0372069435438439 0 0.0030466801451078866 0.036549727849691342 0 0.0034733537900473064 0.036211970349390103 0 0.00349684106017196 0.036680038772339225 0 0.0040912648617479098 0.036004454104704958 0 0.0034733537900473064 0.036211970349390103 0 0.00349684106017196 0.036680038772339225 0 0.00349684106017196 0.036680038772339225 0 0.0037258730434775425 0.036475179302327909 0 0.0036532346816396505 0.03683988638174119 0 0.0022753556059472071 0.034991417475915235 0 0.0038101707698905687 0.036792718238626371 0 0.0035876184899191225 0.036120053661683527 0 0.00349684106017196 0.036680038772339225 0 0.0037258730434775425 0.036475179302327909 0 0.00349684106017196 0.036680038772339225 0 0.0036532346816396505 0.03683988638174119 0 0.0034011396803796195 0.037209406596090955 0 0.00349684106017196 0.036680038772339225 0 0.0034011396803796195 0.037209406596090955 0 0.0031153318662989456 0.0372069435438439 0 0.0034011396803796195 0.037209406596090955 0 0.0031153318662989456 0.0372069435438439 0 0.0030432582243269907 0.037454699450131135 0 0.0034011396803796195 0.037209406596090955 0 0.0035399115788639925 0.037410846795719488 0 0.0038108090745196943 0.037081308701323576 0 0.0036532346816396505 0.03683988638174119 0 0.0034011396803796195 0.037209406596090955 0 0.0038108090745196943 0.037081308701323576 0 0.0030466801451078866 0.036549727849691342 0 0.0025073254584076828 0.037662822253546092 0 0.0031153318662989456 0.0372069435438439 0 0.0026158396528910112 0.037796166359195048 0 0.0027859584880417123 0.038021515508529502 0 0.0025073254584076828 0.037662822253546092 0 0.0031153318662989456 0.0372069435438439 0 0.0030432582243269907 0.037454699450131135 0 0.0025073254584076828 0.037662822253546092 0 0.0022434044250213736 0.0391373029491058 0 0.0012528938522116885 0.039169289415880729 0 0.0025073254584076828 0.037662822253546092 0 0.0030991457772080546 0.039335859854766411 0 0.0022434044250213736 0.0391373029491058 0 0.0027812379565241474 0.040216631491750511 0 0.0019703984234828568 0.04086132479386638 0 0.0016407772183085504 0.04018342638566369 0 0.0022434044250213736 0.0391373029491058 0 0.0027812379565241474 0.040216631491750511 0 0.0016407772183085504 0.04018342638566369 0 0.0030991457772080546 0.039335859854766411 0 0.0027812379565241474 0.040216631491750511 0 0.0035157078929754005 0.040339547347092809 0 0.0027859584880417123 0.038021515508529502 0 0.0045362788704251637 0.04037842993129729 0 0.0030991457772080546 0.039335859854766411 0 0.0022434044250213736 0.0391373029491058 0 0.0027812379565241474 0.040216631491750511 0 0.0027812379565241474 0.040216631491750511 0 0.003006372854753137 0.040843950331758735 0 0.0019703984234828568 0.04086132479386638 0 0.0027812379565241474 0.040216631491750511 0 0.003006372854753137 0.040843950331758735 0 0.0035157078929754005 0.040339547347092809 0 0.003006372854753137 0.040843950331758735 0 0.0019703984234828568 0.04086132479386638 0 0.0022588522612584194 0.041238730297948473 0 0.0034011396803796195 0.037209406596090955 0 0.0030432582243269907 0.037454699450131135 0 0.0032721070472953168 0.037517133434686607 0 0.0034011396803796195 0.037209406596090955 0 0.0035399115788639925 0.037410846795719488 0 0.0032721070472953168 0.037517133434686607 0 0.003006372854753137 0.040843950331758735 0 0.0035157078929754005 0.040339547347092809 0 0.0035290641133695834 0.040963781640132771 0 0.0045362788704251637 0.04037842993129729 0 -0.0020664828313544897 0.032622291448856394 0 0.0035157078929754005 0.040339547347092809 0 0.0040974312253958143 0.040843105902849217 0 0.0035290641133695834 0.040963781640132771 0 -0.0091590561893413035 0.020799613913953872 0 -0.0091459900771072699 0.021773048168142021 0 -0.01036243772473236 0.022775958315178407 0 -0.0028901313397556045 0.028742486960689401 0 -0.0020664828313544897 0.032622291448856394 0 0.0035399115788639925 0.037410846795719488 0 0.0032721070472953168 0.037517133434686607 0 0.0033657145361730644 0.037590745185791759 0 -0.0091459900771072699 0.021773048168142021 0 -0.0087108322364146031 0.021914086180801075 0 -0.0085481971081994394 0.021097473809181203 0 -0.0091459900771072699 0.021773048168142021 0 -0.0087108322364146031 0.021914086180801075 0 -0.0091713704938697991 0.022400561637305777 0 -0.0087108322364146031 0.021914086180801075 0 -0.0080058662408962322 0.021629339242401794 0 -0.0078603697942027633 0.022542273244306698 0 -0.0087108322364146031 0.021914086180801075 0 -0.0085481971081994394 0.021097473809181203 0 -0.0080058662408962322 0.021629339242401794 0 -0.0085481971081994394 0.021097473809181203 0 -0.0077385783244468057 0.021048287693843648 0 -0.0080058662408962322 0.021629339242401794 0 -0.0091590561893413035 0.020799613913953872 0 -0.0091459900771072699 0.021773048168142021 0 -0.0085481971081994394 0.021097473809181203 0 -0.0091590561893413035 0.020799613913953872 0 -0.0088236435681619749 0.020696273207454985 0 -0.0084603490012280843 0.020661931502224947 0 -0.0088236435681619749 0.020696273207454985 0 -0.0080437114803610897 0.020539841219793912 0 -0.0076280436096950307 0.019498251076604613 0 -0.0087386593218421321 0.020619312402528088 0 -0.0078726682692139872 0.020111892339987749 0 -0.0028901313397556045 0.028742486960689401 0 -0.0023287860836174561 0.028909076373070924 0 -0.0091590561893413035 0.020799613913953872 0 -0.0085481971081994394 0.021097473809181203 0 -0.0088236435681619749 0.020696273207454985 0 -0.0085481971081994394 0.021097473809181203 0 -0.0080437114803610897 0.020539841219793912 0 -0.0077385783244468057 0.021048287693843648 0 -0.0085481971081994394 0.021097473809181203 0 -0.0088236435681619749 0.020696273207454985 0 -0.0080437114803610897 0.020539841219793912 0 -0.007165328237534266 0.02014862377220587 0 -0.0080437114803610897 0.020539841219793912 0 -0.0076280436096950307 0.019498251076604613 0 -0.007165328237534266 0.02014862377220587 0 -0.0080437114803610897 0.020539841219793912 0 -0.0077385783244468057 0.021048287693843648 0 -0.007165328237534266 0.02014862377220587 0 -0.0077385783244468057 0.021048287693843648 0 -0.0069944770953565775 0.020864839577940837 0 -0.0077385783244468057 0.021048287693843648 0 -0.0072160539407408533 0.021564090171308014 0 -0.0069944770953565775 0.020864839577940837 0 -0.0080058662408962322 0.021629339242401794 0 -0.0072160539407408533 0.021564090171308014 0 -0.0078603697942027633 0.022542273244306698 0 -0.0077385783244468057 0.021048287693843648 0 -0.0080058662408962322 0.021629339242401794 0 -0.0072160539407408533 0.021564090171308014 0 -0.0072160539407408533 0.021564090171308014 0 -0.0064381872417368534 0.021109823809403919 0 -0.006089651640576752 0.021803301315308932 0 -0.0072160539407408533 0.021564090171308014 0 -0.0064381872417368534 0.021109823809403919 0 -0.0069944770953565775 0.020864839577940837 0 -0.0064381872417368534 0.021109823809403919 0 -0.0069944770953565775 0.020864839577940837 0 -0.0062623003606553079 0.020184555081300314 0 -0.0039509945493473352 0.021209907971033292 0 -0.0059401750906055732 0.021800076620439802 0 -0.0038575120854646961 0.021149561314941168 0 -0.0053801796846867592 0.020597808560270235 0 -0.006089651640576752 0.021803301315308932 0 -0.0064381872417368534 0.021109823809403919 0 -0.0053801796846867592 0.020597808560270235 0 -0.0062623003606553079 0.020184555081300314 0 -0.0064381872417368534 0.021109823809403919 0 -0.0053801796846867592 0.020597808560270235 0 -0.006089651640576752 0.021803301315308932 0 -0.0053801796846867592 0.020597808560270235 0 -0.0052062375150061105 0.019415194775016555 0 -0.0062623003606553079 0.020184555081300314 0 -0.0052062375150061105 0.019415194775016555 0 -0.0062623003606553079 0.020184555081300314 0 -0.0062829221845500556 0.018676847710792376 0 -0.007165328237534266 0.02014862377220587 0 -0.0062623003606553079 0.020184555081300314 0 -0.0062829221845500556 0.018676847710792376 0 -0.007165328237534266 0.02014862377220587 0 -0.0069944770953565775 0.020864839577940837 0 -0.0062623003606553079 0.020184555081300314 0 -0.0075261227903950763 0.019866512957326339 0 -0.0078726682692139872 0.020111892339987749 0 -0.0081133227798188944 0.020787441133309367 0 -0.0081775068714798459 0.020741854035016279 0 -0.0082837275695058551 0.020772987301299405 0 -0.007165328237534266 0.02014862377220587 0 -0.0062829221845500556 0.018676847710792376 0 -0.0076280436096950307 0.019498251076604613 0 -0.0052062375150061105 0.019415194775016555 0 -0.0062829221845500556 0.018676847710792376 0 -0.0052448249259268486 0.018161197800794129 0 -0.0053201866753413386 0.018605996524157252 0 -0.0048952858969820061 0.01904571249179347 0 -0.0080950495564348253 0.02076101780884974 0 -0.0080808194297774891 0.020761484146864378 0 -0.0080086987431580697 0.020754416175519531 0 -0.0075261227903950763 0.019866512957326339 0 -0.0048952858969820061 0.01904571249179347 0 -0.0081133227798188944 0.020787441133309367 0 -0.0080080904287043089 0.02077303794979872 0 -0.0080808194297774891 0.020761484146864378 0 -0.0080080904287043089 0.02077303794979872 0 -0.0080808194297774891 0.020761484146864378 0 -0.0080086987431580697 0.020754416175519531 0 -0.0048952858969820061 0.01904571249179347 0 -0.0028001831221336382 0.021016879165027636 0 -0.0081133227798188944 0.020787441133309367 0 -0.0080808194297774891 0.020761484146864378 0 -0.0081775068714798459 0.020741854035016279 0 -0.0080950495564348253 0.02076101780884974 0 -0.0080808194297774891 0.020761484146864378 0 -0.0081775068714798459 0.020741854035016279 0 -0.0081769021773630494 0.02076371117310984 0 -0.0081775068714798459 0.020741854035016279 0 -0.0084603490012280843 0.020661931502224947 0 -0.0080950495564348253 0.02076101780884974 0 -0.0081769021773630494 0.02076371117310984 0 -0.0081775068714798459 0.020741854035016279 0 0.0040663711945387549 0.036596903485298128 0 0.0036532346816396505 0.03683988638174119 0 0.0038108090745196943 0.037081308701323576 0 -0.0022236308264435875 0.02890013569963374 0 -0.0023287860836174561 0.028909076373070924 0 -0.0088236435681619749 0.020696273207454985 0 -0.0084603490012280843 0.020661931502224947 0 -0.0082837275695058551 0.020772987301299405 0 -0.0081775068714798459 0.020741854035016279 0 -0.0084603490012280843 0.020661931502224947 0 -0.0082837275695058551 0.020772987301299405 0 3.4403492604168622e-07 0.045001153712181219 0 6.15992346691033e-05 0.044878133598261989 0 -0.00011665633921076225 0.04467500607686882 0 3.7511320397322013e-08 0.04500002080639165 0 -0.00010663270723073329 0.045121049692260301 0 3.4403492604168622e-07 0.045001153712181219 0 7.5365791485665535e-05 0.044980926941882549 0 6.15992346691033e-05 0.044878133598261989 0 -0.00030623171579100179 0.04515662659280581 0 -0.00015252502275634887 0.045189375932836527 0 -0.00034196345546811492 0.045298201577819247 0 -0.00030623171579100179 0.04515662659280581 0 -0.00015252502275634887 0.045189375932836527 0 -0.00023891107969865077 0.045039274932072153 0 7.5365791485665535e-05 0.044980926941882549 0 0.00016453018086659468 0.044925754981820838 0 0.00028088049133928892 0.044967217674404786 0 -0.00010663270723073329 0.045121049692260301 0 -0.00026061959516420651 0.043581311010356803 0 0.00016453018086659468 0.044925754981820838 0 6.15992346691033e-05 0.044878133598261989 0 0.00030863466178234373 0.04489062174291867 0 7.5365791485665535e-05 0.044980926941882549 0 0.00016453018086659468 0.044925754981820838 0 6.15992346691033e-05 0.044878133598261989 0 6.15992346691033e-05 0.044878133598261989 0 0.00030863466178234373 0.04489062174291867 0 0.00020297018250338156 0.044560710608609083 0 0.00028936263751096951 0.044999406443180907 0 -0.00026061959516420651 0.043581311010356803 0 0.00016453018086659468 0.044925754981820838 0 0.00030863466178234373 0.04489062174291867 0 0.00028088049133928892 0.044967217674404786 0 3.4403492604168622e-07 0.045001153712181219 0 -0.00011665633921076225 0.04467500607686882 0 -1.0346665681513587e-06 0.044996337575124459 0 -0.00011665633921076225 0.04467500607686882 0 -1.0346665681513587e-06 0.044996337575124459 0 1.6904844696778045e-06 0.042329525031577081 0 1.6904844696778045e-06 0.042329525031577081 0 0.00020297018250338156 0.044560710608609083 0 0.00080994234119034455 0.044267223379867812 0 -0.00011665633921076225 0.04467500607686882 0 1.6904844696778045e-06 0.042329525031577081 0 0.00020297018250338156 0.044560710608609083 0 0.00030863466178234373 0.04489062174291867 0 0.00020297018250338156 0.044560710608609083 0 0.00080994234119034455 0.044267223379867812 0 6.15992346691033e-05 0.044878133598261989 0 -0.00011665633921076225 0.04467500607686882 0 0.00020297018250338156 0.044560710608609083 0 0.00062549943844027547 0.042502757043359152 0 -0.0011458463157786195 0.040112901705354399 0 0.00017184766026491778 0.039856510781260693 0 -9.7648453861350952e-05 0.039370604378854597 0 4.8771439848361968e-05 0.039184916683376148 0 2.4447395279459558e-06 0.042319031186491274 0 0.00017184766026491778 0.039856510781260693 0 -1.6766765971903697e-06 0.039936604272364888 0 4.4658853620408962e-05 0.04204367750608079 0 0.00062549943844027547 0.042502757043359152 0 -1.6766765971903697e-06 0.039936604272364888 0 -9.7648453861350952e-05 0.039370604378854597 0 -0.00019997019293772555 0.038649419770788243 0 0.00017184766026491778 0.039856510781260693 0 -1.6766765971903697e-06 0.039936604272364888 0 -9.7648453861350952e-05 0.039370604378854597 0 -9.7648453861350952e-05 0.039370604378854597 0 4.8771439848361968e-05 0.039184916683376148 0 -0.00020218908584905296 0.039115079682008044 0 -0.0011458463157786195 0.040112901705354399 0 -0.0011712829440917718 0.036832991933964561 0 -0.00364831880269094 0.035930123906655599 0 -0.0020280985517101596 0.036698999802902296 0 -0.0020841155233989909 0.035124678232680284 0 0.00030863466178234373 0.04489062174291867 0 0.00080994234119034455 0.044267223379867812 0 0.00092105960025973006 0.044965826612528743 0 0.00030863466178234373 0.04489062174291867 0 0.00092105960025973006 0.044965826612528743 0 0.00042444970381772434 0.045208473361326065 0 -0.0011458463157786195 0.040112901705354399 0 -0.00026061959516420651 0.043581311010356803 0 -0.0018738457027122086 0.040523201278023772 0 -0.0019562708544834067 0.040466476106655637 0 -0.0019337619453663427 0.040686229214765772 0 -0.00030623171579100179 0.04515662659280581 0 -0.00034196345546811492 0.045298201577819247 0 -0.00051280104697951794 0.04508398672524791 0 -0.0018738457027122086 0.040523201278023772 0 -0.0017700488169212583 0.040584182808242796 0 -0.0019337619453663427 0.040686229214765772 0 -0.0018552829172150303 0.040405776887616561 0 -0.0018738457027122086 0.040523201278023772 0 -0.0019562708544834067 0.040466476106655637 0 -0.00026061959516420651 0.043581311010356803 0 -0.0013675996513752406 0.04270868746177555 0 -0.0018552829172150303 0.040405776887616561 0 -0.0018738457027122086 0.040523201278023772 0 -0.0017700488169212583 0.040584182808242796 0 -0.00364831880269094 0.035930123906655599 0 -0.00309197297881811 0.037537382192013448 0 -0.0020280985517101596 0.036698999802902296 0 -0.00309197297881811 0.037537382192013448 0 -0.0020280985517101596 0.036698999802902296 0 -0.0020014626582903249 0.037986305384666873 0 -0.0011458463157786195 0.040112901705354399 0 -0.0026601031838174244 0.03862127793668494 0 -0.0020280985517101596 0.036698999802902296 0 -0.0011403478357049988 0.037706845729602374 0 -0.0020014626582903249 0.037986305384666873 0 -0.0020280985517101596 0.036698999802902296 0 -0.00079155859164245198 0.036185593914544775 0 -0.0011403478357049988 0.037706845729602374 0 -0.00079155859164245198 0.036185593914544775 0 8.5964103534085838e-05 0.037674867379546756 0 -0.0011403478357049988 0.037706845729602374 0 -0.00079155859164245198 0.036185593914544775 0 -0.0004807070570755211 0.035256530374635775 0 -0.0020841155233989909 0.035124678232680284 0 -0.00079155859164245198 0.036185593914544775 0 -0.0004807070570755211 0.035256530374635775 0 0.00041145233423977087 0.035242016394958164 0 -0.0020280985517101596 0.036698999802902296 0 -0.00079155859164245198 0.036185593914544775 0 -0.0020841155233989909 0.035124678232680284 0 -1.6766765971903697e-06 0.039936604272364888 0 -0.00019997019293772555 0.038649419770788243 0 8.634234553440476e-08 0.036188432933955988 0 -0.00020218908584905296 0.039115079682008044 0 -0.00019997019293772555 0.038649419770788243 0 -4.5239492181765767e-05 0.038110649310003034 0 -9.7648453861350952e-05 0.039370604378854597 0 -0.00020218908584905296 0.039115079682008044 0 -0.00019997019293772555 0.038649419770788243 0 -0.0011712829440917718 0.036832991933964561 0 -0.00036605900985668287 0.03617885761101191 0 -0.00019997019293772555 0.038649419770788243 0 -4.5239492181765767e-05 0.038110649310003034 0 8.634234553440476e-08 0.036188432933955988 0 -0.0004807070570755211 0.035256530374635775 0 -0.0020841155233989909 0.035124678232680284 0 -0.00055157511466130747 0.034244257092598915 0 -0.0004807070570755211 0.035256530374635775 0 -0.00055157511466130747 0.034244257092598915 0 0.00017397109922216993 0.034593700925318271 0 -0.00055157511466130747 0.034244257092598915 0 0.00017397109922216993 0.034593700925318271 0 0.00072861605207433233 0.033583753137171421 0 -0.0004807070570755211 0.035256530374635775 0 0.00017397109922216993 0.034593700925318271 0 0.00041145233423977087 0.035242016394958164 0 0.00017397109922216993 0.034593700925318271 0 0.00074476176679353723 0.034549099319216528 0 0.00041145233423977087 0.035242016394958164 0 0.00074476176679353723 0.034549099319216528 0 0.0013932987388417593 0.034859046572644825 0 0.00041145233423977087 0.035242016394958164 0 0.00074476176679353723 0.034549099319216528 0 0.00072861605207433233 0.033583753137171421 0 0.0013932987388417593 0.034859046572644825 0 0.00017397109922216993 0.034593700925318271 0 0.00074476176679353723 0.034549099319216528 0 0.00072861605207433233 0.033583753137171421 0 -0.00036605900985668287 0.03617885761101191 0 0.0003448791653972762 0.034711993548045612 0 -4.5239492181765767e-05 0.038110649310003034 0 8.634234553440476e-08 0.036188432933955988 0 0.00013881625794009246 0.036084048956331778 0 -0.00055157511466130747 0.034244257092598915 0 0.00088022345393756751 0.03325818222561254 0 0.00072861605207433233 0.033583753137171421 0 7.2543921661184041e-07 0.033414837590753782 0 8.634234553440476e-08 0.036188432933955988 0 0.00013881625794009246 0.036084048956331778 0 1.2092324388399407e-06 0.033409452520515748 0 0.00020481091956210437 0.031784247955175642 0 0.00088022345393756751 0.03325818222561254 0 -5.5235614414398232e-08 0.033413964313413258 0 0.0003448791653972762 0.034711993548045612 0 0.0022905119377511682 0.034871967114653041 0 0.00072861605207433233 0.033583753137171421 0 0.0013932987388417593 0.034859046572644825 0 0.00020481091956210437 0.031784247955175642 0 0.00088022345393756751 0.03325818222561254 0 0.00072861605207433233 0.033583753137171421 0 0.0011740017874736065 0.033350480404509365 0 0.00065317315188199597 0.033477810005801308 0 0.0022084846615453625 0.03619162581348085 0 0.0013932987388417593 0.034859046572644825 0 0.000792594363094781 0.036390232332124885 0 0.0022905119377511682 0.034871967114653041 0 0.0022084846615453625 0.03619162581348085 0 0.0013932987388417593 0.034859046572644825 0 -0.00079155859164245198 0.036185593914544775 0 0.00041145233423977087 0.035242016394958164 0 0.000792594363094781 0.036390232332124885 0 0.0013932987388417593 0.034859046572644825 0 0.00041145233423977087 0.035242016394958164 0 0.000792594363094781 0.036390232332124885 0 -0.00079155859164245198 0.036185593914544775 0 0.000792594363094781 0.036390232332124885 0 8.5964103534085838e-05 0.037674867379546756 0 0.000792594363094781 0.036390232332124885 0 0.001220712330911009 0.037680472505715185 0 8.5964103534085838e-05 0.037674867379546756 0 0.0022084846615453625 0.03619162581348085 0 0.000792594363094781 0.036390232332124885 0 0.001220712330911009 0.037680472505715185 0 0.0025073254584076828 0.037662822253546092 0 0.001220712330911009 0.037680472505715185 0 0.0012528938522116885 0.039169289415880729 0 0.001220712330911009 0.037680472505715185 0 8.5964103534085838e-05 0.037674867379546756 0 0.00012105655141564376 0.039046917916124954 0 0.001220712330911009 0.037680472505715185 0 0.00012105655141564376 0.039046917916124954 0 0.0012528938522116885 0.039169289415880729 0 0.00012105655141564376 0.039046917916124954 0 0.0012528938522116885 0.039169289415880729 0 0.00024152367199723544 0.04010311597724972 0 0.0022434044250213736 0.0391373029491058 0 0.0012528938522116885 0.039169289415880729 0 0.0016407772183085504 0.04018342638566369 0 0.0012528938522116885 0.039169289415880729 0 0.0016407772183085504 0.04018342638566369 0 0.00077069514705375519 0.040577939286313688 0 0.0019703984234828568 0.04086132479386638 0 0.0016407772183085504 0.04018342638566369 0 0.00075115155379029848 0.041372853502269769 0 0.0016407772183085504 0.04018342638566369 0 0.00075115155379029848 0.041372853502269769 0 0.00077069514705375519 0.040577939286313688 0 0.0019703984234828568 0.04086132479386638 0 0.00075115155379029848 0.041372853502269769 0 0.0010207728509590069 0.041832573809363116 0 0.00075115155379029848 0.041372853502269769 0 0.00077069514705375519 0.040577939286313688 0 -3.5426729329934671e-05 0.041735599437487128 0 0.00075115155379029848 0.041372853502269769 0 -3.5426729329934671e-05 0.041735599437487128 0 0.00030040800353798138 0.041990613348788244 0 0.00077069514705375519 0.040577939286313688 0 -0.0002664168956680411 0.041128434139816601 0 -3.5426729329934671e-05 0.041735599437487128 0 0.0012528938522116885 0.039169289415880729 0 0.00077069514705375519 0.040577939286313688 0 0.00024152367199723544 0.04010311597724972 0 0.00077069514705375519 0.040577939286313688 0 0.00024152367199723544 0.04010311597724972 0 -0.0002664168956680411 0.041128434139816601 0 0.00024152367199723544 0.04010311597724972 0 -0.0002664168956680411 0.041128434139816601 0 -0.00080183654344083216 0.039839584993850138 0 -0.0002664168956680411 0.041128434139816601 0 -3.5426729329934671e-05 0.041735599437487128 0 -0.00055002871046798494 0.042135525591829724 0 -0.0002664168956680411 0.041128434139816601 0 -0.00096658451935081348 0.04214909071296373 0 -0.0012201746422110023 0.041472262530327014 0 -0.0002664168956680411 0.041128434139816601 0 -0.00055002871046798494 0.042135525591829724 0 -0.00096658451935081348 0.04214909071296373 0 -0.00096658451935081348 0.04214909071296373 0 -0.0012201746422110023 0.041472262530327014 0 -0.0013476408632526232 0.042654553510540601 0 -0.0013517051759344069 0.041324197724369204 0 -0.0019394596782298403 0.04021657791045815 0 -0.0002664168956680411 0.041128434139816601 0 -0.0012201746422110023 0.041472262530327014 0 -0.00080183654344083216 0.039839584993850138 0 -0.00080183654344083216 0.039839584993850138 0 -0.0013382696151688304 0.038720242755371885 0 -0.0024486157371186555 0.039310124898690395 0 -0.0012201746422110023 0.041472262530327014 0 -0.00080183654344083216 0.039839584993850138 0 -0.0024486157371186555 0.039310124898690395 0 0.00012105655141564376 0.039046917916124954 0 0.00024152367199723544 0.04010311597724972 0 -0.00080183654344083216 0.039839584993850138 0 0.00012105655141564376 0.039046917916124954 0 -0.00080183654344083216 0.039839584993850138 0 -0.00057251223984528389 0.038553968704727645 0 -0.00080183654344083216 0.039839584993850138 0 -0.00057251223984528389 0.038553968704727645 0 -0.0013382696151688304 0.038720242755371885 0 8.5964103534085838e-05 0.037674867379546756 0 0.00012105655141564376 0.039046917916124954 0 -0.00057251223984528389 0.038553968704727645 0 8.5964103534085838e-05 0.037674867379546756 0 -0.00057251223984528389 0.038553968704727645 0 -0.0011403478357049988 0.037706845729602374 0 -0.0020014626582903249 0.037986305384666873 0 -0.0013382696151688304 0.038720242755371885 0 -0.0024486157371186555 0.039310124898690395 0 -0.0011403478357049988 0.037706845729602374 0 -0.0020014626582903249 0.037986305384666873 0 -0.0013382696151688304 0.038720242755371885 0 -0.00057251223984528389 0.038553968704727645 0 -0.0011403478357049988 0.037706845729602374 0 -0.0013382696151688304 0.038720242755371885 0 -0.0026601031838174244 0.03862127793668494 0 -0.0019394596782298403 0.04021657791045815 0 -0.0017700488169212583 0.040584182808242796 0 -0.0019337619453663427 0.040686229214765772 0 -0.0016023710249485016 0.040885467908341896 0 -0.00309197297881811 0.037537382192013448 0 -0.0020014626582903249 0.037986305384666873 0 -0.0024486157371186555 0.039310124898690395 0 -0.00051280104697951794 0.04508398672524791 0 -0.00044645636733239461 0.044850552002988694 0 -0.00023891107969865077 0.045039274932072153 0 -0.0013675996513752406 0.04270868746177555 0 -0.0013744220008073548 0.04290460720152714 0 -0.00051280104697951794 0.04508398672524791 0 -0.00044645636733239461 0.044850552002988694 0 -0.00096867634418638167 0.044643823983662838 0 -0.00044645636733239461 0.044850552002988694 0 -0.00096867634418638167 0.044643823983662838 0 -0.00040186287563958255 0.044433505789573613 0 -0.0019337619453663427 0.040686229214765772 0 -0.0018962816444813161 0.041117477737978622 0 -0.0016023710249485016 0.040885467908341896 0 -0.00096867634418638167 0.044643823983662838 0 -0.0013476408632526232 0.042654553510540601 0 -0.00075310001211767235 0.043718331256579535 0 -0.0012201746422110023 0.041472262530327014 0 -0.0018962816444813161 0.041117477737978622 0 -0.0016023710249485016 0.040885467908341896 0 -0.0012201746422110023 0.041472262530327014 0 -0.0018962816444813161 0.041117477737978622 0 -0.0013476408632526232 0.042654553510540601 0 -0.0013744220008073548 0.04290460720152714 0 -0.0013809321676127126 0.042681491165392854 0 -0.0013476408632526232 0.042654553510540601 0 -0.00090245763789388578 0.043028521723951045 0 -0.00075310001211767235 0.043718331256579535 0 -0.00096658451935081348 0.04214909071296373 0 -0.0013476408632526232 0.042654553510540601 0 -0.0008712650700511581 0.042653534035241983 0 -0.00090245763789388578 0.043028521723951045 0 -0.00040790359650909498 0.043916904320966101 0 -0.00075310001211767235 0.043718331256579535 0 -0.00090245763789388578 0.043028521723951045 0 -0.00040790359650909498 0.043916904320966101 0 -0.00051187016200075828 0.043469946815954952 0 -0.00040790359650909498 0.043916904320966101 0 -0.00075310001211767235 0.043718331256579535 0 -0.00040186287563958255 0.044433505789573613 0 -0.00096867634418638167 0.044643823983662838 0 -0.00075310001211767235 0.043718331256579535 0 -0.00040186287563958255 0.044433505789573613 0 -7.1209853982362611e-05 0.044543048380000838 0 -2.946041580300236e-05 0.044839953887258595 0 -0.00021087328219985771 0.044788792088784342 0 -0.00040790359650909498 0.043916904320966101 0 -0.00040186287563958255 0.044433505789573613 0 -7.1209853982362611e-05 0.044543048380000838 0 -0.00040186287563958255 0.044433505789573613 0 -7.1209853982362611e-05 0.044543048380000838 0 -0.00021087328219985771 0.044788792088784342 0 -0.00040790359650909498 0.043916904320966101 0 -7.1209853982362611e-05 0.044543048380000838 0 7.8979628054268468e-05 0.044344288475546709 0 -0.00040790359650909498 0.043916904320966101 0 7.8979628054268468e-05 0.044344288475546709 0 -0.00051187016200075828 0.043469946815954952 0 -7.1209853982362611e-05 0.044543048380000838 0 7.8979628054268468e-05 0.044344288475546709 0 2.4210456509712256e-07 0.044999663113230337 0 7.8979628054268468e-05 0.044344288475546709 0 2.4210456509712256e-07 0.044999663113230337 0 -4.1115031588783654e-07 0.04499806743404209 0 -7.1209853982362611e-05 0.044543048380000838 0 2.4210456509712256e-07 0.044999663113230337 0 -2.946041580300236e-05 0.044839953887258595 0 2.4210456509712256e-07 0.044999663113230337 0 -2.946041580300236e-05 0.044839953887258595 0 -7.4632760942330262e-08 0.044999694578800098 0 -2.946041580300236e-05 0.044839953887258595 0 -0.00021087328219985771 0.044788792088784342 0 -5.7720815378258093e-05 0.044992174218577242 0 -2.946041580300236e-05 0.044839953887258595 0 -7.4632760942330262e-08 0.044999694578800098 0 -5.7720815378258093e-05 0.044992174218577242 0 -0.00044645636733239461 0.044850552002988694 0 -0.00021087328219985771 0.044788792088784342 0 -0.00023891107969865077 0.045039274932072153 0 -0.00021087328219985771 0.044788792088784342 0 -0.00023891107969865077 0.045039274932072153 0 -5.7720815378258093e-05 0.044992174218577242 0 -0.00044645636733239461 0.044850552002988694 0 -0.00040186287563958255 0.044433505789573613 0 -0.00021087328219985771 0.044788792088784342 0 -0.00015252502275634887 0.045189375932836527 0 -0.00023891107969865077 0.045039274932072153 0 -5.7720815378258093e-05 0.044992174218577242 0 -0.00030623171579100179 0.04515662659280581 0 -0.00051280104697951794 0.04508398672524791 0 -0.00023891107969865077 0.045039274932072153 0 9.2436961797150307e-10 0.045000439566174236 0 -0.00015252502275634887 0.045189375932836527 0 -5.7720815378258093e-05 0.044992174218577242 0 9.2436961797150307e-10 0.045000439566174236 0 -7.4632760942330262e-08 0.044999694578800098 0 -5.7720815378258093e-05 0.044992174218577242 0 -1.0090906001933884e-06 0.044994310571141928 0 1.8522726062920177e-08 0.04499994142494778 0 -6.5935160134271139e-09 0.045000001229613305 0 -0.00036459921364410903 0.043048261608830671 0 -0.00031350416849961599 0.043031344770958525 0 -0.00030716108519723135 0.043103253848076027 0 -7.0432941174676774e-05 0.04397856505024364 0 -0.00047521797472350769 0.042698926897114776 0 -0.00036459921364410903 0.043048261608830671 0 -0.00034915139220416906 0.043012358877262555 0 -0.00031350416849961599 0.043031344770958525 0 -0.00019799971540043889 0.044029398588986496 0 -7.0432941174676774e-05 0.04397856505024364 0 -1.0090906001933884e-06 0.044994310571141928 0 -6.5935160134271139e-09 0.045000001229613305 0 -1.2681653077946021e-06 0.044994652519644775 0 -6.5935160134271139e-09 0.045000001229613305 0 -1.2681653077946021e-06 0.044994652519644775 0 2.1041568215818967e-09 0.044999989707534292 0 -7.0432941174676774e-05 0.04397856505024364 0 6.0303530885946194e-07 0.045000910698444203 0 0.00010440911490441215 0.044310277511144289 0 -7.0432941174676774e-05 0.04397856505024364 0 7.8979628054268468e-05 0.044344288475546709 0 0.00015325018242198232 0.044976882625534786 0 -4.1115031588783654e-07 0.04499806743404209 0 7.8979628054268468e-05 0.044344288475546709 0 2.1751722157250478e-05 0.042886611549979727 0 -0.00039481950511205247 0.043230057118528308 0 7.8979628054268468e-05 0.044344288475546709 0 -0.00039481950511205247 0.043230057118528308 0 -0.00051187016200075828 0.043469946815954952 0 2.1751722157250478e-05 0.042886611549979727 0 -0.00053769743752674559 0.042892041594363883 0 -0.00055498601326082987 0.042741505113589033 0 2.1751722157250478e-05 0.042886611549979727 0 -0.00039481950511205247 0.043230057118528308 0 -0.00053769743752674559 0.042892041594363883 0 -0.00053769743752674559 0.042892041594363883 0 -0.00063297800056821829 0.042799867169559282 0 -0.00055498601326082987 0.042741505113589033 0 -0.00053769743752674559 0.042892041594363883 0 -0.00071131639039451959 0.042944439845486009 0 -0.00063297800056821829 0.042799867169559282 0 -0.00039481950511205247 0.043230057118528308 0 -0.00053769743752674559 0.042892041594363883 0 -0.00071131639039451959 0.042944439845486009 0 -0.00039481950511205247 0.043230057118528308 0 -0.00071131639039451959 0.042944439845486009 0 -0.00051187016200075828 0.043469946815954952 0 -0.00090245763789388578 0.043028521723951045 0 -0.00071131639039451959 0.042944439845486009 0 -0.00051187016200075828 0.043469946815954952 0 -0.0013476408632526232 0.042654553510540601 0 -0.00090245763789388578 0.043028521723951045 0 -0.0008712650700511581 0.042653534035241983 0 -0.00090245763789388578 0.043028521723951045 0 -0.00071131639039451959 0.042944439845486009 0 -0.0008712650700511581 0.042653534035241983 0 -0.0008712650700511581 0.042653534035241983 0 -0.00063297800056821829 0.042799867169559282 0 -0.00047500439520416335 0.042761660463669339 0 -0.00071131639039451959 0.042944439845486009 0 -0.0008712650700511581 0.042653534035241983 0 -0.00063297800056821829 0.042799867169559282 0 -0.00063297800056821829 0.042799867169559282 0 -0.00043073551452764425 0.042842097358770245 0 -0.00047500439520416335 0.042761660463669339 0 -0.00063297800056821829 0.042799867169559282 0 -0.00043073551452764425 0.042842097358770245 0 -0.00055498601326082987 0.042741505113589033 0 -0.00043073551452764425 0.042842097358770245 0 -0.00055498601326082987 0.042741505113589033 0 -0.00026715637502613374 0.043043198285756486 0 -0.00047521797472350769 0.042698926897114776 0 -0.00024659097551191347 0.043106489882572499 0 -0.00031350416849961599 0.043031344770958525 0 -0.00026715637502613374 0.043043198285756486 0 -0.00030716108519723135 0.043103253848076027 0 -0.00043073551452764425 0.042842097358770245 0 -0.00026715637502613374 0.043043198285756486 0 -0.00015663055228050111 0.042938749724711234 0 -0.00026715637502613374 0.043043198285756486 0 -0.00015663055228050111 0.042938749724711234 0 4.8613836864785522e-05 0.043054354756623871 0 -0.00015663055228050111 0.042938749724711234 0 -0.00014200625020180439 0.042827892557352962 0 0.00020870408046163173 0.042992244678004839 0 -0.00015663055228050111 0.042938749724711234 0 0.00020870408046163173 0.042992244678004839 0 4.8613836864785522e-05 0.043054354756623871 0 -0.00014200625020180439 0.042827892557352962 0 0.00016379579663899663 0.042792204810797423 0 0.00020870408046163173 0.042992244678004839 0 -0.00015663055228050111 0.042938749724711234 0 -0.00014200625020180439 0.042827892557352962 0 -0.00047500439520416335 0.042761660463669339 0 -0.00043073551452764425 0.042842097358770245 0 -0.00015663055228050111 0.042938749724711234 0 -0.00047500439520416335 0.042761660463669339 0 -0.00014200625020180439 0.042827892557352962 0 -0.00047500439520416335 0.042761660463669339 0 -0.00023127996387702874 0.042496856736557391 0 -0.0008712650700511581 0.042653534035241983 0 -0.00047500439520416335 0.042761660463669339 0 -0.00023127996387702874 0.042496856736557391 0 -0.00055002871046798494 0.042135525591829724 0 -0.0008712650700511581 0.042653534035241983 0 -0.00023127996387702874 0.042496856736557391 0 -0.00055002871046798494 0.042135525591829724 0 -0.00096658451935081348 0.04214909071296373 0 -0.0008712650700511581 0.042653534035241983 0 -3.5426729329934671e-05 0.041735599437487128 0 -0.00055002871046798494 0.042135525591829724 0 -0.00023127996387702874 0.042496856736557391 0 -3.5426729329934671e-05 0.041735599437487128 0 -0.00023127996387702874 0.042496856736557391 0 0.00030040800353798138 0.041990613348788244 0 -0.00014200625020180439 0.042827892557352962 0 -0.00023127996387702874 0.042496856736557391 0 0.00016379579663899663 0.042792204810797423 0 -0.00023127996387702874 0.042496856736557391 0 0.00053615249328095333 0.042526955545565313 0 0.00016379579663899663 0.042792204810797423 0 -0.00023127996387702874 0.042496856736557391 0 0.00053615249328095333 0.042526955545565313 0 0.00030040800353798138 0.041990613348788244 0 0.00075115155379029848 0.041372853502269769 0 0.00030040800353798138 0.041990613348788244 0 0.0010207728509590069 0.041832573809363116 0 0.00053615249328095333 0.042526955545565313 0 0.00030040800353798138 0.041990613348788244 0 0.0010207728509590069 0.041832573809363116 0 0.0010207728509590069 0.041832573809363116 0 0.0011471815270838882 0.042294481333892991 0 0.0017025584572132957 0.0416799527016661 0 0.00053615249328095333 0.042526955545565313 0 0.0011471815270838882 0.042294481333892991 0 0.00097562058200814596 0.042947322125895263 0 0.00053615249328095333 0.042526955545565313 0 0.0010207728509590069 0.041832573809363116 0 0.0011471815270838882 0.042294481333892991 0 0.00053615249328095333 0.042526955545565313 0 0.00052727819594766895 0.04293997758157074 0 0.00097562058200814596 0.042947322125895263 0 0.00052727819594766895 0.04293997758157074 0 0.00097562058200814596 0.042947322125895263 0 0.00064291446868677262 0.042928916593723845 0 0.00052727819594766895 0.04293997758157074 0 0.00016379579663899663 0.042792204810797423 0 0.00020870408046163173 0.042992244678004839 0 0.00053615249328095333 0.042526955545565313 0 0.00052727819594766895 0.04293997758157074 0 0.00016379579663899663 0.042792204810797423 0 0.00052727819594766895 0.04293997758157074 0 0.00020870408046163173 0.042992244678004839 0 0.00045214076857971757 0.042948490138655093 0 0.00052727819594766895 0.04293997758157074 0 0.00045214076857971757 0.042948490138655093 0 0.00064291446868677262 0.042928916593723845 0 0.00045214076857971757 0.042948490138655093 0 0.00029030827878048315 0.043004994757199919 0 0.00034986816452358137 0.042897722974938296 0 0.00020870408046163173 0.042992244678004839 0 0.00045214076857971757 0.042948490138655093 0 0.00029030827878048315 0.043004994757199919 0 0.00029030827878048315 0.043004994757199919 0 0.00034986816452358137 0.042897722974938296 0 0.00019679950971440252 0.04308701682393043 0 0.00045214076857971757 0.042948490138655093 0 0.00034986816452358137 0.042897722974938296 0 0.00036957408347891346 0.042800338807927371 0 0.00034986816452358137 0.042897722974938296 0 0.00029776419213672971 0.042754041645347851 0 0.00029378702960133489 0.042623369210568293 0 0.00029776419213672971 0.042754041645347851 0 0.00024806762082802173 0.043079377769758551 0 0.00024333377209003718 0.043059062316978217 0 0.00034986816452358137 0.042897722974938296 0 0.00029776419213672971 0.042754041645347851 0 0.00024806762082802173 0.043079377769758551 0 0.00034986816452358137 0.042897722974938296 0 0.00024806762082802173 0.043079377769758551 0 0.00019679950971440252 0.04308701682393043 0 0.00024806762082802173 0.043079377769758551 0 0.00010493211508979314 0.043274985757413897 0 0.00019679950971440252 0.04308701682393043 0 0.00024806762082802173 0.043079377769758551 0 0.00014197947387455234 0.043454985266426313 0 0.00024333377209003718 0.043059062316978217 0 0.00024806762082802173 0.043079377769758551 0 0.00010493211508979314 0.043274985757413897 0 0.00014197947387455234 0.043454985266426313 0 0.00010493211508979314 0.043274985757413897 0 1.3741282577844697e-05 0.043501056515204486 0 0.00014197947387455234 0.043454985266426313 0 0.00010493211508979314 0.043274985757413897 0 -5.4577629292053853e-06 0.043157784103084573 0 0.00019679950971440252 0.04308701682393043 0 -5.4577629292053853e-06 0.043157784103084573 0 0.00019679950971440252 0.04308701682393043 0 4.8613836864785522e-05 0.043054354756623871 0 0.00020870408046163173 0.042992244678004839 0 0.00029030827878048315 0.043004994757199919 0 4.8613836864785522e-05 0.043054354756623871 0 0.00029030827878048315 0.043004994757199919 0 0.00019679950971440252 0.04308701682393043 0 4.8613836864785522e-05 0.043054354756623871 0 -0.00026715637502613374 0.043043198285756486 0 -5.4577629292053853e-06 0.043157784103084573 0 4.8613836864785522e-05 0.043054354756623871 0 -0.00026715637502613374 0.043043198285756486 0 -5.4577629292053853e-06 0.043157784103084573 0 -0.00013443803318058259 0.043290098457045345 0 -0.00026715637502613374 0.043043198285756486 0 -0.00013443803318058259 0.043290098457045345 0 -0.00030716108519723135 0.043103253848076027 0 -0.00013443803318058259 0.043290098457045345 0 -0.00016768935463988934 0.043499065876800268 0 -0.00029572172838596258 0.04332258748978135 0 -0.00013443803318058259 0.043290098457045345 0 -0.00029572172838596258 0.04332258748978135 0 -0.00030716108519723135 0.043103253848076027 0 0.00010493211508979314 0.043274985757413897 0 -5.4577629292053853e-06 0.043157784103084573 0 -0.00013443803318058259 0.043290098457045345 0 0.00010493211508979314 0.043274985757413897 0 -0.00013443803318058259 0.043290098457045345 0 1.3741282577844697e-05 0.043501056515204486 0 1.3741282577844697e-05 0.043501056515204486 0 3.4408806975956374e-05 0.043739984673880017 0 0.00014197947387455234 0.043454985266426313 0 3.4408806975956374e-05 0.043739984673880017 0 -7.7090316546171405e-05 0.043830766996830486 0 -0.00010835100585338834 0.044283845884378177 0 1.3741282577844697e-05 0.043501056515204486 0 3.4408806975956374e-05 0.043739984673880017 0 -7.7090316546171405e-05 0.043830766996830486 0 1.3741282577844697e-05 0.043501056515204486 0 -7.7090316546171405e-05 0.043830766996830486 0 -0.00016768935463988934 0.043499065876800268 0 -0.00013443803318058259 0.043290098457045345 0 1.3741282577844697e-05 0.043501056515204486 0 -0.00016768935463988934 0.043499065876800268 0 -7.7090316546171405e-05 0.043830766996830486 0 -0.00016768935463988934 0.043499065876800268 0 -0.00046796956945116346 0.043605490553882367 0 -0.00016768935463988934 0.043499065876800268 0 -0.00046796956945116346 0.043605490553882367 0 -0.00029572172838596258 0.04332258748978135 0 -0.00046796956945116346 0.043605490553882367 0 -0.00022026320323252754 0.044643339152247455 0 -0.00010835100585338834 0.044283845884378177 0 -7.7090316546171405e-05 0.043830766996830486 0 -0.00046796956945116346 0.043605490553882367 0 -0.00010835100585338834 0.044283845884378177 0 4.3262513252229539e-08 0.044999686394908117 0 -5.1504379602263753e-05 0.045041020183186474 0 -0.00022026320323252754 0.044643339152247455 0 -0.00025120308516778361 0.044318333663625364 0 -0.00022913710298209567 0.044601270706799361 0 4.3262513252229539e-08 0.044999686394908117 0 -5.1504379602263753e-05 0.045041020183186474 0 -7.5829202522795103e-08 0.045000170846522317 0 -5.1504379602263753e-05 0.045041020183186474 0 -7.5829202522795103e-08 0.045000170846522317 0 -1.2569486425219193e-06 0.044995326787426002 0 -0.00025120308516778361 0.044318333663625364 0 -0.00021417761938326066 0.044093335481954758 0 -0.00046796956945116346 0.043605490553882367 0 -0.00029572172838596258 0.04332258748978135 0 -0.00042677792446238141 0.043182216543608036 0 -0.00029572172838596258 0.04332258748978135 0 -0.00030716108519723135 0.043103253848076027 0 -0.00042677792446238141 0.043182216543608036 0 -0.00036459921364410903 0.043048261608830671 0 -0.00030716108519723135 0.043103253848076027 0 -0.00042677792446238141 0.043182216543608036 0 1.8522726062920177e-08 0.04499994142494778 0 -7.5829202522795103e-08 0.045000170846522317 0 -1.2569486425219193e-06 0.044995326787426002 0 -0.00019799971540043889 0.044029398588986496 0 -0.00021417761938326066 0.044093335481954758 0 -1.0090906001933884e-06 0.044994310571141928 0 1.8522726062920177e-08 0.04499994142494778 0 -1.2569486425219193e-06 0.044995326787426002 0 -0.00098758007711772632 0.028733672872836079 0 -0.0018021296968924959 0.027982986608291138 0 -7.7552634830776467e-05 0.02787407288348763 0 -0.00098758007711772632 0.028733672872836079 0 -0.0018021296968924959 0.027982986608291138 0 -0.0022604935885940556 0.028791965268634225 0 -0.0018021296968924959 0.027982986608291138 0 -0.0022604935885940556 0.028791965268634225 0 -0.003540368590867685 0.028086043910936821 0 -0.0018342003158180018 0.0295125553110266 0 -0.0030117432730380968 0.029341072321290303 0 -0.0024788212347654319 0.030593058168457747 0 -0.0022604935885940556 0.028791965268634225 0 -0.0018342003158180018 0.0295125553110266 0 -0.0030117432730380968 0.029341072321290303 0 -0.0018342003158180018 0.0295125553110266 0 -0.0010903330891811208 0.029627033167533314 0 -0.0015869053971006891 0.030011757083698749 0 -0.00098758007711772632 0.028733672872836079 0 -0.0022604935885940556 0.028791965268634225 0 -0.0018342003158180018 0.0295125553110266 0 -0.00098758007711772632 0.028733672872836079 0 -0.0018342003158180018 0.0295125553110266 0 -0.0010903330891811208 0.029627033167533314 0 -0.0002387001555683148 0.029548354569667663 0 -8.8479606346983342e-05 0.029574828287946539 0 -7.7552634830776467e-05 0.02787407288348763 0 -0.00051632563421541162 0.026763997347414074 0 -0.00073859597682148924 0.026525822551744436 0 -0.00098758007711772632 0.028733672872836079 0 -0.0010903330891811208 0.029627033167533314 0 -0.0002387001555683148 0.029548354569667663 0 -0.00034348022292403487 0.024683705191815938 0 -0.00073859597682148924 0.026525822551744436 0 -0.0040006027166277266 0.025265216333105852 0 -0.0052142382063133826 0.025005199996016358 0 -0.0043648872658079031 0.024227847824945341 0 -0.0040891542195949839 0.023263339081405116 0 -0.0043648872658079031 0.024227847824945341 0 -0.0051913780281161795 0.023358012156988718 0 -0.0052142382063133826 0.025005199996016358 0 -0.0043648872658079031 0.024227847824945341 0 -0.0051913780281161795 0.023358012156988718 0 -0.00073859597682148924 0.026525822551744436 0 -0.0032443900111552744 0.025206992664588201 0 -0.00098758007711772632 0.028733672872836079 0 -0.0002387001555683148 0.029548354569667663 0 -7.7552634830776467e-05 0.02787407288348763 0 -0.0046895811682454948 0.023064295706066162 0 -0.0044750545301734911 0.02271431203467103 0 -0.0049464404273264692 0.023051222703707977 0 -0.0047040176919778765 0.023234105465923822 0 -0.0046895811682454948 0.023064295706066162 0 -0.0049464404273264692 0.023051222703707977 0 -0.0032443900111552744 0.025206992664588201 0 -0.0039453513643008141 0.0231472057409354 0 -0.0040891542195949839 0.023263339081405116 0 -0.0046895811682454948 0.023064295706066162 0 -0.0044750545301734911 0.02271431203467103 0 -0.0047707803587719068 0.023117436972155275 0 -0.0032443900111552744 0.025206992664588201 0 -0.0040891542195949839 0.023263339081405116 0 -0.0046919580303875974 0.023322831238773305 0 -0.0046895811682454948 0.023064295706066162 0 -0.0046849863650166856 0.021917222249627798 0 -0.0038575120854646961 0.021149561314941168 0 -0.0058599991668564656 0.021814623122665834 0 -0.0046849863650166856 0.021917222249627798 0 -0.0053851755881619322 0.022498235942380585 0 -0.0058599991668564656 0.021814623122665834 0 -0.0049371449197910776 0.022596336173545749 0 -0.0058039522503977852 0.022999878751950174 0 -0.0053851755881619322 0.022498235942380585 0 -0.0058599991668564656 0.021814623122665834 0 -0.0070424737421550653 0.022845484679269987 0 -0.0059401750906055732 0.021800076620439802 0 -0.0079473102515441596 0.022595604658509117 0 -0.0058599991668564656 0.021814623122665834 0 -0.0070424737421550653 0.022845484679269987 0 -0.0079590737299931793 0.022563497674030451 0 -0.0058039522503977852 0.022999878751950174 0 -0.0079758609251093637 0.022774192414362609 0 -0.0070424737421550653 0.022845484679269987 0 -0.0079590737299931793 0.022563497674030451 0 -0.008826833283647622 0.023368287138229322 0 -0.0072160539407408533 0.021564090171308014 0 -0.006089651640576752 0.021803301315308932 0 -0.0078603697942027633 0.022542273244306698 0 -0.0051031167832926256 0.023389617933556206 0 -0.0049464404273264692 0.023051222703707977 0 -0.0051803070593315738 0.023264438455279309 0 -0.0034574335407489241 0.025345124667066638 0 -0.0032443900111552744 0.025206992664588201 0 -0.0051031167832926256 0.023389617933556206 0 -0.0047040176919778765 0.023234105465923822 0 -0.0049464404273264692 0.023051222703707977 0 -0.0051031167832926256 0.023389617933556206 0 -0.0051803070593315738 0.023264438455279309 0 -0.0052568243224643046 0.023395646820703293 0 -0.0087108322364146031 0.021914086180801075 0 -0.0078603697942027633 0.022542273244306698 0 -0.0091713704938697991 0.022400561637305777 0 -0.0078603697942027633 0.022542273244306698 0 -0.0091713704938697991 0.022400561637305777 0 -0.010033688340332849 0.023361747882803693 0 -0.0079473102515441596 0.022595604658509117 0 -0.010119514694453434 0.023510889359732078 0 -0.0079590737299931793 0.022563497674030451 0 -0.008826833283647622 0.023368287138229322 0 -0.010218873511006374 0.023638903217410124 0 -0.0079758609251093637 0.022774192414362609 0 -0.0034536888709807445 0.02962888883506529 0 -0.0091713704938697991 0.022400561637305777 0 -0.010033688340332849 0.023361747882803693 0 -0.01036243772473236 0.022775958315178407 0 -0.0078603697942027633 0.022542273244306698 0 -0.010218873511006374 0.023638903217410124 0 -0.010033688340332849 0.023361747882803693 0 -0.008826833283647622 0.023368287138229322 0 -0.010218873511006374 0.023638903217410124 0 -0.010675574416910864 0.02399923715884306 0 -0.0091459900771072699 0.021773048168142021 0 -0.0091713704938697991 0.022400561637305777 0 -0.01036243772473236 0.022775958315178407 0 -0.010218873511006374 0.023638903217410124 0 -0.010353798776230752 0.023249514485137401 0 -0.010675574416910864 0.02399923715884306 0 -0.0020664828313544897 0.032622291448856394 0 -0.0034536888709807445 0.02962888883506529 0 -0.010218873511006374 0.023638903217410124 0 -0.010033688340332849 0.023361747882803693 0 -0.010353798776230752 0.023249514485137401 0 -0.0076991528171031602 0.025234251989746537 0 -0.0020664828313544897 0.032622291448856394 0 -0.0034536888709807445 0.02962888883506529 0 0.0030105401068716217 0.040061920345988766 0 0.0040974312253958143 0.040843105902849217 0 0.0035290641133695834 0.040963781640132771 0 0.0039310236667577979 0.041258743643990764 0 0.0033406686520034033 0.04130401442171204 0 0.0039310236667577979 0.041258743643990764 0 0.0030638868136576344 0.041660009653847467 0 0.0035290641133695834 0.040963781640132771 0 0.0033406686520034033 0.04130401442171204 0 0.0031254503426809653 0.04115921952024993 0 0.0035290641133695834 0.040963781640132771 0 0.0033406686520034033 0.04130401442171204 0 0.0039310236667577979 0.041258743643990764 0 -0.00081419955213085302 0.035518610727112238 0 0.00010114130369000717 0.035529075943056626 0 -0.0003960729552483718 0.034620401567164831 0 0.00010114130369000717 0.035529075943056626 0 -0.00020267619216339202 0.034618353384182718 0 -0.0003960729552483718 0.034620401567164831 0 -0.0034536888709807445 0.02962888883506529 0 -0.002354194284826147 0.03303166666117005 0 -0.0053441967019088911 0.023395851988538729 0 -0.0053397682490784635 0.023536668255916361 0 -0.0054440126155333342 0.02365413582646312 0 -0.0053441967019088911 0.023395851988538729 0 -0.0053397682490784635 0.023536668255916361 0 -0.0053111149170243727 0.023454314939931414 0 -0.0053397682490784635 0.023536668255916361 0 -0.0052882229098411082 0.023650370642990293 0 -0.0054440126155333342 0.02365413582646312 0 -0.004989542326040413 0.024905897674292913 0 -0.0035432283358019659 0.028566967824904591 0 -0.0052568243224643046 0.023395646820703293 0 -0.0053111149170243727 0.023454314939931414 0 -0.0053197413359410738 0.02355937869632135 0 -0.0053397682490784635 0.023536668255916361 0 -0.0053111149170243727 0.023454314939931414 0 -0.0053197413359410738 0.02355937869632135 0 -0.0051031167832926256 0.023389617933556206 0 -0.0052568243224643046 0.023395646820703293 0 -0.0053197413359410738 0.02355937869632135 0 -0.0051803070593315738 0.023264438455279309 0 -0.0053441967019088911 0.023395851988538729 0 -0.0052568243224643046 0.023395646820703293 0 -0.0053441967019088911 0.023395851988538729 0 -0.0052568243224643046 0.023395646820703293 0 -0.0053111149170243727 0.023454314939931414 0 0.0019703984234828568 0.04086132479386638 0 0.0010207728509590069 0.041832573809363116 0 0.0017025584572132957 0.0416799527016661 0 0.0019703984234828568 0.04086132479386638 0 0.0017025584572132957 0.0416799527016661 0 0.0022588522612584194 0.041238730297948473 0 0.0011471815270838882 0.042294481333892991 0 0.0017025584572132957 0.0416799527016661 0 0.0019676768468000422 0.042036786478040961 0 0.0017025584572132957 0.0416799527016661 0 0.0022588522612584194 0.041238730297948473 0 0.0023764071460367396 0.041592946961955916 0 0.0017025584572132957 0.0416799527016661 0 0.0023764071460367396 0.041592946961955916 0 0.0019676768468000422 0.042036786478040961 0 0.0023764071460367396 0.041592946961955916 0 0.0030957693155921097 0.041957869025202127 0 0.0019676768468000422 0.042036786478040961 0 0.0023764071460367396 0.041592946961955916 0 0.0029670860028354891 0.041510042472722185 0 0.0030957693155921097 0.041957869025202127 0 0.0023764071460367396 0.041592946961955916 0 0.0027467752480040773 0.041250142362310394 0 0.0029670860028354891 0.041510042472722185 0 0.003006372854753137 0.040843950331758735 0 0.0022588522612584194 0.041238730297948473 0 0.0027467752480040773 0.041250142362310394 0 0.0022588522612584194 0.041238730297948473 0 0.0023764071460367396 0.041592946961955916 0 0.0027467752480040773 0.041250142362310394 0 0.003006372854753137 0.040843950331758735 0 0.0035290641133695834 0.040963781640132771 0 0.0031254503426809653 0.04115921952024993 0 0.003006372854753137 0.040843950331758735 0 0.0027467752480040773 0.041250142362310394 0 0.0031254503426809653 0.04115921952024993 0 0.0027467752480040773 0.041250142362310394 0 0.0031254503426809653 0.04115921952024993 0 0.0029670860028354891 0.041510042472722185 0 0.0033406686520034033 0.04130401442171204 0 0.0031254503426809653 0.04115921952024993 0 0.0029670860028354891 0.041510042472722185 0 0.0031967896243859312 0.041036908256360576 0 0.0030105401068716217 0.040061920345988766 0 0.0033406686520034033 0.04130401442171204 0 0.0029670860028354891 0.041510042472722185 0 0.0030638868136576344 0.041660009653847467 0 0.0021165755637527158 0.042437882254346554 0 0.00097562058200814596 0.042947322125895263 0 0.002961210101919885 0.042960381566260232 0 0.0025467012520558868 0.04192981689616692 0 0.0021165755637527158 0.042437882254346554 0 0.002961210101919885 0.042960381566260232 0 0.0030105401068716217 0.040061920345988766 0 1.1395150522585629e-05 0.037951643280130232 0 0.0030105401068716217 0.040061920345988766 0 0.0020532455811776824 0.041646719260583775 0 0.0025467012520558868 0.04192981689616692 0 0.0021165755637527158 0.042437882254346554 0 0.0019676768468000422 0.042036786478040961 0 0.0021165755637527158 0.042437882254346554 0 0.0019676768468000422 0.042036786478040961 0 0.00097562058200814596 0.042947322125895263 0 0.0011471815270838882 0.042294481333892991 0 0.0019676768468000422 0.042036786478040961 0 0.00097562058200814596 0.042947322125895263 0 0.00097562058200814596 0.042947322125895263 0 0.00052450167757853161 0.042964870496540374 0 0.00064291446868677262 0.042928916593723845 0 0.00097562058200814596 0.042947322125895263 0 0.00052450167757853161 0.042964870496540374 0 0.00022489000956005083 0.043181348408794451 0 0.0016521484466598155 0.044374901935810805 0 1.1395150522585629e-05 0.037951643280130232 0 0.00052450167757853161 0.042964870496540374 0 0.00036595126125278931 0.042969386707334203 0 0.00042271553170554124 0.042922037092154822 0 0.00052450167757853161 0.042964870496540374 0 0.00030881006974217039 0.043038498300334141 0 0.00022489000956005083 0.043181348408794451 0 0.00052450167757853161 0.042964870496540374 0 0.00030881006974217039 0.043038498300334141 0 0.00036595126125278931 0.042969386707334203 0 0.00030881006974217039 0.043038498300334141 0 0.00036595126125278931 0.042969386707334203 0 0.00027900211990729415 0.042997812538238339 0 0.00036595126125278931 0.042969386707334203 0 0.00027900211990729415 0.042997812538238339 0 0.00029154482989001752 0.042950675160474912 0 0.00029154482989001752 0.042950675160474912 0 0.00026179743352040569 0.042910276055733332 0 0.00042271553170554124 0.042922037092154822 0 0.00036595126125278931 0.042969386707334203 0 0.00029154482989001752 0.042950675160474912 0 0.00042271553170554124 0.042922037092154822 0 0.00029154482989001752 0.042950675160474912 0 0.00026179743352040569 0.042910276055733332 0 0.00023604000194660406 0.042935782011776148 0 0.00026179743352040569 0.042910276055733332 0 0.00031778965101265764 0.042871241653913573 0 0.00042271553170554124 0.042922037092154822 0 0.00026179743352040569 0.042910276055733332 0 0.00031778965101265764 0.042871241653913573 0 0.00018270281185465289 0.042859689155126154 0 0.00031778965101265764 0.042871241653913573 0 0.00042271553170554124 0.042922037092154822 0 0.00045089274270248636 0.042870812610582634 0 0.00052450167757853161 0.042964870496540374 0 0.00042271553170554124 0.042922037092154822 0 0.00064291446868677262 0.042928916593723845 0 0.00045214076857971757 0.042948490138655093 0 0.00045089274270248636 0.042870812610582634 0 0.00064291446868677262 0.042928916593723845 0 0.00042271553170554124 0.042922037092154822 0 0.00045089274270248636 0.042870812610582634 0 0.00064291446868677262 0.042928916593723845 0 -0.0034574335407489241 0.025345124667066638 0 -0.0035432283358019659 0.028566967824904591 0 -0.0022604935885940556 0.028791965268634225 0 -0.003540368590867685 0.028086043910936821 0 -0.0030117432730380968 0.029341072321290303 0 -0.0018844418678229937 0.03581047608748094 0 -0.0020106850262260919 0.037217643388183883 0 -0.0011785151823591759 0.037672642075738901 0 -0.0035432283358019659 0.028566967824904591 0 -0.0019062766028924497 0.033938823890649658 0 -0.0018844418678229937 0.03581047608748094 0 -0.0027977302448486383 0.035855938298317958 0 -0.0025837823564550601 0.036175680036487079 0 -0.0035432283358019659 0.028566967824904591 0 -0.002354194284826147 0.03303166666117005 0 -0.0018844418678229937 0.03581047608748094 0 -0.0023717744327998959 0.036434401229919144 0 -0.0020106850262260919 0.037217643388183883 0 -0.0018844418678229937 0.03581047608748094 0 -0.0025837823564550601 0.036175680036487079 0 -0.0023717744327998959 0.036434401229919144 0 -0.0026213858053016903 0.035375809154866808 0 -0.0016580828638769075 0.035331162070486609 0 -0.0022256865558613662 0.036609978348460644 0 1.1395150522585629e-05 0.037951643280130232 0 -0.002354194284826147 0.03303166666117005 0 -0.0027977302448486383 0.035855938298317958 0 -0.0025837823564550601 0.036175680036487079 0 -0.0029932498497795964 0.03630871077592826 0 -0.002354194284826147 0.03303166666117005 0 -0.0013922027285094079 0.038189989834882747 0 -0.0025837823564550601 0.036175680036487079 0 -0.0029932498497795964 0.03630871077592826 0 -0.0026031527579565262 0.036480827096408534 0 0.00030881006974217039 0.043038498300334141 0 0.00022489000956005083 0.043181348408794451 0 0.00022373947412916627 0.043056965108475884 0 1.1395150522585629e-05 0.037951643280130232 0 -0.0013922027285094079 0.038189989834882747 0 0.00027900211990729415 0.042997812538238339 0 0.00022373947412916627 0.043056965108475884 0 0.00020488870724833473 0.042979121636729345 0 -0.0029932498497795964 0.03630871077592826 0 -0.0026031527579565262 0.036480827096408534 0 -0.0024637095262648608 0.03700055701614835 0 0.00030881006974217039 0.043038498300334141 0 0.00027900211990729415 0.042997812538238339 0 0.00022373947412916627 0.043056965108475884 0 -0.0023717744327998959 0.036434401229919144 0 -0.0024637095262648608 0.03700055701614835 0 -0.0020106850262260919 0.037217643388183883 0 -0.0026031527579565262 0.036480827096408534 0 -0.0023717744327998959 0.036434401229919144 0 -0.0024637095262648608 0.03700055701614835 0 -0.0025837823564550601 0.036175680036487079 0 -0.0026031527579565262 0.036480827096408534 0 -0.0023717744327998959 0.036434401229919144 0 0.00020488870724833473 0.042979121636729345 0 0.00018412353946571704 0.042905651249960826 0 5.3677735810304472e-05 0.042845105590091526 0 -0.0024637095262648608 0.03700055701614835 0 -0.0020106850262260919 0.037217643388183883 0 -0.0021748864699949058 0.038580071072025546 0 -0.0029932498497795964 0.03630871077592826 0 -0.0024637095262648608 0.03700055701614835 0 -0.0021748864699949058 0.038580071072025546 0 0.00022373947412916627 0.043056965108475884 0 0.00020488870724833473 0.042979121636729345 0 5.3677735810304472e-05 0.042845105590091526 0 -0.0020106850262260919 0.037217643388183883 0 -0.0017884572078336596 0.038134759931779991 0 -0.0021748864699949058 0.038580071072025546 0 -0.0013922027285094079 0.038189989834882747 0 -0.0010318333115184482 0.041025933628677944 0 0.00020488870724833473 0.042979121636729345 0 0.00023604000194660406 0.042935782011776148 0 0.00018412353946571704 0.042905651249960826 0 0.00027900211990729415 0.042997812538238339 0 0.00029154482989001752 0.042950675160474912 0 0.00020488870724833473 0.042979121636729345 0 0.00029154482989001752 0.042950675160474912 0 0.00020488870724833473 0.042979121636729345 0 0.00023604000194660406 0.042935782011776148 0 0.00026179743352040569 0.042910276055733332 0 0.00023604000194660406 0.042935782011776148 0 0.00018412353946571704 0.042905651249960826 0 0.00018412353946571704 0.042905651249960826 0 0.00018270281185465289 0.042859689155126154 0 5.3677735810304472e-05 0.042845105590091526 0 0.00026179743352040569 0.042910276055733332 0 0.00018412353946571704 0.042905651249960826 0 0.00018270281185465289 0.042859689155126154 0 -0.0020106850262260919 0.037217643388183883 0 -0.0017884572078336596 0.038134759931779991 0 -0.0011785151823591759 0.037672642075738901 0 -0.0017884572078336596 0.038134759931779991 0 -0.0011785151823591759 0.037672642075738901 0 -0.00058029241685416571 0.039170468691092516 0 -0.0017884572078336596 0.038134759931779991 0 -0.0021748864699949058 0.038580071072025546 0 -0.00065182041290516048 0.039395228131204697 0 -0.0021748864699949058 0.038580071072025546 0 -0.0014008607275790572 0.040443430380630273 0 -0.00065182041290516048 0.039395228131204697 0 -0.0019062766028924497 0.033938823890649658 0 -0.0016719119940414328 0.036067194343053305 0 -0.0010458086264298944 0.039213299038125413 0 -0.0016719119940414328 0.036067194343053305 0 0.00018270281185465289 0.042859689155126154 0 0.00012817832812404134 0.042801073642677621 0 0.00025300197767100116 0.042793007168914356 0 0.00018270281185465289 0.042859689155126154 0 5.3677735810304472e-05 0.042845105590091526 0 0.00012817832812404134 0.042801073642677621 0 5.3677735810304472e-05 0.042845105590091526 0 0.00012817832812404134 0.042801073642677621 0 2.5601540708080477e-05 0.042693520253837616 0 0.00012817832812404134 0.042801073642677621 0 2.5601540708080477e-05 0.042693520253837616 0 0.00025300197767100116 0.042793007168914356 0 5.3677735810304472e-05 0.042845105590091526 0 2.5601540708080477e-05 0.042693520253837616 0 -0.00035099460758253786 0.04253503566266565 0 2.5601540708080477e-05 0.042693520253837616 0 0.00019514457296830918 0.042638694394256556 0 -1.3879670227889396e-05 0.042457296953166378 0 2.5601540708080477e-05 0.042693520253837616 0 -0.00035099460758253786 0.04253503566266565 0 -1.3879670227889396e-05 0.042457296953166378 0 -0.0010318333115184482 0.041025933628677944 0 -0.00087065525386861647 0.04136029205296974 0 0.00045214076857971757 0.042948490138655093 0 0.00045089274270248636 0.042870812610582634 0 0.00036957408347891346 0.042800338807927371 0 0.00045089274270248636 0.042870812610582634 0 0.00025300197767100116 0.042793007168914356 0 0.00036957408347891346 0.042800338807927371 0 0.00031778965101265764 0.042871241653913573 0 0.00045089274270248636 0.042870812610582634 0 0.00025300197767100116 0.042793007168914356 0 0.00031778965101265764 0.042871241653913573 0 0.00018270281185465289 0.042859689155126154 0 0.00025300197767100116 0.042793007168914356 0 0.00025300197767100116 0.042793007168914356 0 0.00019514457296830918 0.042638694394256556 0 0.00036957408347891346 0.042800338807927371 0 2.5601540708080477e-05 0.042693520253837616 0 0.00025300197767100116 0.042793007168914356 0 0.00019514457296830918 0.042638694394256556 0 0.00019514457296830918 0.042638694394256556 0 0.00036957408347891346 0.042800338807927371 0 0.00029378702960133489 0.042623369210568293 0 0.00034986816452358137 0.042897722974938296 0 0.00036957408347891346 0.042800338807927371 0 0.00029378702960133489 0.042623369210568293 0 0.00029378702960133489 0.042623369210568293 0 0.00010230783686787239 0.042304972384906728 0 0.00019545146483719832 0.0423443460066543 0 0.00019514457296830918 0.042638694394256556 0 0.00029378702960133489 0.042623369210568293 0 0.00010230783686787239 0.042304972384906728 0 0.00019514457296830918 0.042638694394256556 0 0.00010230783686787239 0.042304972384906728 0 -1.3879670227889396e-05 0.042457296953166378 0 0.00010230783686787239 0.042304972384906728 0 0.00019545146483719832 0.0423443460066543 0 -8.5274955491589601e-05 0.041777556616556306 0 0.00029776419213672971 0.042754041645347851 0 0.00029378702960133489 0.042623369210568293 0 0.00019545146483719832 0.0423443460066543 0 0.00029776419213672971 0.042754041645347851 0 0.00019545146483719832 0.0423443460066543 0 0.00023359191958390339 0.042580939737833633 0 -0.00087065525386861647 0.04136029205296974 0 -0.00068806261948515558 0.041317531583383096 0 -0.0014008607275790572 0.040443430380630273 0 -0.00064411912053561075 0.041265327345990019 0 -0.00059313039894943532 0.040995707452785732 0 -0.00035099460758253786 0.04253503566266565 0 -0.00020076321424645544 0.041955437652658738 0 -0.00064411912053561075 0.041265327345990019 0 0.00010230783686787239 0.042304972384906728 0 -0.00020076321424645544 0.041955437652658738 0 -1.3879670227889396e-05 0.042457296953166378 0 -0.00035099460758253786 0.04253503566266565 0 -0.00020076321424645544 0.041955437652658738 0 -1.3879670227889396e-05 0.042457296953166378 0 0.00010230783686787239 0.042304972384906728 0 -0.00020076321424645544 0.041955437652658738 0 -8.5274955491589601e-05 0.041777556616556306 0 -0.00020076321424645544 0.041955437652658738 0 -8.5274955491589601e-05 0.041777556616556306 0 -0.00064411912053561075 0.041265327345990019 0 -0.00073585349487661979 0.040931774764418047 0 -0.00059313039894943532 0.040995707452785732 0 -0.00064525861109882444 0.04065287064551644 0 -0.00064411912053561075 0.041265327345990019 0 -0.00059313039894943532 0.040995707452785732 0 -0.00064525861109882444 0.04065287064551644 0 -0.0011763993744720847 0.038154520950762959 0 -0.00043615200060523253 0.038656534589705034 0 -0.00011694776797276454 0.038168440399559564 0 -0.0011763993744720847 0.038154520950762959 0 -0.00043615200060523253 0.038656534589705034 0 -0.00093113746771100205 0.039566463141098983 0 -0.00096225413259750671 0.039449298575196558 0 -0.0009044220321000276 0.039649018287994116 0 -0.0011763993744720847 0.038154520950762959 0 -0.001027771957699448 0.037194514186600261 0 -0.00011694776797276454 0.038168440399559564 0 -0.0011763993744720847 0.038154520950762959 0 -0.0015471950211019066 0.037261305502159905 0 -0.001027771957699448 0.037194514186600261 0 -0.00073585349487661979 0.040931774764418047 0 -0.00059313039894943532 0.040995707452785732 0 -0.00041505542024781891 0.040608321594781893 0 -0.00096225413259750671 0.039449298575196558 0 -0.00088772427502456389 0.039244439973354833 0 -0.0014008607275790572 0.040443430380630273 0 -0.00059313039894943532 0.040995707452785732 0 -0.00041505542024781891 0.040608321594781893 0 -0.00088772427502456389 0.039244439973354833 0 -0.0016719119940414328 0.036067194343053305 0 -0.001389404622163911 0.034467837169414636 0 -0.0016719119940414328 0.036067194343053305 0 -0.0015471950211019066 0.037261305502159905 0 -0.001027771957699448 0.037194514186600261 0 -0.0019144923989214634 0.036358022562074724 0 -0.0014008607275790572 0.040443430380630273 0 -0.00041505542024781891 0.040608321594781893 0 -0.00065182041290516048 0.039395228131204697 0 -0.0013137077032369102 0.031637051613523079 0 -0.00094566733103587652 0.030315649330171474 0 -0.0024788212347654319 0.030593058168457747 0 -0.00094566733103587652 0.030315649330171474 0 -0.0015869053971006891 0.030011757083698749 0 -0.0024788212347654319 0.030593058168457747 0 -0.0010903330891811208 0.029627033167533314 0 -0.00094566733103587652 0.030315649330171474 0 -0.0015869053971006891 0.030011757083698749 0 -0.0018342003158180018 0.0295125553110266 0 -0.0015869053971006891 0.030011757083698749 0 -0.0024788212347654319 0.030593058168457747 0 0.0037688875464387366 0.024487605234715441 0 0.0024300309908312141 0.02421484950349399 0 0.0032952879729506524 0.025317079498617334 0 0.0024300309908312141 0.02421484950349399 0 0.0032952879729506524 0.025317079498617334 0 0.0023597381485640861 0.025768341537191569 0 -0.00073859597682148924 0.026525822551744436 0 0.001345336683992895 0.028116803555382097 0 -8.4613432874851969e-05 0.029575791338299347 0 -0.00094566733103587652 0.030315649330171474 0 -0.00010358508288480821 0.031139974677962964 0 -0.0010903330891811208 0.029627033167533314 0 -0.0002387001555683148 0.029548354569667663 0 -0.00094566733103587652 0.030315649330171474 0 -0.0002387001555683148 0.029548354569667663 0 -8.4613432874851969e-05 0.029575791338299347 0 -0.00094566733103587652 0.030315649330171474 0 -0.0013137077032369102 0.031637051613523079 0 -0.00094566733103587652 0.030315649330171474 0 -0.00010358508288480821 0.031139974677962964 0 0.0042761228903225694 0.025634814095979928 0 0.0032952879729506524 0.025317079498617334 0 0.0033567050255211652 0.026348337972900076 0 0.0032952879729506524 0.025317079498617334 0 0.0023597381485640861 0.025768341537191569 0 0.0033567050255211652 0.026348337972900076 0 0.0033567050255211652 0.026348337972900076 0 0.0018636884851120936 0.027497854210790443 0 0.0035777912093592147 0.027518564896678414 0 0.0023597381485640861 0.025768341537191569 0 0.0033567050255211652 0.026348337972900076 0 0.0018636884851120936 0.027497854210790443 0 0.0042502898037276261 0.026811895728262657 0 0.0033567050255211652 0.026348337972900076 0 0.0035777912093592147 0.027518564896678414 0 0.001345336683992895 0.028116803555382097 0 0.00078481718634965678 0.03212572462876144 0 -0.0013137077032369102 0.031637051613523079 0 -0.00010358508288480821 0.031139974677962964 0 -0.00013568753034375034 0.032694595619713107 0 -0.001389404622163911 0.034467837169414636 0 0.00078481718634965678 0.03212572462876144 0 0.0003816477320999572 0.026229164910119358 0 0.0021181905726210012 0.027803538578785987 0 0.00032917018846579109 0.03873498013197077 0 0.00078481718634965678 0.03212572462876144 0 0.00030476427785732109 0.030270507902869795 0 0.0035777912093592147 0.027518564896678414 0 0.003123593782904199 0.028133337591877108 0 0.0040227625138315884 0.028605449431966985 0 0.0018636884851120936 0.027497854210790443 0 0.0021181905726210012 0.027803538578785987 0 0.003123593782904199 0.028133337591877108 0 0.0018636884851120936 0.027497854210790443 0 0.0035777912093592147 0.027518564896678414 0 0.003123593782904199 0.028133337591877108 0 0.0021181905726210012 0.027803538578785987 0 0.003123593782904199 0.028133337591877108 0 0.0037909894054356501 0.029855027912100113 0 0.0037909894054356501 0.029855027912100113 0 0.0040227625138315884 0.028605449431966985 0 0.0040889484353828975 0.028943375206540424 0 0.003123593782904199 0.028133337591877108 0 0.0037909894054356501 0.029855027912100113 0 0.0040227625138315884 0.028605449431966985 0 0.0037909894054356501 0.029855027912100113 0 0.0048623942280636061 0.036783189928294158 0 0.00032917018846579109 0.03873498013197077 0 0.0037909894054356501 0.029855027912100113 0 0.0040889484353828975 0.028943375206540424 0 0.0042514203527727421 0.028713461321820202 0 0.0038960318608671357 0.030160111489154436 0 0.0043735625286369035 0.032646491909839231 0 0.0040889484353828975 0.028943375206540424 0 0.0042514203527727421 0.028713461321820202 0 0.0045325791302874702 0.028556091206720709 0 0.00078481718634965678 0.03212572462876144 0 9.762393358098251e-05 0.038510837788728207 0 -0.00043615200060523253 0.038656534589705034 0 0.00032917018846579109 0.03873498013197077 0 -0.00093113746771100205 0.039566463141098983 0 0.0021181905726210012 0.027803538578785987 0 0.0037909894054356501 0.029855027912100113 0 0.00032917018846579109 0.03873498013197077 0 -0.00043615200060523253 0.038656534589705034 0 -0.00011694776797276454 0.038168440399559564 0 0.00032917018846579109 0.03873498013197077 0 0.00032917018846579109 0.03873498013197077 0 -0.0011445497310782929 0.040076528021574617 0 -0.00093113746771100205 0.039566463141098983 0 0.00032917018846579109 0.03873498013197077 0 0.0047296617116537338 0.041139992135516439 0 -0.0011445497310782929 0.040076528021574617 0 0.00041573972532637637 0.040455324437103937 0 0.000207009488375357 0.041012813139262673 0 0.00018051746839780713 0.040996485191520618 0 0.0033969788460728599 0.034782231626181784 0 -0.00052409768924795424 0.041418014189696054 0 0.0048623942280636061 0.036783189928294158 0 0.00032917018846579109 0.03873498013197077 0 0.0047296617116537338 0.041139992135516439 0 0.0042514203527727421 0.028713461321820202 0 0.0043402338680680148 0.028951486008037382 0 0.0045325791302874702 0.028556091206720709 0 0.0043735625286369035 0.032646491909839231 0 0.0033969788460728599 0.034782231626181784 0 0.00041573972532637637 0.040455324437103937 0 0.00037942050109168268 0.040885158435814403 0 0.00052692280833212854 0.040629077739004912 0 0.0033969788460728599 0.034782231626181784 0 0.0026730815853162108 0.035134628877377068 0 0.00041573972532637637 0.040455324437103937 0 0.00030285266007911061 0.040886638416564154 0 0.00037942050109168268 0.040885158435814403 0 0.00041573972532637637 0.040455324437103937 0 0.000207009488375357 0.041012813139262673 0 0.00030285266007911061 0.040886638416564154 0 0.000207009488375357 0.041012813139262673 0 0.00025016997775118097 0.04110639092019179 0 0.00014301892178077922 0.041210858834961957 0 0.000207009488375357 0.041012813139262673 0 0.00030285266007911061 0.040886638416564154 0 0.00025016997775118097 0.04110639092019179 0 0.00030285266007911061 0.040886638416564154 0 0.00025016997775118097 0.04110639092019179 0 0.00037942050109168268 0.040885158435814403 0 0.00025016997775118097 0.04110639092019179 0 0.00037942050109168268 0.040885158435814403 0 0.00037495356433089514 0.041105552470217806 0 0.00037942050109168268 0.040885158435814403 0 0.00037495356433089514 0.041105552470217806 0 0.00052692280833212854 0.040629077739004912 0 0.00037495356433089514 0.041105552470217806 0 0.00053470858443450595 0.041074635198911053 0 0.00052692280833212854 0.040629077739004912 0 6.0024793534559304e-06 0.041573571028890616 0 0.00014301892178077922 0.041210858834961957 0 2.5451253838889755e-05 0.041605612160641903 0 0.00014301892178077922 0.041210858834961957 0 0.00014550077367554709 0.041409587649798317 0 2.5451253838889755e-05 0.041605612160641903 0 0.00025016997775118097 0.04110639092019179 0 0.00014301892178077922 0.041210858834961957 0 0.00014550077367554709 0.041409587649798317 0 0.000207009488375357 0.041012813139262673 0 0.00014301892178077922 0.041210858834961957 0 0.00018051746839780713 0.040996485191520618 0 0.00014301892178077922 0.041210858834961957 0 6.5159912206713992e-05 0.041363900769835392 0 0.00018051746839780713 0.040996485191520618 0 6.0024793534559304e-06 0.041573571028890616 0 0.00014301892178077922 0.041210858834961957 0 6.5159912206713992e-05 0.041363900769835392 0 -0.00033557443963989789 0.040918959803732821 0 -0.00052409768924795424 0.041418014189696054 0 6.5159912206713992e-05 0.041363900769835392 0 3.2360331565498258e-05 0.041434150173276424 0 0.00018051746839780713 0.040996485191520618 0 -0.00068714464125829841 0.040603441811948505 0 -0.0011445497310782929 0.040076528021574617 0 -0.00093113746771100205 0.039566463141098983 0 -0.00073585349487661979 0.040931774764418047 0 -0.00093113746771100205 0.039566463141098983 0 -0.00064525861109882444 0.04065287064551644 0 -0.00068714464125829841 0.040603441811948505 0 -0.00093113746771100205 0.039566463141098983 0 -0.00064525861109882444 0.04065287064551644 0 -0.00068714464125829841 0.040603441811948505 0 -0.00064525861109882444 0.04065287064551644 0 -0.00044537028871140136 0.041183206315338956 0 -8.5274955491589601e-05 0.041777556616556306 0 -0.00064411912053561075 0.041265327345990019 0 -0.00044537028871140136 0.041183206315338956 0 -0.00064411912053561075 0.041265327345990019 0 -0.00064525861109882444 0.04065287064551644 0 -0.00044537028871140136 0.041183206315338956 0 -8.5274955491589601e-05 0.041777556616556306 0 -0.00044537028871140136 0.041183206315338956 0 -6.534379293101577e-05 0.041671827158710685 0 -0.00068714464125829841 0.040603441811948505 0 -0.00044537028871140136 0.041183206315338956 0 -6.534379293101577e-05 0.041671827158710685 0 3.2360331565498258e-05 0.041434150173276424 0 -6.534379293101577e-05 0.041671827158710685 0 -2.006973041232905e-05 0.041668216580433105 0 -0.00033557443963989789 0.040918959803732821 0 -0.00011541200879201898 0.041599791202752708 0 0.00019545146483719832 0.0423443460066543 0 6.3175364038747678e-05 0.042067827398267539 0 0.00023359191958390339 0.042580939737833633 0 -8.5274955491589601e-05 0.041777556616556306 0 -6.534379293101577e-05 0.041671827158710685 0 6.3175364038747678e-05 0.042067827398267539 0 0.00019545146483719832 0.0423443460066543 0 -8.5274955491589601e-05 0.041777556616556306 0 6.3175364038747678e-05 0.042067827398267539 0 -6.534379293101577e-05 0.041671827158710685 0 6.3175364038747678e-05 0.042067827398267539 0 2.4348789208223537e-06 0.042078081643326729 0 -6.534379293101577e-05 0.041671827158710685 0 2.4348789208223537e-06 0.042078081643326729 0 -6.6159471610596036e-05 0.041864867937694381 0 6.3175364038747678e-05 0.042067827398267539 0 2.4348789208223537e-06 0.042078081643326729 0 0.00023359191958390339 0.042580939737833633 0 3.9014565955221755e-06 0.042173611205542409 0 5.379039305382645e-05 0.042610436833435898 0 2.4348789208223537e-06 0.042078081643326729 0 0.00023359191958390339 0.042580939737833633 0 0.00024250851837655829 0.042739740130602603 0 2.4348789208223537e-06 0.042078081643326729 0 -7.5994397970859871e-05 0.042296722689193829 0 -9.3895850395002011e-05 0.042499829646445907 0 2.4348789208223537e-06 0.042078081643326729 0 -0.00010778337896430218 0.042501185668315497 0 -9.3895850395002011e-05 0.042499829646445907 0 2.4348789208223537e-06 0.042078081643326729 0 -6.3434467484632374e-05 0.042052721594293199 0 -6.6159471610596036e-05 0.041864867937694381 0 2.4348789208223537e-06 0.042078081643326729 0 -6.3434467484632374e-05 0.042052721594293199 0 -7.5994397970859871e-05 0.042296722689193829 0 -6.3434467484632374e-05 0.042052721594293199 0 -8.5882301226130359e-05 0.042121616194233963 0 -7.3570960326115194e-05 0.041927211812021387 0 -8.5882301226130359e-05 0.042121616194233963 0 -7.5994397970859871e-05 0.042296722689193829 0 -8.9025314599337381e-05 0.042298231192529047 0 -8.5882301226130359e-05 0.042121616194233963 0 -8.9025314599337381e-05 0.042298231192529047 0 -9.050426079061641e-05 0.042161340122657383 0 -6.3434467484632374e-05 0.042052721594293199 0 -8.5882301226130359e-05 0.042121616194233963 0 -7.5994397970859871e-05 0.042296722689193829 0 -7.5994397970859871e-05 0.042296722689193829 0 -9.4271102842842186e-05 0.042470425924704798 0 -8.9025314599337381e-05 0.042298231192529047 0 -7.5994397970859871e-05 0.042296722689193829 0 -9.4271102842842186e-05 0.042470425924704798 0 -9.3895850395002011e-05 0.042499829646445907 0 6.0024793534559304e-06 0.041573571028890616 0 6.5159912206713992e-05 0.041363900769835392 0 -2.006973041232905e-05 0.041668216580433105 0 6.5159912206713992e-05 0.041363900769835392 0 3.2360331565498258e-05 0.041434150173276424 0 -2.006973041232905e-05 0.041668216580433105 0 -6.534379293101577e-05 0.041671827158710685 0 -2.006973041232905e-05 0.041668216580433105 0 -6.6159471610596036e-05 0.041864867937694381 0 -2.006973041232905e-05 0.041668216580433105 0 -6.6159471610596036e-05 0.041864867937694381 0 -7.3570960326115194e-05 0.041927211812021387 0 -6.3434467484632374e-05 0.042052721594293199 0 -6.6159471610596036e-05 0.041864867937694381 0 -7.3570960326115194e-05 0.041927211812021387 0 -8.5882301226130359e-05 0.042121616194233963 0 -7.3570960326115194e-05 0.041927211812021387 0 -0.00010154608897335609 0.041991019395649157 0 -7.3570960326115194e-05 0.041927211812021387 0 -6.796009524290832e-05 0.041803850155297931 0 -0.00010154608897335609 0.041991019395649157 0 -2.006973041232905e-05 0.041668216580433105 0 -7.3570960326115194e-05 0.041927211812021387 0 -6.796009524290832e-05 0.041803850155297931 0 6.0024793534559304e-06 0.041573571028890616 0 -2.006973041232905e-05 0.041668216580433105 0 -6.796009524290832e-05 0.041803850155297931 0 6.0024793534559304e-06 0.041573571028890616 0 -6.796009524290832e-05 0.041803850155297931 0 2.5451253838889755e-05 0.041605612160641903 0 -6.796009524290832e-05 0.041803850155297931 0 -0.00011641692012022488 0.041913170295551298 0 -0.00010154608897335609 0.041991019395649157 0 -6.796009524290832e-05 0.041803850155297931 0 -0.00011641692012022488 0.041913170295551298 0 2.5451253838889755e-05 0.041605612160641903 0 -0.00011641692012022488 0.041913170295551298 0 -0.00010154608897335609 0.041991019395649157 0 -9.2119842961294887e-05 0.042135722593231659 0 -0.00011641692012022488 0.041913170295551298 0 -0.00031910586278440753 0.042258111128439399 0 -0.00043285105594961451 0.042323073421752164 0 -0.00011457146375563726 0.041958330207689742 0 -0.00025599513360396434 0.042235211600201925 0 -0.00031910586278440753 0.042258111128439399 0 -0.00021000620264598397 0.042216233706910043 0 -0.00040957918838293683 0.042464761568160168 0 -0.00011641692012022488 0.041913170295551298 0 -0.00031910586278440753 0.042258111128439399 0 -0.00021000620264598397 0.042216233706910043 0 -0.00011641692012022488 0.041913170295551298 0 -0.00021000620264598397 0.042216233706910043 0 4.9121158143700873e-05 0.041796981360808338 0 -9.4271102842842186e-05 0.042470425924704798 0 -8.9025314599337381e-05 0.042298231192529047 0 -0.00010120114205734695 0.042568153075830013 0 -0.00043285105594961451 0.042323073421752164 0 -0.00046210471525503062 0.042436909987214222 0 -0.00084487325163302811 0.042844216486737106 0 -0.00025599513360396434 0.042235211600201925 0 -0.00047025326834321517 0.042705703315537781 0 -8.9025314599337381e-05 0.042298231192529047 0 -9.2119842961294887e-05 0.042135722593231659 0 -0.00010120114205734695 0.042568153075830013 0 -8.9025314599337381e-05 0.042298231192529047 0 -9.050426079061641e-05 0.042161340122657383 0 -9.2119842961294887e-05 0.042135722593231659 0 -9.050426079061641e-05 0.042161340122657383 0 -9.2470721792285474e-05 0.042105907503642855 0 -9.2119842961294887e-05 0.042135722593231659 0 -8.5882301226130359e-05 0.042121616194233963 0 -0.00010154608897335609 0.041991019395649157 0 -9.2470721792285474e-05 0.042105907503642855 0 -0.00010154608897335609 0.041991019395649157 0 -9.2470721792285474e-05 0.042105907503642855 0 -9.2119842961294887e-05 0.042135722593231659 0 -8.5882301226130359e-05 0.042121616194233963 0 -9.050426079061641e-05 0.042161340122657383 0 -9.2470721792285474e-05 0.042105907503642855 0 -0.00031910586278440753 0.042258111128439399 0 -0.00046210471525503062 0.042436909987214222 0 -0.00040957918838293683 0.042464761568160168 0 -0.00046210471525503062 0.042436909987214222 0 -0.00054598845802689383 0.042608141621248263 0 -0.00040957918838293683 0.042464761568160168 0 -0.00031910586278440753 0.042258111128439399 0 -0.00043285105594961451 0.042323073421752164 0 -0.00046210471525503062 0.042436909987214222 0 -0.00046210471525503062 0.042436909987214222 0 -0.00054598845802689383 0.042608141621248263 0 -0.00067271448791670144 0.042624956660267214 0 -0.00046210471525503062 0.042436909987214222 0 -0.00084487325163302811 0.042844216486737106 0 -0.00082877193863008507 0.04298352638929822 0 -0.00049287920942022107 0.04250481444914931 0 -0.00075680966088018022 0.042791413271883898 0 -0.00054598845802689383 0.042608141621248263 0 -0.00040957918838293683 0.042464761568160168 0 -0.00057893119233150302 0.0427948971076915 0 -0.00054598845802689383 0.042608141621248263 0 -0.00057893119233150302 0.0427948971076915 0 -0.00068807782121924445 0.042793017709861374 0 -0.00040957918838293683 0.042464761568160168 0 -0.00057893119233150302 0.0427948971076915 0 -0.00035105819507443763 0.042531081723612578 0 0.0011952091319323505 0.041886206727489279 0 0.0013328438445658378 0.041901122383833304 0 0.0011940192657906995 0.041672777722267004 0 0.00042389315738847433 0.042474471551559603 0 0.00042309660684411514 0.042213857738186075 0 0.0014300383089936293 0.042144050274731198 0 0.0011952091319323505 0.041886206727489279 0 0.0013328438445658378 0.041901122383833304 0 0.0014300383089936293 0.042144050274731198 0 0.0015152840725965043 0.042215105405065456 0 0.0013328438445658378 0.041901122383833304 0 -0.00021000620264598397 0.042216233706910043 0 -0.00011525105297958276 0.042278981651447264 0 4.9121158143700873e-05 0.041796981360808338 0 -0.00021000620264598397 0.042216233706910043 0 -0.00040957918838293683 0.042464761568160168 0 -0.00035105819507443763 0.042531081723612578 0 -0.00021000620264598397 0.042216233706910043 0 -0.00035105819507443763 0.042531081723612578 0 -0.00011525105297958276 0.042278981651447264 0 0.00042309660684411514 0.042213857738186075 0 0.00030686532186508268 0.042039377042083916 0 0.0011952091319323505 0.041886206727489279 0 0.0011150895169738601 0.041647823657908006 0 0.00095601757850966452 0.041606605708152292 0 0.0011952091319323505 0.041886206727489279 0 0.0011150895169738601 0.041647823657908006 0 0.0011940192657906995 0.041672777722267004 0 0.00080706960754694623 0.04178049962909345 0 0.00095601757850966452 0.041606605708152292 0 0.00071928432339177434 0.041352043898916085 0 0.0011952091319323505 0.041886206727489279 0 0.00080706960754694623 0.04178049962909345 0 0.00095601757850966452 0.041606605708152292 0 0.00080706960754694623 0.04178049962909345 0 9.4199859758373609e-05 0.041652781403778691 0 0.00071928432339177434 0.041352043898916085 0 0.00030686532186508268 0.042039377042083916 0 0.00023576046061292289 0.041786988401070188 0 -0.00011525105297958276 0.042278981651447264 0 0.00012767927486764078 0.042074546749966829 0 4.9121158143700873e-05 0.041796981360808338 0 0.00012767927486764078 0.042074546749966829 0 0.00028211915140532296 0.041673496142126197 0 4.9121158143700873e-05 0.041796981360808338 0 0.00023576046061292289 0.041786988401070188 0 -0.00068475936215019141 0.042423695860495617 0 9.4199859758373609e-05 0.041652781403778691 0 -0.00068946709074202872 0.041539246042849927 0 -0.00037240093555390941 0.041089482801935716 0 0.00045498498235073463 0.041975918755823217 0 0.00051793641166246256 0.041600019085831989 0 0.00086737903371069238 0.041612249722761147 0 0.00045498498235073463 0.041975918755823217 0 0.00028211915140532296 0.041673496142126197 0 0.00051793641166246256 0.041600019085831989 0 0.00012767927486764078 0.042074546749966829 0 0.00045498498235073463 0.041975918755823217 0 0.00028211915140532296 0.041673496142126197 0 0.00028211915140532296 0.041673496142126197 0 0.00039965713173085315 0.041379514937584495 0 0.00026790183325400282 0.041364242772933872 0 0.00028211915140532296 0.041673496142126197 0 0.00051793641166246256 0.041600019085831989 0 0.00039965713173085315 0.041379514937584495 0 0.00051793641166246256 0.041600019085831989 0 0.00039965713173085315 0.041379514937584495 0 0.00064218007344220003 0.041217232668256519 0 0.00039965713173085315 0.041379514937584495 0 0.00053470858443450595 0.041074635198911053 0 0.00064218007344220003 0.041217232668256519 0 0.00039965713173085315 0.041379514937584495 0 0.00037495356433089514 0.041105552470217806 0 0.00053470858443450595 0.041074635198911053 0 0.00025016997775118097 0.04110639092019179 0 0.00026790183325400282 0.041364242772933872 0 0.00014550077367554709 0.041409587649798317 0 0.00025016997775118097 0.04110639092019179 0 0.00037495356433089514 0.041105552470217806 0 0.00026790183325400282 0.041364242772933872 0 0.00039965713173085315 0.041379514937584495 0 0.00037495356433089514 0.041105552470217806 0 0.00026790183325400282 0.041364242772933872 0 0.00026790183325400282 0.041364242772933872 0 0.00014550077367554709 0.041409587649798317 0 4.9121158143700873e-05 0.041796981360808338 0 0.00014550077367554709 0.041409587649798317 0 2.5451253838889755e-05 0.041605612160641903 0 4.9121158143700873e-05 0.041796981360808338 0 -0.00011641692012022488 0.041913170295551298 0 2.5451253838889755e-05 0.041605612160641903 0 4.9121158143700873e-05 0.041796981360808338 0 0.00028211915140532296 0.041673496142126197 0 0.00026790183325400282 0.041364242772933872 0 4.9121158143700873e-05 0.041796981360808338 0 1.2881587836623917e-05 0.044660742339328811 0 2.9406567496878736e-05 0.044330786830697869 0 7.4754568438322799e-09 0.04499946360696825 0 1.2881587836623917e-05 0.044660742339328811 0 1.6971501823195946e-08 0.044999590152172579 0 7.4754568438322799e-09 0.04499946360696825 0 1.2881587836623917e-05 0.044660742339328811 0 2.3167526558161579e-05 0.044360908708960874 0 2.9406567496878736e-05 0.044330786830697869 0 1.2881587836623917e-05 0.044660742339328811 0 2.3167526558161579e-05 0.044360908708960874 0 7.258855635279776e-06 0.044590304457365754 0 2.3167526558161579e-05 0.044360908708960874 0 7.258855635279776e-06 0.044590304457365754 0 2.8790303199874716e-05 0.044167695883521846 0 7.258855635279776e-06 0.044590304457365754 0 1.1957586124418488e-05 0.044408942494425778 0 2.8790303199874716e-05 0.044167695883521846 0 1.2881587836623917e-05 0.044660742339328811 0 7.258855635279776e-06 0.044590304457365754 0 1.6971501823195946e-08 0.044999590152172579 0 7.258855635279776e-06 0.044590304457365754 0 1.6971501823195946e-08 0.044999590152172579 0 -3.9885160930909982e-08 0.044999302914707391 0 7.258855635279776e-06 0.044590304457365754 0 -3.9885160930909982e-08 0.044999302914707391 0 1.1957586124418488e-05 0.044408942494425778 0 -4.5405045739794527e-07 0.044998997106457328 0 -0.00022026320323252754 0.044643339152247455 0 -0.0001514699843810426 0.044506680409227298 0 -2.7239512783365068e-08 0.044999774045730752 0 -6.1124417411389029e-05 0.044452695253706098 0 4.3262513252229539e-08 0.044999686394908117 0 -4.5405045739794527e-07 0.044998997106457328 0 -0.00022026320323252754 0.044643339152247455 0 -0.00022026320323252754 0.044643339152247455 0 -0.00010835100585338834 0.044283845884378177 0 -0.0001514699843810426 0.044506680409227298 0 -6.1124417411389029e-05 0.044452695253706098 0 3.2171309333595299e-05 0.044051325282813351 0 1.1957586124418488e-05 0.044408942494425778 0 3.6789227643492628e-05 0.043947694622310192 0 2.8790303199874716e-05 0.044167695883521846 0 -0.00010835100585338834 0.044283845884378177 0 -0.0001514699843810426 0.044506680409227298 0 3.6789227643492628e-05 0.043947694622310192 0 3.4408806975956374e-05 0.043739984673880017 0 -0.00010835100585338834 0.044283845884378177 0 3.6789227643492628e-05 0.043947694622310192 0 3.4408806975956374e-05 0.043739984673880017 0 3.6789227643492628e-05 0.043947694622310192 0 0.00014197947387455234 0.043454985266426313 0 3.6789227643492628e-05 0.043947694622310192 0 2.7601827866100094e-05 0.043719726119458437 0 0.00013153935963887257 0.043443563264305145 0 3.6789227643492628e-05 0.043947694622310192 0 2.8790303199874716e-05 0.044167695883521846 0 2.7601827866100094e-05 0.043719726119458437 0 2.8790303199874716e-05 0.044167695883521846 0 2.9074170446760445e-05 0.044034059561927082 0 2.7601827866100094e-05 0.043719726119458437 0 2.3167526558161579e-05 0.044360908708960874 0 2.9074170446760445e-05 0.044034059561927082 0 2.9406567496878736e-05 0.044330786830697869 0 2.3167526558161579e-05 0.044360908708960874 0 2.8790303199874716e-05 0.044167695883521846 0 2.9074170446760445e-05 0.044034059561927082 0 2.9074170446760445e-05 0.044034059561927082 0 2.7601827866100094e-05 0.043719726119458437 0 1.9629370831671482e-06 0.04366802959678473 0 -5.5650268850792294e-05 0.043388873640954083 0 2.7601827866100094e-05 0.043719726119458437 0 1.9629370831671482e-06 0.04366802959678473 0 -5.5650268850792294e-05 0.043388873640954083 0 -9.7253609268549483e-05 0.043092980089231889 0 -0.0001148049023613161 0.043047479969466701 0 -5.5650268850792294e-05 0.043388873640954083 0 -9.7253609268549483e-05 0.043092980089231889 0 -0.00010444392737968539 0.043068214034608303 0 -5.5650268850792294e-05 0.043388873640954083 0 -0.0001148049023613161 0.043047479969466701 0 2.7601827866100094e-05 0.043719726119458437 0 0.00018543500676509338 0.043329766928452994 0 2.7601827866100094e-05 0.043719726119458437 0 0.00013153935963887257 0.043443563264305145 0 4.5010075987540205e-05 0.043196989319707099 0 3.3889555924702743e-05 0.04362751694779457 0 3.6789227643492628e-05 0.043947694622310192 0 0.00013153935963887257 0.043443563264305145 0 0.00014197947387455234 0.043454985266426313 0 0.00013153935963887257 0.043443563264305145 0 0.00014197947387455234 0.043454985266426313 0 0.00024333377209003718 0.043059062316978217 0 0.00013153935963887257 0.043443563264305145 0 0.0002276106408265256 0.043019647597593226 0 0.00024333377209003718 0.043059062316978217 0 0.00018543500676509338 0.043329766928452994 0 0.00013153935963887257 0.043443563264305145 0 0.0002276106408265256 0.043019647597593226 0 0.0002276106408265256 0.043019647597593226 0 0.00024333377209003718 0.043059062316978217 0 0.00023359191958390339 0.042580939737833633 0 0.00029776419213672971 0.042754041645347851 0 0.00024333377209003718 0.043059062316978217 0 0.00023359191958390339 0.042580939737833633 0 0.0002276106408265256 0.043019647597593226 0 0.00023359191958390339 0.042580939737833633 0 0.00024250851837655829 0.042739740130602603 0 -0.00010778337896430218 0.042501185668315497 0 -0.00011114788232154333 0.042828450704131847 0 -9.3895850395002011e-05 0.042499829646445907 0 0.00018543500676509338 0.043329766928452994 0 0.0002276106408265256 0.043019647597593226 0 0.00024250851837655829 0.042739740130602603 0 4.5010075987540205e-05 0.043196989319707099 0 5.379039305382645e-05 0.042610436833435898 0 -0.0001148049023613161 0.043047479969466701 0 -0.00010778337896430218 0.042501185668315497 0 -0.00011114788232154333 0.042828450704131847 0 -9.7253609268549483e-05 0.043092980089231889 0 -0.0001148049023613161 0.043047479969466701 0 -0.00011114788232154333 0.042828450704131847 0 -9.7253609268549483e-05 0.043092980089231889 0 -0.00011114788232154333 0.042828450704131847 0 -0.00010444392737968539 0.043068214034608303 0 -0.00011114788232154333 0.042828450704131847 0 -0.00010452844800300721 0.042691879301085409 0 -0.00010444392737968539 0.043068214034608303 0 -0.00011114788232154333 0.042828450704131847 0 -0.00010452844800300721 0.042691879301085409 0 -9.3895850395002011e-05 0.042499829646445907 0 -9.4271102842842186e-05 0.042470425924704798 0 -0.00010452844800300721 0.042691879301085409 0 -9.3895850395002011e-05 0.042499829646445907 0 -9.4271102842842186e-05 0.042470425924704798 0 -0.00010452844800300721 0.042691879301085409 0 -0.00010120114205734695 0.042568153075830013 0 -0.00047025326834321517 0.042705703315537781 0 -0.00060297307268776133 0.0431922126263386 0 -0.00010452844800300721 0.042691879301085409 0 -0.00010120114205734695 0.042568153075830013 0 -0.00010444392737968539 0.043068214034608303 0 -0.00084487325163302811 0.042844216486737106 0 -0.00096309121044590832 0.043093018634964064 0 -0.0011023606608732796 0.043314101298916136 0 -0.00093527610571133039 0.042943310128489856 0 -0.00067271448791670144 0.042624956660267214 0 -0.00079538805074829072 0.042864830574337598 0 -0.00096309121044590832 0.043093018634964064 0 -0.0010714318411707696 0.043276172353583622 0 -0.00082877193863008507 0.04298352638929822 0 -0.00096309121044590832 0.043093018634964064 0 -0.0010714318411707696 0.043276172353583622 0 -0.0011023606608732796 0.043314101298916136 0 -0.00098792293164631372 0.043118269536242523 0 -0.00075680966088018022 0.042791413271883898 0 -0.00067271448791670144 0.042624956660267214 0 -0.00068807782121924445 0.042793017709861374 0 -0.00079538805074829072 0.042864830574337598 0 -0.00084487325163302811 0.042844216486737106 0 -0.00096309121044590832 0.043093018634964064 0 -0.00082877193863008507 0.04298352638929822 0 -0.00054598845802689383 0.042608141621248263 0 -0.00067271448791670144 0.042624956660267214 0 -0.00068807782121924445 0.042793017709861374 0 -0.00068807782121924445 0.042793017709861374 0 -0.00085652914751289716 0.04305665085402522 0 -0.00079538805074829072 0.042864830574337598 0 -0.00057893119233150302 0.0427948971076915 0 -0.00068807782121924445 0.042793017709861374 0 -0.00085652914751289716 0.04305665085402522 0 0.0014300383089936293 0.042144050274731198 0 0.0015152840725965043 0.042215105405065456 0 0.0013826928151655698 0.042538047280666819 0 0.00042389315738847433 0.042474471551559603 0 0.00026767810497277785 0.042800071269735118 0 0.0015152840725965043 0.042215105405065456 0 0.0013826928151655698 0.042538047280666819 0 0.0011096799733689637 0.043243583089698071 0 -0.00093527610571133039 0.042943310128489856 0 -0.00085652914751289716 0.04305665085402522 0 -0.0010001467240446692 0.043165918473082869 0 -0.00093527610571133039 0.042943310128489856 0 -0.00085652914751289716 0.04305665085402522 0 -0.00079538805074829072 0.042864830574337598 0 -0.00085652914751289716 0.04305665085402522 0 -0.0010001467240446692 0.043165918473082869 0 -0.0010340951454029966 0.04324436280002987 0 0.00026767810497277785 0.042800071269735118 0 -0.00016289822216635562 0.043171778657857172 0 0.0013826928151655698 0.042538047280666819 0 0.00066013764659323315 0.043086823807685373 0 0.0011096799733689637 0.043243583089698071 0 0.00062617708478435283 0.043458224218779318 0 0.00066013764659323315 0.043086823807685373 0 0.0011096799733689637 0.043243583089698071 0 0.00033280168998311586 0.043601846140373962 0 0.00066013764659323315 0.043086823807685373 0 -1.6397610636513999e-05 0.043713237170193139 0 0.00033280168998311586 0.043601846140373962 0 0.00062617708478435283 0.043458224218779318 0 0.00066013764659323315 0.043086823807685373 0 -0.0010001467240446692 0.043165918473082869 0 -0.0010340951454029966 0.04324436280002987 0 -0.0010369338259377293 0.043414680902710938 0 -0.0010340951454029966 0.04324436280002987 0 -0.0010369338259377293 0.043414680902710938 0 -0.00087769958019992403 0.043382132411209549 0 -0.0010714318411707696 0.043276172353583622 0 -0.0010369338259377293 0.043414680902710938 0 -0.0011023606608732796 0.043314101298916136 0 -0.00098792293164631372 0.043118269536242523 0 -0.0010248885201484352 0.043355376356161934 0 -0.00093527610571133039 0.042943310128489856 0 -0.0010001467240446692 0.043165918473082869 0 -0.0010369338259377293 0.043414680902710938 0 -0.0010369338259377293 0.043414680902710938 0 -0.0011023606608732796 0.043314101298916136 0 -0.00097092815390367791 0.043759820305570865 0 -0.00060297307268776133 0.0431922126263386 0 -0.00049038826155931687 0.043720043906068026 0 -5.5650268850792294e-05 0.043388873640954083 0 -0.00010444392737968539 0.043068214034608303 0 1.9629370831671482e-06 0.04366802959678473 0 -0.00097092815390367791 0.043759820305570865 0 -0.00084353077618091836 0.043725507623607669 0 -0.00058555782562833686 0.044340606159553958 0 -0.00049038826155931687 0.043720043906068026 0 -0.00027957196872983815 0.044337617856592987 0 2.9074170446760445e-05 0.044034059561927082 0 1.9629370831671482e-06 0.04366802959678473 0 2.9406567496878736e-05 0.044330786830697869 0 -0.00084353077618091836 0.043725507623607669 0 -0.00058651946435631433 0.043842515073022288 0 -0.00058555782562833686 0.044340606159553958 0 -0.0010369338259377293 0.043414680902710938 0 -0.00097092815390367791 0.043759820305570865 0 -0.00084353077618091836 0.043725507623607669 0 -0.0010369338259377293 0.043414680902710938 0 -0.00084353077618091836 0.043725507623607669 0 -0.00087769958019992403 0.043382132411209549 0 -0.00016289822216635562 0.043171778657857172 0 -0.0004069697121637154 0.043506373940831851 0 -1.6397610636513999e-05 0.043713237170193139 0 0.00010062812687881862 0.043881627881694849 0 -7.8389189334445309e-05 0.044045918581762121 0 0.00033280168998311586 0.043601846140373962 0 -1.6397610636513999e-05 0.043713237170193139 0 0.00010062812687881862 0.043881627881694849 0 -1.6397610636513999e-05 0.043713237170193139 0 -0.00015614364317867706 0.044169717548491264 0 -0.00017567887508975762 0.044269018150356651 0 -1.6397610636513999e-05 0.043713237170193139 0 -0.00019828601853370714 0.044445133760301986 0 -0.00017567887508975762 0.044269018150356651 0 -0.00015614364317867706 0.044169717548491264 0 -7.8389189334445309e-05 0.044045918581762121 0 -0.00014560873112214929 0.04415900830218316 0 -0.00015614364317867706 0.044169717548491264 0 -0.00017564493647836453 0.044246708755195367 0 -0.00016649089470921976 0.044206589429424098 0 -1.6397610636513999e-05 0.043713237170193139 0 -0.00015614364317867706 0.044169717548491264 0 -7.8389189334445309e-05 0.044045918581762121 0 -0.00084353077618091836 0.043725507623607669 0 -0.00087769958019992403 0.043382132411209549 0 -0.00058651946435631433 0.043842515073022288 0 -0.0004069697121637154 0.043506373940831851 0 -0.00028742017766579373 0.044295613362484568 0 -0.00087769958019992403 0.043382132411209549 0 -0.00040330959405577199 0.043453638637911685 0 -0.00058651946435631433 0.043842515073022288 0 -0.00040330959405577199 0.043453638637911685 0 -0.00014155032380027687 0.043930046228998855 0 -0.00058651946435631433 0.043842515073022288 0 -0.00028742017766579373 0.044295613362484568 0 -0.000110535708398015 0.044455693782235968 0 -0.00019828601853370714 0.044445133760301986 0 -0.00017567887508975762 0.044269018150356651 0 -0.0001759211775855021 0.044449918366364249 0 -0.00019828601853370714 0.044445133760301986 0 -0.0001759211775855021 0.044449918366364249 0 -0.00011535697850889157 0.044622515883579225 0 -0.00017567887508975762 0.044269018150356651 0 -0.0001759211775855021 0.044449918366364249 0 -0.00017528923480134633 0.044403740413681621 0 -0.0001759211775855021 0.044449918366364249 0 -0.00017528923480134633 0.044403740413681621 0 -0.00011535697850889157 0.044622515883579225 0 -0.00015614364317867706 0.044169717548491264 0 -0.00017928210262750356 0.044303532751193649 0 -0.00017564493647836453 0.044246708755195367 0 -0.00015614364317867706 0.044169717548491264 0 -0.00017567887508975762 0.044269018150356651 0 -0.00017928210262750356 0.044303532751193649 0 -0.00017567887508975762 0.044269018150356651 0 -0.00017528923480134633 0.044403740413681621 0 -0.00017928210262750356 0.044303532751193649 0 -0.00017528923480134633 0.044403740413681621 0 -0.00017928210262750356 0.044303532751193649 0 -0.00017805817293210408 0.044294768151625155 0 -0.00019828601853370714 0.044445133760301986 0 -0.00011535697850889157 0.044622515883579225 0 -1.6077055443636287e-05 0.044948273594756123 0 -5.3599059185219032e-08 0.044999782863913658 0 -6.3379023028857932e-05 0.044696125085092457 0 1.9037449921258157e-07 0.044998673040116947 0 -0.00011535697850889157 0.044622515883579225 0 -9.4772072448255924e-05 0.044322292681306857 0 -0.00017528923480134633 0.044403740413681621 0 -0.00011535697850889157 0.044622515883579225 0 -9.4772072448255924e-05 0.044322292681306857 0 1.9037449921258157e-07 0.044998673040116947 0 -0.00011535697850889157 0.044622515883579225 0 -1.6077055443636287e-05 0.044948273594756123 0 1.9037449921258157e-07 0.044998673040116947 0 -1.6077055443636287e-05 0.044948273594756123 0 -7.7777496777312654e-08 0.045000270474182959 0 -6.8521967592924325e-05 0.044946257021669253 0 -2.6458658918880951e-05 0.044974113827585642 0 -2.1721904598313686e-05 0.045000532518035839 0 -0.00028742017766579373 0.044295613362484568 0 7.3917536103724812e-05 0.044864531060725348 0 -6.8521967592924325e-05 0.044946257021669253 0 -1.6077055443636287e-05 0.044948273594756123 0 -2.6458658918880951e-05 0.044974113827585642 0 -1.6077055443636287e-05 0.044948273594756123 0 -2.6458658918880951e-05 0.044974113827585642 0 -7.7777496777312654e-08 0.045000270474182959 0 -2.6458658918880951e-05 0.044974113827585642 0 -7.7777496777312654e-08 0.045000270474182959 0 -2.1721904598313686e-05 0.045000532518035839 0 -0.00014155032380027687 0.043930046228998855 0 -0.00030754189610924094 0.044457966467285503 0 1.7010329700360115e-07 0.044998086479480809 0 -0.000110535708398015 0.044455693782235968 0 -1.8593629563453611e-08 0.044999769453011977 0 -7.7777496777312654e-08 0.045000270474182959 0 -2.1721904598313686e-05 0.045000532518035839 0 3.207596275467897e-08 0.044999878884993683 0 -0.00014155032380027687 0.043930046228998855 0 -0.00058651946435631433 0.043842515073022288 0 -0.00030754189610924094 0.044457966467285503 0 -0.00058651946435631433 0.043842515073022288 0 -0.00030754189610924094 0.044457966467285503 0 -0.00058555782562833686 0.044340606159553958 0 -0.00027957196872983815 0.044337617856592987 0 -4.8769095617741577e-08 0.044999779172310468 0 -0.00030754189610924094 0.044457966467285503 0 -0.00058555782562833686 0.044340606159553958 0 -1.8363075979781851e-08 0.045001042584298961 0 -0.00030754189610924094 0.044457966467285503 0 -1.8363075979781851e-08 0.045001042584298961 0 1.7010329700360115e-07 0.044998086479480809 0 1.1844356508644307e-05 0.044994858352078199 0 2.1536298948420843e-05 0.044978122634492627 0 -1.0671677357825197e-08 0.044999883455533525 0 1.1844356508644307e-05 0.044994858352078199 0 -1.0671677357825197e-08 0.044999883455533525 0 1.7928085364875675e-08 0.045000035393839302 0 1.1844356508644307e-05 0.044994858352078199 0 4.5510085243017129e-05 0.044987525543660506 0 2.1536298948420843e-05 0.044978122634492627 0 1.1844356508644307e-05 0.044994858352078199 0 4.5510085243017129e-05 0.044987525543660506 0 2.0223697657577074e-05 0.044999532911669082 0 4.5510085243017129e-05 0.044987525543660506 0 2.1536298948420843e-05 0.044978122634492627 0 4.5919113833990464e-05 0.044949885251568233 0 4.5510085243017129e-05 0.044987525543660506 0 4.5919113833990464e-05 0.044949885251568233 0 8.2007423415351787e-05 0.0449256291897226 0 2.1536298948420843e-05 0.044978122634492627 0 4.5919113833990464e-05 0.044949885251568233 0 1.7259799816036462e-05 0.044942627110577338 0 2.1536298948420843e-05 0.044978122634492627 0 -1.0671677357825197e-08 0.044999883455533525 0 1.7259799816036462e-05 0.044942627110577338 0 5.4836100868028134e-09 0.045000027619579781 0 -2.8219012574504223e-09 0.044999961241428854 0 1.2817307219156694e-05 0.044997584292644131 0 9.487929335324612e-08 0.044999919764544226 0 -8.7646905308333352e-05 0.045040849213612025 0 -3.4087841755179553e-07 0.045000456132292831 0 0.00012889302582884659 0.044183591861855255 0 -2.8219012574504223e-09 0.044999961241428854 0 1.2817307219156694e-05 0.044997584292644131 0 2.9032416020273575e-05 0.044971733951130091 0 2.0666315195678272e-09 0.044999993301048057 0 -5.3972952361665697e-07 0.044997158504535797 0 -7.4285627284234197e-07 0.044991388061607782 0 2.757356998792948e-10 0.0450000001071321 0 -1.0711374908349924e-09 0.044999996472610701 0 -5.3972952361665697e-07 0.044997158504535797 0 2.0666315195678272e-09 0.044999993301048057 0 -1.0711374908349924e-09 0.044999996472610701 0 -5.3972952361665697e-07 0.044997158504535797 0 -0.00017531362939129301 0.044237217111448492 0 -0.00017805817293210408 0.044294768151625155 0 -0.00017855146904382043 0.044244055321257247 0 -0.00017531362939129301 0.044237217111448492 0 -0.00017855146904382043 0.044244055321257247 0 -0.00016373563258210449 0.044202818304371172 0 -0.00017531362939129301 0.044237217111448492 0 -0.00017564493647836453 0.044246708755195367 0 -0.00017805817293210408 0.044294768151625155 0 -0.00017531362939129301 0.044237217111448492 0 -0.00017564493647836453 0.044246708755195367 0 -0.00016649089470921976 0.044206589429424098 0 -0.00017928210262750356 0.044303532751193649 0 -0.00017564493647836453 0.044246708755195367 0 -0.00017805817293210408 0.044294768151625155 0 -0.00017528923480134633 0.044403740413681621 0 -9.4772072448255924e-05 0.044322292681306857 0 -0.00017805817293210408 0.044294768151625155 0 -9.4772072448255924e-05 0.044322292681306857 0 -0.00017805817293210408 0.044294768151625155 0 -0.00017855146904382043 0.044244055321257247 0 -6.3379023028857932e-05 0.044696125085092457 0 0.00012889302582884659 0.044183591861855255 0 -9.4772072448255924e-05 0.044322292681306857 0 -0.00017855146904382043 0.044244055321257247 0 -0.00016335931215519247 0.044197039247316723 0 -0.00017855146904382043 0.044244055321257247 0 -0.00016335931215519247 0.044197039247316723 0 -0.00017462251938290461 0.044222387161138389 0 0.00017475749949865063 0.043772990609576644 0 0.00033086880997663834 0.043929342085852252 0 0.00069821016743257995 0.043661442578979491 0 -0.00016335931215519247 0.044197039247316723 0 -0.0001733641788005125 0.044209179543249114 0 -0.00017462251938290461 0.044222387161138389 0 4.5919113833990464e-05 0.044949885251568233 0 1.7259799816036462e-05 0.044942627110577338 0 5.4572195983681661e-05 0.044898993120555272 0 0.00012889302582884659 0.044183591861855255 0 0.00092725583550430852 0.043205693733344888 0 4.5919113833990464e-05 0.044949885251568233 0 5.4572195983681661e-05 0.044898993120555272 0 8.2007423415351787e-05 0.0449256291897226 0 0.00025686610603651238 0.043907944377136292 0 0.00092725583550430852 0.043205693733344888 0 0.00012889302582884659 0.044183591861855255 0 0.00025686610603651238 0.043907944377136292 0 1.2817307219156694e-05 0.044997584292644131 0 2.9032416020273575e-05 0.044971733951130091 0 3.1782086246212681e-05 0.044973661843687417 0 -8.7646905308333352e-05 0.045040849213612025 0 0.00025686610603651238 0.043907944377136292 0 0.00025686610603651238 0.043907944377136292 0 0.0010675149580217978 0.043076236064998281 0 0.0016342248849070104 0.041925926003259451 0 0.0012076626624285415 0.041871368279898916 0 0.0019153347964915013 0.041785259367365997 0 0.0013626513750408769 0.042235704078763786 0 0.0016604269831731737 0.042085936789220776 0 0.001839487517104635 0.042351548730336468 0 0.0010675149580217978 0.043076236064998281 0 0.0014079099203599395 0.042029957156559265 0 0.0013626513750408769 0.042235704078763786 0 0.0014543299886626388 0.041985987652158593 0 0.0016604269831731737 0.042085936789220776 0 0.0014543299886626388 0.041985987652158593 0 0.0016342248849070104 0.041925926003259451 0 0.0016604269831731737 0.042085936789220776 0 0.0014543299886626388 0.041985987652158593 0 0.0016342248849070104 0.041925926003259451 0 0.0012076626624285415 0.041871368279898916 0 0.0010883326031195537 0.041960101786987239 0 0.0013778545543733937 0.042258265597929161 0 0.0012076626624285415 0.041871368279898916 0 0.0013778545543733937 0.042258265597929161 0 0.0014543299886626388 0.041985987652158593 0 0.0012076626624285415 0.041871368279898916 0 0.0016502129143265121 0.042124802903820126 0 0.0016735398479384431 0.042097234569479697 0 0.0017292958070149501 0.042071921814074834 0 0.00092725583550430852 0.043205693733344888 0 0.00049940698945930234 0.043602801944844387 0 -0.0001733641788005125 0.044209179543249114 0 -0.00017462251938290461 0.044222387161138389 0 -0.00018189085560612711 0.044224279429357104 0 0.00092725583550430852 0.043205693733344888 0 0.0019392295230776263 0.041794950752415058 0 -2.9237842377213216e-05 0.043842836202438049 0 0.00049940698945930234 0.043602801944844387 0 -0.00017462251938290461 0.044222387161138389 0 -0.00016264502894561714 0.044212938590909009 0 -0.00013544668603678245 0.04422426047021856 0 -0.00017855146904382043 0.044244055321257247 0 -0.00016264502894561714 0.044212938590909009 0 -0.00016373563258210449 0.044202818304371172 0 -0.00017855146904382043 0.044244055321257247 0 -0.00017462251938290461 0.044222387161138389 0 -0.00016264502894561714 0.044212938590909009 0 -0.00016264502894561714 0.044212938590909009 0 -0.00013544668603678245 0.04422426047021856 0 -0.00013366612706113985 0.044168775833693961 0 -0.00013544668603678245 0.04422426047021856 0 -7.3120409626829599e-05 0.044150107545010898 0 -0.00013366612706113985 0.044168775833693961 0 0.00049940698945930234 0.043602801944844387 0 -2.9376264491431972e-05 0.044038533260895914 0 -7.8389189334445309e-05 0.044045918581762121 0 -7.3120409626829599e-05 0.044150107545010898 0 -0.00013366612706113985 0.044168775833693961 0 0.00010062812687881862 0.043881627881694849 0 -7.8389189334445309e-05 0.044045918581762121 0 -7.3120409626829599e-05 0.044150107545010898 0 -7.8389189334445309e-05 0.044045918581762121 0 -0.00014560873112214929 0.04415900830218316 0 -0.00013366612706113985 0.044168775833693961 0 -0.00014560873112214929 0.04415900830218316 0 -0.00016649089470921976 0.044206589429424098 0 -0.00016373563258210449 0.044202818304371172 0 -0.00015614364317867706 0.044169717548491264 0 -0.00014560873112214929 0.04415900830218316 0 -0.00016649089470921976 0.044206589429424098 0 -0.00017531362939129301 0.044237217111448492 0 -0.00016649089470921976 0.044206589429424098 0 -0.00016373563258210449 0.044202818304371172 0 -0.00016264502894561714 0.044212938590909009 0 -0.00016373563258210449 0.044202818304371172 0 -0.00013366612706113985 0.044168775833693961 0 -0.00014560873112214929 0.04415900830218316 0 -0.00016373563258210449 0.044202818304371172 0 -0.00013366612706113985 0.044168775833693961 0 0.00049940698945930234 0.043602801944844387 0 0.0010982583301123638 0.042928994235208795 0 0.0016735398479384431 0.042097234569479697 0 0.0017292958070149501 0.042071921814074834 0 0.0017464898647917928 0.042050332122706903 0 -0.00018334555550046492 0.044283333687639044 0 -7.3120409626829599e-05 0.044150107545010898 0 0.00035755687446009811 0.043934423800254474 0 0.00010062812687881862 0.043881627881694849 0 -7.3120409626829599e-05 0.044150107545010898 0 0.00035755687446009811 0.043934423800254474 0 0.00033280168998311586 0.043601846140373962 0 0.00010062812687881862 0.043881627881694849 0 0.00035755687446009811 0.043934423800254474 0 0.0019037130107890511 0.04186655755507733 0 0.0021990098042806048 0.042157221952728523 0 0.001917259516032074 0.041880926301328558 0 0.001839487517104635 0.042351548730336468 0 0.002300640435864594 0.042594506471329292 0 0.0019153347964915013 0.041785259367365997 0 0.001917259516032074 0.041880926301328558 0 0.0019308022241417964 0.041838623850814667 0 0.0016342248849070104 0.041925926003259451 0 0.001917259516032074 0.041880926301328558 0 0.0016604269831731737 0.042085936789220776 0 0.0016342248849070104 0.041925926003259451 0 0.0019153347964915013 0.041785259367365997 0 0.001917259516032074 0.041880926301328558 0 0.001917259516032074 0.041880926301328558 0 0.0016604269831731737 0.042085936789220776 0 0.001839487517104635 0.042351548730336468 0 0.0010675149580217978 0.043076236064998281 0 0.0019374778378602761 0.042603812297282564 0 0.0013626513750408769 0.042235704078763786 0 0.001839487517104635 0.042351548730336468 0 0.0019415064644963075 0.042914718106236087 0 0.001839487517104635 0.042351548730336468 0 0.0019415064644963075 0.042914718106236087 0 0.002300640435864594 0.042594506471329292 0 0.00046578228582041809 0.044151072770280943 0 0.0010675149580217978 0.043076236064998281 0 0.001230102910477198 0.042235316660189648 0 0.0014220702165800817 0.042860400420957581 0 0.0019415064644963075 0.042914718106236087 0 0.00098044166678830824 0.04309132145183503 0 0.001230102910477198 0.042235316660189648 0 0.0014220702165800817 0.042860400420957581 0 0.00098044166678830824 0.04309132145183503 0 0.0014220702165800817 0.042860400420957581 0 0.0015749720922607134 0.043245228851695031 0 0.0015749720922607134 0.043245228851695031 0 0.0019415064644963075 0.042914718106236087 0 0.0021815282810075383 0.043337727459831193 0 0.0014220702165800817 0.042860400420957581 0 0.0015749720922607134 0.043245228851695031 0 0.0019415064644963075 0.042914718106236087 0 0.002300640435864594 0.042594506471329292 0 0.0027231772539888168 0.04331403663944669 0 0.0021815282810075383 0.043337727459831193 0 0.0019415064644963075 0.042914718106236087 0 0.002300640435864594 0.042594506471329292 0 0.0021815282810075383 0.043337727459831193 0 0.0021990098042806048 0.042157221952728523 0 0.0017155048939616973 0.042454687909084105 0 0.0017927331551599941 0.04162885014194672 0 0.0017531576761880292 0.041294269291319588 0 0.0021964807516870722 0.041149777602593779 0 0.0019867998410899451 0.041151324540125843 0 0.0017155048939616973 0.042454687909084105 0 0.0018759723133285344 0.041687985423319321 0 0.0017927331551599941 0.04162885014194672 0 0.0018738202894421851 0.041553308153493111 0 0.0018759723133285344 0.041687985423319321 0 0.0019461371519901109 0.041676210640349702 0 0.0018738202894421851 0.041553308153493111 0 0.0018759723133285344 0.041687985423319321 0 0.0019461371519901109 0.041676210640349702 0 0.0019220378270141819 0.041793183055530453 0 0.001917259516032074 0.041880926301328558 0 0.0019461371519901109 0.041676210640349702 0 0.0019220378270141819 0.041793183055530453 0 0.001917259516032074 0.041880926301328558 0 0.0019220378270141819 0.041793183055530453 0 0.0019308022241417964 0.041838623850814667 0 0.0019220378270141819 0.041793183055530453 0 0.0019308022241417964 0.041838623850814667 0 0.0018879125475241617 0.041820217533021425 0 0.0017292958070149501 0.042071921814074834 0 0.0017464898647917928 0.042050332122706903 0 0.0017408889946624742 0.042038737153738258 0 0.0010982583301123638 0.042928994235208795 0 0.00134915914054167 0.042646745121820394 0 0.0019392295230776263 0.041794950752415058 0 0.0017864752884866884 0.041999788160631948 0 0.0019153347964915013 0.041785259367365997 0 0.0019308022241417964 0.041838623850814667 0 0.0019228433688827792 0.041909492889581124 0 0.00062617708478435283 0.043458224218779318 0 0.00035755687446009811 0.043934423800254474 0 0.0011096799733689637 0.043243583089698071 0 0.0019308022241417964 0.041838623850814667 0 0.0019228433688827792 0.041909492889581124 0 0.0018879125475241617 0.041820217533021425 0 0.00033280168998311586 0.043601846140373962 0 0.00062617708478435283 0.043458224218779318 0 0.00035755687446009811 0.043934423800254474 0 0.0017101496892570395 0.042055975444929936 0 0.0017408889946624742 0.042038737153738258 0 0.0016384622173821839 0.042094750572467254 0 0.0019228433688827792 0.041909492889581124 0 0.0017848192177199183 0.041822278507289069 0 0.0016384622173821839 0.042094750572467254 0 0.0017464898647917928 0.042050332122706903 0 0.0017101496892570395 0.042055975444929936 0 0.0017408889946624742 0.042038737153738258 0 0.0017864752884866884 0.041999788160631948 0 0.0016606425233867707 0.042070897650362073 0 0.0019228433688827792 0.041909492889581124 0 0.0018879125475241617 0.041820217533021425 0 0.0017848192177199183 0.041822278507289069 0 0.0018759723133285344 0.041687985423319321 0 0.0017848192177199183 0.041822278507289069 0 0.0017927331551599941 0.04162885014194672 0 0.0018759723133285344 0.041687985423319321 0 0.0018879125475241617 0.041820217533021425 0 0.0017848192177199183 0.041822278507289069 0 0.0018759723133285344 0.041687985423319321 0 0.0019220378270141819 0.041793183055530453 0 0.0018879125475241617 0.041820217533021425 0 0.0017848192177199183 0.041822278507289069 0 0.0015851909229441068 0.041912851694693554 0 0.0015632864153074181 0.04166931887587004 0 0.0017848192177199183 0.041822278507289069 0 0.0015632864153074181 0.04166931887587004 0 0.0017927331551599941 0.04162885014194672 0 0.0014756232770847205 0.042296033601319664 0 0.00134915914054167 0.042646745121820394 0 0.0017848192177199183 0.041822278507289069 0 0.0016384622173821839 0.042094750572467254 0 0.0015851909229441068 0.041912851694693554 0 0.0015152840725965043 0.042215105405065456 0 0.0017101496892570395 0.042055975444929936 0 0.0016384622173821839 0.042094750572467254 0 0.0015152840725965043 0.042215105405065456 0 0.0015851909229441068 0.041912851694693554 0 0.0013860658784209045 0.041738776626454685 0 0.0015152840725965043 0.042215105405065456 0 0.0016384622173821839 0.042094750572467254 0 0.0015851909229441068 0.041912851694693554 0 0.0015851909229441068 0.041912851694693554 0 0.0015632864153074181 0.04166931887587004 0 0.0013860658784209045 0.041738776626454685 0 0.0015632864153074181 0.04166931887587004 0 0.0015559260342570093 0.041409482829286998 0 0.001334152401320521 0.041447580880572904 0 0.0015632864153074181 0.04166931887587004 0 0.0015559260342570093 0.041409482829286998 0 0.0017927331551599941 0.04162885014194672 0 0.0015559260342570093 0.041409482829286998 0 0.0017927331551599941 0.04162885014194672 0 0.0017531576761880292 0.041294269291319588 0 0.0015559260342570093 0.041409482829286998 0 0.0017531576761880292 0.041294269291319588 0 0.0016022890830600456 0.041187146672075438 0 0.0017531576761880292 0.041294269291319588 0 0.0017633353010547055 0.041054034953462305 0 0.0021964807516870722 0.041149777602593779 0 0.0017531576761880292 0.041294269291319588 0 0.0016022890830600456 0.041187146672075438 0 0.0017633353010547055 0.041054034953462305 0 0.0015559260342570093 0.041409482829286998 0 0.0016022890830600456 0.041187146672075438 0 0.0014373518283323731 0.041206121193391558 0 0.0015559260342570093 0.041409482829286998 0 0.0014373518283323731 0.041206121193391558 0 0.001334152401320521 0.041447580880572904 0 0.0014373518283323731 0.041206121193391558 0 0.0015629532231687814 0.041020639044955752 0 0.0013877422779682987 0.040940006577896065 0 0.0014388605264248869 0.040898548194190629 0 0.0015256162459211836 0.039410597293620953 0 0.0016022890830600456 0.041187146672075438 0 0.0014373518283323731 0.041206121193391558 0 0.0015629532231687814 0.041020639044955752 0 0.0016022890830600456 0.041187146672075438 0 0.0015629532231687814 0.041020639044955752 0 0.0017633353010547055 0.041054034953462305 0 0.0014388605264248869 0.040898548194190629 0 0.0017107665590914893 0.04104003369235347 0 0.0012284218585838661 0.040798733101143479 0 0.0017633353010547055 0.041054034953462305 0 0.0013655918145374991 0.040373880965955566 0 0.0017633353010547055 0.041054034953462305 0 0.0018570065811957641 0.04037974433436832 0 0.0013655918145374991 0.040373880965955566 0 0.0013655918145374991 0.040373880965955566 0 0.0010258530636165395 0.040031348466916299 0 0.00068297035456302713 0.040528114748706934 0 0.0012284218585838661 0.040798733101143479 0 0.0013655918145374991 0.040373880965955566 0 0.00068297035456302713 0.040528114748706934 0 0.00072471813724408942 0.040469702678890593 0 0.0015256162459211836 0.039410597293620953 0 0.0010258530636165395 0.040031348466916299 0 0.00086163855458226864 0.03938113682298975 0 0.0013196507141711561 0.039468348578213804 0 0.0013655918145374991 0.040373880965955566 0 0.0010258530636165395 0.040031348466916299 0 0.0013196507141711561 0.039468348578213804 0 0.0010258530636165395 0.040031348466916299 0 0.00086163855458226864 0.03938113682298975 0 0.0006138499513075879 0.039641568331905512 0 0.00050550316123399331 0.044304038405389656 0 0.00045485421109237891 0.044318132183172897 0 0.00050857712368457015 0.044259718038448401 0 -0.00017914415614492759 0.042493567931248935 0 0.0010051950306408962 0.041709302473466332 0 0.0008047857509508856 0.038738417580064577 0 0.00086163855458226864 0.03938113682298975 0 0.0013196507141711561 0.039468348578213804 0 0.00045485421109237891 0.044318132183172897 0 0.00060020278544092756 0.044181194350376415 0 0.00052483663662523515 0.044275679795652105 0 0.00045485421109237891 0.044318132183172897 0 0.00050857712368457015 0.044259718038448401 0 0.00052483663662523515 0.044275679795652105 0 0.0018570065811957641 0.04037974433436832 0 0.0013655918145374991 0.040373880965955566 0 0.0013196507141711561 0.039468348578213804 0 0.00055806079162375448 0.044213932319411182 0 0.00050857712368457015 0.044259718038448401 0 0.00054079949611214378 0.044242498543275999 0 0.00050857712368457015 0.044259718038448401 0 0.00054079949611214378 0.044242498543275999 0 0.00052483663662523515 0.044275679795652105 0 0.0011471407078260793 0.042338173590185373 0 0.0010051950306408962 0.041709302473466332 0 0.00054079949611214378 0.044242498543275999 0 0.00052483663662523515 0.044275679795652105 0 0.00054735025499538358 0.044248794723526282 0 0.00054079949611214378 0.044242498543275999 0 0.00054735025499538358 0.044248794723526282 0 0.00053588595109012478 0.044234292817072925 0 0.00052483663662523515 0.044275679795652105 0 0.00057430318635666813 0.044242807793689366 0 0.00054735025499538358 0.044248794723526282 0 0.00060020278544092756 0.044181194350376415 0 0.00052483663662523515 0.044275679795652105 0 0.00057430318635666813 0.044242807793689366 0 0.00057430318635666813 0.044242807793689366 0 0.00055038629618678672 0.044264131266044775 0 0.00054735025499538358 0.044248794723526282 0 0.00055038629618678672 0.044264131266044775 0 0.00053389892857194535 0.044246348357120595 0 0.00054735025499538358 0.044248794723526282 0 0.00055038629618678672 0.044264131266044775 0 0.00053389892857194535 0.044246348357120595 0 0.00049877550689971005 0.044250222433818223 0 0.00045280633960399948 0.044163324654337532 0 0.0010226638079389031 0.044200518282500878 0 0.00053389892857194535 0.044246348357120595 0 0.00054735025499538358 0.044248794723526282 0 0.00052812692138678823 0.044224220743059484 0 0.00054735025499538358 0.044248794723526282 0 0.00053588595109012478 0.044234292817072925 0 0.00051935926772889336 0.044241144254673202 0 0.00054079949611214378 0.044242498543275999 0 0.00053588595109012478 0.044234292817072925 0 0.00052708169853449499 0.044202300495688039 0 0.0013942900512099968 0.044310554363821246 0 0.0010226638079389031 0.044200518282500878 0 0.00053588595109012478 0.044234292817072925 0 0.00052708169853449499 0.044202300495688039 0 0.00051935926772889336 0.044241144254673202 0 0.0023822177267658058 0.043949557626405178 0 0.0019015477653014645 0.044097087194926325 0 0.0020356662197864943 0.044575623901744799 0 0.00055806079162375448 0.044213932319411182 0 0.00054079949611214378 0.044242498543275999 0 0.00052708169853449499 0.044202300495688039 0 0.00055806079162375448 0.044213932319411182 0 0.00052708169853449499 0.044202300495688039 0 0.00055366991599940156 0.044138880170339692 0 0.0011471407078260793 0.042338173590185373 0 0.0017155048939616973 0.042454687909084105 0 0.0017633353010547055 0.041054034953462305 0 0.0018570065811957641 0.04037974433436832 0 0.0021964807516870722 0.041149777602593779 0 0.0023822177267658058 0.043949557626405178 0 0.0027231772539888168 0.04331403663944669 0 0.0021815282810075383 0.043337727459831193 0 0.0013942900512099968 0.044310554363821246 0 0.0017155048939616973 0.042454687909084105 0 0.0023822177267658058 0.043949557626405178 0 0.0021815282810075383 0.043337727459831193 0 0.0017403011360505687 0.043625752374568325 0 0.0015749720922607134 0.043245228851695031 0 0.0021815282810075383 0.043337727459831193 0 0.0017403011360505687 0.043625752374568325 0 0.00098044166678830824 0.04309132145183503 0 0.0015749720922607134 0.043245228851695031 0 0.0012347130677350686 0.043633114375622055 0 0.0015749720922607134 0.043245228851695031 0 0.0017403011360505687 0.043625752374568325 0 0.0012347130677350686 0.043633114375622055 0 0.00039059689085156477 0.044056644849764612 0 0.000281293250845873 0.044131771262732801 0 0.00020804485208897946 0.043968760654536782 0 0.0017403011360505687 0.043625752374568325 0 0.0012347130677350686 0.043633114375622055 0 0.0013849802365117885 0.04426003979321045 0 0.0012347130677350686 0.043633114375622055 0 0.0013849802365117885 0.04426003979321045 0 0.00072699211666325965 0.043947292260227512 0 0.00095797444384836182 0.044148524641191664 0 0.00023676710908470159 0.044469365870335696 0 0.0023822177267658058 0.043949557626405178 0 0.0017403011360505687 0.043625752374568325 0 0.0019015477653014645 0.044097087194926325 0 0.0013849802365117885 0.04426003979321045 0 0.0019015477653014645 0.044097087194926325 0 0.0020356662197864943 0.044575623901744799 0 0.0017403011360505687 0.043625752374568325 0 0.0013849802365117885 0.04426003979321045 0 0.0019015477653014645 0.044097087194926325 0 0.00056279647032173084 0.044145987501224788 0 0.00049877550689971005 0.044250222433818223 0 0.00040959298865775778 0.044196984293788488 0 0.00095797444384836182 0.044148524641191664 0 0.0010226638079389031 0.044200518282500878 0 0.00039059689085156477 0.044056644849764612 0 0.00056279647032173084 0.044145987501224788 0 0.00040959298865775778 0.044196984293788488 0 0.0010226638079389031 0.044200518282500878 0 0.00053916823990831774 0.044320963029160824 0 0.00053389892857194535 0.044246348357120595 0 0.00052812692138678823 0.044224220743059484 0 0.00049877550689971005 0.044250222433818223 0 0.00048622105340690873 0.044374789424396814 0 0.00049877550689971005 0.044250222433818223 0 0.00040145934702837154 0.044321067017811848 0 0.00048622105340690873 0.044374789424396814 0 0.00055038629618678672 0.044264131266044775 0 0.00049877550689971005 0.044250222433818223 0 0.00049877550689971005 0.044250222433818223 0 0.00040145934702837154 0.044321067017811848 0 0.00040959298865775778 0.044196984293788488 0 0.00027389995053561411 0.044384348096987387 0 0.00040145934702837154 0.044321067017811848 0 0.00031363479763785721 0.044265302785122432 0 0.00040145934702837154 0.044321067017811848 0 0.00031363479763785721 0.044265302785122432 0 0.00040959298865775778 0.044196984293788488 0 0.00031363479763785721 0.044265302785122432 0 0.00040959298865775778 0.044196984293788488 0 0.000281293250845873 0.044131771262732801 0 0.00039059689085156477 0.044056644849764612 0 0.00040959298865775778 0.044196984293788488 0 0.000281293250845873 0.044131771262732801 0 0.000281293250845873 0.044131771262732801 0 0.00013353244693582291 0.044175867226507598 0 0.00020804485208897946 0.043968760654536782 0 0.00031363479763785721 0.044265302785122432 0 0.000281293250845873 0.044131771262732801 0 0.00013353244693582291 0.044175867226507598 0 0.00031363479763785721 0.044265302785122432 0 0.00016493692273291015 0.044322294936389561 0 0.00013353244693582291 0.044175867226507598 0 0.00016842005422044843 0.044439710015543178 0 0.00027389995053561411 0.044384348096987387 0 0.00016493692273291015 0.044322294936389561 0 0.00027389995053561411 0.044384348096987387 0 0.00031363479763785721 0.044265302785122432 0 0.00016493692273291015 0.044322294936389561 0 1.7804762150558882e-08 0.045000065839311265 0 -2.1118986436840696e-06 0.044998217937858236 0 8.2334295370016599e-07 0.044998061192876353 0 1.3241155088803969e-05 0.044721561961504244 0 4.8435910590160694e-05 0.044594744146061724 0 5.4496801217248111e-06 0.044432573354644844 0 0.00016493692273291015 0.044322294936389561 0 0.00013353244693582291 0.044175867226507598 0 1.7804762150558882e-08 0.045000065839311265 0 8.2334295370016599e-07 0.044998061192876353 0 -6.0890969540213777e-09 0.044999970113571999 0 8.2334295370016599e-07 0.044998061192876353 0 -6.0890969540213777e-09 0.044999970113571999 0 1.1834640302776387e-06 0.044998528066372764 0 1.1834640302776387e-06 0.044998528066372764 0 2.4542656347697395e-06 0.044996161258611389 0 2.0866496088537749e-06 0.045000848447511448 0 -6.0890969540213777e-09 0.044999970113571999 0 1.7928085364875675e-08 0.045000035393839302 0 2.0866496088537749e-06 0.045000848447511448 0 -6.0890969540213777e-09 0.044999970113571999 0 1.1834640302776387e-06 0.044998528066372764 0 2.0866496088537749e-06 0.045000848447511448 0 8.2334295370016599e-07 0.044998061192876353 0 1.1834640302776387e-06 0.044998528066372764 0 2.4542656347697395e-06 0.044996161258611389 0 4.8435910590160694e-05 0.044594744146061724 0 0.00023676710908470159 0.044469365870335696 0 0.00098044166678830824 0.04309132145183503 0 0.0012347130677350686 0.043633114375622055 0 0.00072699211666325965 0.043947292260227512 0 4.5510085243017129e-05 0.044987525543660506 0 2.6814094837804752e-05 0.045012656811040136 0 2.0223697657577074e-05 0.044999532911669082 0 0.00046578228582041809 0.044151072770280943 0 0.00023676710908470159 0.044469365870335696 0 2.6814094837804752e-05 0.045012656811040136 0 2.0223697657577074e-05 0.044999532911669082 0 2.0866496088537749e-06 0.045000848447511448 0 1.1844356508644307e-05 0.044994858352078199 0 2.0223697657577074e-05 0.044999532911669082 0 2.0866496088537749e-06 0.045000848447511448 0 0.00023676710908470159 0.044469365870335696 0 -1.1586949622658803e-05 0.045061977778801068 0 1.1844356508644307e-05 0.044994858352078199 0 1.7928085364875675e-08 0.045000035393839302 0 2.0866496088537749e-06 0.045000848447511448 0 -0.0012681689826260099 0.039780149224924947 0 -0.0015562242979959284 0.037960761046847404 0 -0.0030303692355566399 0.038734143101258341 0 -0.0012681689826260099 0.039780149224924947 0 -0.00023886341769331005 0.038295788490305141 0 -0.0015562242979959284 0.037960761046847404 0 -0.0012681689826260099 0.039780149224924947 0 0.00011561338622949514 0.03944095669991745 0 -0.00023886341769331005 0.038295788490305141 0 -0.00023886341769331005 0.038295788490305141 0 0.0010114669550331397 0.038490397982034096 0 0.0004399785028634953 0.037441293272777974 0 0.00011561338622949514 0.03944095669991745 0 -0.00023886341769331005 0.038295788490305141 0 0.0010114669550331397 0.038490397982034096 0 -0.00023886341769331005 0.038295788490305141 0 -0.0015562242979959284 0.037960761046847404 0 -0.00047903653868313544 0.035847778452767785 0 -0.0015562242979959284 0.037960761046847404 0 -0.0030303692355566399 0.038734143101258341 0 -0.0027351622363400571 0.036796326046284779 0 -0.0010661884788318839 0.039383409435783348 0 -0.00048380910751445586 0.039800492797828185 0 -0.001241912874995837 0.039890446497039947 0 -0.0015455206313398104 0.033853460053629131 0 -0.0017511907665585381 0.039715233588328493 0 -0.0048601958001163311 0.037505779934744729 0 -0.0030303692355566399 0.038734143101258341 0 -0.0027351622363400571 0.036796326046284779 0 -0.00048380910751445586 0.039800492797828185 0 -0.00089981847670820702 0.040315295093270212 0 -0.001241912874995837 0.039890446497039947 0 -0.00048380910751445586 0.039800492797828185 0 -0.00045106789255612074 0.040544241796086344 0 -0.00089981847670820702 0.040315295093270212 0 -0.00062512691118008705 0.039954644400331349 0 -0.0017511907665585381 0.039715233588328493 0 9.6696506235639519e-05 0.040245679301009765 0 -0.00048380910751445586 0.039800492797828185 0 -0.00045106789255612074 0.040544241796086344 0 -0.00045106789255612074 0.040544241796086344 0 -0.00089981847670820702 0.040315295093270212 0 -0.00098968499770449563 0.040728601248840271 0 -0.00068946709074202872 0.041539246042849927 0 -0.00098968499770449563 0.040728601248840271 0 -0.0014858187982546621 0.040941543630147903 0 -0.00045106789255612074 0.040544241796086344 0 -0.00098968499770449563 0.040728601248840271 0 -0.00037240093555390941 0.041089482801935716 0 -0.00068946709074202872 0.041539246042849927 0 -0.00098968499770449563 0.040728601248840271 0 -0.00037240093555390941 0.041089482801935716 0 -0.00045106789255612074 0.040544241796086344 0 -0.00037240093555390941 0.041089482801935716 0 0.00012511855994595 0.040977432559878998 0 9.4199859758373609e-05 0.041652781403778691 0 -0.00037240093555390941 0.041089482801935716 0 0.00012511855994595 0.040977432559878998 0 9.6696506235639519e-05 0.040245679301009765 0 0.00012511855994595 0.040977432559878998 0 0.00065884226650501855 0.040770679672785609 0 9.6696506235639519e-05 0.040245679301009765 0 -0.00045106789255612074 0.040544241796086344 0 0.00012511855994595 0.040977432559878998 0 -0.00062512691118008705 0.039954644400331349 0 0.00041313812823513303 0.040733229780592302 0 -0.0012681689826260099 0.039780149224924947 0 0.00011561338622949514 0.03944095669991745 0 0.00018558647106590035 0.040635769947696077 0 0.00012511855994595 0.040977432559878998 0 0.00065884226650501855 0.040770679672785609 0 0.00071928432339177434 0.041352043898916085 0 9.4199859758373609e-05 0.041652781403778691 0 0.00012511855994595 0.040977432559878998 0 0.00071928432339177434 0.041352043898916085 0 0.00018558647106590035 0.040635769947696077 0 0.00088559488149773447 0.041150374232678685 0 0.0010947538046778536 0.041427676752667959 0 0.00065884226650501855 0.040770679672785609 0 0.00071928432339177434 0.041352043898916085 0 0.0010947538046778536 0.041427676752667959 0 0.00095601757850966452 0.041606605708152292 0 0.00071928432339177434 0.041352043898916085 0 0.0010947538046778536 0.041427676752667959 0 0.0011150895169738601 0.041647823657908006 0 0.00095601757850966452 0.041606605708152292 0 0.0010947538046778536 0.041427676752667959 0 0.00088559488149773447 0.041150374232678685 0 0.0010947538046778536 0.041427676752667959 0 0.0011595760616343754 0.041460398616582295 0 0.0011150895169738601 0.041647823657908006 0 0.0010947538046778536 0.041427676752667959 0 0.0011940192657906995 0.041672777722267004 0 0.0010947538046778536 0.041427676752667959 0 0.0011595760616343754 0.041460398616582295 0 0.0011940192657906995 0.041672777722267004 0 0.00088559488149773447 0.041150374232678685 0 0.0011595760616343754 0.041460398616582295 0 0.001139657038314787 0.041411918249228012 0 0.00095061607473473559 0.041125986654838367 0 0.0015287362152436811 0.040498033652847383 0 0.00088559488149773447 0.041150374232678685 0 0.00087285529419977269 0.039853364684643275 0 0.0020675714470518155 0.039495804847167082 0 0.00018558647106590035 0.040635769947696077 0 0.00088559488149773447 0.041150374232678685 0 0.00087285529419977269 0.039853364684643275 0 0.00011561338622949514 0.03944095669991745 0 0.00018558647106590035 0.040635769947696077 0 0.00087285529419977269 0.039853364684643275 0 0.00041313812823513303 0.040733229780592302 0 0.0010636927852254357 0.041330667807519324 0 0.0013328438445658378 0.041901122383833304 0 0.0012684008112039294 0.041667094140542683 0 0.0013860658784209045 0.041738776626454685 0 0.0015152840725965043 0.042215105405065456 0 0.0013328438445658378 0.041901122383833304 0 0.0013860658784209045 0.041738776626454685 0 0.0013328438445658378 0.041901122383833304 0 0.0012684008112039294 0.041667094140542683 0 0.0011940192657906995 0.041672777722267004 0 0.0011595760616343754 0.041460398616582295 0 0.0012684008112039294 0.041667094140542683 0 0.0011940192657906995 0.041672777722267004 0 0.0011595760616343754 0.041460398616582295 0 0.0012343575661509405 0.041522137785536359 0 0.001139657038314787 0.041411918249228012 0 0.0011595760616343754 0.041460398616582295 0 0.0012684008112039294 0.041667094140542683 0 0.0012343575661509405 0.041522137785536359 0 0.0015632864153074181 0.04166931887587004 0 0.0013860658784209045 0.041738776626454685 0 0.001334152401320521 0.041447580880572904 0 0.0012684008112039294 0.041667094140542683 0 0.0012343575661509405 0.041522137785536359 0 0.0013860658784209045 0.041738776626454685 0 0.0012343575661509405 0.041522137785536359 0 0.0013860658784209045 0.041738776626454685 0 0.001334152401320521 0.041447580880572904 0 0.001334152401320521 0.041447580880572904 0 0.0012315269872080067 0.041226476566880124 0 0.001139657038314787 0.041411918249228012 0 0.0012343575661509405 0.041522137785536359 0 0.001334152401320521 0.041447580880572904 0 0.001139657038314787 0.041411918249228012 0 0.0022873016155767478 0.039508358349690118 0 0.0015287362152436811 0.040498033652847383 0 0.0014373518283323731 0.041206121193391558 0 0.001334152401320521 0.041447580880572904 0 0.0012315269872080067 0.041226476566880124 0 0.0029392166310694984 0.038092809768738939 0 0.0020675714470518155 0.039495804847167082 0 0.0010114669550331397 0.038490397982034096 0 0.0029392166310694984 0.038092809768738939 0 0.0010114669550331397 0.038490397982034096 0 0.0016302631004955581 0.037020124885944257 0 0.00087285529419977269 0.039853364684643275 0 0.0020675714470518155 0.039495804847167082 0 0.0010114669550331397 0.038490397982034096 0 0.00011561338622949514 0.03944095669991745 0 0.00087285529419977269 0.039853364684643275 0 0.0010114669550331397 0.038490397982034096 0 0.0010114669550331397 0.038490397982034096 0 0.0004399785028634953 0.037441293272777974 0 0.0016302631004955581 0.037020124885944257 0 0.0004399785028634953 0.037441293272777974 0 0.0016302631004955581 0.037020124885944257 0 0.00036425754496584181 0.036328624956204203 0 0.0016302631004955581 0.037020124885944257 0 0.0026027585936208484 0.036193998915025401 0 0.0013712977969442591 0.035579367802451418 0 0.0016302631004955581 0.037020124885944257 0 0.0013712977969442591 0.035579367802451418 0 0.00036425754496584181 0.036328624956204203 0 0.0029392166310694984 0.038092809768738939 0 0.0027977661291870683 0.037054155312782479 0 0.0038024543022737319 0.036814520048984403 0 0.0022873016155767478 0.039508358349690118 0 0.0015256162459211836 0.039410597293620953 0 0.0014373518283323731 0.041206121193391558 0 0.0012315269872080067 0.041226476566880124 0 0.0013877422779682987 0.040940006577896065 0 0.0029392166310694984 0.038092809768738939 0 0.0016302631004955581 0.037020124885944257 0 0.0027977661291870683 0.037054155312782479 0 0.0016302631004955581 0.037020124885944257 0 0.0027977661291870683 0.037054155312782479 0 0.0026027585936208484 0.036193998915025401 0 0.0027977661291870683 0.037054155312782479 0 0.0026027585936208484 0.036193998915025401 0 0.0038024543022737319 0.036814520048984403 0 -0.00034922818686351179 0.040142253253758392 0 0.00056458027621237282 0.040117415610453733 0 0.00066211927148136687 0.040610999814961815 0 0.001225886731016505 0.038124269748878288 0 0.0015256162459211836 0.039410597293620953 0 0.0010258530636165395 0.040031348466916299 0 0.00056458027621237282 0.040117415610453733 0 0.00066211927148136687 0.040610999814961815 0 -0.00034922818686351179 0.040142253253758392 0 0.00056458027621237282 0.040117415610453733 0 0.0006138499513075879 0.039641568331905512 0 0.0010258530636165395 0.040031348466916299 0 0.00056458027621237282 0.040117415610453733 0 0.0006138499513075879 0.039641568331905512 0 -0.00034922818686351179 0.040142253253758392 0 0.0006138499513075879 0.039641568331905512 0 -0.00010466510011203647 0.039176994710777908 0 -0.00034922818686351179 0.040142253253758392 0 -0.00010466510011203647 0.039176994710777908 0 -0.00091484309751498148 0.038937183935652257 0 -0.00034579429664989461 0.038402628929982162 0 -0.00010466510011203647 0.039176994710777908 0 -0.00091484309751498148 0.038937183935652257 0 -0.00034579429664989461 0.038402628929982162 0 -0.00010466510011203647 0.039176994710777908 0 0.00050791574949150115 0.038728981144255589 0 0.0006138499513075879 0.039641568331905512 0 -0.00010466510011203647 0.039176994710777908 0 0.00050791574949150115 0.038728981144255589 0 0.00061801693244885119 0.039612622769588934 0 0.0004843378277995637 0.038766007426481244 0 0.00086163855458226864 0.03938113682298975 0 0.0006138499513075879 0.039641568331905512 0 0.00057618126292213192 0.039153009695496073 0 0.0008047857509508856 0.038738417580064577 0 0.00086163855458226864 0.03938113682298975 0 0.00057618126292213192 0.039153009695496073 0 -5.2578368163608185e-05 0.03753515435528379 0 -0.0011736846719403158 0.03729774504657745 0 0.0013712977969442591 0.035579367802451418 0 0.0001549911739354015 0.034975034055086042 0 0.00036425754496584181 0.036328624956204203 0 -0.00034922818686351179 0.040142253253758392 0 -0.0014351564262726105 0.039559652123289747 0 -0.00091484309751498148 0.038937183935652257 0 0.001225886731016505 0.038124269748878288 0 -5.2578368163608185e-05 0.03753515435528379 0 -0.0014351564262726105 0.039559652123289747 0 -0.00091484309751498148 0.038937183935652257 0 -0.0015039247340102365 0.038379700022234779 0 -0.00034579429664989461 0.038402628929982162 0 -0.00091484309751498148 0.038937183935652257 0 -0.0015039247340102365 0.038379700022234779 0 -0.0023436697003130801 0.038041089044658548 0 -0.0015039247340102365 0.038379700022234779 0 -0.0024563507914289202 0.038961223277871292 0 -0.0014351564262726105 0.039559652123289747 0 -0.0015039247340102365 0.038379700022234779 0 -0.0024563507914289202 0.038961223277871292 0 -0.0011736846719403158 0.03729774504657745 0 -0.0011730797648205535 0.03301544337983172 0 -0.0011730797648205535 0.03301544337983172 0 -0.0008341386307645156 0.034530481536000544 0 -0.0022517336241051566 0.030640508947590881 0 -0.0013238345298270081 0.03111007936397462 0 -0.0018682869884054289 0.032446888824615674 0 0.0001549911739354015 0.034975034055086042 0 -0.0010606568078024145 0.034360901075958905 0 -0.00077338746357717854 0.03572244722834135 0 -0.0013238345298270081 0.03111007936397462 0 -0.00087149777390109658 0.033473093694999706 0 -0.0018682869884054289 0.032446888824615674 0 -0.0030405928797449674 0.037943700672157347 0 -0.0024563507914289202 0.038961223277871292 0 -0.003375405284193249 0.038398226533764353 0 -0.001911928123685029 0.027244641415849365 0 -0.0011730797648205535 0.03301544337983172 0 -0.00087149777390109658 0.033473093694999706 0 -0.0018682869884054289 0.032446888824615674 0 -0.0022015894682896344 0.03448652613741672 0 0.0001549911739354015 0.034975034055086042 0 -0.00077338746357717854 0.03572244722834135 0 0.00036425754496584181 0.036328624956204203 0 -0.00077338746357717854 0.03572244722834135 0 0.00036425754496584181 0.036328624956204203 0 -0.00047983297066863371 0.037065300241163265 0 -0.00087149777390109658 0.033473093694999706 0 -0.00047903653868313544 0.035847778452767785 0 -0.0022015894682896344 0.03448652613741672 0 -0.0008341386307645156 0.034530481536000544 0 -0.00048644815997836508 0.036487563906077707 0 -0.00047903653868313544 0.035847778452767785 0 -0.0027351622363400571 0.036796326046284779 0 -0.0022015894682896344 0.03448652613741672 0 -0.0015562242979959284 0.037960761046847404 0 -0.00047903653868313544 0.035847778452767785 0 -0.0027351622363400571 0.036796326046284779 0 -0.00023821599024500588 0.038148092627672277 0 -0.00048644815997836508 0.036487563906077707 0 0.0004399785028634953 0.037441293272777974 0 0.00036425754496584181 0.036328624956204203 0 -0.00047983297066863371 0.037065300241163265 0 -0.00023886341769331005 0.038295788490305141 0 0.0004399785028634953 0.037441293272777974 0 -0.00047983297066863371 0.037065300241163265 0 -0.00197748124174194 0.027637218015878273 0 -0.001320596666119671 0.025863860582700314 0 -0.0025551623783525868 0.025965705167705411 0 -0.0048601958001163311 0.037505779934744729 0 -0.0027351622363400571 0.036796326046284779 0 -0.004034164660479159 0.035292821236665148 0 -0.0015455206313398104 0.033853460053629131 0 -0.0028777833707690167 0.030423605406280169 0 -0.0027351622363400571 0.036796326046284779 0 -0.0022015894682896344 0.03448652613741672 0 -0.004034164660479159 0.035292821236665148 0 -0.0022015894682896344 0.03448652613741672 0 -0.004034164660479159 0.035292821236665148 0 -0.0031726274986296713 0.033001785434189607 0 -0.0028777833707690167 0.030423605406280169 0 -0.0018059004369502809 0.028466864577416429 0 -0.001320596666119671 0.025863860582700314 0 -0.0019605001203165289 0.024736811654603171 0 -0.00070379321368648114 0.024178597890483541 0 -0.001320596666119671 0.025863860582700314 0 -0.0019605001203165289 0.024736811654603171 0 -0.0025551623783525868 0.025965705167705411 0 -0.0019605001203165289 0.024736811654603171 0 -0.0017179712492198448 0.02376479164601274 0 -0.00070379321368648114 0.024178597890483541 0 -0.0018682869884054289 0.032446888824615674 0 -0.0022015894682896344 0.03448652613741672 0 -0.0031726274986296713 0.033001785434189607 0 -0.0022517336241051566 0.030640508947590881 0 -0.0018682869884054289 0.032446888824615674 0 -0.0031726274986296713 0.033001785434189607 0 -0.001911928123685029 0.027244641415849365 0 -0.0018059004369502809 0.028466864577416429 0 -9.019967822463724e-05 0.022594216314220216 0 -0.00070379321368648114 0.024178597890483541 0 -0.0011607253894613213 0.023075670509253871 0 -0.0017179712492198448 0.02376479164601274 0 -0.00070379321368648114 0.024178597890483541 0 -0.0011607253894613213 0.023075670509253871 0 -0.0017179712492198448 0.02376479164601274 0 -0.0011607253894613213 0.023075670509253871 0 -0.0020253857814258066 0.022832324014412722 0 -0.0028129696955679984 0.02271261068723086 0 -0.0035507675728503199 0.023365377636958201 0 -0.0026634910512828213 0.023824656073901673 0 -0.0028129696955679984 0.02271261068723086 0 -0.0020253857814258066 0.022832324014412722 0 -0.0026634910512828213 0.023824656073901673 0 -0.0017179712492198448 0.02376479164601274 0 -0.0020253857814258066 0.022832324014412722 0 -0.0026634910512828213 0.023824656073901673 0 -0.0033928059003022525 0.02218951285911723 0 -0.0028129696955679984 0.02271261068723086 0 -0.0035507675728503199 0.023365377636958201 0 -0.0033928059003022525 0.02218951285911723 0 -0.0035507675728503199 0.023365377636958201 0 -0.0043643711102753224 0.023038949122960735 0 -0.0038467601660702906 0.015394200568251006 0 -0.0057677484211079866 0.016951259209096688 0 -0.0035507675728503199 0.023365377636958201 0 -0.0042514065479744749 0.023144753436426073 0 -0.0042692179214611796 0.024047641476776963 0 -0.0025967165947225132 0.022316969662233694 0 -0.0057677484211079866 0.016951259209096688 0 -0.0035507675728503199 0.023365377636958201 0 -0.0034731494073389842 0.024128194833798581 0 -0.0026634910512828213 0.023824656073901673 0 -0.0035507675728503199 0.023365377636958201 0 -0.0034731494073389842 0.024128194833798581 0 -0.0042692179214611796 0.024047641476776963 0 -0.0034731494073389842 0.024128194833798581 0 -0.0039398117987542291 0.024553573108194855 0 -0.0042692179214611796 0.024047641476776963 0 -0.0034731494073389842 0.024128194833798581 0 -0.0039398117987542291 0.024553573108194855 0 -0.0030186340229279946 0.024808007682125335 0 -0.0019605001203165289 0.024736811654603171 0 -0.0026634910512828213 0.023824656073901673 0 -0.0030186340229279946 0.024808007682125335 0 -0.0034731494073389842 0.024128194833798581 0 -0.0026634910512828213 0.023824656073901673 0 -0.0030186340229279946 0.024808007682125335 0 -0.0019605001203165289 0.024736811654603171 0 -0.0017179712492198448 0.02376479164601274 0 -0.0026634910512828213 0.023824656073901673 0 -0.0043024651369625196 0.013345474120102825 0 -0.0053373798132768189 0.010862673300131754 0 -0.0027539199229385095 0.012008430570229631 0 -0.0043024651369625196 0.013345474120102825 0 -0.0070212069270031248 0.012417350744870517 0 -0.0053373798132768189 0.010862673300131754 0 -0.0045092189894792916 0.0080126869376366313 0 -0.0057677484211079866 0.016951259209096688 0 -0.0057677484211079866 0.016951259209096688 0 -0.0061552234895881205 0.018414886332873172 0 -0.0042514065479744749 0.023144753436426073 0 -0.0042692179214611796 0.024047641476776963 0 -0.0049467544979385917 0.023896272116478282 0 -0.0039398117987542291 0.024553573108194855 0 -0.0042692179214611796 0.024047641476776963 0 -0.0045134479002077559 0.024706311624565637 0 -0.0042692179214611796 0.024047641476776963 0 -0.0048983159524709149 0.02440707193081881 0 -0.0045134479002077559 0.024706311624565637 0 -0.0042692179214611796 0.024047641476776963 0 -0.0049467544979385917 0.023896272116478282 0 -0.0048983159524709149 0.02440707193081881 0 -0.0053373798132768189 0.010862673300131754 0 -0.0036194906040390813 0.0092755600424453185 0 -0.0027539199229385095 0.012008430570229631 0 -0.0049467544979385917 0.023896272116478282 0 -0.0048983159524709149 0.02440707193081881 0 -0.0054678157811442326 0.024410173750635183 0 -0.0061552234895881205 0.018414886332873172 0 -0.00079067647205505989 0.0093905652923234814 0 0.0029970409526594122 0.011917473341872691 0 0.0035686635972163 0.011717770818605713 0 0.0031489372765220462 0.0125308597049914 0 0.0029970409526594122 0.011917473341872691 0 0.0029132858491173605 0.011313487939296329 0 0.0035686635972163 0.011717770818605713 0 -0.00079067647205505989 0.0093905652923234814 0 -4.241656321986202e-05 0.018467533677019862 0 -0.0048983159524709149 0.02440707193081881 0 -0.0054678157811442326 0.024410173750635183 0 -0.0049024512210023314 0.024842233947417736 0 -0.0049024512210023314 0.024842233947417736 0 -0.0045134479002077559 0.024706311624565637 0 -0.0044083847128410601 0.025112765286658036 0 -4.241656321986202e-05 0.018467533677019862 0 -0.0019659275927026197 0.021359795512761886 0 -0.0048983159524709149 0.02440707193081881 0 -0.0049024512210023314 0.024842233947417736 0 -0.0045134479002077559 0.024706311624565637 0 -0.0038735971330752599 0.025659951282564503 0 -0.0019659275927026197 0.021359795512761886 0 -0.0045134479002077559 0.024706311624565637 0 -0.0044001543617292671 0.0258361290909432 0 -0.0037148891602787784 0.025285937358007191 0 0.0035686635972163 0.011717770818605713 0 0.0043528337788321329 0.012170575323118773 0 0.003892785070377121 0.012602586636310214 0 0.0043528337788321329 0.012170575323118773 0 0.003892785070377121 0.012602586636310214 0 0.0046532041238583829 0.013228410059221929 0 -0.0019659275927026197 0.021359795512761886 0 0.0013645319855022627 0.01657287599871889 0 0.0035686635972163 0.011717770818605713 0 0.003892785070377121 0.012602586636310214 0 0.0031489372765220462 0.0125308597049914 0 0.003892785070377121 0.012602586636310214 0 0.0031489372765220462 0.0125308597049914 0 0.0038385938679033893 0.013556991035554421 0 0.0033746568499270087 0.012823416867199363 0 0.0034520101257820603 0.012707273889371866 0 -0.0019605001203165289 0.024736811654603171 0 -0.0030186340229279946 0.024808007682125335 0 -0.0025551623783525868 0.025965705167705411 0 -0.0030186340229279946 0.024808007682125335 0 -0.0037148891602787784 0.025285937358007191 0 -0.0025551623783525868 0.025965705167705411 0 -0.0039398117987542291 0.024553573108194855 0 -0.0030186340229279946 0.024808007682125335 0 -0.0037148891602787784 0.025285937358007191 0 -0.0039398117987542291 0.024553573108194855 0 -0.0045134479002077559 0.024706311624565637 0 -0.0037148891602787784 0.025285937358007191 0 -0.0013857586314590317 0.022094006175408971 0 -0.0011137658281474771 0.022272592507087831 0 -0.0012967061640864249 0.022435230641401328 0 -0.0011137658281474771 0.022272592507087831 0 -0.00085859286383635535 0.022452044548735776 0 -0.0012967061640864249 0.022435230641401328 0 -0.0037148891602787784 0.025285937358007191 0 -0.0035064298925548661 0.02649355002494766 0 -0.0025551623783525868 0.025965705167705411 0 -0.0044001543617292671 0.0258361290909432 0 -0.0037148891602787784 0.025285937358007191 0 -0.0035064298925548661 0.02649355002494766 0 -0.0019659275927026197 0.021359795512761886 0 -0.0023375464600017618 0.024331607667399145 0 -0.0023375464600017618 0.024331607667399145 0 -0.001843383166613948 0.026842162910565227 0 -0.00197748124174194 0.027637218015878273 0 -0.0025551623783525868 0.025965705167705411 0 -0.0025992808385812273 0.027193426780288698 0 -0.0035064298925548661 0.02649355002494766 0 -0.0025551623783525868 0.025965705167705411 0 -0.0025992808385812273 0.027193426780288698 0 -0.0015455206313398104 0.033853460053629131 0 -0.00033981592441442222 0.035906306814276638 0 -0.0015455206313398104 0.033853460053629131 0 -0.001843383166613948 0.026842162910565227 0 0.00016831731914057732 0.029908820655738154 0 0.00025694670630794581 0.031124504066327427 0 -0.00071934658003207906 0.031876088777440303 0 0.0011227806392804112 0.030481590836177658 0 0.00016831731914057732 0.029908820655738154 0 0.00025694670630794581 0.031124504066327427 0 0.0011227806392804112 0.030481590836177658 0 0.00025694670630794581 0.031124504066327427 0 0.00044936996970725549 0.032244228207100996 0 0.00044936996970725549 0.032244228207100996 0 -0.00071934658003207906 0.031876088777440303 0 -0.00024751721753632738 0.034046050652011606 0 -0.00033981592441442222 0.035906306814276638 0 -0.00094965532326923017 0.038713452379316664 0 0.00025694670630794581 0.031124504066327427 0 0.00044936996970725549 0.032244228207100996 0 -0.00071934658003207906 0.031876088777440303 0 -0.00071934658003207906 0.031876088777440303 0 -0.0018136745501224549 0.032399404358899729 0 -0.00024751721753632738 0.034046050652011606 0 0.0048686053109984976 0.027678817420268533 0 0.0047889331078150498 0.027595294886458663 0 0.0047708345078963169 0.028018225564551223 0 0.0011630427449672508 0.029816829450466997 0 -0.00094965532326923017 0.038713452379316664 0 -0.00071934658003207906 0.031876088777440303 0 -0.0018136745501224549 0.032399404358899729 0 -0.0019284867986203876 0.031836191237961525 0 0.0011630427449672508 0.029816829450466997 0 0.00021081456899229594 0.023654408722802684 0 0.0011353784424688834 0.026334771556685094 0 -0.0011296530840433111 0.024047438322272637 0 0.00033264913402064768 0.02269914292165651 0 0.0011630427449672508 0.029816829450466997 0 0.0024641962195908283 0.021398025183652747 0 0.0024641962195908283 0.021398025183652747 0 0.00021081456899229594 0.023654408722802684 0 -0.001843383166613948 0.026842162910565227 0 0.00021081456899229594 0.023654408722802684 0 -0.00085859286383635535 0.022452044548735776 0 -0.0012153554267102422 0.022771106947406965 0 -0.0012967061640864249 0.022435230641401328 0 0.00021081456899229594 0.023654408722802684 0 0.0013645319855022627 0.01657287599871889 0 0.00016831731914057732 0.029908820655738154 0 -0.00071934658003207906 0.031876088777440303 0 -0.0019284867986203876 0.031836191237961525 0 0.0049262232504698475 0.014538131680796788 0 0.0046532041238583829 0.013228410059221929 0 0.0038385938679033893 0.013556991035554421 0 0.003892785070377121 0.012602586636310214 0 0.0046532041238583829 0.013228410059221929 0 0.0038385938679033893 0.013556991035554421 0 0.0024641962195908283 0.021398025183652747 0 0.0034520101257820603 0.012707273889371866 0 0.0047758301988008577 0.01468006651577443 0 0.0049262232504698475 0.014538131680796788 0 0.0038385938679033893 0.013556991035554421 0 0.0031489372765220462 0.0125308597049914 0 0.0037496470351543361 0.013128746602864706 0 0.0030628974333379052 0.013175491499063833 0 0.0037496470351543361 0.013128746602864706 0 0.0030628974333379052 0.013175491499063833 0 0.0034076695254327462 0.013738399277771825 0 0.0030628974333379052 0.013175491499063833 0 0.0034076695254327462 0.013738399277771825 0 0.0026447452852449709 0.013647209557870681 0 0.0034076695254327462 0.013738399277771825 0 0.0036605004617079446 0.014402484970290428 0 0.0029596876840729978 0.014291645520910253 0 0.0034076695254327462 0.013738399277771825 0 0.0029596876840729978 0.014291645520910253 0 0.0026447452852449709 0.013647209557870681 0 0.0043473388173909076 0.013790354107800653 0 0.0034076695254327462 0.013738399277771825 0 0.0036605004617079446 0.014402484970290428 0 0.0043473388173909076 0.013790354107800653 0 0.0037496470351543361 0.013128746602864706 0 0.0034076695254327462 0.013738399277771825 0 0.0047889331078150498 0.027595294886458663 0 0.0044596754692785342 0.028016501411196031 0 0.0047708345078963169 0.028018225564551223 0 0.0024641962195908283 0.021398025183652747 0 0.0045007324115331733 0.020871642819515319 0 0.0044596754692785342 0.028016501411196031 0 0.0046296963801894875 0.028448725216234434 0 0.0047708345078963169 0.028018225564551223 0 0.0036605004617079446 0.014402484970290428 0 0.0029596876840729978 0.014291645520910253 0 0.00298454411522368 0.015036158413641032 0 0.0045007324115331733 0.020871642819515319 0 0.0031498463848883226 0.022254532627194509 0 0.0044596754692785342 0.028016501411196031 0 0.0044616314055826792 0.028402152175757926 0 0.0043281287753355602 0.028238540789875085 0 0.0044616314055826792 0.028402152175757926 0 0.0043281287753355602 0.028238540789875085 0 0.004313096633522558 0.028427605238244762 0 0.0044616314055826792 0.028402152175757926 0 0.0046296963801894875 0.028448725216234434 0 0.0045407397111486792 0.028512455244322034 0 0.0044596754692785342 0.028016501411196031 0 0.0044616314055826792 0.028402152175757926 0 0.0046296963801894875 0.028448725216234434 0 0.005150439939446241 0.028381629680463108 0 0.0049263877519420615 0.029181253969167764 0 0.0055999443501527123 0.029844441892732335 0 -0.0020816911941636974 0.040411929900758044 0 -0.0014858187982546621 0.040941543630147903 0 -0.001655215907970314 0.041479901298200061 0 0.001551409237318976 0.034851052434750757 0 0.0022156824076940895 0.036331748037355303 0 0.0046296963801894875 0.028448725216234434 0 0.005150439939446241 0.028381629680463108 0 0.0049263877519420615 0.029181253969167764 0 -0.0020816911941636974 0.040411929900758044 0 -0.0014858187982546621 0.040941543630147903 0 -0.0016722363407269021 0.040205465101158522 0 -0.00098968499770449563 0.040728601248840271 0 -0.0014858187982546621 0.040941543630147903 0 -0.0016722363407269021 0.040205465101158522 0 -0.00089981847670820702 0.040315295093270212 0 -0.00098968499770449563 0.040728601248840271 0 -0.0013918606762301393 0.040355353286868408 0 -0.00098968499770449563 0.040728601248840271 0 -0.0015285407583068918 0.039845072018941011 0 -0.0016722363407269021 0.040205465101158522 0 -0.00089981847670820702 0.040315295093270212 0 -0.001241912874995837 0.039890446497039947 0 -0.0013918606762301393 0.040355353286868408 0 -0.00094965532326923017 0.038713452379316664 0 -0.0015512517597409533 0.04005802143335286 0 -0.00096720155535501512 0.040919994997577452 0 -0.00094965532326923017 0.038713452379316664 0 0.0011630427449672508 0.029816829450466997 0 0.001551409237318976 0.034851052434750757 0 0.0046296963801894875 0.028448725216234434 0 0.005150439939446241 0.028381629680463108 0 0.0047708345078963169 0.028018225564551223 0 0.0048686053109984976 0.027678817420268533 0 0.005150439939446241 0.028381629680463108 0 0.0047708345078963169 0.028018225564551223 0 -0.0026644242368185724 0.037865243453258167 0 -0.0020816911941636974 0.040411929900758044 0 -0.0013260932482609168 0.03936095340567259 0 -0.0020816911941636974 0.040411929900758044 0 -0.0013260932482609168 0.03936095340567259 0 -0.0016722363407269021 0.040205465101158522 0 0.0049573775566544081 0.0060490720703860702 0 0.0011565512057430257 0.0052976486895895559 0 0.0016518829172229674 0.0086534858679462763 0 0.0011565512057430257 0.0052976486895895559 0 0.0016518829172229674 0.0086534858679462763 0 -0.001018520411952326 0.0061657275392641119 0 0.0049573775566544081 0.0060490720703860702 0 0.0011565512057430257 0.0052976486895895559 0 0.00081931835488590601 0.0016897257575762411 0 0.0016518829172229674 0.0086534858679462763 0 -0.0020679961932342384 0.00823779525165097 0 -0.00035412281033664426 0.012015675976375238 0 0.0016518829172229674 0.0086534858679462763 0 -0.001018520411952326 0.0061657275392641119 0 -0.0020679961932342384 0.00823779525165097 0 0.0049573775566544081 0.0060490720703860702 0 0.0016518829172229674 0.0086534858679462763 0 0.0052397614927947476 0.009902573555157751 0 0.0016518829172229674 0.0086534858679462763 0 0.0052397614927947476 0.009902573555157751 0 0.0033972921145022524 0.01211282889026829 0 0.0032974270256915989 0.0098785862811117849 0 0.0045929692049181212 0.018158597309136198 0 0.001318775106174896 0.014616972837379111 0 0.0023211803012943115 0.014483377649956011 0 0.0022910536819188321 0.015695127911724567 0 0.0049573775566544081 0.0060490720703860702 0 0.0052397614927947476 0.009902573555157751 0 0.009062198563590888 0.010457013493207041 0 0.00298454411522368 0.015036158413641032 0 0.0023211803012943115 0.014483377649956011 0 0.0022910536819188321 0.015695127911724567 0 0.0043281287753355602 0.028238540789875085 0 0.0042338891502281678 0.028309569618314687 0 0.004313096633522558 0.028427605238244762 0 0.0031498463848883226 0.022254532627194509 0 0.0045929692049181212 0.018158597309136198 0 0.0029596876840729978 0.014291645520910253 0 0.00298454411522368 0.015036158413641032 0 0.0023211803012943115 0.014483377649956011 0 0.001318775106174896 0.014616972837379111 0 0.0023211803012943115 0.014483377649956011 0 0.0017150200623563235 0.013649587519447582 0 0.0029596876840729978 0.014291645520910253 0 0.0023211803012943115 0.014483377649956011 0 0.0026447452852449709 0.013647209557870681 0 0.0023211803012943115 0.014483377649956011 0 0.0017150200623563235 0.013649587519447582 0 0.0026447452852449709 0.013647209557870681 0 0.0017150200623563235 0.013649587519447582 0 0.0026447452852449709 0.013647209557870681 0 0.0023380608263188444 0.012939090213777461 0 0.0030628974333379052 0.013175491499063833 0 0.0026447452852449709 0.013647209557870681 0 0.0023380608263188444 0.012939090213777461 0 0.0031489372765220462 0.0125308597049914 0 0.0030628974333379052 0.013175491499063833 0 0.0023380608263188444 0.012939090213777461 0 0.0017150200623563235 0.013649587519447582 0 0.0023380608263188444 0.012939090213777461 0 0.0012392362428259723 0.012795620258472697 0 0.00047439761158843912 0.0054485818750246752 0 0.00018573974322047966 0.0053183585114968332 0 0.0017150200623563235 0.013649587519447582 0 0.0012392362428259723 0.012795620258472697 0 0.00035814037398420754 0.013524095585201077 0 0.001318775106174896 0.014616972837379111 0 0.0017150200623563235 0.013649587519447582 0 0.00035814037398420754 0.013524095585201077 0 0.0032974270256915989 0.0098785862811117849 0 0.00018573974322047966 0.0053183585114968332 0 0.0011565512057430257 0.0052976486895895559 0 0.00081931835488590601 0.0016897257575762411 0 -0.0020629717678639766 0.0042272023620806079 0 -0.00097351756029655017 -0.00082019777457941216 0 -0.00096002391975001167 -0.0019915038278802894 0 -0.0022627149770097785 -0.001459020740624374 0 0.00043794768851891549 -0.0027742313298556799 0 -0.00097351756029655017 -0.00082019777457941216 0 -0.00096002391975001167 -0.0019915038278802894 0 0.00018573974322047966 0.0053183585114968332 0 -0.002852949867659659 -0.002262394055588941 0 0.00043794768851891549 -0.0027742313298556799 0 -0.00096002391975001167 -0.0019915038278802894 0 -0.0011236973319260839 -0.0032097212985442223 0 -0.00096002391975001167 -0.0019915038278802894 0 -0.0011236973319260839 -0.0032097212985442223 0 -0.0022627149770097785 -0.001459020740624374 0 0.00043794768851891549 -0.0027742313298556799 0 -0.0011236973319260839 -0.0032097212985442223 0 -0.00030781037277398783 -0.0038289800456361659 0 -0.0011236973319260839 -0.0032097212985442223 0 -0.0011861014569913573 -0.0043078809157821229 0 -0.0022699507543483691 -0.0046448184973704558 0 -0.0011861014569913573 -0.0043078809157821229 0 -0.00030781037277398783 -0.0038289800456361659 0 -0.00072604952046557091 -0.0048488388326933451 0 -0.0011236973319260839 -0.0032097212985442223 0 -0.0011861014569913573 -0.0043078809157821229 0 -0.00030781037277398783 -0.0038289800456361659 0 0.00043794768851891549 -0.0027742313298556799 0 -0.00030781037277398783 -0.0038289800456361659 0 0.0012374576633692156 -0.003960031516735696 0 -0.00030781037277398783 -0.0038289800456361659 0 -0.00016545498498523903 -0.0046213579575016287 0 0.0012374576633692156 -0.003960031516735696 0 -0.00016545498498523903 -0.0046213579575016287 0 -0.00039255928636553275 -0.0048873976832909116 0 -9.4498726330280713e-05 -0.004907081715614524 0 -0.00031293863319178862 -0.0044611159709827203 0 0.00090365820920262452 -0.0052829298697672136 0 -0.00016545498498523903 -0.0046213579575016287 0 -0.00039255928636553275 -0.0048873976832909116 0 -0.00072604952046557091 -0.0048488388326933451 0 -0.00039255928636553275 -0.0048873976832909116 0 -0.00072604952046557091 -0.0048488388326933451 0 -0.00047395219086815898 -0.0050328869483704528 0 -0.00072604952046557091 -0.0048488388326933451 0 -0.001654831354766352 -0.0050172360276401814 0 -0.002150570939478113 -0.0060157570967085735 0 -0.0011861014569913573 -0.0043078809157821229 0 -0.00072604952046557091 -0.0048488388326933451 0 -0.001654831354766352 -0.0050172360276401814 0 -0.00030781037277398783 -0.0038289800456361659 0 -0.00016545498498523903 -0.0046213579575016287 0 -0.00072604952046557091 -0.0048488388326933451 0 0.0031489372765220462 0.0125308597049914 0 0.0023380608263188444 0.012939090213777461 0 0.0020918368117937769 0.012072255860174795 0 0.0029970409526594122 0.011917473341872691 0 0.0031489372765220462 0.0125308597049914 0 0.0020918368117937769 0.012072255860174795 0 0.0023380608263188444 0.012939090213777461 0 0.0012392362428259723 0.012795620258472697 0 0.0020918368117937769 0.012072255860174795 0 0.00047439761158843912 0.0054485818750246752 0 0.0025537230839072257 0.002915658088209626 0 -0.00016545498498523903 -0.0046213579575016287 0 0.0012374576633692156 -0.003960031516735696 0 0.00052692222341484238 -0.0048862837159780372 0 0.0012374576633692156 -0.003960031516735696 0 0.0011947058747951013 -0.0046175341708642858 0 0.00052692222341484238 -0.0048862837159780372 0 0.0029970409526594122 0.011917473341872691 0 0.0029132858491173605 0.011313487939296329 0 0.0020918368117937769 0.012072255860174795 0 -0.00079067647205505989 0.0093905652923234814 0 0.0025537230839072257 0.002915658088209626 0 0.0018233951049492912 -0.0045746734082889925 0 0.0012374576633692156 -0.003960031516735696 0 0.0011947058747951013 -0.0046175341708642858 0 0.0018233951049492912 -0.0045746734082889925 0 0.0011947058747951013 -0.0046175341708642858 0 0.0011001403231091474 -0.0051475480997169743 0 -0.00079067647205505989 0.0093905652923234814 0 -0.00040867140692281049 0.0016080354399625534 0 -0.0036194906040390813 0.0092755600424453185 0 -0.0011951139101632636 0.01063708583062755 0 -0.0027539199229385095 0.012008430570229631 0 6.0625693749824416e-05 -0.0050140346859891211 0 -9.4498726330280713e-05 -0.004907081715614524 0 -0.00025735252358691886 -0.0052039142247346949 0 0.0011947058747951013 -0.0046175341708642858 0 0.0011001403231091474 -0.0051475480997169743 0 0.00052692222341484238 -0.0048862837159780372 0 -0.00040867140692281049 0.0016080354399625534 0 0.00090365820920262452 -0.0052829298697672136 0 -0.00071548197837609272 0.0060262629579852555 0 -0.00052657958280590185 0.0063378054797773248 0 -0.0010283052232194804 0.0065391670439218959 0 -0.00040867140692281049 0.0016080354399625534 0 -0.00075230478306921188 0.00053540058483153824 0 -0.00051736268941056927 0.0066634414209018897 0 -0.00052657958280590185 0.0063378054797773248 0 -0.0010283052232194804 0.0065391670439218959 0 -0.00036938674755430213 0.0059054626338828874 0 -0.00052657958280590185 0.0063378054797773248 0 -0.00021868229891575013 0.0063939398019801866 0 -0.00040867140692281049 0.0016080354399625534 0 -0.0020882100596890016 0.0095426031804538448 0 -0.00051736268941056927 0.0066634414209018897 0 -0.00052657958280590185 0.0063378054797773248 0 -0.00021868229891575013 0.0063939398019801866 0 -0.0045092189894792916 0.0080126869376366313 0 -0.0020882100596890016 0.0095426031804538448 0 -0.00072604952046557091 -0.0048488388326933451 0 -0.0019982981833284652 -0.0075299277207418894 0 -0.002150570939478113 -0.0060157570967085735 0 -0.00072604952046557091 -0.0048488388326933451 0 -0.00047395219086815898 -0.0050328869483704528 0 -0.00060212785961604148 -0.0051473918353072343 0 -0.00073588873895004262 -0.0047030788365787779 0 -0.001230793575170673 -0.0067871128453824018 0 -0.00047395219086815898 -0.0050328869483704528 0 -0.00047350258702052794 -0.0051701211542701155 0 -0.00060212785961604148 -0.0051473918353072343 0 -0.00039255928636553275 -0.0048873976832909116 0 -9.4498726330280713e-05 -0.004907081715614524 0 -0.00047395219086815898 -0.0050328869483704528 0 -9.4498726330280713e-05 -0.004907081715614524 0 -0.00047395219086815898 -0.0050328869483704528 0 -0.00025735252358691886 -0.0052039142247346949 0 -0.00047395219086815898 -0.0050328869483704528 0 -0.00025735252358691886 -0.0052039142247346949 0 -0.00047350258702052794 -0.0051701211542701155 0 -0.0029381635479393837 0.0057714542851555369 0 -0.0012027966109265261 0.0058442340426786837 0 -0.0010283052232194804 0.0065391670439218959 0 -0.0012027966109265261 0.0058442340426786837 0 -0.00071548197837609272 0.0060262629579852555 0 -0.0010283052232194804 0.0065391670439218959 0 -0.0015540206015530486 0.00064349567766754697 0 -0.00075230478306921188 0.00053540058483153824 0 -0.00053170205898611677 -0.0053012430108546069 0 -0.00047350258702052794 -0.0051701211542701155 0 -0.00060212785961604148 -0.0051473918353072343 0 -0.00053170205898611677 -0.0053012430108546069 0 -0.00025735252358691886 -0.0052039142247346949 0 -0.00047350258702052794 -0.0051701211542701155 0 -0.0027799463139996762 -0.0050211331992637285 0 -0.001230793575170673 -0.0067871128453824018 0 -0.0019982981833284652 -0.0075299277207418894 0 -0.0033726871108419217 -0.0069823514668617276 0 -0.0032325524615261078 -0.008111947812502603 0 -0.0030116860616090243 -0.0092123980875495719 0 -0.0019982981833284652 -0.0075299277207418894 0 -0.0032325524615261078 -0.008111947812502603 0 -0.0019982981833284652 -0.0075299277207418894 0 -0.0033726871108419217 -0.0069823514668617276 0 -0.002150570939478113 -0.0060157570967085735 0 -0.0033726871108419217 -0.0069823514668617276 0 -0.002150570939478113 -0.0060157570967085735 0 -0.0035636206388963321 -0.0055695111923257639 0 -0.0033726871108419217 -0.0069823514668617276 0 -0.00460506450397193 -0.0065893408710838638 0 -0.0035636206388963321 -0.0055695111923257639 0 -0.0033726871108419217 -0.0069823514668617276 0 -0.0043633792620438351 -0.0079520565579829922 0 -0.00460506450397193 -0.0065893408710838638 0 -0.003584187690338973 -0.0088284312764441448 0 -0.0032325524615261078 -0.008111947812502603 0 -0.0043633792620438351 -0.0079520565579829922 0 -0.0033726871108419217 -0.0069823514668617276 0 -0.0032325524615261078 -0.008111947812502603 0 -0.0043633792620438351 -0.0079520565579829922 0 -0.0043633792620438351 -0.0079520565579829922 0 -0.0054880587038935759 -0.0080958521478789736 0 -0.0052754802184291514 -0.0072762125772852801 0 -0.0049807383057567812 -0.0087531331650025895 0 -0.0043633792620438351 -0.0079520565579829922 0 -0.0054880587038935759 -0.0080958521478789736 0 -0.0054880587038935759 -0.0080958521478789736 0 -0.0059884485013647999 -0.0073519314481741826 0 -0.0065681205881174759 -0.0082641961772683473 0 -0.0057885525895425751 -0.0088647991493767276 0 -0.0054880587038935759 -0.0080958521478789736 0 -0.0065681205881174759 -0.0082641961772683473 0 -0.0054880587038935759 -0.0080958521478789736 0 -0.0059884485013647999 -0.0073519314481741826 0 -0.0052754802184291514 -0.0072762125772852801 0 -0.0052754802184291514 -0.0072762125772852801 0 -0.00460506450397193 -0.0065893408710838638 0 -0.0058580655578452396 -0.0064371976691490031 0 -0.0059884485013647999 -0.0073519314481741826 0 -0.0052754802184291514 -0.0072762125772852801 0 -0.0058580655578452396 -0.0064371976691490031 0 -0.0043633792620438351 -0.0079520565579829922 0 -0.0052754802184291514 -0.0072762125772852801 0 -0.00460506450397193 -0.0065893408710838638 0 -0.00460506450397193 -0.0065893408710838638 0 -0.0046354672768041212 -0.0055381041617781441 0 -0.0035636206388963321 -0.0055695111923257639 0 -0.00460506450397193 -0.0065893408710838638 0 -0.0046354672768041212 -0.0055381041617781441 0 -0.0058580655578452396 -0.0064371976691490031 0 -0.0046354672768041212 -0.0055381041617781441 0 -0.0058580655578452396 -0.0064371976691490031 0 -0.0060773551052289501 -0.0053677684449094558 0 -0.0060773551052289501 -0.0053677684449094558 0 -0.0051732370562030342 -0.0048469844577099597 0 -0.0058172053029485566 -0.0044332828569876633 0 -0.0046354672768041212 -0.0055381041617781441 0 -0.0060773551052289501 -0.0053677684449094558 0 -0.0051732370562030342 -0.0048469844577099597 0 -0.0046354672768041212 -0.0055381041617781441 0 -0.0051732370562030342 -0.0048469844577099597 0 -0.0045775794543357739 -0.004277080132574212 0 -0.0034132844413971557 -0.0044044869419288101 0 -0.0022699507543483691 -0.0046448184973704558 0 -0.0035636206388963321 -0.0055695111923257639 0 -0.0046354672768041212 -0.0055381041617781441 0 -0.0034132844413971557 -0.0044044869419288101 0 -0.0045775794543357739 -0.004277080132574212 0 -0.0011236973319260839 -0.0032097212985442223 0 -0.0034132844413971557 -0.0044044869419288101 0 -0.0022699507543483691 -0.0046448184973704558 0 -0.0022699507543483691 -0.0046448184973704558 0 -0.001654831354766352 -0.0050172360276401814 0 -0.002150570939478113 -0.0060157570967085735 0 -0.0022699507543483691 -0.0046448184973704558 0 -0.002150570939478113 -0.0060157570967085735 0 -0.0035636206388963321 -0.0055695111923257639 0 -0.0011861014569913573 -0.0043078809157821229 0 -0.0022699507543483691 -0.0046448184973704558 0 -0.001654831354766352 -0.0050172360276401814 0 -0.0046354672768041212 -0.0055381041617781441 0 -0.0034132844413971557 -0.0044044869419288101 0 -0.0035636206388963321 -0.0055695111923257639 0 -0.0093641819044581204 -0.0076069898257352117 0 -0.0086418019526402021 -0.0075247444357468569 0 -0.0089015419873102689 -0.0066111081427983956 0 -0.0086418019526402021 -0.0075247444357468569 0 -0.0090536146696596227 -0.0083249802981678264 0 -0.0082711196533710955 -0.0083833506942848079 0 -0.0093641819044581204 -0.0076069898257352117 0 -0.0086418019526402021 -0.0075247444357468569 0 -0.0090536146696596227 -0.0083249802981678264 0 -0.0086418019526402021 -0.0075247444357468569 0 -0.0082711196533710955 -0.0083833506942848079 0 -0.0077989916732087335 -0.0075449266814769907 0 -0.0082711196533710955 -0.0083833506942848079 0 -0.0077989916732087335 -0.0075449266814769907 0 -0.0075967515779869028 -0.0084370752554566997 0 -0.0077989916732087335 -0.0075449266814769907 0 -0.0075041524680848027 -0.0067647464381060144 0 -0.0081790876303940597 -0.0067749293977966427 0 -0.0086418019526402021 -0.0075247444357468569 0 -0.0077989916732087335 -0.0075449266814769907 0 -0.0081790876303940597 -0.0067749293977966427 0 -0.0077989916732087335 -0.0075449266814769907 0 -0.0071475932043677708 -0.0078773210517968754 0 -0.0068549591715832631 -0.0071980322594040157 0 -0.0077989916732087335 -0.0075449266814769907 0 -0.0068549591715832631 -0.0071980322594040157 0 -0.0075041524680848027 -0.0067647464381060144 0 -0.0071475932043677708 -0.0078773210517968754 0 -0.0075967515779869028 -0.0084370752554566997 0 -0.0065681205881174759 -0.0082641961772683473 0 -0.0077989916732087335 -0.0075449266814769907 0 -0.0071475932043677708 -0.0078773210517968754 0 -0.0075967515779869028 -0.0084370752554566997 0 -0.0059884485013647999 -0.0073519314481741826 0 -0.0065681205881174759 -0.0082641961772683473 0 -0.0068549591715832631 -0.0071980322594040157 0 -0.0071475932043677708 -0.0078773210517968754 0 -0.0065681205881174759 -0.0082641961772683473 0 -0.0068549591715832631 -0.0071980322594040157 0 -0.0059884485013647999 -0.0073519314481741826 0 -0.0058580655578452396 -0.0064371976691490031 0 -0.0068549591715832631 -0.0071980322594040157 0 -0.0058580655578452396 -0.0064371976691490031 0 -0.0068549591715832631 -0.0071980322594040157 0 -0.0068961639818115924 -0.0062177162531429049 0 -0.0058580655578452396 -0.0064371976691490031 0 -0.0060773551052289501 -0.0053677684449094558 0 -0.0068961639818115924 -0.0062177162531429049 0 -0.0060773551052289501 -0.0053677684449094558 0 -0.0068961639818115924 -0.0062177162531429049 0 -0.0071467182700389164 -0.0054827194353048682 0 -0.0060773551052289501 -0.0053677684449094558 0 -0.0071467182700389164 -0.0054827194353048682 0 -0.0067446612854834172 -0.0047278138711433189 0 -0.0068961639818115924 -0.0062177162531429049 0 -0.0071467182700389164 -0.0054827194353048682 0 -0.0077298816400206364 -0.0061066001741112985 0 -0.0071467182700389164 -0.0054827194353048682 0 -0.0077298816400206364 -0.0061066001741112985 0 -0.0080842812738896978 -0.0054441619170761011 0 -0.0068961639818115924 -0.0062177162531429049 0 -0.0077298816400206364 -0.0061066001741112985 0 -0.0075041524680848027 -0.0067647464381060144 0 -0.0068549591715832631 -0.0071980322594040157 0 -0.0068961639818115924 -0.0062177162531429049 0 -0.0075041524680848027 -0.0067647464381060144 0 -0.0077298816400206364 -0.0061066001741112985 0 -0.0075041524680848027 -0.0067647464381060144 0 -0.0081790876303940597 -0.0067749293977966427 0 -0.0077298816400206364 -0.0061066001741112985 0 -0.0081790876303940597 -0.0067749293977966427 0 -0.0083377520156964757 -0.0061347434186325113 0 -0.0080842812738896978 -0.0054441619170761011 0 -0.0083377520156964757 -0.0061347434186325113 0 -0.0087450109880172818 -0.0057536469901307537 0 -0.0077298816400206364 -0.0061066001741112985 0 -0.0080842812738896978 -0.0054441619170761011 0 -0.0083377520156964757 -0.0061347434186325113 0 -0.0092414721030448718 -0.0060452803122757626 0 -0.0087450109880172818 -0.0057536469901307537 0 -0.0089015419873102689 -0.0066111081427983956 0 -0.0083377520156964757 -0.0061347434186325113 0 -0.0087450109880172818 -0.0057536469901307537 0 -0.0089015419873102689 -0.0066111081427983956 0 -0.0092414721030448718 -0.0060452803122757626 0 -0.0091741129382811037 -0.005534849016597977 0 -0.0087450109880172818 -0.0057536469901307537 0 -0.0086418019526402021 -0.0075247444357468569 0 -0.0081790876303940597 -0.0067749293977966427 0 -0.0089015419873102689 -0.0066111081427983956 0 -0.0081790876303940597 -0.0067749293977966427 0 -0.0083377520156964757 -0.0061347434186325113 0 -0.0089015419873102689 -0.0066111081427983956 0 -0.0094005034002169995 -0.0051861588869278902 0 -0.008837956606295121 -0.0047040933966229406 0 -0.0087193109537253548 -0.0050811551943662006 0 -0.0094005034002169995 -0.0051861588869278902 0 -0.008837956606295121 -0.0047040933966229406 0 -0.008995691640408289 -0.0043257222341635711 0 -0.0086071900139452224 -0.0042731422691715728 0 -0.008837956606295121 -0.0047040933966229406 0 -0.008995691640408289 -0.0043257222341635711 0 -0.0086071900139452224 -0.0042731422691715728 0 -0.008837956606295121 -0.0047040933966229406 0 -0.0085045637585477677 -0.0046276762545781874 0 -0.008837956606295121 -0.0047040933966229406 0 -0.0087193109537253548 -0.0050811551943662006 0 -0.0085045637585477677 -0.0046276762545781874 0 -0.0080842812738896978 -0.0054441619170761011 0 -0.0087450109880172818 -0.0057536469901307537 0 -0.0087193109537253548 -0.0050811551943662006 0 -0.0091741129382811037 -0.005534849016597977 0 -0.0087450109880172818 -0.0057536469901307537 0 -0.0087193109537253548 -0.0050811551943662006 0 -0.0080842812738896978 -0.0054441619170761011 0 -0.0081428058661263559 -0.0047638959054897108 0 -0.007532210434346388 -0.0048211446407674359 0 -0.0080842812738896978 -0.0054441619170761011 0 -0.0087193109537253548 -0.0050811551943662006 0 -0.0081428058661263559 -0.0047638959054897108 0 -0.0081428058661263559 -0.0047638959054897108 0 -0.0081936129342043435 -0.0043277182642037166 0 -0.0077320703444363568 -0.0043288659979331418 0 -0.0081428058661263559 -0.0047638959054897108 0 -0.0085045637585477677 -0.0046276762545781874 0 -0.0081936129342043435 -0.0043277182642037166 0 -0.0087193109537253548 -0.0050811551943662006 0 -0.0081428058661263559 -0.0047638959054897108 0 -0.0085045637585477677 -0.0046276762545781874 0 -0.0086071900139452224 -0.0042731422691715728 0 -0.0085045637585477677 -0.0046276762545781874 0 -0.0081936129342043435 -0.0043277182642037166 0 -0.0086071900139452224 -0.0042731422691715728 0 -0.0081936129342043435 -0.0043277182642037166 0 -0.0083340500733024726 -0.0040247899728831586 0 -0.0081936129342043435 -0.0043277182642037166 0 -0.0078616576087242925 -0.0039506191460279933 0 -0.0083340500733024726 -0.0040247899728831586 0 -0.0081936129342043435 -0.0043277182642037166 0 -0.0077320703444363568 -0.0043288659979331418 0 -0.0078616576087242925 -0.0039506191460279933 0 -0.007472162995230151 -0.0040089325843985744 0 -0.007100622735448597 -0.0035370800518646603 0 -0.0078616576087242925 -0.0039506191460279933 0 -0.007472162995230151 -0.0040089325843985744 0 -0.0077320703444363568 -0.0043288659979331418 0 -0.0078616576087242925 -0.0039506191460279933 0 -0.007472162995230151 -0.0040089325843985744 0 -0.0071847847670147421 -0.0042256315358740176 0 -0.007100622735448597 -0.0035370800518646603 0 -0.007472162995230151 -0.0040089325843985744 0 -0.0071847847670147421 -0.0042256315358740176 0 -0.0077320703444363568 -0.0043288659979331418 0 -0.0071847847670147421 -0.0042256315358740176 0 -0.0077320703444363568 -0.0043288659979331418 0 -0.007532210434346388 -0.0048211446407674359 0 -0.0071467182700389164 -0.0054827194353048682 0 -0.0080842812738896978 -0.0054441619170761011 0 -0.007532210434346388 -0.0048211446407674359 0 -0.0071467182700389164 -0.0054827194353048682 0 -0.007532210434346388 -0.0048211446407674359 0 -0.0067446612854834172 -0.0047278138711433189 0 -0.0081428058661263559 -0.0047638959054897108 0 -0.0077320703444363568 -0.0043288659979331418 0 -0.007532210434346388 -0.0048211446407674359 0 -0.0071847847670147421 -0.0042256315358740176 0 -0.007532210434346388 -0.0048211446407674359 0 -0.0067446612854834172 -0.0047278138711433189 0 -0.0071847847670147421 -0.0042256315358740176 0 -0.0067446612854834172 -0.0047278138711433189 0 -0.0064680140587405786 -0.004084563727592549 0 -0.0067446612854834172 -0.0047278138711433189 0 -0.0064680140587405786 -0.004084563727592549 0 -0.0058172053029485566 -0.0044332828569876633 0 -0.0064680140587405786 -0.004084563727592549 0 -0.007100622735448597 -0.0035370800518646603 0 -0.0054259253599636421 -0.0035113756539016782 0 -0.0071847847670147421 -0.0042256315358740176 0 -0.0064680140587405786 -0.004084563727592549 0 -0.007100622735448597 -0.0035370800518646603 0 -0.013857146610941614 0.0050664931823187088 0 -0.013082931780388133 0.0067784758280837274 0 -0.010715296377275292 0.0054057985186658627 0 -0.013857146610941614 0.0050664931823187088 0 -0.013082931780388133 0.0067784758280837274 0 -0.014493456422057495 0.0060603470958447859 0 -0.013082931780388133 0.0067784758280837274 0 -0.012728661326227717 0.0088176506259762377 0 -0.011012073927056627 0.0074837987940098976 0 -0.012728661326227717 0.0088176506259762377 0 -0.014381584868383463 0.0082216923363907981 0 -0.014034134502348626 0.011728635830430743 0 -0.013082931780388133 0.0067784758280837274 0 -0.012728661326227717 0.0088176506259762377 0 -0.014381584868383463 0.0082216923363907981 0 -0.013082931780388133 0.0067784758280837274 0 -0.014381584868383463 0.0082216923363907981 0 -0.014493456422057495 0.0060603470958447859 0 -0.014381584868383463 0.0082216923363907981 0 -0.01567564156208736 0.0079463398883802654 0 -0.014493456422057495 0.0060603470958447859 0 -0.014404999429612134 0.0060532522287195531 0 -0.016900781279060521 0.0071443669161767821 0 -0.01567564156208736 0.0079463398883802654 0 -0.014493456422057495 0.0060603470958447859 0 -0.017407021284585301 0.0075687756731140513 0 -0.014381584868383463 0.0082216923363907981 0 -0.01567564156208736 0.0079463398883802654 0 -0.014974659221688251 0.0093654538462575338 0 -0.013857146610941614 0.0050664931823187088 0 -0.014493456422057495 0.0060603470958447859 0 -0.015358127313884107 0.0062756959673040454 0 -0.007100622735448597 -0.0035370800518646603 0 -0.0078616576087242925 -0.0039506191460279933 0 -0.0083883787942171835 -0.003651785595737111 0 -0.010404069408250427 0.00075944373499457903 0 -0.011820159789565502 0.0010220343859582476 0 -0.014493456422057495 0.0060603470958447859 0 -0.015358127313884107 0.0062756959673040454 0 -0.015394044751908866 0.0063957197731296734 0 -0.0078616576087242925 -0.0039506191460279933 0 -0.0083340500733024726 -0.0040247899728831586 0 -0.0083883787942171835 -0.003651785595737111 0 -0.0086071900139452224 -0.0042731422691715728 0 -0.0083340500733024726 -0.0040247899728831586 0 -0.0086045864161370354 -0.0039599450497581007 0 -0.0083340500733024726 -0.0040247899728831586 0 -0.0086045864161370354 -0.0039599450497581007 0 -0.0083883787942171835 -0.003651785595737111 0 -0.0086045864161370354 -0.0039599450497581007 0 -0.0083883787942171835 -0.003651785595737111 0 -0.0088784069636319053 -0.0038538380421835098 0 -0.01567564156208736 0.0079463398883802654 0 -0.016835547223302081 0.0084953559931359654 0 -0.016128141295759513 0.0095140108664378883 0 -0.01567564156208736 0.0079463398883802654 0 -0.016835547223302081 0.0084953559931359654 0 -0.017407021284585301 0.0075687756731140513 0 -0.016835547223302081 0.0084953559931359654 0 -0.017407021284585301 0.0075687756731140513 0 -0.018083310941641118 0.0089100409585868255 0 -0.015369365087267776 0.0064107662531905363 0 -0.015358127313884107 0.0062756959673040454 0 -0.015394044751908866 0.0063957197731296734 0 -0.015369365087267776 0.0064107662531905363 0 -0.015394044751908866 0.0063957197731296734 0 -0.015372271594221306 0.0064071330106360855 0 -0.0092647947146885807 -0.003684083579855205 0 -0.0083883787942171835 -0.003651785595737111 0 -0.0088784069636319053 -0.0038538380421835098 0 -0.017407021284585301 0.0075687756731140513 0 -0.018083310941641118 0.0089100409585868255 0 -0.019753288685801312 0.0086634532702057777 0 -0.016900781279060521 0.0071443669161767821 0 -0.014814637846450429 0.0069294355941673354 0 -0.012073864780398421 0.0031436741809611427 0 -0.011820159789565502 0.0010220343859582476 0 -0.0092647947146885807 -0.003684083579855205 0 -0.0091131869327398911 -0.0038790637640525008 0 -0.0088784069636319053 -0.0038538380421835098 0 -0.0092301799789469008 -0.0040090188154261056 0 -0.0091131869327398911 -0.0038790637640525008 0 -0.0090467995601640067 -0.004072430808305356 0 -0.0090467995601640067 -0.004072430808305356 0 -0.0088784069636319053 -0.0038538380421835098 0 -0.0088208096269731581 -0.0040628912252433482 0 -0.0091131869327398911 -0.0038790637640525008 0 -0.0090467995601640067 -0.004072430808305356 0 -0.0088784069636319053 -0.0038538380421835098 0 -0.0086045864161370354 -0.0039599450497581007 0 -0.0088784069636319053 -0.0038538380421835098 0 -0.0088208096269731581 -0.0040628912252433482 0 -0.0086071900139452224 -0.0042731422691715728 0 -0.0088208096269731581 -0.0040628912252433482 0 -0.008995691640408289 -0.0043257222341635711 0 -0.0086071900139452224 -0.0042731422691715728 0 -0.0086045864161370354 -0.0039599450497581007 0 -0.0088208096269731581 -0.0040628912252433482 0 -0.0090467995601640067 -0.004072430808305356 0 -0.0088208096269731581 -0.0040628912252433482 0 -0.008995691640408289 -0.0043257222341635711 0 -0.0045084170277584316 0.0026652132938914941 0 -0.0046002586461504858 -0.00039150573968842038 0 -0.0065429794289776511 0.0029393638566365498 0 -0.0045084170277584316 0.0026652132938914941 0 -0.0032348306844826626 0.0010365123316717659 0 -0.0046002586461504858 -0.00039150573968842038 0 -0.0045084170277584316 0.0026652132938914941 0 -0.0065429794289776511 0.0029393638566365498 0 -0.005938063837990051 0.0051551001783946291 0 -0.0045084170277584316 0.0026652132938914941 0 -0.0030946897097819392 0.0028451715187108842 0 -0.0036059150712486085 0.0044273525721927774 0 -0.0045084170277584316 0.0026652132938914941 0 -0.0030946897097819392 0.0028451715187108842 0 -0.0032348306844826626 0.0010365123316717659 0 -0.0030946897097819392 0.0028451715187108842 0 -0.001840680888530086 0.0014733525882636277 0 -0.0020629717678639766 0.0042272023620806079 0 0.00083186144613138925 0.0013801321471423969 0 -0.001840680888530086 0.0014733525882636277 0 -0.0020629717678639766 0.0042272023620806079 0 0.00018573974322047966 0.0053183585114968332 0 -0.0011372582785948023 0.003107792471372189 0 0.00083186144613138925 0.0013801321471423969 0 -0.001840680888530086 0.0014733525882636277 0 -0.0022627149770097785 -0.001459020740624374 0 -0.0030946897097819392 0.0028451715187108842 0 -0.001840680888530086 0.0014733525882636277 0 -0.0032348306844826626 0.0010365123316717659 0 -0.0032348306844826626 0.0010365123316717659 0 -0.0022627149770097785 -0.001459020740624374 0 -0.0046002586461504858 -0.00039150573968842038 0 -0.0011560410461631662 -0.0031900740083882001 0 -0.0039995849567338948 -0.0019582213694742854 0 -0.0011236973319260839 -0.0032097212985442223 0 -0.0022627149770097785 -0.001459020740624374 0 -0.0046002586461504858 -0.00039150573968842038 0 -0.0011236973319260839 -0.0032097212985442223 0 -0.0034132844413971557 -0.0044044869419288101 0 -0.0035778833779900017 -0.0034165724125249548 0 -0.001840680888530086 0.0014733525882636277 0 -0.0032348306844826626 0.0010365123316717659 0 -0.0022627149770097785 -0.001459020740624374 0 -0.0034132844413971557 -0.0044044869419288101 0 -0.0035778833779900017 -0.0034165724125249548 0 -0.0045775794543357739 -0.004277080132574212 0 -0.0051732370562030342 -0.0048469844577099597 0 -0.0045775794543357739 -0.004277080132574212 0 -0.0058172053029485566 -0.0044332828569876633 0 -0.0045775794543357739 -0.004277080132574212 0 -0.0058172053029485566 -0.0044332828569876633 0 -0.0054259253599636421 -0.0035113756539016782 0 -0.0035778833779900017 -0.0034165724125249548 0 -0.0045775794543357739 -0.004277080132574212 0 -0.0054259253599636421 -0.0035113756539016782 0 -0.0060773551052289501 -0.0053677684449094558 0 -0.0067446612854834172 -0.0047278138711433189 0 -0.0058172053029485566 -0.0044332828569876633 0 -0.0064680140587405786 -0.004084563727592549 0 -0.0058172053029485566 -0.0044332828569876633 0 -0.0054259253599636421 -0.0035113756539016782 0 -0.013857146610941614 0.0050664931823187088 0 -0.0094848912277254015 0.0023334324910238608 0 -0.010715296377275292 0.0054057985186658627 0 -0.010404069408250427 0.00075944373499457903 0 -0.0073997956805285743 -0.00060066400064977808 0 -0.0094848912277254015 0.0023334324910238608 0 -0.0081448820923681678 0.0043859696026132718 0 -0.010715296377275292 0.0054057985186658627 0 -0.0039995849567338948 -0.0019582213694742854 0 -0.0073997956805285743 -0.00060066400064977808 0 -0.0046002586461504858 -0.00039150573968842038 0 -0.0094848912277254015 0.0023334324910238608 0 -0.0065429794289776511 0.0029393638566365498 0 -0.0094848912277254015 0.0023334324910238608 0 -0.0065429794289776511 0.0029393638566365498 0 -0.0081448820923681678 0.0043859696026132718 0 -0.0065429794289776511 0.0029393638566365498 0 -0.0081448820923681678 0.0043859696026132718 0 -0.005938063837990051 0.0051551001783946291 0 -0.0081448820923681678 0.0043859696026132718 0 -0.0084938492683405854 0.0063826408407868301 0 -0.005938063837990051 0.0051551001783946291 0 -0.0081448820923681678 0.0043859696026132718 0 -0.0084938492683405854 0.0063826408407868301 0 -0.010715296377275292 0.0054057985186658627 0 -0.0084938492683405854 0.0063826408407868301 0 -0.0063205808904078275 0.0081382106698100181 0 -0.005938063837990051 0.0051551001783946291 0 -0.0084938492683405854 0.0063826408407868301 0 -0.010715296377275292 0.0054057985186658627 0 -0.011012073927056627 0.0074837987940098976 0 -0.013082931780388133 0.0067784758280837274 0 -0.010715296377275292 0.0054057985186658627 0 -0.011012073927056627 0.0074837987940098976 0 -0.0084938492683405854 0.0063826408407868301 0 -0.011012073927056627 0.0074837987940098976 0 -0.0090597362429185816 0.0084494190633570398 0 -0.0090597362429185816 0.0084494190633570398 0 -0.0090083318710297705 0.010687399700856958 0 -0.011087451245046698 0.010267076149058115 0 -0.011012073927056627 0.0074837987940098976 0 -0.0090597362429185816 0.0084494190633570398 0 -0.011087451245046698 0.010267076149058115 0 -0.012728661326227717 0.0088176506259762377 0 -0.011012073927056627 0.0074837987940098976 0 -0.011087451245046698 0.010267076149058115 0 -0.0084938492683405854 0.0063826408407868301 0 -0.0063205808904078275 0.0081382106698100181 0 -0.0090597362429185816 0.0084494190633570398 0 -0.0090597362429185816 0.0084494190633570398 0 -0.0066390245053440326 0.010809241057261968 0 -0.0090083318710297705 0.010687399700856958 0 -0.0063205808904078275 0.0081382106698100181 0 -0.0090597362429185816 0.0084494190633570398 0 -0.0066390245053440326 0.010809241057261968 0 -0.0063205808904078275 0.0081382106698100181 0 -0.0053572617339696258 0.0097111743032828046 0 -0.0066390245053440326 0.010809241057261968 0 -0.0063205808904078275 0.0081382106698100181 0 -0.0053572617339696258 0.0097111743032828046 0 -0.0038187407124674021 0.0090427541941332391 0 -0.0053572617339696258 0.0097111743032828046 0 -0.0038187407124674021 0.0090427541941332391 0 -0.0042414944392219203 0.010993097903784345 0 -0.0038187407124674021 0.0090427541941332391 0 -0.0042704197119278458 0.006969916418329631 0 -0.001506930470817409 0.0081770165141813872 0 -0.0063205808904078275 0.0081382106698100181 0 -0.0038187407124674021 0.0090427541941332391 0 -0.0042704197119278458 0.006969916418329631 0 -0.0063205808904078275 0.0081382106698100181 0 -0.0042704197119278458 0.006969916418329631 0 -0.005938063837990051 0.0051551001783946291 0 -0.0042704197119278458 0.006969916418329631 0 -0.0036059150712486085 0.0044273525721927774 0 -0.005938063837990051 0.0051551001783946291 0 -0.0045084170277584316 0.0026652132938914941 0 -0.0036059150712486085 0.0044273525721927774 0 -0.005938063837990051 0.0051551001783946291 0 -0.0036059150712486085 0.0044273525721927774 0 -0.001018520411952326 0.0061657275392641119 0 -0.0020679961932342384 0.00823779525165097 0 -0.0033694221144835099 0.0049054054808442176 0 -0.0019251312377958365 0.0078475541020230442 0 0.0011565512057430257 0.0052976486895895559 0 -0.0020629717678639766 0.0042272023620806079 0 -0.001018520411952326 0.0061657275392641119 0 -0.0042704197119278458 0.006969916418329631 0 -0.0036059150712486085 0.0044273525721927774 0 -0.001506930470817409 0.0081770165141813872 0 -0.0030946897097819392 0.0028451715187108842 0 -0.0036059150712486085 0.0044273525721927774 0 -0.0020629717678639766 0.0042272023620806079 0 -0.0036059150712486085 0.0044273525721927774 0 -0.0020629717678639766 0.0042272023620806079 0 -0.001018520411952326 0.0061657275392641119 0 -0.0019251312377958365 0.0078475541020230442 0 0.00013627291567450074 0.013803955414762922 0 -0.0038187407124674021 0.0090427541941332391 0 -0.001506930470817409 0.0081770165141813872 0 -0.0026973893860415383 0.010546726254053469 0 -0.001506930470817409 0.0081770165141813872 0 -0.0026973893860415383 0.010546726254053469 0 -0.0010294540602390453 0.012035374430608994 0 -0.001506930470817409 0.0081770165141813872 0 -0.0010294540602390453 0.012035374430608994 0 0.00036604945934472525 0.012068487894793129 0 -0.0026973893860415383 0.010546726254053469 0 -0.0028620395380596895 0.012479287174734658 0 -0.0010294540602390453 0.012035374430608994 0 -0.0028620395380596895 0.012479287174734658 0 -0.0016365605655335308 0.013375063446580987 0 -0.0010294540602390453 0.012035374430608994 0 -0.0028620395380596895 0.012479287174734658 0 -0.0016365605655335308 0.013375063446580987 0 -0.0032763423656113357 0.014014974793045649 0 -0.00066689449424470052 0.012858436607329146 0 -0.00037253981018000362 0.013940039254021588 0 0.00039701038266258803 0.012071728483097921 0 -0.0010294540602390453 0.012035374430608994 0 -0.00066689449424470052 0.012858436607329146 0 0.00039701038266258803 0.012071728483097921 0 -0.00044766458034596683 0.013193127367308453 0 0.00013627291567450074 0.013803955414762922 0 -0.0016365605655335308 0.013375063446580987 0 -0.00066689449424470052 0.012858436607329146 0 -0.00037253981018000362 0.013940039254021588 0 -0.0016365605655335308 0.013375063446580987 0 -0.0010294540602390453 0.012035374430608994 0 -0.00066689449424470052 0.012858436607329146 0 -0.00037253981018000362 0.013940039254021588 0 -0.0003615428603092241 0.015913445521672905 0 0.00071705751718636644 0.015327738547375944 0 -0.00037253981018000362 0.013940039254021588 0 -0.0018898833310330015 0.014903290048208331 0 -0.0003615428603092241 0.015913445521672905 0 -0.0016365605655335308 0.013375063446580987 0 -0.00037253981018000362 0.013940039254021588 0 -0.0018898833310330015 0.014903290048208331 0 -0.0018898833310330015 0.014903290048208331 0 -0.0034628142268974438 0.01581590250491478 0 -0.0032763423656113357 0.014014974793045649 0 -0.0016365605655335308 0.013375063446580987 0 -0.0018898833310330015 0.014903290048208331 0 -0.0032763423656113357 0.014014974793045649 0 -0.0018898833310330015 0.014903290048208331 0 -0.0019304878651181863 0.016344033815456533 0 -0.0034628142268974438 0.01581590250491478 0 -0.0019304878651181863 0.016344033815456533 0 -0.0034628142268974438 0.01581590250491478 0 -0.0027563258025269147 0.01734680022358832 0 -0.0019304878651181863 0.016344033815456533 0 -0.0003615428603092241 0.015913445521672905 0 -0.0011539560350852548 0.017733812970297119 0 -0.0018898833310330015 0.014903290048208331 0 -0.0019304878651181863 0.016344033815456533 0 -0.0003615428603092241 0.015913445521672905 0 -0.0053582495895358505 0.016118918211665171 0 -0.0034628142268974438 0.01581590250491478 0 -0.0050318365153070683 0.014528304321286239 0 -0.0053582495895358505 0.016118918211665171 0 -0.0050318365153070683 0.014528304321286239 0 -0.0070632066292858967 0.01503448996725504 0 -0.0053582495895358505 0.016118918211665171 0 -0.0034628142268974438 0.01581590250491478 0 -0.0043466425324260654 0.017476622090331236 0 -0.0032763423656113357 0.014014974793045649 0 -0.0050318365153070683 0.014528304321286239 0 -0.0046616828375766238 0.012814630274012242 0 -0.0034628142268974438 0.01581590250491478 0 -0.0032763423656113357 0.014014974793045649 0 -0.0050318365153070683 0.014528304321286239 0 -0.0050318365153070683 0.014528304321286239 0 -0.0046616828375766238 0.012814630274012242 0 -0.0063289476842783871 0.013368327477768449 0 -0.0046616828375766238 0.012814630274012242 0 -0.0066390245053440326 0.010809241057261968 0 -0.0063289476842783871 0.013368327477768449 0 -0.0028620395380596895 0.012479287174734658 0 -0.0046616828375766238 0.012814630274012242 0 -0.0042414944392219203 0.010993097903784345 0 -0.0028620395380596895 0.012479287174734658 0 -0.0032763423656113357 0.014014974793045649 0 -0.0046616828375766238 0.012814630274012242 0 -0.0038187407124674021 0.0090427541941332391 0 -0.0026973893860415383 0.010546726254053469 0 -0.0042414944392219203 0.010993097903784345 0 -0.0026973893860415383 0.010546726254053469 0 -0.0028620395380596895 0.012479287174734658 0 -0.0042414944392219203 0.010993097903784345 0 -0.0053572617339696258 0.0097111743032828046 0 -0.0042414944392219203 0.010993097903784345 0 -0.0066390245053440326 0.010809241057261968 0 -0.0046616828375766238 0.012814630274012242 0 -0.0042414944392219203 0.010993097903784345 0 -0.0066390245053440326 0.010809241057261968 0 -0.0066390245053440326 0.010809241057261968 0 -0.0090083318710297705 0.010687399700856958 0 -0.0079948435497133319 0.012552626872923635 0 -0.0079948435497133319 0.012552626872923635 0 -0.0099659711415990612 0.012270486487097276 0 -0.0089399806248375707 0.01416716194734116 0 -0.0090083318710297705 0.010687399700856958 0 -0.0079948435497133319 0.012552626872923635 0 -0.0099659711415990612 0.012270486487097276 0 -0.0066390245053440326 0.010809241057261968 0 -0.0079948435497133319 0.012552626872923635 0 -0.0063289476842783871 0.013368327477768449 0 -0.0090083318710297705 0.010687399700856958 0 -0.011087451245046698 0.010267076149058115 0 -0.0099659711415990612 0.012270486487097276 0 -0.011087451245046698 0.010267076149058115 0 -0.0099659711415990612 0.012270486487097276 0 -0.011629806689720936 0.013055398214395187 0 -0.0099659711415990612 0.012270486487097276 0 -0.011629806689720936 0.013055398214395187 0 -0.010631535040023754 0.015000498678245626 0 -0.011629806689720936 0.013055398214395187 0 -0.010631535040023754 0.015000498678245626 0 -0.013601862959575576 0.015507608441562652 0 -0.0099659711415990612 0.012270486487097276 0 -0.010631535040023754 0.015000498678245626 0 -0.0089399806248375707 0.01416716194734116 0 -0.010631535040023754 0.015000498678245626 0 -0.0089399806248375707 0.01416716194734116 0 -0.0087050440657544699 0.016906209348670039 0 -0.010631535040023754 0.015000498678245626 0 -0.0087050440657544699 0.016906209348670039 0 -0.010856942003337637 0.017326294142474451 0 -0.010631535040023754 0.015000498678245626 0 -0.010856942003337637 0.017326294142474451 0 -0.013601862959575576 0.015507608441562652 0 -0.0079948435497133319 0.012552626872923635 0 -0.0063289476842783871 0.013368327477768449 0 -0.0070632066292858967 0.01503448996725504 0 -0.0050318365153070683 0.014528304321286239 0 -0.0063289476842783871 0.013368327477768449 0 -0.0070632066292858967 0.01503448996725504 0 -0.0079948435497133319 0.012552626872923635 0 -0.0089399806248375707 0.01416716194734116 0 -0.0070632066292858967 0.01503448996725504 0 -0.0089399806248375707 0.01416716194734116 0 -0.0070632066292858967 0.01503448996725504 0 -0.0087050440657544699 0.016906209348670039 0 -0.0053582495895358505 0.016118918211665171 0 -0.0070632066292858967 0.01503448996725504 0 -0.0064478630277855099 0.017244068346139344 0 -0.0070632066292858967 0.01503448996725504 0 -0.0064478630277855099 0.017244068346139344 0 -0.0087050440657544699 0.016906209348670039 0 -0.0064478630277855099 0.017244068346139344 0 -0.0087050440657544699 0.016906209348670039 0 -0.0072807809604925012 0.019072978104553114 0 -0.0087050440657544699 0.016906209348670039 0 -0.0072807809604925012 0.019072978104553114 0 -0.0094786148008075121 0.019229640819558982 0 -0.0072807809604925012 0.019072978104553114 0 -0.0058954181150453963 0.020983500697352903 0 -0.0051143552666254076 0.019135010407940144 0 -0.0064478630277855099 0.017244068346139344 0 -0.0072807809604925012 0.019072978104553114 0 -0.0051143552666254076 0.019135010407940144 0 -0.0087050440657544699 0.016906209348670039 0 -0.010856942003337637 0.017326294142474451 0 -0.0094786148008075121 0.019229640819558982 0 -0.010856942003337637 0.017326294142474451 0 -0.0094786148008075121 0.019229640819558982 0 -0.012203009085460804 0.019736783383849415 0 -0.0099422340243094133 0.021262798008080952 0 -0.012203009085460804 0.019736783383849415 0 -0.010673184507523685 0.023468106067615721 0 -0.011770863281797959 0.020096101396621296 0 -0.010815593517156011 0.02303788414334575 0 -0.0094786148008075121 0.019229640819558982 0 -0.0099422340243094133 0.021262798008080952 0 -0.012203009085460804 0.019736783383849415 0 -0.0094786148008075121 0.019229640819558982 0 -0.0099422340243094133 0.021262798008080952 0 -0.0079882785835182664 0.020983510303924556 0 -0.0099422340243094133 0.021262798008080952 0 -0.0089494800728903735 0.022566180151152249 0 -0.010673184507523685 0.023468106067615721 0 -0.0072807809604925012 0.019072978104553114 0 -0.0079882785835182664 0.020983510303924556 0 -0.0058954181150453963 0.020983500697352903 0 -0.0072807809604925012 0.019072978104553114 0 -0.0094786148008075121 0.019229640819558982 0 -0.0079882785835182664 0.020983510303924556 0 -0.0079882785835182664 0.020983510303924556 0 -0.0089494800728903735 0.022566180151152249 0 -0.0066814133793962789 0.02286539295097037 0 -0.0099422340243094133 0.021262798008080952 0 -0.0079882785835182664 0.020983510303924556 0 -0.0089494800728903735 0.022566180151152249 0 -0.0079882785835182664 0.020983510303924556 0 -0.0066814133793962789 0.02286539295097037 0 -0.0058954181150453963 0.020983500697352903 0 -0.0058954181150453963 0.020983500697352903 0 -0.0041301384258572741 0.020724215326992208 0 -0.0044559630782285134 0.022994090934277886 0 -0.0066814133793962789 0.02286539295097037 0 -0.0058954181150453963 0.020983500697352903 0 -0.0044559630782285134 0.022994090934277886 0 -0.0058954181150453963 0.020983500697352903 0 -0.0041301384258572741 0.020724215326992208 0 -0.0051143552666254076 0.019135010407940144 0 -0.0041301384258572741 0.020724215326992208 0 -0.0024165011649915106 0.021293449187109226 0 -0.0029124810516237554 0.019183917506249808 0 -0.0041301384258572741 0.020724215326992208 0 -0.0044559630782285134 0.022994090934277886 0 -0.0024165011649915106 0.021293449187109226 0 -0.0044559630782285134 0.022994090934277886 0 -0.0012005053823988228 0.023220025309352372 0 -0.0024165011649915106 0.021293449187109226 0 -0.0012005053823988228 0.023220025309352372 0 -0.00075172144822136606 0.02052566710838219 0 0.00064591311841829841 0.021983160599483791 0 -0.0012005053823988228 0.023220025309352372 0 -0.00075172144822136606 0.02052566710838219 0 -0.0024165011649915106 0.021293449187109226 0 -0.00075172144822136606 0.02052566710838219 0 -0.0024165011649915106 0.021293449187109226 0 -0.0029124810516237554 0.019183917506249808 0 -0.00075172144822136606 0.02052566710838219 0 -0.0029124810516237554 0.019183917506249808 0 -0.0011539560350852548 0.017733812970297119 0 -0.00075172144822136606 0.02052566710838219 0 -0.0011539560350852548 0.017733812970297119 0 0.00032788835024111945 0.018586811622618053 0 -0.0003615428603092241 0.015913445521672905 0 -0.0011539560350852548 0.017733812970297119 0 0.00020078076673131812 0.017401972262102397 0 -0.0011539560350852548 0.017733812970297119 0 0.00020078076673131812 0.017401972262102397 0 0.00032788835024111945 0.018586811622618053 0 -0.0019304878651181863 0.016344033815456533 0 -0.0011539560350852548 0.017733812970297119 0 -0.0027563258025269147 0.01734680022358832 0 -0.0029124810516237554 0.019183917506249808 0 -0.0011539560350852548 0.017733812970297119 0 -0.0027563258025269147 0.01734680022358832 0 -0.0034628142268974438 0.01581590250491478 0 -0.0027563258025269147 0.01734680022358832 0 -0.0043466425324260654 0.017476622090331236 0 -0.0029124810516237554 0.019183917506249808 0 -0.0027563258025269147 0.01734680022358832 0 -0.0043466425324260654 0.017476622090331236 0 -0.0064478630277855099 0.017244068346139344 0 -0.0043466425324260654 0.017476622090331236 0 -0.0051143552666254076 0.019135010407940144 0 -0.0053582495895358505 0.016118918211665171 0 -0.0064478630277855099 0.017244068346139344 0 -0.0043466425324260654 0.017476622090331236 0 -0.0041301384258572741 0.020724215326992208 0 -0.0029124810516237554 0.019183917506249808 0 -0.0051143552666254076 0.019135010407940144 0 -0.0029124810516237554 0.019183917506249808 0 -0.0043466425324260654 0.017476622090331236 0 -0.0051143552666254076 0.019135010407940144 0 -0.013901302306042891 0.0075957591060464283 0 -0.014024620964469646 0.0077740077165873462 0 -0.014071104225871711 0.0076040293627738847 0 -0.013811660744661421 0.0076929244492315342 0 -0.013901302306042891 0.0075957591060464283 0 -0.014024620964469646 0.0077740077165873462 0 -0.013811660744661421 0.0076929244492315342 0 -0.013855355128431576 0.0079105373856998788 0 -0.014024620964469646 0.0077740077165873462 0 -0.014814637846450429 0.0069294355941673354 0 -0.016153243160247893 0.0092611995141613172 0 -0.018083310941641118 0.0089100409585868255 0 -0.019753288685801312 0.0086634532702057777 0 -0.018132908565743396 0.010493815186916536 0 -0.018132908565743396 0.010493815186916536 0 -0.015318129149721407 0.010935927169695919 0 -0.016128141295759513 0.0095140108664378883 0 -0.016835547223302081 0.0084953559931359654 0 -0.018083310941641118 0.0089100409585868255 0 -0.016128141295759513 0.0095140108664378883 0 -0.018083310941641118 0.0089100409585868255 0 -0.018132908565743396 0.010493815186916536 0 -0.016128141295759513 0.0095140108664378883 0 -0.018132908565743396 0.010493815186916536 0 -0.016444040404904998 0.012340151222502045 0 -0.015318129149721407 0.010935927169695919 0 -0.014024620964469646 0.0077740077165873462 0 -0.0142163478104187 0.0077150795730186609 0 -0.014071104225871711 0.0076040293627738847 0 -0.016153243160247893 0.0092611995141613172 0 -0.015616755454524482 0.0095017875408179211 0 -0.014829050609227091 0.012470483209529544 0 -0.015318129149721407 0.010935927169695919 0 -0.013161990249755486 0.01218878453999986 0 -0.016444040404904998 0.012340151222502045 0 -0.014829050609227091 0.012470483209529544 0 -0.015318129149721407 0.010935927169695919 0 -0.014381584868383463 0.0082216923363907981 0 -0.014974659221688251 0.0093654538462575338 0 -0.013774712665965557 0.010158811511670628 0 -0.015318129149721407 0.010935927169695919 0 -0.016128141295759513 0.0095140108664378883 0 -0.014974659221688251 0.0093654538462575338 0 -0.01567564156208736 0.0079463398883802654 0 -0.016128141295759513 0.0095140108664378883 0 -0.014974659221688251 0.0093654538462575338 0 -0.015318129149721407 0.010935927169695919 0 -0.014974659221688251 0.0093654538462575338 0 -0.013774712665965557 0.010158811511670628 0 -0.014356973940888817 0.0086776836560578524 0 -0.013930288713622887 0.010699478189591846 0 -0.012728661326227717 0.0088176506259762377 0 -0.011087451245046698 0.010267076149058115 0 -0.014034134502348626 0.011728635830430743 0 -0.011087451245046698 0.010267076149058115 0 -0.011629806689720936 0.013055398214395187 0 -0.014034134502348626 0.011728635830430743 0 -0.01200651013974475 0.013519976175962001 0 -0.01301736175896963 0.014774360625696288 0 -0.015318129149721407 0.010935927169695919 0 -0.013774712665965557 0.010158811511670628 0 -0.013161990249755486 0.01218878453999986 0 -0.013930288713622887 0.010699478189591846 0 -0.01301736175896963 0.014774360625696288 0 -0.011629806689720936 0.013055398214395187 0 -0.014034134502348626 0.011728635830430743 0 -0.013186719380971341 0.014939629449320943 0 -0.01301736175896963 0.014774360625696288 0 -0.014550376475505189 0.014841633690307398 0 -0.014829050609227091 0.012470483209529544 0 -0.013161990249755486 0.01218878453999986 0 -0.014773840863873062 0.014171785813036998 0 -0.010856942003337637 0.017326294142474451 0 -0.013601862959575576 0.015507608441562652 0 -0.012203009085460804 0.019736783383849415 0 -0.012505934955386109 0.016381768494143734 0 -0.012939057224275912 0.018720155579035173 0 -0.011447734008409111 0.019960423999259937 0 -0.012505934955386109 0.016381768494143734 0 -0.012939057224275912 0.018720155579035173 0 -0.014901485392245256 0.01934216111333063 0 -0.01301736175896963 0.014774360625696288 0 -0.011770863281797959 0.020096101396621296 0 -0.012939057224275912 0.018720155579035173 0 -0.011447734008409111 0.019960423999259937 0 -0.01248316210104859 0.02197536978866068 0 -0.012939057224275912 0.018720155579035173 0 -0.01248316210104859 0.02197536978866068 0 -0.014901485392245256 0.01934216111333063 0 -0.011447734008409111 0.019960423999259937 0 -0.01248316210104859 0.02197536978866068 0 -0.010673184507523685 0.023468106067615721 0 -0.01248316210104859 0.02197536978866068 0 -0.014246334250961685 0.020386592352491305 0 -0.014341859360012551 0.022295336586480301 0 -0.01248316210104859 0.02197536978866068 0 -0.014246334250961685 0.020386592352491305 0 -0.014330750554860588 0.019619272116020291 0 -0.01203426805151734 0.022868888225147346 0 -0.014550376475505189 0.014841633690307398 0 -0.014341859360012551 0.022295336586480301 0 -0.015572811846778367 0.021110899916346421 0 -0.017405820768086368 0.023405122601166398 0 -0.014246334250961685 0.020386592352491305 0 -0.014341859360012551 0.022295336586480301 0 -0.015572811846778367 0.021110899916346421 0 -0.014246334250961685 0.020386592352491305 0 -0.015193909747512975 0.020810982049657714 0 -0.014330750554860588 0.019619272116020291 0 -0.014804031575182517 0.015892260238470922 0 -0.014550376475505189 0.014841633690307398 0 -0.015565417805133612 0.019027224871134545 0 -0.014804031575182517 0.015892260238470922 0 -0.014384423759081154 0.0074885238421674308 0 -0.01451005638415466 0.0076792540076493932 0 -0.01425107393130985 0.0076001823345541271 0 -0.0142163478104187 0.0077150795730186609 0 -0.01451005638415466 0.0076792540076493932 0 -0.01425107393130985 0.0076001823345541271 0 -0.016444040404904998 0.012340151222502045 0 -0.014829050609227091 0.012470483209529544 0 -0.014773840863873062 0.014171785813036998 0 -0.015616755454524482 0.0095017875408179211 0 -0.014550376475505189 0.014841633690307398 0 -0.0142163478104187 0.0077150795730186609 0 -0.014071104225871711 0.0076040293627738847 0 -0.01425107393130985 0.0076001823345541271 0 -0.014071104225871711 0.0076040293627738847 0 -0.01425107393130985 0.0076001823345541271 0 -0.014102506806820738 0.0074700380675324736 0 -0.014384423759081154 0.0074885238421674308 0 -0.014102506806820738 0.0074700380675324736 0 -0.013914309033780225 0.0071879945259646777 0 -0.014384423759081154 0.0074885238421674308 0 -0.01425107393130985 0.0076001823345541271 0 -0.014102506806820738 0.0074700380675324736 0 -0.014804031575182517 0.015892260238470922 0 -0.012349648449732121 0.010169191165664827 0 -0.014804031575182517 0.015892260238470922 0 -0.012144324047512568 0.016746467890201788 0 -0.014102506806820738 0.0074700380675324736 0 -0.013927453648247264 0.0073549023119276642 0 -0.013914309033780225 0.0071879945259646777 0 -0.014102506806820738 0.0074700380675324736 0 -0.013927453648247264 0.0073549023119276642 0 -0.013933354081912364 0.007458943273243937 0 -0.013927453648247264 0.0073549023119276642 0 -0.01382460884236859 0.0072698492903722663 0 -0.013845117414890836 0.0073511779665222932 0 -0.013927453648247264 0.0073549023119276642 0 -0.01382460884236859 0.0072698492903722663 0 -0.013914309033780225 0.0071879945259646777 0 -0.013927453648247264 0.0073549023119276642 0 -0.013845117414890836 0.0073511779665222932 0 -0.013933354081912364 0.007458943273243937 0 -0.013818877939069947 0.0074036788161508217 0 -0.013845117414890836 0.0073511779665222932 0 -0.013933354081912364 0.007458943273243937 0 -0.013818877939069947 0.0074036788161508217 0 -0.013810811890165777 0.0074691317260100415 0 -0.013933354081912364 0.007458943273243937 0 -0.014071104225871711 0.0076040293627738847 0 -0.014102506806820738 0.0074700380675324736 0 -0.013933354081912364 0.007458943273243937 0 -0.013901302306042891 0.0075957591060464283 0 -0.014071104225871711 0.0076040293627738847 0 -0.013933354081912364 0.007458943273243937 0 -0.013798537398266504 0.0075335493925208991 0 -0.013810811890165777 0.0074691317260100415 0 -0.013901302306042891 0.0075957591060464283 0 -0.013810811890165777 0.0074691317260100415 0 -0.013901302306042891 0.0075957591060464283 0 -0.013933354081912364 0.007458943273243937 0 -0.011196760981706804 0.015809220011762107 0 -0.011136987367851819 0.014920292158226413 0 -0.010124729924377199 0.014412447611533164 0 -0.011196760981706804 0.015809220011762107 0 -0.0097674651048533043 0.014018602751959998 0 -0.0099741810920198799 0.015267084184291601 0 -0.011196760981706804 0.015809220011762107 0 -0.0099741810920198799 0.015267084184291601 0 -0.0095667992112556076 0.016881666890026539 0 -0.010203868830159646 0.014626337236018761 0 -0.012144324047512568 0.016746467890201788 0 -0.011598534009925119 0.01535100854722205 0 -0.011196760981706804 0.015809220011762107 0 -0.011136987367851819 0.014920292158226413 0 -0.011876867779428485 0.014753285148564124 0 -0.011136987367851819 0.014920292158226413 0 -0.010936387695914629 0.014267765566212846 0 -0.013052284413516271 0.011355377727925813 0 -0.012349648449732121 0.010169191165664827 0 -0.011136987367851819 0.014920292158226413 0 -0.010936387695914629 0.014267765566212846 0 -0.010124729924377199 0.014412447611533164 0 -0.013755316848871562 0.0073072534548430908 0 -0.01382460884236859 0.0072698492903722663 0 -0.013914309033780225 0.0071879945259646777 0 -0.014236685196598802 0.0075275800401217053 0 -0.012349648449732121 0.010169191165664827 0 -0.012349648449732121 0.010169191165664827 0 -0.012144324047512568 0.016746467890201788 0 -0.014888283034433059 0.015122262868538582 0 -0.011734559025824921 0.013461310828668249 0 -0.013341370352968861 0.013206310539181329 0 -0.0097674651048533043 0.014018602751959998 0 -0.0090649884613292556 0.014744206609824747 0 -0.0099741810920198799 0.015267084184291601 0 -0.0099741810920198799 0.015267084184291601 0 -0.0087998256005951594 0.015375985614405162 0 -0.0095667992112556076 0.016881666890026539 0 -0.0090649884613292556 0.014744206609824747 0 -0.0099741810920198799 0.015267084184291601 0 -0.0087998256005951594 0.015375985614405162 0 -0.0083125013668484404 0.016071918796880663 0 -0.0087998256005951594 0.015375985614405162 0 -0.0072997805901749415 0.015347652245325 0 -0.0087998256005951594 0.015375985614405162 0 -0.0076819884561457876 0.014290478404681192 0 -0.0072997805901749415 0.015347652245325 0 -0.0090649884613292556 0.014744206609824747 0 -0.0087998256005951594 0.015375985614405162 0 -0.0076819884561457876 0.014290478404681192 0 -0.0083125013668484404 0.016071918796880663 0 -0.0072997805901749415 0.015347652245325 0 -0.0072200415088499569 0.0160473601433089 0 -0.0097674651048533043 0.014018602751959998 0 -0.0090649884613292556 0.014744206609824747 0 -0.0076819884561457876 0.014290478404681192 0 -0.014341859360012551 0.022295336586480301 0 -0.017405820768086368 0.023405122601166398 0 -0.01395598893808195 0.024159068087136758 0 -0.012144324047512568 0.016746467890201788 0 -0.011063645694306994 0.019424405723378443 0 -0.01395598893808195 0.024159068087136758 0 -0.010673184507523685 0.023468106067615721 0 -0.010324480470407125 0.02526308271857243 0 -0.011063645694306994 0.019424405723378443 0 -0.0077830951967011721 0.019915439428697855 0 -0.01248316210104859 0.02197536978866068 0 -0.01395598893808195 0.024159068087136758 0 -0.010673184507523685 0.023468106067615721 0 -0.01248316210104859 0.02197536978866068 0 -0.014341859360012551 0.022295336586480301 0 -0.01395598893808195 0.024159068087136758 0 -0.0072997805901749415 0.015347652245325 0 -0.0062361568621785678 0.015659884616202005 0 -0.0054193138440359221 0.014587955196442315 0 -0.0076819884561457876 0.014290478404681192 0 -0.0072997805901749415 0.015347652245325 0 -0.0054193138440359221 0.014587955196442315 0 -0.0072997805901749415 0.015347652245325 0 -0.0072200415088499569 0.0160473601433089 0 -0.0062361568621785678 0.015659884616202005 0 -0.0066533664687613526 0.016727191634596433 0 -0.0073368784488288177 0.01770259450724412 0 -0.0058236597062156217 0.017313139274246228 0 -0.0062361568621785678 0.015659884616202005 0 -0.0066533664687613526 0.016727191634596433 0 -0.0055686656661602229 0.016424120783024704 0 -0.0072200415088499569 0.0160473601433089 0 -0.0062361568621785678 0.015659884616202005 0 -0.0066533664687613526 0.016727191634596433 0 -0.0072200415088499569 0.0160473601433089 0 -0.0066533664687613526 0.016727191634596433 0 -0.0078334157955746581 0.016692394627639946 0 -0.0066533664687613526 0.016727191634596433 0 -0.0073368784488288177 0.01770259450724412 0 -0.0078334157955746581 0.016692394627639946 0 -0.0089414146884284375 0.016254733563606048 0 -0.0099655252509127049 0.014952863333291745 0 -0.0066942215902563622 0.016323368552359899 0 -0.0086211258283949762 0.016333932817443296 0 -0.0057946664301676649 0.017466057685695143 0 -0.0093124180338979845 0.016549233788359579 0 -0.0089414146884284375 0.016254733563606048 0 -0.009963856999379744 0.015464898588772317 0 -0.0089414146884284375 0.016254733563606048 0 -0.009963856999379744 0.015464898588772317 0 -0.0099655252509127049 0.014952863333291745 0 -0.0093124180338979845 0.016549233788359579 0 -0.0098309794326684602 0.016452634514512433 0 -0.009963856999379744 0.015464898588772317 0 -0.009963856999379744 0.015464898588772317 0 -0.0099655252509127049 0.014952863333291745 0 -0.010168393683445342 0.014527713925000315 0 -0.01033653455029891 0.013387706162332813 0 -0.009963856999379744 0.015464898588772317 0 -0.010168393683445342 0.014527713925000315 0 -0.0099655252509127049 0.014952863333291745 0 -0.010168393683445342 0.014527713925000315 0 -0.010055920771150218 0.014565928348838167 0 -0.0083125013668484404 0.016071918796880663 0 -0.0087998256005951594 0.015375985614405162 0 -0.0095667992112556076 0.016881666890026539 0 -0.0086211258283949762 0.016333932817443296 0 -0.0098150188413144001 0.015666161057670762 0 -0.0083125013668484404 0.016071918796880663 0 -0.0078334157955746581 0.016692394627639946 0 -0.0095667992112556076 0.016881666890026539 0 -0.0073368784488288177 0.01770259450724412 0 -0.0078334157955746581 0.016692394627639946 0 -0.0095667992112556076 0.016881666890026539 0 -0.0083125013668484404 0.016071918796880663 0 -0.0072200415088499569 0.0160473601433089 0 -0.0078334157955746581 0.016692394627639946 0 -0.010055920771150218 0.014565928348838167 0 -0.0098776089411773578 0.014046119773716979 0 -0.0093375067303374127 0.014361666069966786 0 -0.010168393683445342 0.014527713925000315 0 -0.010055920771150218 0.014565928348838167 0 -0.0098776089411773578 0.014046119773716979 0 -0.010062678491862705 0.013911568538351701 0 -0.010168393683445342 0.014527713925000315 0 -0.0098776089411773578 0.014046119773716979 0 -0.009890478753151374 0.013583330406096081 0 -0.0095014236049586025 0.013501151290909749 0 -0.0098776089411773578 0.014046119773716979 0 -0.010062678491862705 0.013911568538351701 0 -0.009890478753151374 0.013583330406096081 0 -0.0098776089411773578 0.014046119773716979 0 -0.0098776089411773578 0.014046119773716979 0 -0.0093363662270413653 0.013861994979383152 0 -0.0093375067303374127 0.014361666069966786 0 -0.0095014236049586025 0.013501151290909749 0 -0.0093363662270413653 0.013861994979383152 0 -0.0089382851881740135 0.013411069820189903 0 -0.0095014236049586025 0.013501151290909749 0 -0.0098776089411773578 0.014046119773716979 0 -0.0093363662270413653 0.013861994979383152 0 -0.0086361240817522215 0.013644941454220684 0 -0.0089382851881740135 0.013411069820189903 0 -0.0089698749207915169 0.013904387205533979 0 -0.0093363662270413653 0.013861994979383152 0 -0.0089382851881740135 0.013411069820189903 0 -0.0089698749207915169 0.013904387205533979 0 -0.0084964363358046528 0.0141006301316934 0 -0.0089698749207915169 0.013904387205533979 0 -0.0093375067303374127 0.014361666069966786 0 -0.0093363662270413653 0.013861994979383152 0 -0.0089698749207915169 0.013904387205533979 0 -0.0093375067303374127 0.014361666069966786 0 -0.0087669957926860085 0.014936236938344859 0 -0.010055920771150218 0.014565928348838167 0 -0.0093375067303374127 0.014361666069966786 0 -0.0084964363358046528 0.0141006301316934 0 -0.0087669957926860085 0.014936236938344859 0 -0.0093375067303374127 0.014361666069966786 0 -0.011546770960724899 0.016118588390471377 0 -0.011196760981706804 0.015809220011762107 0 -0.0095667992112556076 0.016881666890026539 0 -0.010166489227173694 0.016124561763095992 0 -0.0098150188413144001 0.015666161057670762 0 -0.0043918272253131076 0.020742042641655429 0 -0.00091227124837778414 0.021150569142053429 0 -0.0030297732685947488 0.014901609084102534 0 -0.0034995917376641171 0.016848618004465746 0 -0.0018571486857633778 0.016584781805965194 0 -0.0030297732685947488 0.014901609084102534 0 -0.00040892133724595634 0.015263021038157628 0 -0.0018571486857633778 0.016584781805965194 0 -0.0044559630782285134 0.022994090934277886 0 -0.0012005053823988228 0.023220025309352372 0 -0.0011304644093488362 0.02759945491652735 0 -0.0012005053823988228 0.023220025309352372 0 -0.0011304644093488362 0.02759945491652735 0 0.0013165593227506839 0.024600282763669108 0 -0.0066814133793962789 0.02286539295097037 0 -0.0044559630782285134 0.022994090934277886 0 -0.0058700291884309589 0.026529409117939239 0 -0.0044559630782285134 0.022994090934277886 0 -0.0058700291884309589 0.026529409117939239 0 -0.0011304644093488362 0.02759945491652735 0 -0.0066814133793962789 0.02286539295097037 0 -0.0058700291884309589 0.026529409117939239 0 -0.0081860153810476149 0.024076208619952768 0 -0.0058700291884309589 0.026529409117939239 0 -0.0081860153810476149 0.024076208619952768 0 -0.010324480470407125 0.02526308271857243 0 -0.0089494800728903735 0.022566180151152249 0 -0.0066814133793962789 0.02286539295097037 0 -0.0081860153810476149 0.024076208619952768 0 -0.0089494800728903735 0.022566180151152249 0 -0.0081860153810476149 0.024076208619952768 0 -0.010673184507523685 0.023468106067615721 0 -0.0081860153810476149 0.024076208619952768 0 -0.010673184507523685 0.023468106067615721 0 -0.010324480470407125 0.02526308271857243 0 -0.0062361568621785678 0.015659884616202005 0 -0.0054193138440359221 0.014587955196442315 0 -0.005392394000801071 0.015525401947927765 0 -0.0054193138440359221 0.014587955196442315 0 -0.005392394000801071 0.015525401947927765 0 -0.0044934019848168081 0.015716298688588523 0 -0.005392394000801071 0.015525401947927765 0 -0.0044934019848168081 0.015716298688588523 0 -0.0055686656661602229 0.016424120783024704 0 -0.0062361568621785678 0.015659884616202005 0 -0.005392394000801071 0.015525401947927765 0 -0.0055686656661602229 0.016424120783024704 0 -0.0030297732685947488 0.014901609084102534 0 -0.0054193138440359221 0.014587955196442315 0 -0.0044934019848168081 0.015716298688588523 0 -0.0030297732685947488 0.014901609084102534 0 -0.0044934019848168081 0.015716298688588523 0 -0.0034995917376641171 0.016848618004465746 0 -0.0043918272253131076 0.020742042641655429 0 -0.0077830951967011721 0.019915439428697855 0 -0.0044934019848168081 0.015716298688588523 0 -0.0034995917376641171 0.016848618004465746 0 -0.0046787377786726017 0.017220998146549902 0 -0.0034995917376641171 0.016848618004465746 0 -0.0046787377786726017 0.017220998146549902 0 -0.0035868590270187973 0.017940808232095283 0 -0.0034995917376641171 0.016848618004465746 0 -0.0035868590270187973 0.017940808232095283 0 -0.0023408856525297611 0.017923729631643258 0 -0.0044934019848168081 0.015716298688588523 0 -0.0055686656661602229 0.016424120783024704 0 -0.0046787377786726017 0.017220998146549902 0 -0.0066533664687613526 0.016727191634596433 0 -0.0055686656661602229 0.016424120783024704 0 -0.0058236597062156217 0.017313139274246228 0 -0.0055686656661602229 0.016424120783024704 0 -0.0046787377786726017 0.017220998146549902 0 -0.0058236597062156217 0.017313139274246228 0 -0.0083658610340190537 0.01735588550347221 0 -0.0089414146884284375 0.016254733563606048 0 -0.0066942215902563622 0.016323368552359899 0 -0.0073368784488288177 0.01770259450724412 0 -0.0058236597062156217 0.017313139274246228 0 -0.0048738336572476705 0.018500952714229371 0 -0.0046787377786726017 0.017220998146549902 0 -0.0058236597062156217 0.017313139274246228 0 -0.0048738336572476705 0.018500952714229371 0 -0.002769004728913511 0.018872249122877528 0 -0.0057946664301676649 0.017466057685695143 0 -0.0025299130738129947 0.019078441313659031 0 -0.0048738336572476705 0.018500952714229371 0 -0.0035868590270187973 0.017940808232095283 0 -0.0046787377786726017 0.017220998146549902 0 -0.0048738336572476705 0.018500952714229371 0 -0.0035868590270187973 0.017940808232095283 0 -0.0025299130738129947 0.019078441313659031 0 -0.0023408856525297611 0.017923729631643258 0 -0.0011145744002265473 0.019269089540394888 0 -0.0025299130738129947 0.019078441313659031 0 -0.0035868590270187973 0.017940808232095283 0 -0.0023408856525297611 0.017923729631643258 0 -0.0023408856525297611 0.017923729631643258 0 -0.0018571486857633778 0.016584781805965194 0 -0.00033171829485061343 0.017918870204714735 0 -0.0034995917376641171 0.016848618004465746 0 -0.0023408856525297611 0.017923729631643258 0 -0.0018571486857633778 0.016584781805965194 0 -0.00040892133724595634 0.015263021038157628 0 -0.0018571486857633778 0.016584781805965194 0 -0.00033171829485061343 0.017918870204714735 0 0.0010076459853030264 0.020551070792458492 0 -0.00033171829485061343 0.017918870204714735 0 -0.0011145744002265473 0.019269089540394888 0 -0.0023408856525297611 0.017923729631643258 0 -0.00033171829485061343 0.017918870204714735 0 -0.0011145744002265473 0.019269089540394888 0 0.0010076459853030264 0.020551070792458492 0 0.0031699432898802662 0.020451561516560142 0 0.0018197499033118247 0.017716811053014578 0 0.0010076459853030264 0.020551070792458492 0 -0.00033171829485061343 0.017918870204714735 0 0.0018197499033118247 0.017716811053014578 0 0.0031699432898802662 0.020451561516560142 0 0.0039260196113173234 0.018522672126498746 0 0.0018197499033118247 0.017716811053014578 0 0.0051351464822609614 0.022181154281999391 0 0.0032617509560053954 0.02465799568641712 0 0.0063555728620666293 0.027151614252466778 0 0.0059613411063789406 0.026664354927504953 0 0.0064060844603135323 0.027310985243541884 0 0.0039260196113173234 0.018522672126498746 0 0.0018197499033118247 0.017716811053014578 0 0.0025285399929622266 0.015883209586954838 0 -0.00040892133724595634 0.015263021038157628 0 -0.00033171829485061343 0.017918870204714735 0 0.0018197499033118247 0.017716811053014578 0 -0.00040892133724595634 0.015263021038157628 0 0.0018197499033118247 0.017716811053014578 0 0.0025285399929622266 0.015883209586954838 0 0.0032617509560053954 0.02465799568641712 0 0.0017270049762420107 0.026093573857208556 0 -0.0011304644093488362 0.02759945491652735 0 0.0031012551150735334 0.028303819388818697 0 0.0013165593227506839 0.024600282763669108 0 -0.00091227124837778414 0.021150569142053429 0 0.0032617509560053954 0.02465799568641712 0 0.0034016231229191821 0.028095468806054999 0 0.0047872130028316605 0.027024066099741301 0 0.0036762383992071995 0.025642858259618113 0 0.0047872130028316605 0.027024066099741301 0 0.0036762383992071995 0.025642858259618113 0 0.0047293094983059955 0.025411042912679604 0 0.0036762383992071995 0.025642858259618113 0 0.0047293094983059955 0.025411042912679604 0 0.004563710658022916 0.024377563843311193 0 0.0047293094983059955 0.025411042912679604 0 0.004563710658022916 0.024377563843311193 0 0.00505856338009228 0.024073988028014387 0 0.0036762383992071995 0.025642858259618113 0 0.004563710658022916 0.024377563843311193 0 0.0030352748343590225 0.024116298560967152 0 0.0034016231229191821 0.028095468806054999 0 0.0036762383992071995 0.025642858259618113 0 0.0013165593227506839 0.024600282763669108 0 0.0036762383992071995 0.025642858259618113 0 0.0030352748343590225 0.024116298560967152 0 0.0013165593227506839 0.024600282763669108 0 0.0058539968081871459 0.027106759446238624 0 0.0055941309050140655 0.027156413711277781 0 0.0060676871846626649 0.027874040554246485 0 0.0058539968081871459 0.027106759446238624 0 0.0060676871846626649 0.027874040554246485 0 0.0061620183553577484 0.028126347429899959 0 0.0046965556568588163 0.025613466148676007 0 0.006612936791508507 0.025649555728053462 0 0.0047293094983059955 0.025411042912679604 0 0.0058539968081871459 0.027106759446238624 0 0.0055941309050140655 0.027156413711277781 0 0.0047293094983059955 0.025411042912679604 0 0.0073521911906686581 0.024521549726417968 0 0.005969350436878784 0.023775878263407928 0 0.0047872130028316605 0.027024066099741301 0 0.0047293094983059955 0.025411042912679604 0 0.0055941309050140655 0.027156413711277781 0 0.0047872130028316605 0.027024066099741301 0 0.0055941309050140655 0.027156413711277781 0 0.0058815775413641252 0.028044822443393666 0 0.0032617509560053954 0.02465799568641712 0 0.0064299998073978756 0.028105610055771391 0 0.0034016231229191821 0.028095468806054999 0 0.0047872130028316605 0.027024066099741301 0 0.0058815775413641252 0.028044822443393666 0 0.0060676871846626649 0.027874040554246485 0 0.0058815775413641252 0.028044822443393666 0 0.0059657843649516991 0.02801854736751087 0 0.0055941309050140655 0.027156413711277781 0 0.0060676871846626649 0.027874040554246485 0 0.0058815775413641252 0.028044822443393666 0 0.0064060844603135323 0.027310985243541884 0 0.0063328691681349301 0.027337929364023829 0 0.0059657843649516991 0.02801854736751087 0 0.0064299998073978756 0.028105610055771391 0 0.0057955564437106952 0.027830616940520424 0 0.0063555728620666293 0.027151614252466778 0 0.0064060844603135323 0.027310985243541884 0 0.0063328691681349301 0.027337929364023829 0 0.0060205329959695372 0.02423284587698776 0 0.0051351464822609614 0.022181154281999391 0 0.0067217949150885315 0.026836817476586172 0 0.0063555728620666293 0.027151614252466778 0 0.0063328691681349301 0.027337929364023829 0 0.0063328691681349301 0.027337929364023829 0 0.0057343732986661934 0.027654509136025157 0 0.0059657843649516991 0.02801854736751087 0 0.0059038602549603379 0.02694870192174131 0 0.0063328691681349301 0.027337929364023829 0 0.0057343732986661934 0.027654509136025157 0 0.0059657843649516991 0.02801854736751087 0 0.0052701202822266211 0.028212174604327164 0 0.0054646439642763063 0.028514961597567154 0 0.0057343732986661934 0.027654509136025157 0 0.0059657843649516991 0.02801854736751087 0 0.0052701202822266211 0.028212174604327164 0 0.0040889484353828975 0.028943375206540424 0 0.0044063057140224576 0.028418154598349617 0 0.0045325791302874702 0.028556091206720709 0 0.0049549850025008349 0.027868670626699933 0 0.0044063057140224576 0.028418154598349617 0 0.0045325791302874702 0.028556091206720709 0 0.0049549850025008349 0.027868670626699933 0 0.0057343732986661934 0.027654509136025157 0 0.0052701202822266211 0.028212174604327164 0 0.0049549850025008349 0.027868670626699933 0 0.0045325791302874702 0.028556091206720709 0 0.0052701202822266211 0.028212174604327164 0 0.0045325791302874702 0.028556091206720709 0 0.0050176967708419288 0.028767429142908998 0 0.0052701202822266211 0.028212174604327164 0 0.0050176967708419288 0.028767429142908998 0 0.0052701202822266211 0.028212174604327164 0 0.0054646439642763063 0.028514961597567154 0 0.0043402338680680148 0.028951486008037382 0 0.0045325791302874702 0.028556091206720709 0 0.0050176967708419288 0.028767429142908998 0 0.0033969788460728599 0.034782231626181784 0 0.0053630167102107253 0.028243801695861027 0 0.0049041523325653001 0.029230282702112521 0 0.0050176967708419288 0.028767429142908998 0 0.0050876951573492228 0.029026708399774028 0 0.0049041523325653001 0.029230282702112521 0 0.0050876951573492228 0.029026708399774028 0 0.004936818831191298 0.029418027163931246 0 0.0050176967708419288 0.028767429142908998 0 0.0050876951573492228 0.029026708399774028 0 0.0054646439642763063 0.028514961597567154 0 0.0050876951573492228 0.029026708399774028 0 0.0054351943185274084 0.028881330589391015 0 0.0054646439642763063 0.028514961597567154 0 0.0050876951573492228 0.029026708399774028 0 0.0054351943185274084 0.028881330589391015 0 0.0051234649797017194 0.029407121921725562 0 0.0054351943185274084 0.028881330589391015 0 0.0051234649797017194 0.029407121921725562 0 0.0053991466296562513 0.029462924449258559 0 0.0050876951573492228 0.029026708399774028 0 0.0051234649797017194 0.029407121921725562 0 0.004936818831191298 0.029418027163931246 0 0.0060676871846626649 0.027874040554246485 0 0.0059657843649516991 0.02801854736751087 0 0.0058902533003211436 0.028317447911492474 0 0.0059657843649516991 0.02801854736751087 0 0.0054646439642763063 0.028514961597567154 0 0.0058902533003211436 0.028317447911492474 0 0.0054351943185274084 0.028881330589391015 0 0.0054646439642763063 0.028514961597567154 0 0.0058902533003211436 0.028317447911492474 0 0.0054351943185274084 0.028881330589391015 0 0.0057314478912917164 0.028770091751483779 0 0.0053991466296562513 0.029462924449258559 0 0.0058902533003211436 0.028317447911492474 0 0.0057314478912917164 0.028770091751483779 0 0.0061620183553577484 0.028126347429899959 0 0.0054351943185274084 0.028881330589391015 0 0.0058902533003211436 0.028317447911492474 0 0.0057314478912917164 0.028770091751483779 0 0.0058539968081871459 0.027106759446238624 0 0.0061620183553577484 0.028126347429899959 0 0.0062751055923826174 0.027709716158669174 0 0.0057314478912917164 0.028770091751483779 0 0.0061620183553577484 0.028126347429899959 0 0.0061172405857191966 0.029032445082272009 0 0.0063091918484258266 0.028592914183158645 0 0.0074841449969710967 0.02697847065800988 0 0.0060676871846626649 0.027874040554246485 0 0.0058902533003211436 0.028317447911492474 0 0.0061620183553577484 0.028126347429899959 0 0.006612936791508507 0.025649555728053462 0 0.0074841449969710967 0.02697847065800988 0 0.0096999839301611102 0.024010450629062607 0 0.0089135811907278314 0.022495033087224735 0 0.0079488773219233214 0.023178284888709565 0 0.0057314478912917164 0.028770091751483779 0 0.0061172405857191966 0.029032445082272009 0 0.0053991466296562513 0.029462924449258559 0 0.0074841449969710967 0.02697847065800988 0 0.0053212101161947759 0.029171328913922351 0 0.0070413334315594612 0.028898300836697356 0 0.0058612234249995785 0.030526135095530611 0 0.0050199862194405115 0.029357181896750462 0 0.0058612234249995785 0.030526135095530611 0 0.0064774471772561697 0.031164429038099167 0 0.0049843786521774763 0.031779015913739828 0 0.0070413334315594612 0.028898300836697356 0 0.0058612234249995785 0.030526135095530611 0 0.0064854177562631444 0.031159071340369812 0 0.007128683656763563 0.029881651614131265 0 0.0070582610894104111 0.027224651076772143 0 0.010304325686235316 0.021544556443306394 0 0.0085763771627091496 0.021324031962221105 0 0.0089135811907278314 0.022495033087224735 0 0.0074841449969710967 0.02697847065800988 0 0.0070582610894104111 0.027224651076772143 0 0.0096999839301611102 0.024010450629062607 0 0.010304325686235316 0.021544556443306394 0 0.0089135811907278314 0.022495033087224735 0 0.00053470858443450595 0.041074635198911053 0 0.00052692280833212854 0.040629077739004912 0 0.0007495832513243041 0.041059674685473099 0 0.0026730815853162108 0.035134628877377068 0 0.0028410715442694838 0.034991856867183237 0 0.0051234649797017194 0.029407121921725562 0 0.004936818831191298 0.029418027163931246 0 0.0049715888881257057 0.02989324164703307 0 0.00053470858443450595 0.041074635198911053 0 0.00064218007344220003 0.041217232668256519 0 0.0007495832513243041 0.041059674685473099 0 0.00064366402586135902 0.037236323539781319 0 0.0028410715442694838 0.034991856867183237 0 0.0051234649797017194 0.029407121921725562 0 0.0049715888881257057 0.02989324164703307 0 0.0053991466296562513 0.029462924449258559 0 0.0028410715442694838 0.034991856867183237 0 0.0053212101161947759 0.029171328913922351 0 0.0030131265929166464 0.029834897449876833 0 0.0050199862194405115 0.029357181896750462 0 0.0044590789302167673 0.030658816202854659 0 0.0044590789302167673 0.030658816202854659 0 0.0034033645954576011 0.031595515817046636 0 0.0049843786521774763 0.031779015913739828 0 0.0058612234249995785 0.030526135095530611 0 0.0050199862194405115 0.029357181896750462 0 0.0044590789302167673 0.030658816202854659 0 0.0058612234249995785 0.030526135095530611 0 0.0044590789302167673 0.030658816202854659 0 0.0049843786521774763 0.031779015913739828 0 0.00064218007344220003 0.041217232668256519 0 0.0007866914900296184 0.041171209318072353 0 0.00086737903371069238 0.041612249722761147 0 0.00051793641166246256 0.041600019085831989 0 0.00064218007344220003 0.041217232668256519 0 0.00086737903371069238 0.041612249722761147 0 0.0030131265929166464 0.029834897449876833 0 0.0044590789302167673 0.030658816202854659 0 0.0034033645954576011 0.031595515817046636 0 0.0028410715442694838 0.034991856867183237 0 0.0021556350810776797 0.036895125333298369 0 0.0021556350810776797 0.036895125333298369 0 0.0022156824076940895 0.036331748037355303 0 0.00045498498235073463 0.041975918755823217 0 0.00086737903371069238 0.041612249722761147 0 0.00093736911972282949 0.041916456207256633 0 0.0034033645954576011 0.031595515817046636 0 0.0049843786521774763 0.031779015913739828 0 0.0037850998526483266 0.033355887520095009 0 0.0049843786521774763 0.031779015913739828 0 0.0037850998526483266 0.033355887520095009 0 0.0059292278657143236 0.033362002458709926 0 0.0049263877519420615 0.029181253969167764 0 0.0055999443501527123 0.029844441892732335 0 0.0042146746812953368 0.029795320322422936 0 0.0022156824076940895 0.036331748037355303 0 0.0050578840933266827 0.029630518724974287 0 -0.00068475936215019141 0.042423695860495617 0 0.0022156824076940895 0.036331748037355303 0 -0.00068946709074202872 0.041539246042849927 0 -0.0014858187982546621 0.040941543630147903 0 -0.001655215907970314 0.041479901298200061 0 0.010304325686235316 0.021544556443306394 0 0.0085763771627091496 0.021324031962221105 0 0.0091159725510463509 0.020255534884767976 0 0.007339348834256001 0.023166081082342218 0 0.0061682953026214815 0.023583426904820706 0 0.0070582610894104111 0.027224651076772143 0 0.007339348834256001 0.023166081082342218 0 0.0061232938950074988 0.026511031843924369 0 0.0060173712924487801 0.026394604990497231 0 0.0061625846934787324 0.026317294280891693 0 0.0070582610894104111 0.027224651076772143 0 0.0050578840933266827 0.029630518724974287 0 0.0064774471772561697 0.031164429038099167 0 0.0049843786521774763 0.031779015913739828 0 0.0059292278657143236 0.033362002458709926 0 0.0046296963801894875 0.028448725216234434 0 0.0049263877519420615 0.029181253969167764 0 0.0042146746812953368 0.029795320322422936 0 0.0045216070277306567 0.028358503362598098 0 0.0050578840933266827 0.029630518724974287 0 0.0050578840933266827 0.029630518724974287 0 0.0061682953026214815 0.023583426904820706 0 0.0044616314055826792 0.028402152175757926 0 0.0045407397111486792 0.028512455244322034 0 0.004313096633522558 0.028427605238244762 0 0.0060173712924487801 0.026394604990497231 0 0.0061625846934787324 0.026317294280891693 0 0.0059138863180479674 0.026270769377706421 0 0.0061682953026214815 0.023583426904820706 0 0.0066971328448701215 0.017371456367477698 0 0.0079123798655825542 0.018983579087959425 0 0.0072777518198455264 0.020448316766609076 0 0.0059508440546452079 0.01890423822317408 0 0.0059051731518023551 0.019841421952175437 0 0.0059516001826712371 0.019905943050118745 0 0.0058627341271846071 0.019874578960993861 0 0.0045929692049181212 0.018158597309136198 0 0.0061682953026214815 0.023583426904820706 0 0.0085763771627091496 0.021324031962221105 0 0.0091159725510463509 0.020255534884767976 0 0.0072777518198455264 0.020448316766609076 0 0.0091159725510463509 0.020255534884767976 0 0.0079123798655825542 0.018983579087959425 0 0.0072777518198455264 0.020448316766609076 0 0.0085763771627091496 0.021324031962221105 0 0.0072777518198455264 0.020448316766609076 0 0.0074198035644927459 0.021606663010365179 0 0.0072777518198455264 0.020448316766609076 0 0.0057650898507481526 0.020576711766006856 0 0.0059508440546452079 0.01890423822317408 0 0.0057650898507481526 0.020576711766006856 0 0.0059508440546452079 0.01890423822317408 0 0.0050110259018514161 0.020707454926456433 0 0.0057650898507481526 0.020576711766006856 0 0.0050110259018514161 0.020707454926456433 0 0.0052478015588113425 0.021487746195128762 0 0.0072777518198455264 0.020448316766609076 0 0.0057650898507481526 0.020576711766006856 0 0.006302502148228104 0.021534742745548799 0 0.0052397614927947476 0.009902573555157751 0 0.009062198563590888 0.010457013493207041 0 0.0071145612821911577 0.012230773829934864 0 0.0045929692049181212 0.018158597309136198 0 0.0066971328448701215 0.017371456367477698 0 0.0068358084263673404 0.017881416429612787 0 0.0040486667022952665 0.017835504841737015 0 0.0040925508254687328 0.019122635820131125 0 0.0052397614927947476 0.009902573555157751 0 0.0071145612821911577 0.012230773829934864 0 0.0033972921145022524 0.01211282889026829 0 0.0066971328448701215 0.017371456367477698 0 0.0038313894712573215 0.014946093769173463 0 0.0040486667022952665 0.017835504841737015 0 0.002644549402381906 0.019169528514491538 0 0.0040925508254687328 0.019122635820131125 0 0.0038313894712573215 0.014946093769173463 0 0.00013627291567450074 0.013803955414762922 0 0.0040486667022952665 0.017835504841737015 0 0.0012815866202280312 0.017808868411972399 0 0.002644549402381906 0.019169528514491538 0 0.0016518829172229674 0.0086534858679462763 0 0.0033972921145022524 0.01211282889026829 0 -0.00035412281033664426 0.012015675976375238 0 0.00039701038266258803 0.012071728483097921 0 0.00071705751718636644 0.015327738547375944 0 0.0028988409717504082 0.01794503615622544 0 0.00013627291567450074 0.013803955414762922 0 0.0031531711967193255 0.020101756406051569 0 0.0012815866202280312 0.017808868411972399 0 0.002644549402381906 0.019169528514491538 0 0.0031837130255806746 0.02165126632638309 0 0.002644549402381906 0.019169528514491538 0 0.0033555203648806074 0.020123781926882564 0 0.0031837130255806746 0.02165126632638309 0 -0.00037253981018000362 0.013940039254021588 0 0.00039701038266258803 0.012071728483097921 0 0.00071705751718636644 0.015327738547375944 0 0.002644549402381906 0.019169528514491538 0 0.0033555203648806074 0.020123781926882564 0 0.0040925508254687328 0.019122635820131125 0 0.0033555203648806074 0.020123781926882564 0 0.0036409836232796332 0.020837088972103547 0 0.0031837130255806746 0.02165126632638309 0 0.001043482319409935 0.016765059769191105 0 0.00071705751718636644 0.015327738547375944 0 0.0028988409717504082 0.01794503615622544 0 -0.0003615428603092241 0.015913445521672905 0 0.001043482319409935 0.016765059769191105 0 0.00020078076673131812 0.017401972262102397 0 -0.0003615428603092241 0.015913445521672905 0 0.001043482319409935 0.016765059769191105 0 0.00071705751718636644 0.015327738547375944 0 0.0066971328448701215 0.017371456367477698 0 0.0035617933782035767 0.021128748608376793 0 0.0068358084263673404 0.017881416429612787 0 0.0040925508254687328 0.019122635820131125 0 0.0036409836232796332 0.020837088972103547 0 0.0059508440546452079 0.01890423822317408 0 0.0036409836232796332 0.020837088972103547 0 0.0050110259018514161 0.020707454926456433 0 0.0033555203648806074 0.020123781926882564 0 0.0040925508254687328 0.019122635820131125 0 0.0036409836232796332 0.020837088972103547 0 0.0050110259018514161 0.020707454926456433 0 0.0044979089053193951 0.02179662877331744 0 0.0052478015588113425 0.021487746195128762 0 0.0044979089053193951 0.02179662877331744 0 0.0052478015588113425 0.021487746195128762 0 0.0054806251133322839 0.022422553840150464 0 0.0036409836232796332 0.020837088972103547 0 0.0050110259018514161 0.020707454926456433 0 0.0044979089053193951 0.02179662877331744 0 0.0036409836232796332 0.020837088972103547 0 0.0044979089053193951 0.02179662877331744 0 0.0031837130255806746 0.02165126632638309 0 0.0044979089053193951 0.02179662877331744 0 0.0031837130255806746 0.02165126632638309 0 0.00480854366661873 0.023019362107990028 0 0.0044979089053193951 0.02179662877331744 0 0.00480854366661873 0.023019362107990028 0 0.0054806251133322839 0.022422553840150464 0 0.0028988409717504082 0.01794503615622544 0 0.0013701746706065408 0.019724404211652523 0 0.0024907661803902159 0.021704016987579813 0 0.00020078076673131812 0.017401972262102397 0 0.0011677259567166942 0.018012070949075004 0 0.00032788835024111945 0.018586811622618053 0 0.001043482319409935 0.016765059769191105 0 0.00020078076673131812 0.017401972262102397 0 0.0011677259567166942 0.018012070949075004 0 0.001043482319409935 0.016765059769191105 0 0.0011677259567166942 0.018012070949075004 0 0.0028988409717504082 0.01794503615622544 0 0.0011677259567166942 0.018012070949075004 0 0.0028988409717504082 0.01794503615622544 0 0.0013701746706065408 0.019724404211652523 0 -0.00075172144822136606 0.02052566710838219 0 0.0013701746706065408 0.019724404211652523 0 0.00032788835024111945 0.018586811622618053 0 0.0011677259567166942 0.018012070949075004 0 0.0013701746706065408 0.019724404211652523 0 0.00032788835024111945 0.018586811622618053 0 -0.00075172144822136606 0.02052566710838219 0 0.0013701746706065408 0.019724404211652523 0 0.00064591311841829841 0.021983160599483791 0 0.0013701746706065408 0.019724404211652523 0 0.0024907661803902159 0.021704016987579813 0 0.00064591311841829841 0.021983160599483791 0 0.0030352748343590225 0.024116298560967152 0 0.0013165593227506839 0.024600282763669108 0 0.0024907661803902159 0.021704016987579813 0 0.0013165593227506839 0.024600282763669108 0 0.0024907661803902159 0.021704016987579813 0 0.00064591311841829841 0.021983160599483791 0 -0.0012005053823988228 0.023220025309352372 0 0.0013165593227506839 0.024600282763669108 0 0.00064591311841829841 0.021983160599483791 0 0.004563710658022916 0.024377563843311193 0 0.0031837130255806746 0.02165126632638309 0 0.00480854366661873 0.023019362107990028 0 0.0044670569558851484 0.023963499231040273 0 0.0031531711967193255 0.020101756406051569 0 0.004563710658022916 0.024377563843311193 0 0.0028988409717504082 0.01794503615622544 0 0.0024907661803902159 0.021704016987579813 0 0.004563710658022916 0.024377563843311193 0 0.0030352748343590225 0.024116298560967152 0 0.0024907661803902159 0.021704016987579813 0 0.004563710658022916 0.024377563843311193 0 0.00480854366661873 0.023019362107990028 0 0.00505856338009228 0.024073988028014387 0 0.00480854366661873 0.023019362107990028 0 0.00505856338009228 0.024073988028014387 0 0.005969350436878784 0.023775878263407928 0 0.0047293094983059955 0.025411042912679604 0 0.00505856338009228 0.024073988028014387 0 0.005969350436878784 0.023775878263407928 0 0.0073521911906686581 0.024521549726417968 0 0.005969350436878784 0.023775878263407928 0 0.0066557638743200715 0.022657731111232485 0 0.00480854366661873 0.023019362107990028 0 0.005969350436878784 0.023775878263407928 0 0.0054806251133322839 0.022422553840150464 0 0.005969350436878784 0.023775878263407928 0 0.0054806251133322839 0.022422553840150464 0 0.0066557638743200715 0.022657731111232485 0 0.0073521911906686581 0.024521549726417968 0 0.0096999839301611102 0.024010450629062607 0 0.0079488773219233214 0.023178284888709565 0 0.0073521911906686581 0.024521549726417968 0 0.0079488773219233214 0.023178284888709565 0 0.0066557638743200715 0.022657731111232485 0 0.0079488773219233214 0.023178284888709565 0 0.0074198035644927459 0.021606663010365179 0 0.0066557638743200715 0.022657731111232485 0 0.0089135811907278314 0.022495033087224735 0 0.0079488773219233214 0.023178284888709565 0 0.0074198035644927459 0.021606663010365179 0 0.0085763771627091496 0.021324031962221105 0 0.0089135811907278314 0.022495033087224735 0 0.0074198035644927459 0.021606663010365179 0 0.0072777518198455264 0.020448316766609076 0 0.0074198035644927459 0.021606663010365179 0 0.006302502148228104 0.021534742745548799 0 0.0074198035644927459 0.021606663010365179 0 0.006302502148228104 0.021534742745548799 0 0.0066557638743200715 0.022657731111232485 0 0.006302502148228104 0.021534742745548799 0 0.0052478015588113425 0.021487746195128762 0 0.0054806251133322839 0.022422553840150464 0 0.0057650898507481526 0.020576711766006856 0 0.006302502148228104 0.021534742745548799 0 0.0052478015588113425 0.021487746195128762 0 0.006302502148228104 0.021534742745548799 0 0.0054806251133322839 0.022422553840150464 0 0.0066557638743200715 0.022657731111232485 0 
</DataArray>
</PointData>
<CellData Scalars="region_id,cross_section_updated," Vectors="" Tensors="stress,">
<DataArray type="Float64" Name="region_id" format="ascii">
5 5 5 5 5 5 6 5 5 5 6 5 5 5 6 5 5 5 5 5 5 6 6 5 5 5 5 6 6 5 6 6 5 6 5 5 5 6 5 5 6 5 5 5 5 5 5 5 6 5 5 5 5 5 5 5 5 6 5 5 6 5 6 5 6 5 6 5 5 5 5 5 5 5 5 5 5 5 5 5 5 5 5 6 5 5 5 5 5 5 5 5 6 5 5 6 6 5 5 5 5 5 5 5 5 5 5 5 5 6 5 5 5 5 5 6 5 5 6 5 5 5 5 5 5 5 5 5 5 5 5 5 5 5 5 5 5 5 6 5 5 5 5 5 6 5 5 5 5 5 5 5 5 5 5 5 5 5 5 5 5 5 5 5 5 5 5 5 5 6 5 6 5 5 5 6 5 5 5 6 5 5 5 6 6 5 5 6 5 5 5 5 6 5 5 5 5 5 6 5 5 5 5 6 5 6 5 5 6 5 5 5 6 5 5 6 5 5 5 5 5 5 5 5 5 5 6 5 5 6 5 5 5 5 5 5 5 6 5 5 5 5 5 5 5 5 5 5 5 5 5 5 5 5 5 5 5 5 5 6 5 6 5 5 5 5 5 6 5 5 5 5 5 5 5 5 6 5 5 5 6 5 5 6 5 5 5 5 6 5 5 6 5 5 5 5 5 6 5 6 5 5 5 5 5 5 5 5 5 5 5 5 5 5 5 5 5 5 6 5 5 5 5 5 6 6 5 5 5 5 5 5 5 5 5 5 6 5 5 5 5 5 5 5 5 5 6 5 5 6 6 5 5 5 6 5 5 6 5 5 5 5 5 5 5 5 5 5 5 5 5 5 5 6 5 5 5 5 5 5 5 5 6 5 5 6 5 5 5 5 6 5 5 5 5 5 5 5 5 5 5 5 5 5 5 6 6 5 5 6 6 5 6 5 6 5 6 5 5 6 5 5 5 5 5 5 5 5 5 6 6 5 5 6 5 5 5 5 5 6 5 5 6 5 5 5 5 6 5 5 5 6 5 5 5 6 5 6 5 5 6 5 5 5 5 5 5 5 5 5 5 5 6 5 5 5 5 5 5 6 5 5 5 6 5 5 5 5 5 5 5 6 5 5 5 5 5 6 5 6 5 5 5 5 5 6 6 5 5 5 6 6 5 6 5 5 5 5 5 5 5 6 5 5 5 5 5 5 5 5 5 5 5 5 5 5 6 5 5 6 5 6 5 5 5 5 5 5 5 5 5 5 5 5 5 5 6 5 5 5 5 5 5 5 5 5 5 5 5 5 5 5 5 6 5 5 5 5 5 5 5 5 5 5 5 6 6 5 5 5 5 5 5 5 5 5 5 5 5 5 5 5 5 6 5 5 5 5 5 5 5 6 5 5 5 5 5 5 5 5 6 5 5 5 6 5 5 5 5 5 5 5 5 5 5 5 5 5 5 5 5 5 5 5 5 5 5 5 5 5 5 5 5 6 5 6 5 5 5 5 5 5 5 5 5 5 5 5 5 6 5 5 5 6 5 5 5 5 5 5 5 5 5 5 5 5 5 6 6 5 5 5 5 5 5 5 6 5 5 5 5 5 5 5 5 5 5 5 6 5 5 5 5 5 5 5 6 5 5 5 5 5 5 5 5 5 5 5 5 5 5 5 5 5 6 5 5 5 5 5 5 5 5 5 5 6 5 5 5 5 5 6 5 5 5 6 5 5 5 5 6 5 5 5 5 5 5 5 6 5 6 5 5 6 5 6 5 5 5 5 5 5 5 5 5 5 5 5 5 5 5 5 5 5 5 5 5 5 5 5 5 5 5 5 5 5 5 5 5 5 5 6 5 6 6 5 5 5 5 5 5 5 5 5 5 5 6 5 5 5 5 5 5 5 6 5 6 5 6 5 5 5 5 5 5 6 5 6 6 5 5 5 5 5 5 5 5 5 5 5 5 5 5 5 5 5 6 5 5 5 5 5 5 5 5 5 5 5 5 5 5 6 5 5 5 5 5 5 5 5 5 5 5 5 5 6 5 5 5 5 5 5 5 5 5 6 5 5 5 5 5 6 6 5 5 5 5 6 6 5 5 5 5 5 5 5 5 5 5 5 6 5 5 5 5 6 5 5 5 5 5 5 6 5 5 6 5 6 5 5 5 6 5 5 5 5 5 5 5 6 5 5 5 5 6 6 5 5 6 5 5 5 6 6 6 6 5 5 6 5 5 5 5 5 5 5 5 6 6 5 5 5 5 5 5 6 5 6 5 5 5 6 5 5 5 5 5 5 5 5 5 5 5 5 5 5 5 5 5 5 5 5 5 5 5 5 5 5 5 5 6 5 5 5 5 5 5 5 5 5 5 5 5 5 5 5 5 5 5 5 5 5 6 5 5 5 5 5 5 5 5 5 6 5 5 5 5 5 5 6 5 5 5 5 5 6 5 5 5 5 5 6 5 5 5 5 5 5 5 5 5 5 6 5 5 5 5 6 6 5 5 6 5 5 5 5 6 5 5 6 5 5 5 5 5 6 6 5 5 5 5 5 5 6 5 5 5 5 5 5 5 6 6 5 5 5 6 5 5 5 6 5 5 6 5 6 5 5 5 6 5 5 6 6 5 5 5 5 5 5 6 5 6 5 6 5 5 5 6 6 5 6 5 5 5 5 5 5 5 5 5 5 5 5 5 5 5 5 6 5 5 5 5 5 5 5 6 5 5 5 5 5 6 5 5 5 6 5 5 5 5 6 5 6 5 6 5 5 5 5 6 5 5 6 5 5 5 5 5 5 5 5 5 5 5 6 5 5 5 5 6 5 5 5 5 6 5 5 5 5 5 5 6 5 5 5 6 5 6 6 5 5 5 5 5 5 5 5 5 5 5 5 5 5 5 5 5 5 5 5 5 5 5 5 5 5 5 5 6 5 5 6 6 5 6 5 5 5 5 6 5 5 6 5 5 5 5 5 5 5 5 5 5 5 5 5 5 5 5 5 5 5 5 5 5 5 5 5 5 5 5 6 5 5 5 5 5 5 5 5 6 5 5 5 5 5 5 5 6 5 6 5 5 5 6 5 5 5 5 5 5 5 6 5 6 5 5 5 5 5 6 5 5 5 5 5 5 5 5 5 5 5 5 5 5 5 5 5 5 5 5 5 5 5 5 5 5 5 5 5 5 5 5 5 5 5 5 5 5 5 6 6 5 5 6 5 5 5 6 5 5 5 6 6 5 5 6 5 5 5 5 5 5 5 5 5 5 5 5 5 5 5 5 5 5 5 5 5 6 5 6 5 5 5 5 5 5 5 5 5 5 5 5 5 5 5 5 5 5 5 5 5 5 5 5 5 5 5 5 5 5 5 5 5 5 5 5 5 5 5 5 5 5 5 5 5 6 5 6 5 6 5 5 6 5 5 5 5 5 5 5 5 5 5 5 5 5 5 5 5 5 5 5 5 5 5 5 5 5 5 5 6 5 5 5 5 5 5 5 5 5 5 5 5 5 5 5 5 5 5 5 5 5 5 5 5 5 5 5 5 5 5 5 5 5 5 5 5 5 5 5 5 5 5 5 5 5 5 5 5 5 6 5 5 5 5 6 5 5 5 5 5 5 5 5 6 5 5 5 5 5 6 6 6 5 5 5 5 6 6 5 5 6 5 5 5 5 5 5 5 5 5 5 5 5 5 5 6 6 5 6 5 5 5 5 5 5 5 5 5 5 5 5 5 5 5 5 5 5 6 5 5 5 5 5 5 6 5 5 5 5 5 5 5 5 5 5 5 5 5 5 5 5 5 5 6 5 5 5 5 5 5 5 5 5 6 5 5 6 5 5 5 5 5 5 5 5 5 5 5 5 5 5 5 5 6 5 6 5 5 5 5 6 5 6 5 5 6 6 5 5 6 5 5 5 6 5 5 5 5 5 5 6 5 5 5 6 5 5 5 5 6 5 5 5 5 5 5 5 6 5 5 5 5 5 6 5 5 6 5 5 5 5 5 5 5 6 5 5 5 6 6 5 5 5 6 5 5 5 5 5 6 6 6 5 5 5 5 5 5 5 5 5 6 6 5 6 5 5 5 5 5 6 5 5 6 5 6 5 5 5 6 5 5 6 5 5 5 5 5 5 5 6 5 5 6 6 5 5 6 5 6 5 5 6 5 5 6 5 6 5 5 5 6 5 5 6 5 6 5 5 6 5 6 5 5 5 5 6 6 5 5 5 5 5 5 5 5 5 6 5 5 5 5 5 5 5 5 5 5 5 5 5 5 5 5 5 5 6 6 5 5 5 6 5 5 5 5 6 5 5 6 5 5 5 6 5 5 6 5 5 5 5 6 5 5 5 5 5 6 5 5 5 6 6 5 5 6 5 5 5 5 5 6 6 5 5 5 5 6 5 5 5 5 6 5 5 5 5 5 5 5 5 5 5 5 5 5 5 5 5 5 5 5 5 5 5 5 5 5 5 5 5 6 5 5 5 5 5 5 5 5 5 5 5 6 5 5 5 5 6 5 5 5 6 5 5 6 5 5 5 5 5 6 5 5 5 5 5 5 5 5 5 5 5 5 5 5 5 5 5 5 5 5 6 5 5 5 5 5 6 5 5 5 5 5 5 5 6 5 5 5 5 5 5 5 5 5 5 5 5 5 6 5 5 5 5 5 6 6 5 5 5 5 6 5 6 5 5 5 6 6 5 5 6 5 5 5 6 5 5 5 5 6 5 5 6 6 5 5 5 5 5 5 6 5 5 6 5 5 5 5 6 5 5 5 5 5 5 5 5 5 5 5 5 5 5 5 5 5 5 5 6 5 6 5 5 5 6 5 6 5 6 5 5 6 5 5 6 6 6 5 5 5 6 5 5 5 5 5 5 6 5 5 5 5 5 5 5 6 5 6 5 5 5 5 5 5 5 6 5 5 5 5 5 5 5 5 5 5 5 6 5 5 6 5 5 5 5 5 5 5 5 5 5 5 5 5 5 5 5 6 5 5 5 5 5 5 5 5 5 5 5 5 5 5 5 5 5 5 5 5 5 6 5 5 5 6 5 5 5 5 5 5 5 5 5 5 6 5 5 5 5 5 5 5 5 5 5 6 5 5 5 5 5 5 6 5 5 5 6 5 5 5 5 5 5 5 5 5 5 5 5 5 5 5 5 5 5 5 5 5 6 5 5 5 5 5 6 5 5 6 5 5 5 5 5 5 6 5 5 5 5 6 5 5 5 5 5 5 5 5 5 5 5 5 5 5 5 5 5 5 6 5 5 5 5 5 6 5 5 5 6 5 6 5 5 5 5 5 5 5 6 5 5 5 6 6 5 5 5 5 5 6 5 5 5 6 5 5 5 5 5 5 5 5 5 5 5 5 5 5 5 6 5 5 5 5 5 5 6 5 5 5 5 5 5 5 5 5 5 5 6 5 5 5 5 5 5 5 5 5 6 5 5 5 5 6 6 5 5 5 5 5 5 5 5 6 6 5 6 5 5 5 5 5 6 5 5 5 5 5 5 6 5 6 5 5 5 5 5 5 5 5 5 5 6 5 5 5 5 5 5 6 5 5 5 5 5 5 5 5 6 5 5 5 5 5 6 5 5 6 5 5 5 5 5 5 6 5 5 5 5 5 5 5 5 6 5 5 5 5 6 5 5 5 5 5 5 5 5 5 5 6 5 5 5 5 5 5 5 5 5 6 5 5 5 5 6 5 5 5 5 5 5 5 5 6 5 6 5 5 5 6 5 5 5 5 5 5 5 5 6 5 5 5 6 5 5 5 6 5 5 6 5 5 5 5 5 5 5 5 5 5 5 5 5 5 5 5 5 5 5 5 5 5 5 5 5 5 5 5 5 5 5 5 5 5 5 5 5 5 5 5 5 5 5 5 5 5 5 5 5 5 5 5 5 6 5 5 5 6 5 5 5 5 5 5 6 5 6 5 5 5 5 6 6 5 5 5 5 5 5 5 5 5 5 5 5 5 5 5 5 5 5 5 5 5 5 6 5 5 6 5 5 5 6 5 5 5 5 5 5 5 5 5 5 5 5 5 5 6 5 6 5 6 5 5 5 5 5 5 5 5 5 5 5 5 5 5 5 5 5 6 5 5 5 5 5 5 5 5 5 5 5 5 5 5 5 5 5 5 5 5 5 5 5 5 5 5 5 5 5 5 5 5 5 6 5 5 5 5 5 5 6 5 5 6 5 6 5 5 6 5 5 5 6 5 5 5 5 5 5 5 5 5 5 5 5 5 5 5 5 5 5 5 5 5 5 5 5 5 6 5 5 5 5 6 5 5 6 5 5 5 5 5 5 5 5 5 5 5 5 5 5 5 5 5 5 5 5 5 5 5 5 5 5 5 5 5 5 6 5 5 5 6 5 5 5 5 6 5 5 5 5 5 6 5 5 5 5 6 5 5 5 5 5 5 5 5 5 5 5 5 5 5 6 6 5 6 5 6 5 5 5 5 5 5 5 5 5 5 5 5 5 5 5 5 5 5 5 5 5 5 5 5 5 6 6 5 5 6 5 5 6 5 5 5 5 5 5 5 5 5 5 5 6 5 5 6 5 5 5 5 5 5 5 5 5 5 5 5 5 5 6 6 5 6 6 5 5 5 5 6 5 5 5 6 6 5 5 5 5 5 5 5 6 5 5 5 5 5 5 5 5 5 5 5 5 5 5 5 5 6 5 5 5 5 6 5 5 5 5 5 5 5 6 5 5 5 5 5 5 5 6 5 5 6 5 5 5 5 5 5 5 5 5 5 5 5 5 5 5 6 5 5 5 5 5 5 5 5 6 5 5 5 5 5 5 5 6 5 5 5 5 5 6 5 5 5 5 6 5 5 5 5 5 5 5 5 5 5 5 5 6 5 5 5 5 5 5 5 5 5 5 5 5 5 5 6 5 5 5 5 5 5 5 5 5 5 5 5 5 6 6 5 5 6 5 5 5 5 6 5 5 5 6 5 5 6 5 5 5 5 6 5 5 5 5 5 5 5 5 5 5 5 5 5 5 5 5 5 5 5 5 5 5 5 5 5 5 5 5 5 5 5 5 5 5 6 5 5 5 6 5 6 5 5 5 5 5 5 5 5 5 5 5 5 5 5 6 5 5 5 5 5 5 5 5 6 5 5 5 6 5 5 5 5 5 5 5 6 5 6 5 5 5 5 5 5 5 5 5 5 5 5 5 5 6 5 5 6 5 5 5 5 5 5 5 6 5 5 5 5 5 5 5 5 5 5 5 5 5 5 5 5 5 5 5 5 5 5 5 5 5 5 5 6 5 5 6 5 5 5 6 5 5 6 5 5 5 5 5 5 5 5 5 5 5 5 5 5 5 5 5 5 5 6 5 5 5 5 5 5 5 5 5 5 5 5 5 6 5 5 5 5 5 5 5 5 5 5 5 5 5 5 5 5 5 5 5 6 5 5 5 5 5 5 5 5 5 5 5 5 5 5 5 5 6 5 5 6 5 5 5 6 5 5 6 5 5 5 5 5 5 5 5 5 5 5 5 5 5 6 5 5 6 5 5 5 5 5 5 5 5 5 5 5 5 5 5 5 5 5 5 5 5 5 5 5 5 5 5 5 5 5 5 5 5 5 5 5 5 6 5 5 5 5 6 5 5 5 5 5 5 5 5 5 5 5 5 5 5 5 6 5 6 6 5 5 6 5 6 5 5 5 5 5 5 5 5 6 5 5 6 5 5 5 5 6 6 5 6 5 5 5 5 5 5 5 5 5 5 5 5 5 5 5 5 5 5 5 5 5 6 5 5 5 5 5 5 5 5 5 5 5 5 5 5 5 5 5 5 5 5 5 5 5 5 5 6 5 5 5 5 5 6 5 5 5 5 5 5 5 5 5 6 5 5 5 5 5 5 5 5 5 5 5 5 5 5 5 5 5 6 6 5 5 6 5 5 5 6 5 5 5 5 5 5 5 5 5 5 6 5 5 6 5 6 5 5 5 5 6 5 5 5 6 5 5 5 5 5 5 6 5 5 5 5 5 5 6 5 5 5 5 5 5 5 5 5 5 5 5 5 5 6 5 5 6 5 5 5 6 6 5 5 5 5 5 5 5 5 5 5 6 5 5 5 6 5 5 5 5 6 5 5 5 5 5 5 5 5 6 5 5 5 5 5 6 6 5 5 5 6 5 6 6 5 5 5 5 5 6 5 5 5 5 5 5 6 5 5 5 5 5 5 5 6 5 5 6 5 5 6 5 5 5 5 5 5 5 5 5 5 5 5 5 5 6 5 5 5 6 5 5 6 5 5 5 5 6 5 5 5 5 5 5 5 5 6 5 5 5 5 6 5 5 5 5 5 5 5 5 6 5 5 5 5 5 5 5 5 5 6 5 5 5 6 5 5 6 5 5 6 5 5 5 5 5 5 5 5 5 6 5 5 5 5 5 5 5 5 5 5 5 5 5 5 5 5 6 5 5 5 5 5 5 5 5 5 5 5 5 5 5 5 5 5 5 5 5 5 5 5 5 5 5 6 5 6 5 5 5 5 5 5 5 5 5 5 6 5 5 6 5 5 5 5 5 5 5 5 5 5 5 5 5 5 5 5 5 5 5 5 5 6 5 5 5 5 5 5 5 5 5 6 5 6 5 5 5 5 5 5 5 6 5 6 5 5 5 5 5 5 5 5 5 5 5 6 5 5 5 5 6 5 6 5 5 5 5 5 5 6 5 5 6 5 5 6 5 5 5 6 6 6 5 5 5 5 5 5 5 5 5 5 5 5 5 6 5 5 5 5 5 5 5 6 5 6 5 6 5 5 6 6 5 5 5 5 5 5 6 5 5 5 5 6 5 6 5 6 5 6 5 5 5 5 6 5 5 5 5 5 6 5 5 5 5 5 5 5 5 5 5 5 5 5 5 6 5 5 5 5 5 6 5 5 5 6 5 5 5 5 5 5 5 5 5 5 5 5 5 5 5 5 5 6 5 5 5 5 6 5 5 5 5 5 5 6 5 5 5 5 5 5 5 5 5 5 6 5 5 6 5 6 5 5 5 5 5 5 5 5 5 5 5 6 5 5 5 5 5 5 6 5 6 6 5 6 5 5 5 5 5 5 5 6 5 5 5 5 5 5 5 5 5 5 5 5 5 5 5 5 6 5 5 5 5 5 5 5 5 5 5 6 5 5 5 5 5 5 5 5 5 5 6 5 5 5 5 6 5 5 5 5 5 6 5 5 5 5 6 5 5 5 5 5 5 5 5 5 5 5 5 5 5 5 5 5 5 6 5 5 5 5 5 5 5 5 6 5 6 6 5 5 5 5 5 6 5 5 5 5 5 5 5 5 5 5 5 5 5 5 6 5 5 6 5 6 6 5 5 5 5 5 5 6 5 5 5 5 6 5 6 5 5 6 5 5 5 5 5 5 6 6 5 5 5 5 5 5 5 5 5 5 5 5 5 5 5 6 5 5 5 5 5 5 5 6 5 6 5 5 5 6 5 6 5 5 5 5 5 5 5 5 6 5 5 5 5 5 6 5 6 5 5 5 5 6 5 5 5 5 5 6 5 5 5 5 5 5 5 5 5 5 5 5 5 5 5 5 5 5 5 5 5 5 5 5 6 5 5 5 6 5 6 5 5 5 6 5 5 5 5 5 5 5 5 5 5 5 5 5 5 5 5 5 6 6 6 6 5 5 5 5 5 5 6 5 5 5 6 5 5 5 5 5 5 5 5 5 5 6 6 6 5 5 6 6 5 5 5 5 5 5 5 5 5 6 5 5 5 5 5 5 5 5 6 6 5 5 5 6 5 5 5 5 5 5 5 5 5 5 5 6 5 6 5 5 5 5 5 6 6 5 5 6 6 5 5 5 5 5 5 5 5 5 5 5 5 5 5 5 5 5 5 5 5 5 5 5 5 5 5 5 5 5 5 5 5 5 5 5 5 5 5 5 5 5 5 6 6 5 5 5 5 5 5 5 5 5 5 5 5 5 5 5 5 5 5 5 5 6 5 5 5 5 5 5 5 5 5 5 5 5 5 5 5 5 6 5 6 5 5 5 5 5 5 5 5 6 5 5 5 5 5 5 5 5 5 5 5 6 5 5 6 5 5 6 5 5 5 5 6 5 5 5 5 6 5 5 6 5 6 5 5 5 5 5 6 5 5 5 5 5 5 5 6 5 5 5 5 5 5 5 5 5 5 5 5 5 5 5 5 5 5 5 5 5 5 5 5 6 5 5 5 6 5 5 6 5 5 5 6 5 5 5 5 6 5 6 5 5 5 5 5 5 5 5 6 5 5 5 5 5 5 5 5 5 5 6 5 5 6 5 5 6 5 5 6 6 5 5 5 5 5 5 5 6 6 5 5 5 6 5 5 6 6 5 5 5 6 6 5 6 5 5 6 5 5 5 5 6 5 6 6 5 5 5 6 5 6 6 5 6 6 6 6 5 6 5 6 5 6 5 5 5 6 5 5 6 5 6 6 5 5 5 5 6 5 6 6 5 5 5 6 6 5 5 6 6 5 5 5 5 6 5 5 5 5 6 5 5 5 5 6 5 6 5 6 5 6 5 6 5 6 5 5 5 5 5 6 5 5 6 6 6 5 5 6 6 5 6 5 5 6 5 5 5 5 5 5 6 5 5 6 5 6 5 5 5 5 6 5 6 5 6 5 5 5 6 5 5 6 5 6 5 6 5 5 5 5 5 6 5 5 5 5 5 5 5 5 5 5 6 5 5 5 5 6 5 5 6 5 5 5 5 5 6 5 5 6 5 5 5 6 5 6 5 5 5 6 5 5 5 5 6 5 5 5 5 6 6 5 5 5 5 5 5 6 5 5 6 5 5 5 5 5 5 5 5 5 5 5 5 5 5 5 5 5 5 5 5 5 5 5 5 5 5 5 5 5 5 5 5 5 5 5 5 5 5 5 5 5 5 5 5 5 5 5 5 5 5 5 5 5 5 5 5 5 5 6 5 5 5 5 5 5 5 5 5 5 5 5 6 5 5 6 5 5 5 6 5 5 5 5 5 5 5 5 5 5 5 5 5 5 5 6 5 5 5 5 5 5 5 5 5 5 5 5 5 5 5 5 6 5 5 5 5 5 5 5 5 5 5 5 5 5 6 5 5 6 5 5 6 5 6 5 5 5 5 5 5 5 6 5 5 5 5 5 5 5 5 5 5 5 5 6 5 5 5 6 5 5 5 5 5 5 5 5 5 6 5 5 5 5 5 5 6 5 5 5 5 5 5 6 5 5 5 6 5 5 5 5 5 5 5 6 5 5 5 5 5 5 5 5 5 5 6 5 5 5 5 5 5 5 5 5 5 5 5 5 5 5 5 6 5 6 5 5 5 5 5 5 5 5 5 5 6 5 6 5 5 5 5 5 5 5 5 5 5 5 6 5 5 5 5 5 5 5 5 5 5 5 6 5 5 5 5 5 5 5 6 5 5 5 5 5 5 5 6 5 5 5 5 5 5 5 5 5 5 5 6 5 5 5 5 5 5 5 5 6 5 6 5 5 5 5 5 5 5 5 5 5 6 5 5 5 6 5 5 5 5 5 5 5 5 5 6 5 5 5 5 5 5 5 5 5 5 5 5 5 5 5 5 6 5 5 5 5 5 5 5 5 5 5 5 5 5 5 5 5 5 5 6 5 5 6 5 5 6 5 5 5 5 5 6 5 5 5 5 5 5 5 5 5 5 5 5 5 5 5 5 5 5 5 5 5 5 5 5 5 5 5 5 5 5 5 5 5 5 5 5 5 5 5 5 5 5 5 5 5 5 5 5 5 5 5 5 5 5 5 5 5 5 5 6 5 5 6 5 5 5 5 5 5 5 5 5 5 5 5 5 5 5 5 5 5 5 5 5 5 5 5 6 6 5 5 5 5 5 5 5 5 5 5 5 5 5 5 5 5 6 6 5 5 5 5 5 5 5 6 5 6 5 5 6 6 5 5 5 5 5 5 5 5 5 5 5 6 5 6 5 5 5 6 5 5 5 6 5 6 5 5 5 5 5 6 6 5 5 5 5 5 5 5 5 5 5 5 5 5 5 5 5 5 5 5 5 5 5 5 5 5 5 5 5 5 5 5 5 5 5 5 5 5 5 5 5 5 5 5 5 5 5 5 5 5 5 5 5 5 5 5 5 5 5 5 5 5 5 5 5 5 5 5 5 5 5 5 5 5 5 5 5 5 5 5 5 5 5 5 5 5 5 5 5 5 5 5 5 5 5 5 5 5 5 5 5 5 5 5 5 6 6 5 6 5 6 5 5 6 5 5 5 5 6 5 5 5 5 5 5 5 6 6 6 5 5 5 5 5 6 6 5 5 5 5 5 5 5 5 5 5 5 5 5 5 5 5 5 5 5 5 5 5 5 5 5 5 5 5 5 5 5 5 5 5 6 5 5 6 5 5 5 5 5 5 5 5 5 5 5 6 5 5 5 5 5 5 5 6 5 5 5 5 5 5 5 5 5 5 5 5 5 5 5 5 6 5 5 6 5 5 5 5 5 5 5 5 5 5 5 5 5 5 5 5 5 5 5 5 5 5 5 6 5 5 6 5 5 6 5 5 5 5 5 5 5 6 5 5 5 5 5 5 6 5 5 6 5 5 5 5 6 5 6 5 5 6 5 5 5 5 6 5 6 5 5 6 5 5 5 5 5 5 5 5 5 5 5 5 6 5 5 5 6 5 5 6 5 5 5 5 6 5 5 5 5 5 5 5 5 5 5 6 5 5 5 5 5 5 5 5 5 5 6 5 5 5 5 5 5 5 5 5 5 5 5 6 5 5 6 5 5 5 5 5 5 5 5 5 5 6 5 5 5 5 5 6 5 6 6 5 5 6 5 5 5 5 5 5 5 5 5 6 6 5 5 5 5 5 5 6 5 5 5 5 5 5 5 5 5 5 5 5 5 5 5 5 5 5 5 5 5 5 5 5 5 6 5 5 5 5 5 5 5 5 5 5 5 5 5 5 5 5 5 5 5 5 5 5 5 5 5 5 5 5 5 5 5 5 5 5 5 5 5 5 5 5 6 5 5 5 5 5 5 5 5 5 5 6 5 5 5 6 5 6 5 5 5 6 5 5 5 6 5 6 5 6 5 6 6 5 5 6 5 5 5 6 5 5 5 5 5 6 5 5 5 5 6 5 5 5 6 5 5 5 5 6 5 6 5 5 5 5 5 5 5 5 5 5 5 5 5 5 6 5 5 5 5 6 5 5 6 5 5 6 6 5 5 6 5 6 5 5 5 6 6 6 6 5 5 6 5 5 5 5 6 5 6 5 5 6 6 6 5 6 5 5 6 6 6 5 5 5 5 5 5 5 5 5 6 6 5 5 5 5 6 6 5 5 5 6 5 6 5 5 5 5 5 5 5 5 5 5 5 6 5 5 5 5 5 5 5 5 5 5 5 5 5 5 5 5 5 5 5 5 5 5 5 6 5 5 5 5 5 5 5 5 5 5 5 5 5 5 5 5 6 5 5 6 5 5 5 5 5 5 5 5 5 6 5 5 5 6 6 5 5 6 5 5 5 5 5 6 5 6 5 5 5 6 5 5 5 5 5 5 5 6 5 5 6 5 5 5 5 6 5 5 5 6 6 5 5 6 5 5 5 6 5 5 5 5 5 5 5 6 5 5 6 5 6 6 6 5 6 5 6 6 5 5 5 5 5 5 6 5 5 6 5 5 5 5 5 5 5 5 5 5 5 5 5 5 5 5 5 5 5 5 5 5 5 5 5 5 5 5 5 5 5 5 5 5 5 6 6 5 5 5 5 5 5 5 5 6 6 6 6 5 5 6 5 5 5 5 5 5 5 5 6 5 5 6 5 5 5 6 5 5 5 5 6 5 5 5 5 5 5 5 5 5 5 5 5 5 5 6 5 5 5 5 5 6 5 5 5 5 5 5 5 5 6 5 5 5 6 6 5 5 6 6 5 5 5 5 5 6 5 5 5 5 5 5 6 5 6 5 5 5 5 5 5 5 5 6 6 5 6 6 6 5 6 5 5 5 5 5 5 6 5 5 5 5 5 5 5 6 5 5 5 5 5 5 5 5 5 5 5 5 5 5 5 5 5 5 5 5 5 5 5 5 5 5 5 5 5 5 5 5 5 5 5 5 5 5 5 5 5 5 5 5 5 5 5 5 5 5 5 5 5 5 5 5 5 6 5 5 5 5 5 5 5 6 5 5 6 5 5 5 6 5 6 5 5 6 5 5 5 5 5 5 5 6 5 5 5 6 5 5 5 5 5 5 5 6 5 6 5 5 5 5 5 5 5 5 5 5 5 5 5 5 5 5 5 5 5 5 5 5 5 5 5 6 6 5 6 5 5 5 5 5 5 5 6 5 6 5 6 6 6 5 5 6 5 5 6 5 5 5 6 5 5 5 5 5 5 5 6 6 5 5 6 5 5 5 6 5 5 5 5 6 5 6 5 5 5 5 5 5 6 5 6 5 5 5 5 5 6 5 5 6 5 5 5 5 5 5 5 5 5 5 5 5 5 5 5 5 6 5 5 6 6 5 6 5 5 5 5 5 5 5 5 6 5 5 5 5 5 5 5 5 5 5 5 5 5 5 5 5 6 5 5 5 6 5 5 6 5 5 5 5 5 5 6 5 5 5 5 5 5 5 5 5 5 5 5 5 5 5 5 5 5 5 6 6 5 5 5 5 5 5 5 6 5 5 5 6 5 5 6 5 6 5 5 6 5 6 6 5 6 5 6 5 6 5 5 5 5 5 5 5 5 5 5 5 5 5 5 5 6 6 5 5 5 5 5 5 5 6 5 5 5 5 5 5 5 5 5 5 5 5 5 5 5 6 5 6 5 5 5 5 5 5 6 5 5 5 6 5 5 5 6 5 5 5 5 5 5 5 5 5 5 5 5 5 5 5 5 5 5 5 5 5 6 5 5 5 5 6 5 5 5 5 5 6 5 5 5 6 5 5 5 5 5 5 5 5 5 5 5 5 6 5 5 5 5 6 5 5 5 5 5 5 5 5 6 5 5 5 5 5 5 5 6 5 5 5 5 6 5 5 5 5 5 5 5 5 6 5 5 5 5 5 5 5 5 5 6 5 5 5 5 5 5 5 5 5 5 5 5 5 5 5 5 5 5 5 5 5 5 5 5 5 5 5 5 6 5 5 5 5 5 5 5 6 5 5 5 5 5 5 5 5 5 5 5 5 5 5 5 5 5 5 5 5 5 5 5 5 5 5 5 5 5 6 5 5 5 5 5 5 5 5 5 5 5 5 5 5 5 5 5 5 5 5 5 5 5 5 5 5 5 5 5 5 5 5 6 5 5 6 5 5 5 5 6 5 5 6 5 5 5 5 6 5 5 5 6 5 5 5 6 5 5 5 5 5 5 5 5 5 5 6 5 5 6 5 5 5 5 5 5 6 5 5 5 5 5 6 5 5 5 5 6 5 5 5 5 5 5 5 5 5 5 6 5 5 5 5 5 5 5 5 5 6 5 5 5 5 5 5 5 5 5 5 5 5 5 6 5 5 5 5 5 5 5 6 5 5 5 5 5 6 5 5 5 5 5 5 5 5 5 5 5 5 5 5 6 5 5 5 5 5 5 5 5 6 5 5 5 5 5 5 5 5 5 5 5 5 5 5 5 5 5 5 5 5 5 5 5 5 5 5 5 5 5 5 5 5 5 6 5 5 5 5 6 6 5 5 6 5 5 6 5 5 6 5 5 5 5 5 5 5 5 5 5 5 5 5 5 5 5 5 5 5 6 5 5 5 5 6 5 5 5 5 5 5 5 5 5 5 5 5 5 5 5 5 5 5 5 5 5 5 5 5 5 5 5 5 5 5 5 5 5 5 5 5 5 5 5 5 5 5 5 5 5 5 5 5 5 5 5 5 5 5 5 5 5 5 5 5 5 5 5 5 5 5 5 5 5 5 5 6 5 5 5 5 6 5 6 5 5 6 5 5 5 5 6 5 5 6 5 5 5 5 5 5 5 5 5 5 5 5 5 5 5 5 5 5 5 5 5 5 5 5 5 5 5 5 5 5 5 5 5 5 5 5 5 5 5 5 5 5 5 5 5 5 5 5 5 5 5 5 5 5 5 5 5 5 5 5 6 5 5 5 5 5 5 5 5 5 6 5 5 5 5 5 5 5 6 5 5 5 5 5 5 5 5 5 5 5 5 5 5 5 5 5 5 5 6 6 5 5 6 5 6 5 5 5 5 5 5 5 5 5 5 5 5 5 5 5 5 5 5 5 5 5 5 5 5 5 5 5 5 5 5 5 5 5 5 5 5 5 5 5 5 5 5 5 5 5 5 5 5 5 5 5 5 5 5 5 6 6 5 5 5 5 5 5 5 5 5 5 5 5 5 5 5 5 5 5 5 5 6 5 5 5 5 5 5 5 5 5 5 6 5 5 5 6 5 5 5 5 5 5 6 5 5 5 5 5 5 5 5 5 5 5 5 5 6 5 5 5 5 5 5 6 6 5 6 5 5 6 5 5 5 6 5 5 5 6 5 5 5 5 5 6 5 6 5 5 5 5 6 5 5 5 5 6 5 6 5 5 6 6 5 5 5 5 5 6 5 5 5 5 5 6 6 6 5 6 5 6 5 5 5 5 5 6 5 5 5 5 5 5 5 5 6 6 5 5 6 5 5 5 5 6 5 5 6 5 5 6 5 5 5 5 5 5 5 5 5 6 5 5 5 5 5 5 5 5 6 5 5 5 5 5 5 5 5 5 6 6 5 5 5 5 5 5 5 5 5 5 5 5 5 5 5 5 5 5 5 5 5 5 5 5 5 5 5 5 5 5 5 5 5 5 5 6 5 5 5 5 6 5 5 5 5 5 5 5 5 5 5 5 5 5 5 5 5 6 6 5 5 5 5 5 5 5 5 5 6 5 5 5 5 6 5 5 6 5 5 5 5 5 5 5 5 5 5 5 5 5 6 5 5 5 5 5 5 5 5 5 5 5 5 5 5 5 5 5 5 5 5 5 5 5 5 5 6 5 5 5 5 5 6 5 5 5 6 5 5 5 6 6 5 5 5 5 5 5 5 5 5 5 5 5 5 5 6 5 5 5 6 5 5 5 5 6 6 5 5 5 5 5 5 5 5 5 5 5 5 5 5 5 5 5 5 5 5 5 5 5 6 5 5 5 5 5 5 5 5 5 6 5 5 5 5 6 5 6 5 5 5 5 6 5 5 5 5 5 5 5 5 5 5 5 5 5 5 5 6 5 5 6 5 5 5 5 5 5 5 5 5 5 6 6 5 5 5 5 6 5 5 5 6 5 5 5 5 6 6 5 6 5 6 5 6 5 5 6 5 5 6 5 5 6 5 5 5 6 5 5 6 5 6 5 6 5 5 6 5 5 5 5 5 5 5 5 5 5 5 5 5 6 5 5 5 5 5 5 5 5 5 5 5 5 5 5 5 5 6 6 5 5 5 5 5 6 5 5 5 5 6 5 5 6 5 5 5 5 6 5 5 5 5 5 5 5 5 5 5 5 5 5 5 5 5 5 5 5 5 5 5 5 5 5 5 5 5 5 5 5 5 5 5 5 5 5 5 6 5 5 5 5 5 5 5 5 5 5 5 5 5 6 5 6 5 5 5 5 6 5 5 5 5 5 5 5 5 5 5 5 5 5 5 5 5 5 5 6 5 6 5 5 6 5 5 5 6 5 5 5 5 5 5 5 5 5 5 5 5 5 5 5 5 5 5 5 5 5 5 5 5 5 5 5 6 5 5 6 5 5 5 5 5 5 5 5 5 5 5 5 5 5 5 5 5 5 5 5 5 5 5 5 5 5 5 5 5 5 5 5 5 5 5 6 5 6 5 5 5 5 5 5 5 5 5 5 5 5 5 5 5 5 5 6 6 5 5 5 5 5 6 5 5 5 5 6 5 5 5 5 6 5 5 5 5 5 5 5 5 5 5 5 5 5 5 5 5 5 5 6 5 5 5 5 5 5 6 5 5 6 5 5 5 5 5 5 5 5 5 5 5 5 6 5 5 6 5 5 5 5 5 5 5 5 6 5 5 5 5 5 5 6 5 5 6 5 5 5 5 5 5 5 5 5 5 5 5 5 5 5 5 5 5 5 5 5 5 5 5 5 5 5 5 5 5 5 5 5 5 5 5 6 5 5 5 6 5 5 6 5 5 5 5 5 5 6 5 5 5 5 5 6 5 5 5 5 5 5 6 5 5 5 5 6 5 6 5 5 6 5 5 5 6 5 5 5 5 5 5 5 5 5 5 5 5 5 6 5 5 5 5 5 5 5 5 5 5 5 5 5 5 5 5 5 5 5 5 5 5 5 5 6 5 6 5 6 5 6 5 5 5 5 6 5 5 5 5 6 5 5 5 5 5 5 5 5 5 5 5 5 5 5 6 5 5 5 6 5 5 5 6 5 5 6 5 5 5 6 5 5 5 5 6 5 5 5 5 6 5 5 5 5 5 5 5 5 5 5 6 5 5 5 5 5 6 5 6 5 5 5 5 5 6 6 5 5 6 5 6 5 5 6 5 5 5 5 5 5 5 5 5 5 5 5 5 6 5 5 5 5 5 6 5 5 5 5 5 5 5 5 5 5 6 5 6 5 5 6 5 5 6 5 6 5 6 5 5 5 5 5 6 6 5 5 5 5 5 5 5 5 5 5 5 6 5 5 5 5 5 6 5 5 5 6 5 6 5 5 5 5 5 5 5 5 5 5 5 5 5 5 5 6 5 5 5 5 6 5 5 5 5 5 5 5 5 5 5 5 5 5 5 5 5 5 5 5 5 5 5 5 6 5 5 6 5 5 5 5 5 5 5 6 5 5 6 5 6 5 5 5 5 5 5 5 5 5 6 5 5 6 5 5 5 6 5 5 5 5 5 5 5 6 5 5 5 5 6 6 5 5 5 5 5 5 5 5 5 6 5 5 5 5 5 5 5 5 5 5 5 5 5 5 5 5 6 5 6 5 5 5 6 5 5 5 5 5 5 5 5 5 5 5 5 5 6 5 5 5 5 5 6 5 5 5 6 6 5 5 5 6 5 5 6 5 5 5 5 6 6 5 5 5 6 5 5 6 5 5 5 5 6 5 6 5 5 5 6 5 5 5 5 5 5 5 5 5 5 5 5 5 5 5 5 5 5 5 5 5 6 5 5 5 5 5 5 5 5 5 6 5 5 5 6 5 6 5 5 5 5 5 5 5 5 5 5 5 6 5 5 5 5 5 6 5 5 5 5 5 6 5 5 5 5 5 5 5 5 5 5 5 5 5 5 5 5 6 5 5 5 5 5 5 5 5 5 6 5 5 5 5 5 5 5 5 5 5 5 5 5 5 5 6 5 5 5 5 5 5 5 5 5 5 5 5 5 5 5 5 5 5 5 5 5 5 5 5 5 5 5 5 5 6 5 5 5 5 6 5 6 6 5 5 5 5 5 5 6 5 6 5 5 5 6 5 5 6 5 5 5 5 5 5 6 5 5 5 5 5 5 5 6 5 5 5 5 6 5 5 5 5 5 5 6 5 5 5 5 5 5 5 5 5 5 5 5 6 5 6 5 5 5 5 5 5 5 6 6 5 5 5 5 5 5 5 5 6 5 5 5 6 5 5 6 5 5 5 5 5 5 5 5 5 5 5 5 5 5 5 5 5 5 5 5 5 5 5 5 5 6 5 5 6 5 5 5 5 5 6 5 5 6 5 6 5 5 5 6 5 5 5 5 6 5 5 6 6 5 5 5 5 5 6 5 5 6 5 5 5 5 5 6 5 5 5 5 5 5 5 5 5 6 5 5 5 5 6 5 5 5 5 5 5 6 5 6 5 5 5 6 5 6 5 5 6 5 6 5 5 5 6 5 5 5 5 5 5 5 5 5 5 5 5 5 6 5 5 5 5 6 5 5 5 5 5 5 6 5 5 5 5 5 5 5 6 5 5 5 5 5 5 6 5 5 5 5 5 5 5 6 5 5 6 5 5 5 5 5 5 5 5 5 6 6 5 5 5 5 5 5 5 5 5 5 5 5 6 5 5 5 5 5 5 5 6 5 5 5 6 5 6 5 5 6 5 5 5 5 5 6 5 5 5 6 5 5 5 5 6 5 5 5 6 5 5 5 5 5 5 5 6 5 5 6 5 5 5 6 5 5 5 6 5 5 5 5 6 5 5 5 6 5 5 5 5 5 5 5 5 5 6 5 5 5 5 5 5 5 5 5 6 5 5 5 5 6 5 5 6 5 5 5 5 5 5 5 5 5 5 5 5 5 5 5 5 5 5 5 5 5 5 5 5 5 5 6 5 5 5 5 5 5 5 5 5 5 5 6 5 5 5 6 5 5 5 5 5 5 6 5 5 5 5 5 5 5 5 5 5 5 5 5 5 5 5 5 5 5 5 5 5 5 5 5 5 6 5 6 5 5 6 6 5 5 5 5 5 5 5 5 5 5 5 5 5 5 5 5 5 6 5 5 5 5 5 5 5 5 5 5 5 5 5 5 5 5 5 5 5 5 5 5 5 5 5 5 5 5 5 5 5 5 5 5 5 5 5 5 5 5 5 5 5 5 5 5 5 5 5 5 5 5 5 5 5 5 5 5 5 5 5 6 5 5 6 5 5 5 5 6 5 5 5 5 5 5 5 5 5 5 6 5 6 5 5 5 6 5 5 5 6 5 6 5 5 5 6 5 6 5 6 5 5 5 6 5 5 5 5 6 5 6 5 5 5 5 5 6 5 6 6 5 5 5 5 5 5 6 5 5 5 6 5 5 5 5 5 5 5 5 5 5 5 5 5 5 5 5 5 5 5 6 5 5 5 6 6 5 5 5 5 5 6 5 5 5 5 5 5 5 5 5 5 5 5 5 5 6 5 5 6 5 6 5 5 5 6 5 6 5 5 6 5 5 5 5 5 5 5 5 5 5 5 6 5 5 5 5 5 5 5 5 5 5 6 6 5 5 5 5 5 5 5 6 5 5 5 5 5 5 5 5 5 5 5 5 5 5 6 5 5 5 5 5 5 5 5 5 5 6 5 5 5 6 5 6 6 5 5 5 5 5 5 5 5 6 5 5 5 5 5 5 5 5 5 6 5 6 5 6 5 5 5 5 5 5 5 5 6 5 6 5 5 5 5 5 5 6 5 5 6 5 6 5 5 5 5 5 5 5 5 5 5 5 5 5 5 6 5 5 5 5 5 5 5 5 5 5 6 5 5 5 5 5 5 6 5 5 5 5 5 5 5 5 5 5 5 5 5 5 5 5 5 5 5 5 5 5 5 5 5 6 5 5 5 5 5 6 5 5 5 5 5 5 5 5 5 5 5 6 5 5 5 5 6 5 5 5 5 5 6 5 5 5 5 5 6 5 5 6 5 5 5 5 5 5 5 5 5 5 5 5 5 5 5 5 5 5 5 5 5 5 5 5 5 5 6 5 5 6 5 5 5 5 5 5 5 5 5 5 5 5 5 5 5 6 5 5 5 5 5 5 5 5 5 6 5 5 5 5 5 5 5 6 5 5 5 5 5 6 5 5 5 5 5 5 6 5 5 5 5 6 5 5 5 5 5 5 5 6 5 5 6 5 5 6 5 5 5 5 6 5 5 5 5 5 5 5 5 6 5 5 6 5 5 5 5 5 5 5 5 5 6 5 5 5 5 5 6 5 5 5 5 6 5 5 5 6 5 5 5 5 5 5 5 5 5 5 5 6 6 5 5 5 5 5 5 5 5 5 5 5 6 5 5 5 5 5 6 5 6 6 5 6 6 5 5 6 5 5 5 5 5 5 6 5 6 6 5 5 5 5 5 6 5 5 5 5 5 5 5 5 6 5 5 5 5 6 5 5 5 5 5 6 5 5 6 5 5 5 5 5 5 5 6 5 6 5 5 5 5 5 5 5 6 6 5 5 5 5 5 5 5 6 5 5 5 5 5 5 6 5 5 5 5 5 5 5 5 5 5 5 5 5 5 6 5 5 6 5 5 5 5 6 5 5 5 5 6 5 5 5 5 5 5 6 5 5 5 5 5 5 5 6 5 5 5 6 5 5 5 5 6 5 5 6 5 5 5 5 5 5 5 6 5 5 5 5 6 5 6 5 5 5 5 5 5 5 5 5 5 5 5 5 5 6 5 5 5 5 5 5 5 6 5 5 6 5 5 6 5 5 5 5 5 5 5 5 5 6 5 5 5 6 5 5 5 5 5 5 5 5 5 6 5 5 5 5 5 5 5 5 5 5 5 6 5 5 5 6 5 5 5 5 5 5 5 5 5 5 5 6 5 5 5 5 5 5 5 5 5 5 6 5 5 5 5 5 6 5 5 5 5 5 5 5 5 6 5 5 6 5 5 6 5 5 5 5 6 6 5 5 5 5 6 5 5 5 5 6 5 5 6 5 5 5 5 6 5 5 6 5 5 5 5 5 6 5 5 5 5 5 5 5 5 6 5 6 5 5 5 5 5 5 5 5 5 6 6 5 5 5 5 5 5 6 5 5 6 5 5 6 5 6 5 5 5 6 5 5 6 5 5 5 5 5 5 5 5 6 6 5 5 6 6 5 5 5 5 6 5 5 5 6 5 6 5 6 6 6 5 6 5 5 5 6 5 5 5 5 5 5 5 5 5 6 5 5 6 5 5 5 5 5 5 6 5 5 5 5 5 5 6 6 6 5 5 5 5 5 5 5 5 5 5 5 6 5 5 5 5 6 5 5 5 5 5 5 5 5 6 5 5 6 5 5 5 6 5 5 5 5 5 5 5 5 5 6 5 5 5 5 5 5 5 5 6 5 5 5 6 5 5 6 5 5 5 6 5 6 5 5 6 5 6 5 5 6 5 5 5 5 5 5 6 5 5 6 5 5 5 5 5 5 5 5 5 5 5 5 5 5 5 5 5 5 5 5 5 5 5 5 5 5 5 5 5 5 5 5 5 5 5 5 5 5 5 5 5 5 5 5 5 5 5 5 5 5 5 5 5 5 5 5 5 5 5 5 5 5 5 5 5 5 5 5 5 5 5 5 5 5 5 5 5 5 5 5 5 5 5 5 5 5 5 5 5 5 5 5 5 5 5 5 6 5 5 5 5 6 5 5 5 5 5 5 5 5 5 5 5 5 6 6 5 5 5 5 5 5 5 5 5 5 5 5 5 5 5 6 5 5 5 6 5 5 5 5 5 5 5 5 5 5 6 5 6 5 5 5 5 5 5 5 5 5 5 5 5 5 5 5 5 5 5 5 5 5 5 5 5 6 5 5 5 5 6 5 5 5 5 5 5 5 5 6 5 5 5 5 5 5 5 5 5 5 5 5 5 5 5 5 5 5 5 5 5 5 5 5 5 5 5 5 5 5 5 5 5 5 5 5 5 5 5 5 5 5 5 5 5 5 5 5 5 6 5 5 5 5 5 5 5 5 5 5 5 5 5 5 5 5 5 5 5 5 5 5 5 5 5 5 5 5 5 5 5 5 6 5 5 5 5 5 5 6 5 5 5 5 5 5 6 5 5 6 5 6 5 6 5 5 5 5 6 5 5 5 5 5 6 5 5 5 6 6 5 5 5 6 5 5 5 5 6 6 5 5 5 5 5 5 5 5 5 5 5 5 5 5 6 5 5 6 5 5 6 6 5 5 5 5 5 5 5 5 5 5 6 5 6 5 5 5 5 5 5 5 5 5 5 5 6 5 5 5 5 5 5 5 6 5 5 5 5 5 5 5 5 5 5 5 5 5 5 5 5 5 5 6 6 5 5 5 5 5 5 5 5 5 5 5 5 5 5 5 5 5 6 5 5 5 5 5 5 5 5 5 6 5 5 5 5 5 5 5 5 5 5 5 5 6 5 5 5 5 6 5 6 5 5 5 5 5 5 5 5 5 6 5 5 5 5 6 5 5 5 5 6 5 6 5 5 5 5 5 5 5 5 5 5 5 5 6 5 5 5 5 5 5 5 5 5 5 5 5 5 5 5 6 5 6 5 5 6 5 5 5 6 5 6 5 5 6 5 5 6 5 6 5 5 5 5 5 5 5 6 6 5 5 5 5 6 6 5 5 6 6 5 6 5 5 6 6 5 5 6 5 5 6 5 5 5 5 5 5 5 5 6 5 5 6 5 6 5 5 5 6 5 5 5 5 5 5 5 5 6 5 5 5 5 5 5 5 5 5 5 5 5 5 5 5 5 5 5 5 5 5 5 6 5 5 5 5 5 5 5 5 5 5 5 5 5 5 5 5 5 5 
</DataArray>
<DataArray type="Float64" Name="stress" NumberOfComponents="9" format="ascii">
546.57596052763631 746.27671677215039 0 746.27671677215039 -4495.1293167003387 0 0 0 0 -0.24634101987114643 363.04709454599652 0 363.04709454599652 -2511.8652417561898 0 0 0 0 -275.01487919572702 419.74979363136117 0 419.74979363136117 -1259.0550172910152 0 0 0 0 -147.94532274578299 112.16862414961543 0 112.16862414961543 -1630.0253241092432 0 0 0 0 173.82302198999128 320.25171975955527 0 320.25171975955527 -1546.2063582824776 0 0 0 0 -182.06530165105696 546.43055562777226 0 546.43055562777226 -1115.7328597323794 0 0 0 0 -1.7457419409442181 0.40674528615244299 0 0.40674528615244299 -2.0269714475645912 0 0 0 0 -98.482653442427477 105.27973170038968 0 105.27973170038968 -458.64156894864573 0 0 0 0 -507.36325534805542 195.34616014818312 0 195.34616014818312 -626.8232752547774 0 0 0 0 64.689876806880193 139.53736117231892 0 139.53736117231892 -749.17916307089035 0 0 0 0 -2.082725591643491 -0.35237989882548959 0 -0.35237989882548959 -1.6379585684365168 0 0 0 0 -700.79620155704049 1147.4463061429706 0 1147.4463061429706 -276.76190412938013 0 0 0 0 94.320780190611686 179.2410946855598 0 179.2410946855598 -780.70000039116712 0 0 0 0 -245.27657995331629 200.25547116294911 0 200.25547116294911 959.91207187966575 0 0 0 0 -4.2468779227907998 3.0847132030235116 0 3.0847132030235116 -0.27725471983882954 0 0 0 0 -337.6948146429047 1530.0305830558282 0 1530.0305830558282 -2751.4380917838953 0 0 0 0 120.4752225834377 854.48315014961554 0 854.48315014961554 -2779.4733696213589 0 0 0 0 -306.48803707320405 1888.8285864739146 0 1888.8285864739146 -3683.6247853036912 0 0 0 0 -113.1169975175855 2315.0385970475327 0 2315.0385970475327 -4849.9854724052257 0 0 0 0 -1183.9492624810009 1052.2513640471152 0 1052.2513640471152 -4499.6184371486343 0 0 0 0 -1790.748328427959 640.42097658860439 0 640.42097658860439 -233.90921733561845 0 0 0 0 -11.080282634515999 10.360273662161575 0 10.360273662161575 -7.7436341227767684 0 0 0 0 -2.5440990295209591 10.762745195085785 0 10.762745195085785 -8.6432471605754699 0 0 0 0 16.029558860256202 135.52297541994631 0 135.52297541994631 139.13002511127706 0 0 0 0 358.01753600224043 -162.21966923146829 0 -162.21966923146829 -4706.2238266898712 0 0 0 0 -2553.180794938909 -2163.624749737075 0 -2163.624749737075 -1863.0261450938851 0 0 0 0 -939.27178326640649 1368.8606151096319 0 1368.8606151096319 -2069.7143389570992 0 0 0 0 -0.34883773832659593 1.7073111118144766 0 1.7073111118144766 -10.368071000301271 0 0 0 0 -7.132601974288467 -5.4363028777252254 0 -5.4363028777252254 -14.440415408602121 0 0 0 0 -2.2848405717609239 17.540514656553569 0 17.540514656553569 -46.058508345835435 0 0 0 0 -11.030407877005828 5.3983397837958194 0 5.3983397837958194 -23.103395674713411 0 0 0 0 -7.896154532028727 20.532385417365731 0 20.532385417365731 -40.171349051540744 0 0 0 0 167.43999102360135 -190.42461927140903 0 -190.42461927140903 -456.08865805194364 0 0 0 0 -1.1801108587637046 2.9772390746427959 0 2.9772390746427959 -65.412096241148845 0 0 0 0 -125.66572912292193 26.778105444642279 0 26.778105444642279 198.83492410018516 0 0 0 0 -134.08838574333475 398.89002942387924 0 398.89002942387924 -9.20492958536488 0 0 0 0 176.42459709275795 253.04716394873685 0 253.04716394873685 -26.665314446414413 0 0 0 0 -0.98375374969297091 46.281516869899662 0 46.281516869899662 -102.78678230455131 0 0 0 0 30.977198170310203 138.86607051312603 0 138.86607051312603 -34.151729780205642 0 0 0 0 229.06607885576659 18.007722427977569 0 18.007722427977569 -161.80862799618626 0 0 0 0 0.62333866724943299 15.250947112757686 0 15.250947112757686 -4.8952438397017772 0 0 0 0 -60.245016601660154 34.282544488138228 0 34.282544488138228 -175.03433460998349 0 0 0 0 -1245.6533979088044 -232.37387068252428 0 -232.37387068252428 -79.752854407401173 0 0 0 0 194.7273602981262 162.45107043252938 0 162.45107043252938 -396.37273667631962 0 0 0 0 -24.233905059966219 76.642944706385606 0 76.642944706385606 -138.84370523079997 0 0 0 0 -16.161087032342039 -158.73867350514047 0 -158.73867350514047 -806.90306906264595 0 0 0 0 -215.44462073134446 421.40281835445057 0 421.40281835445057 -643.16969924193108 0 0 0 0 102.91805785583324 129.44963588002065 0 129.44963588002065 -26.843671263268334 0 0 0 0 -0.1568453263529701 -0.95211225066438487 0 -0.95211225066438487 -1.2170941964238722 0 0 0 0 81.896819097024036 292.11672054944211 0 292.11672054944211 -134.37528184411349 0 0 0 0 128.06038552374866 170.34727147156082 0 170.34727147156082 -378.92754821365816 0 0 0 0 90.122768629315942 84.637730795962852 0 84.637730795962852 -570.51257825985522 0 0 0 0 5.055874844948903 -9.0624942507856758 0 -9.0624942507856758 -475.57982483622618 0 0 0 0 18.607768621926425 -22.303213441009575 0 -22.303213441009575 -354.63701333991776 0 0 0 0 53.177315492437174 44.178803454677109 0 44.178803454677109 -430.98517363340216 0 0 0 0 49.690133814754063 41.882699685469561 0 41.882699685469561 -392.72095025295675 0 0 0 0 11.983110086329816 32.781704699576949 0 32.781704699576949 -41.184690855399822 0 0 0 0 19.938700302003014 -8.9484754514612916 0 -8.9484754514612916 -4.8791031072152009 0 0 0 0 -3.0727257283995755 -26.655451331384029 0 -26.655451331384029 6.097670033108443 0 0 0 0 42.446767866739663 13.867872237395204 0 13.867872237395204 -302.1513037776167 0 0 0 0 -0.36766202768163048 -26.651233001858884 0 -26.651233001858884 -36.536830930798999 0 0 0 0 -160.73076189062158 215.39907753090665 0 215.39907753090665 -306.40540344362671 0 0 0 0 26.684721496021325 -5.925510643428197 0 -5.925510643428197 -13.563607360879033 0 0 0 0 611.92929339426337 292.77114038747823 0 292.77114038747823 -784.75127110981703 0 0 0 0 7.6802566419226892 -3.8499665143081927 0 -3.8499665143081927 -16.716991822405532 0 0 0 0 14.845547735179935 2.7439685677964007 0 2.7439685677964007 0.17739686982167768 0 0 0 0 16.059416717946768 6.5108622883507508 0 6.5108622883507508 -54.936959315896104 0 0 0 0 46.064076670300324 28.13819260559103 0 28.13819260559103 -60.308598776711733 0 0 0 0 36.002900936109654 17.200699398730649 0 17.200699398730649 -57.830607989322743 0 0 0 0 27.643911271656179 51.422132168379903 0 51.422132168379903 -124.34516363618604 0 0 0 0 22.39786870137371 13.897045777077437 0 13.897045777077437 -61.664966143507627 0 0 0 0 67.181564963295841 13.604825664344389 0 13.604825664344389 -254.11998723912984 0 0 0 0 50.687392126457553 -45.235327007976593 0 -45.235327007976593 -22.315152278082678 0 0 0 0 78.617931841111613 -27.139183417231834 0 -27.139183417231834 -110.35189463371626 0 0 0 0 2.2771074011625387 3.2976857146277325 0 3.2976857146277325 -37.531633892536775 0 0 0 0 -47.761173571714608 8.434540773214394 0 8.434540773214394 -30.954611514069256 0 0 0 0 -23.235401377302423 40.444134006262175 0 40.444134006262175 -74.625078653392848 0 0 0 0 -6.4893078287223034 47.339635956330312 0 47.339635956330312 -181.71103933081031 0 0 0 0 -7.1050679339523413 34.440393652112107 0 34.440393652112107 -183.12991209326265 0 0 0 0 -40.179081588802546 78.863942061783746 0 78.863942061783746 -167.9591830700665 0 0 0 0 -47.037681136963329 -13.199777554786124 0 -13.199777554786124 38.43830879975576 0 0 0 0 76.791217327175218 -41.573521039004845 0 -41.573521039004845 -45.935682063020067 0 0 0 0 9.839885404980123 -46.879330830466643 0 -46.879330830466643 -21.587146046571434 0 0 0 0 1.0175545411940554 6.0512113469842745 0 6.0512113469842745 -26.141181195932575 0 0 0 0 224.65976171315208 273.92234149731667 0 273.92234149731667 -232.57513850102259 0 0 0 0 99.2768376387545 -10.659819912234525 0 -10.659819912234525 -44.460325221720268 0 0 0 0 -499.65553067793144 644.30689515545964 0 644.30689515545964 -387.68180831385166 0 0 0 0 93.766966369009566 133.50071162608219 0 133.50071162608219 -821.80842406495503 0 0 0 0 -301.81053614009164 -352.83654424401175 0 -352.83654424401175 -332.65486928528117 0 0 0 0 0.47454637075567674 21.355993202174432 0 21.355993202174432 -344.33238675406028 0 0 0 0 95.223385561467865 104.60442677012179 0 104.60442677012179 -272.18010380638589 0 0 0 0 -11.860617241510226 -223.39637809692067 0 -223.39637809692067 118.72730907400546 0 0 0 0 0.35446665675460054 0.27054385157046568 0 0.27054385157046568 0.36635884301908561 0 0 0 0 -181.07869474008135 -125.18356649169436 0 -125.18356649169436 406.76462598917715 0 0 0 0 49.217144018516862 -30.060639347304459 0 -30.060639347304459 -123.15577963856049 0 0 0 0 2.6944592884401253 2.3603536508786078 0 2.3603536508786078 -4.5377373737977393 0 0 0 0 1.9487184067651995 -1.5700806396840363 0 -1.5700806396840363 -1.9623983882437983 0 0 0 0 -28.090368505278207 198.61178567883326 0 198.61178567883326 -305.89690395740035 0 0 0 0 44.872931056031234 -76.328545587612098 0 -76.328545587612098 -22.214955909032142 0 0 0 0 1.1811375716363797 113.85547754090294 0 113.85547754090294 -355.77679318576702 0 0 0 0 0.082461889038329766 -91.52023190230102 0 -91.52023190230102 -13.276354966270446 0 0 0 0 -0.61298211231371902 -91.377130876127922 0 -91.377130876127922 -377.97163863782589 0 0 0 0 149.35390950307453 -39.475156298838556 0 -39.475156298838556 -708.20684187019651 0 0 0 0 2.8406094319391286 231.29539184884925 0 231.29539184884925 -874.2163743873607 0 0 0 0 33.218652257916119 65.85620788380038 0 65.85620788380038 -533.32989636393904 0 0 0 0 -69.661658296166252 17.422422898855075 0 17.422422898855075 -551.08878875953087 0 0 0 0 88.042312851895986 58.790949413843919 0 58.790949413843919 -463.15249495153057 0 0 0 0 -49.836837694817746 54.495879367797897 0 54.495879367797897 -217.23125008580973 0 0 0 0 -78.581831467518782 -99.314397170848679 0 -99.314397170848679 -124.80294209009298 0 0 0 0 14.550281961552164 -9.8240116641980819 0 -9.8240116641980819 -9.2790302612562527 0 0 0 0 46.606206211450399 -18.391415579815657 0 -18.391415579815657 -19.223481700304546 0 0 0 0 36.945235057182117 -109.79453491570894 0 -109.79453491570894 -386.82570144721103 0 0 0 0 -66.174829343517032 -29.174713470963979 0 -29.174713470963979 -24.966565143171465 0 0 0 0 -84.31498878932203 7.4673957699014863 0 7.4673957699014863 -51.719286685402039 0 0 0 0 171.92578386890978 -472.77358143294441 0 -472.77358143294441 -661.28390778198082 0 0 0 0 -1.7987376164416671 -15.97367466839998 0 -15.97367466839998 -37.553238260473421 0 0 0 0 109.17818362605499 597.36539364154305 0 597.36539364154305 -2392.855161745174 0 0 0 0 -298.26280152671944 572.61551517967382 0 572.61551517967382 -443.42610493518259 0 0 0 0 1.2521666475348927 -9.6050179745995479 0 -9.6050179745995479 -32.667636045853783 0 0 0 0 -41.897635021540907 496.19476511397625 0 496.19476511397625 -1684.748354775249 0 0 0 0 -1208.9452383405974 1679.5624565408507 0 1679.5624565408507 -1761.7652343613881 0 0 0 0 103.69531599428872 1799.2714556192368 0 1799.2714556192368 -4500.3225073312569 0 0 0 0 -368.62970568077503 1478.7806660779497 0 1478.7806660779497 -3687.2886165617674 0 0 0 0 673.14365507356842 955.58513346278778 0 955.58513346278778 -3650.8541637666058 0 0 0 0 604.32178426235384 1011.6455295041633 0 1011.6455295041633 -3411.1478368898242 0 0 0 0 336.50611119160294 233.4983854839229 0 233.4983854839229 -2692.1129548156314 0 0 0 0 373.55486182234426 437.28725979156707 0 437.28725979156707 -3578.1988142673945 0 0 0 0 770.66209724364592 572.07034117053627 0 572.07034117053627 -4499.4359157638828 0 0 0 0 340.96730830213983 328.58537280733435 0 328.58537280733435 -3648.4279841011157 0 0 0 0 274.35238254366197 55.219845906515729 0 55.219845906515729 -4498.4763890108443 0 0 0 0 -5.4377655497620481 -342.00416330655571 0 -342.00416330655571 -2290.9326157264513 0 0 0 0 -15.617100364772256 -199.46689483899763 0 -199.46689483899763 -3619.3648297103646 0 0 0 0 -321.91096286814769 311.9963496486198 0 311.9963496486198 -938.11599164469226 0 0 0 0 -364.89913843956487 -227.16083866454574 0 -227.16083866454574 -838.33452677370678 0 0 0 0 -121.92306936892211 308.73004922265318 0 308.73004922265318 11.631287949319812 0 0 0 0 -814.49692575965969 71.642129919659055 0 71.642129919659055 171.76908341841772 0 0 0 0 140.0942232399027 -136.32583516423983 0 -136.32583516423983 -125.14889642337221 0 0 0 0 -599.98659741141296 261.54639673767815 0 261.54639673767815 -167.55109046798316 0 0 0 0 -0.071139657671019096 -3.8064572780426458 0 -3.8064572780426458 -37.845662686472451 0 0 0 0 -440.02938208741159 -231.38475116597692 0 -231.38475116597692 205.16597854926658 0 0 0 0 -425.57420217020996 245.25819610558756 0 245.25819610558756 -287.32855784572894 0 0 0 0 229.93423673503355 -180.20784280154112 0 -180.20784280154112 -56.26826458688447 0 0 0 0 -1012.0991250789461 -1122.5614930368502 0 -1122.5614930368502 -1038.262900616257 0 0 0 0 -117.20066503190344 790.12505392531602 0 790.12505392531602 -1257.3801470948965 0 0 0 0 -0.79171150930403578 -2.0515039923058094 0 -2.0515039923058094 -16.78979907673164 0 0 0 0 -631.98007864278793 -168.39273495801899 0 -168.39273495801899 -3548.4425768807123 0 0 0 0 -297.76295195947807 -988.31933438014676 0 -988.31933438014676 -3378.3352848943032 0 0 0 0 337.04661934439969 -963.28546791410554 0 -963.28546791410554 -4500.6601678478037 0 0 0 0 -17.155626406691098 6.7100829003938998 0 6.7100829003938998 -1310.1104452708241 0 0 0 0 190.16721205162196 -303.83914127218668 0 -303.83914127218668 -3747.8117304577754 0 0 0 0 66.125598955528119 -471.23525825325487 0 -471.23525825325487 -2954.5486344247529 0 0 0 0 -193.00215254705699 -393.03551166990655 0 -393.03551166990655 -825.08751725849288 0 0 0 0 203.32554316500375 -1239.466930894434 0 -1239.466930894434 -2601.6777794601367 0 0 0 0 192.62435250341898 -1308.2934913409481 0 -1308.2934913409481 -3043.1173711167785 0 0 0 0 -135.58343996287294 -2489.1425374124083 0 -2489.1425374124083 -4492.643407229184 0 0 0 0 -630.41202976004661 -460.96159683471342 0 -460.96159683471342 -202.02493941399734 0 0 0 0 -481.63780395149024 -1214.8337928053079 0 -1214.8337928053079 -2404.9153292601113 0 0 0 0 -195.69401981088043 116.56991668295086 0 116.56991668295086 -16.092123223788803 0 0 0 0 197.09540721561493 155.13644234347976 0 155.13644234347976 -707.85012451966759 0 0 0 0 -51.452411466596516 -22.604658502270468 0 -22.604658502270468 -930.87475822934721 0 0 0 0 -143.34203977913108 -130.8397040337295 0 -130.8397040337295 -1218.8190315812426 0 0 0 0 -269.12995654569966 91.488248616891724 0 91.488248616891724 -316.29827398699126 0 0 0 0 123.88781853427304 247.82949676504359 0 247.82949676504359 -340.94565005673212 0 0 0 0 -352.72527375458674 251.76836038439069 0 251.76836038439069 -64.634013080300065 0 0 0 0 -141.82154503846937 -30.38239427874214 0 -30.38239427874214 123.70449321225624 0 0 0 0 -249.95566013412008 95.907686150952941 0 95.907686150952941 242.46852426153782 0 0 0 0 -343.82513367777057 -33.335891855313093 0 -33.335891855313093 123.90043113479624 0 0 0 0 -25.370636283060634 1.0368966265377821 0 1.0368966265377821 108.75392298483348 0 0 0 0 84.713544018302485 412.36082482660277 0 412.36082482660277 489.23295050364686 0 0 0 0 2.8298650535049377 0.71136330032112483 0 0.71136330032112483 -31.839460168851772 0 0 0 0 -14.002737426967826 132.19256391664385 0 132.19256391664385 -15.01875259449298 0 0 0 0 -0.79767879547790033 47.481328942379449 0 47.481328942379449 -100.64641666323996 0 0 0 0 55.374997903793428 490.76046956032951 0 490.76046956032951 23.699165687944515 0 0 0 0 -8.6276779942897974 -8.9538133437235956 0 -8.9538133437235956 -87.205667282250943 0 0 0 0 113.46477975516396 82.110939877595229 0 82.110939877595229 -74.728787167063274 0 0 0 0 1.0641589360304478 18.626432975198924 0 18.626432975198924 -52.771989018196052 0 0 0 0 -18.089322069541325 155.45890644856991 0 155.45890644856991 152.61475052711467 0 0 0 0 -16.255132959839088 -3.5846551868598908 0 -3.5846551868598908 -71.508451154695649 0 0 0 0 -12.9460266456922 -15.638032572933298 0 -15.638032572933298 -82.56870576566871 0 0 0 0 9.1363904915875196 11.325374465753896 0 11.325374465753896 -64.071042153641656 0 0 0 0 -0.77099363885288597 1.1948489666247042 0 1.1948489666247042 -77.272545473708306 0 0 0 0 29.059411313432292 -1.0297437747831282 0 -1.0297437747831282 -103.86497618426802 0 0 0 0 30.439519057774987 -3.8095643839151307 0 -3.8095643839151307 -102.44830141488637 0 0 0 0 3.6015077369703201 3.0291989709332086 0 3.0291989709332086 -28.832527531491365 0 0 0 0 9.0050270117467655 29.798473279254125 0 29.798473279254125 -112.59342050797667 0 0 0 0 -16.854264553094026 214.56188063453737 0 214.56188063453737 -503.02906873569736 0 0 0 0 82.008095142929051 194.46797582131694 0 194.46797582131694 -499.0097423666266 0 0 0 0 -4.6397209650344156 -24.22957667501143 0 -24.22957667501143 -63.06992499016917 0 0 0 0 -26.51022188429738 -14.193532279565261 0 -14.193532279565261 -72.103851091349497 0 0 0 0 -2.7902987550292835 -14.436909637634017 0 -14.436909637634017 -82.324797302571824 0 0 0 0 -23.792538989791638 -21.602237996958138 0 -21.602237996958138 -97.765805994233233 0 0 0 0 -34.21373839558629 -132.73055889013716 0 -132.73055889013716 -411.17483383938088 0 0 0 0 -15.379204146774446 -32.542255979545445 0 -32.542255979545445 -41.310465330216118 0 0 0 0 22.71780597324414 210.76832713709882 0 210.76832713709882 -556.60780075015282 0 0 0 0 -258.05724492658874 389.63836612890736 0 389.63836612890736 -518.15912410896271 0 0 0 0 -487.95867073060208 -170.03113766449678 0 -170.03113766449678 -504.68098308622575 0 0 0 0 30.72861132419996 179.43009260469262 0 179.43009260469262 -914.25121419763309 0 0 0 0 -624.75585860097522 460.33014280834192 0 460.33014280834192 -332.51951686869143 0 0 0 0 -4.1117584940429728 -5.1006985335423849 0 -5.1006985335423849 -16.885330629612184 0 0 0 0 -289.04172074853977 -143.17406086588744 0 -143.17406086588744 -117.65951924811816 0 0 0 0 -622.48262248011815 65.059424980296171 0 65.059424980296171 -36.973432937025791 0 0 0 0 -34.230925974778472 -119.53411694651643 0 -119.53411694651643 -846.54604095543618 0 0 0 0 -50.690331126746059 -137.7986614703841 0 -137.7986614703841 -158.71018505202665 0 0 0 0 -0.43981379289361383 -8.2052116413384066 0 -8.2052116413384066 0.7729202799771997 0 0 0 0 -17.012290899910454 39.257128685422231 0 39.257128685422231 -92.550669852469582 0 0 0 0 2.8679676255556497 -8.1057318142588031 0 -8.1057318142588031 -54.547347957778555 0 0 0 0 -270.13596030488543 364.03670437707115 0 364.03670437707115 42.758622456836747 0 0 0 0 -369.8886251225349 64.286758572139661 0 64.286758572139661 -67.896750722138677 0 0 0 0 0.14224549324734853 -3.259536773331897 0 -3.259536773331897 -40.256384831523008 0 0 0 0 74.782172266619682 230.44600229581556 0 230.44600229581556 -464.43004442268284 0 0 0 0 151.14714583431441 48.592185673223867 0 48.592185673223867 -35.08916444422357 0 0 0 0 25.447766275038475 -30.308684033680038 0 -30.308684033680038 -17.798147121502552 0 0 0 0 4.8039488735141624 1.135368205100832 0 1.135368205100832 -11.50876511907822 0 0 0 0 -5.7380642858023521 3.8984331621104502 0 3.8984331621104502 -45.665760166448308 0 0 0 0 3.6395044475406166 -22.547023451174027 0 -22.547023451174027 -19.423383561981609 0 0 0 0 5.4048026488635967 10.96154038175915 0 10.96154038175915 -45.886608449553876 0 0 0 0 -29.929470999922216 10.982848970670602 0 10.982848970670602 -31.799272722302703 0 0 0 0 -5.7164434547680969 -32.743361860208097 0 -32.743361860208097 40.930096557596698 0 0 0 0 -36.60751314999024 42.341882614866336 0 42.341882614866336 34.63909382498241 0 0 0 0 -106.13073258772441 -0.92092443662841106 0 -0.92092443662841106 145.96677244812599 0 0 0 0 -104.5805353403528 -53.51940919328581 0 -53.51940919328581 39.992945658916142 0 0 0 0 -852.33937198441208 -419.97822033680131 0 -419.97822033680131 190.7201968949812 0 0 0 0 -899.48332927571983 772.97011832767748 0 772.97011832767748 -586.05313334413222 0 0 0 0 -372.45646880723314 360.96661470821709 0 360.96661470821709 1.5432717124640476 0 0 0 0 -927.59109619305354 156.91708702554752 0 156.91708702554752 162.54768586671707 0 0 0 0 -32.023431140010729 -322.6992297189754 0 -322.6992297189754 37.582355189039163 0 0 0 0 -5.1617103462724376 -14.17499689514149 0 -14.17499689514149 -38.643313874161151 0 0 0 0 -99.299629843852017 -132.06912944777287 0 -132.06912944777287 -259.27169443969615 0 0 0 0 175.07520831610236 -209.28240189322969 0 -209.28240189322969 -266.89627863001078 0 0 0 0 -1.9906702418355593 3.2597726680759678 0 3.2597726680759678 -3.620714315256663 0 0 0 0 128.78686310400963 -30.09294458520526 0 -30.09294458520526 -306.3083872271236 0 0 0 0 -57.697656452597585 -70.593976559965085 0 -70.593976559965085 -336.45066968517494 0 0 0 0 15.819059229255799 -23.782094280351885 0 -23.782094280351885 -292.27143028123828 0 0 0 0 -95.397306022107841 -123.77289197238861 0 -123.77289197238861 -334.91581170383142 0 0 0 0 -78.277498448625693 -199.86296673679681 0 -199.86296673679681 -396.92107489911723 0 0 0 0 -124.43118182522085 -101.74963727338763 0 -101.74963727338763 -343.04363815701799 0 0 0 0 -272.10034583868219 -287.40406138288381 0 -287.40406138288381 -360.90938309507328 0 0 0 0 -9.9786930848465509 1.1144952065278204 0 1.1144952065278204 -7.591125536451635 0 0 0 0 -512.0014696731123 -575.85672179245739 0 -575.85672179245739 -671.8664400827256 0 0 0 0 -148.49365030826084 -330.32954825661727 0 -330.32954825661727 -911.39600458835775 0 0 0 0 -467.86049350555186 -192.44767004984169 0 -192.44767004984169 -211.97285705074319 0 0 0 0 -508.79031257250517 -255.6314219447595 0 -255.6314219447595 -223.0104848468327 0 0 0 0 -951.20522815225195 -596.43426193634514 0 -596.43426193634514 -250.14435251845862 0 0 0 0 -1141.5790132469479 -484.1855017100952 0 -484.1855017100952 241.52046715890174 0 0 0 0 -1003.6715130793823 72.459190326328098 0 72.459190326328098 414.66753215082281 0 0 0 0 -844.24525195918613 -170.39711810163863 0 -170.39711810163863 -96.731312546107802 0 0 0 0 -816.41205406665631 -136.28854974732531 0 -136.28854974732531 -91.057205140648875 0 0 0 0 -559.72393601871045 216.55490992590785 0 216.55490992590785 -29.013915300834924 0 0 0 0 -557.66966981219321 214.66099466777086 0 214.66099466777086 -328.28254938227474 0 0 0 0 -470.18363044673242 9.716055255572428 0 9.716055255572428 -43.049168775927683 0 0 0 0 -439.78220395850644 -138.55363740823304 0 -138.55363740823304 -242.49539790401468 0 0 0 0 -153.29407259174786 32.220142392987327 0 32.220142392987327 -448.3086424313442 0 0 0 0 -257.38951241725408 235.62197557118634 0 235.62197557118634 -840.60521810635692 0 0 0 0 -104.00544351904682 -105.93374969782963 0 -105.93374969782963 -461.77269600945147 0 0 0 0 -200.16020981675251 -92.290576538389359 0 -92.290576538389359 -378.96831183445465 0 0 0 0 -235.42537399890352 -78.024449851058307 0 -78.024449851058307 -383.85493049889919 0 0 0 0 -143.457337631884 -165.34883677234393 0 -165.34883677234393 -362.93337073360453 0 0 0 0 -136.99413761840765 -118.00500762907177 0 -118.00500762907177 -309.59293601271929 0 0 0 0 -120.74064448996796 -158.13102017864367 0 -158.13102017864367 -236.42459209566005 0 0 0 0 -28.523567553076511 -26.804733170857126 0 -26.804733170857126 -66.045273880918899 0 0 0 0 -78.540869868586014 -139.41920383133402 0 -139.41920383133402 -413.44556946997182 0 0 0 0 -25.845987069434585 -43.25183594086711 0 -43.25183594086711 -76.010286178383808 0 0 0 0 -77.941736711994054 -154.43719023111771 0 -154.43719023111771 -410.89525540132126 0 0 0 0 -141.96389216544048 -390.5316535687889 0 -390.5316535687889 -797.6968646129244 0 0 0 0 -116.1709966006656 -229.04592872451576 0 -229.04592872451576 -250.27803088461224 0 0 0 0 -96.580530967003142 -248.14438275847351 0 -248.14438275847351 -357.73125719869859 0 0 0 0 -155.51826529885875 -523.78799045237247 0 -523.78799045237247 -329.48943728540326 0 0 0 0 17.187091824958898 -8.4674852390894912 0 -8.4674852390894912 -29.815957877074752 0 0 0 0 -130.32030786823088 -226.7317313435924 0 -226.7317313435924 -225.18231837938947 0 0 0 0 -95.991801610383845 -235.19614069850286 0 -235.19614069850286 -291.91080090657488 0 0 0 0 -64.957462414202382 -176.65243542623102 0 -176.65243542623102 -235.11636712461768 0 0 0 0 -131.06868945848328 -176.47117692362372 0 -176.47117692362372 -106.98922114801826 0 0 0 0 -50.639088125892158 -47.380734910115279 0 -47.380734910115279 -248.09882078079954 0 0 0 0 -92.215234849120861 -17.502868934047001 0 -17.502868934047001 36.015765946016472 0 0 0 0 -88.345364609926037 -230.05250688919477 0 -230.05250688919477 -269.56377460120711 0 0 0 0 -78.798549914748492 60.140707014130385 0 60.140707014130385 66.063041442412214 0 0 0 0 -47.447039732279052 25.333802009356845 0 25.333802009356845 -25.124127175689821 0 0 0 0 -98.882284432569577 21.424514277030539 0 21.424514277030539 -129.43455190926034 0 0 0 0 -147.17705523663608 -74.03431035804897 0 -74.03431035804897 -129.97338965738891 0 0 0 0 -45.07711825259662 -2.3480488313070964 0 -2.3480488313070964 -63.447478029451304 0 0 0 0 -24.861568679425382 18.192891231656716 0 18.192891231656716 -23.978130098011675 0 0 0 0 -45.42663981348575 12.674384029718567 0 12.674384029718567 -54.780167821860232 0 0 0 0 -37.757107621019941 -2.0873702287244669 0 -2.0873702287244669 -64.215497693410725 0 0 0 0 -16.573206936823162 -15.241273913934897 0 -15.241273913934897 -63.009679797867307 0 0 0 0 -62.345805339939545 7.7905840767889458 0 7.7905840767889458 -55.322415239621478 0 0 0 0 391.60002986428663 25.276009232962679 0 25.276009232962679 -699.81784419582982 0 0 0 0 -6.6257929417624837 6.6770187347283354 0 6.6770187347283354 -20.365268372988794 0 0 0 0 -7.4025757159324712 5.920599355478771 0 5.920599355478771 -19.272086839606345 0 0 0 0 -3.0393426749352699 5.0472237990813795 0 5.0472237990813795 -21.463484134730976 0 0 0 0 -7.8456381975811382 5.0871341096826654 0 5.0871341096826654 -20.750591259071371 0 0 0 0 -6.701959262123637 6.4259474739719735 0 6.4259474739719735 -21.093679871875793 0 0 0 0 -1.4331304910317897 -0.75029309465135441 0 -0.75029309465135441 -17.225953440312153 0 0 0 0 7.4718182089709444 -21.182744439895032 0 -21.182744439895032 -61.793134390791238 0 0 0 0 -7.5449039071791049 3.3334721657902264 0 3.3334721657902264 -31.808562867125147 0 0 0 0 -8.1902257989931968 2.7709596657095972 0 2.7709596657095972 -31.239559090638068 0 0 0 0 -12.878315096786537 -51.634206678969349 0 -51.634206678969349 -201.9608418339194 0 0 0 0 -195.34766078704524 35.065736780887164 0 35.065736780887164 -69.793202456887229 0 0 0 0 -2.5947827023781649 5.94623208679333 0 5.94623208679333 -17.362855984677282 0 0 0 0 -23.59613419217203 220.95434161154117 0 220.95434161154117 64.136538249954867 0 0 0 0 -6.2932043209068524 5.7968119566672414 0 5.7968119566672414 -5.666807790742439 0 0 0 0 -73.219281713172677 -34.221472905996052 0 -34.221472905996052 -39.813380767773197 0 0 0 0 -35.935763777863031 -149.49030720457722 0 -149.49030720457722 -402.90396694792435 0 0 0 0 55.368246811434801 79.714397155807092 0 79.714397155807092 -280.48478247756429 0 0 0 0 73.4731791688464 -94.392898814221553 0 -94.392898814221553 -508.76371283474145 0 0 0 0 66.938169091821692 -215.10684260579001 0 -215.10684260579001 -615.77617895370349 0 0 0 0 35.972620422806358 -245.59199161422657 0 -245.59199161422657 -597.17081495706225 0 0 0 0 -25.684388804005721 -254.70946266496321 0 -254.70946266496321 -561.91387209136155 0 0 0 0 -0.81936531881365227 -200.38632425267133 0 -200.38632425267133 -489.73344546683074 0 0 0 0 -6.4189227626702632 -156.56580660032705 0 -156.56580660032705 -612.7873691861023 0 0 0 0 -97.221957906389434 -191.96856598805607 0 -191.96856598805607 -306.13197589205811 0 0 0 0 -74.108483753687324 -239.78339416320523 0 -239.78339416320523 -474.92879740928765 0 0 0 0 -390.19582570103375 13.761567581645068 0 13.761567581645068 886.1523653343902 0 0 0 0 -571.81101427975227 -1053.5520363073738 0 -1053.5520363073738 1349.8321754004864 0 0 0 0 -248.03915486943151 -100.00418353046553 0 -100.00418353046553 103.47882830202434 0 0 0 0 -142.86097120604245 -122.55858389524292 0 -122.55858389524292 -410.53279494801245 0 0 0 0 20.044917179511685 -66.74334155597171 0 -66.74334155597171 -421.36023541300892 0 0 0 0 156.06385090866752 -72.533281693562458 0 -72.533281693562458 -974.10103123792214 0 0 0 0 211.9412935350083 448.03830354260572 0 448.03830354260572 -283.83479144016746 0 0 0 0 -0.25667478649411635 0.75225456452055539 0 0.75225456452055539 -6.7579070411734108 0 0 0 0 -288.96409943339677 -539.33288907644601 0 -539.33288907644601 -753.78990781629545 0 0 0 0 -337.65788401852478 -263.45310231175972 0 -263.45310231175972 61.604603154281506 0 0 0 0 -94.170112163374142 -254.97960130365755 0 -254.97960130365755 -346.65100905371946 0 0 0 0 8.4582797950570239 -32.332191073980539 0 -32.332191073980539 -226.42148590949364 0 0 0 0 -268.57131091483097 -41.059814090032887 0 -41.059814090032887 585.57927989654127 0 0 0 0 -33.037445246778447 -25.114800500895626 0 -25.114800500895626 -27.295927829800192 0 0 0 0 -12.137678127703474 -24.167964436229337 0 -24.167964436229337 -68.294721542465766 0 0 0 0 198.54900949650983 -644.68487467337764 0 -644.68487467337764 -1052.3133512068162 0 0 0 0 -114.68295105414563 -227.32902689703769 0 -227.32902689703769 -354.66922686221005 0 0 0 0 -24.280869086311213 0.64327915545436554 0 0.64327915545436554 -90.274054407374933 0 0 0 0 -19.147800756343202 147.14020655053628 0 147.14020655053628 -291.24437910506094 0 0 0 0 -40.249371245929069 32.251988899824028 0 32.251988899824028 -131.48573299162672 0 0 0 0 -36.274522231433366 10.799049923232815 0 10.799049923232815 -98.70205189929402 0 0 0 0 -17.928101338904526 -32.303795856161742 0 -32.303795856161742 -93.103228653586484 0 0 0 0 -1.1965126045543002 -16.775649770803284 0 -16.775649770803284 -173.11534598722938 0 0 0 0 33.363294069446056 -59.863684502495744 0 -59.863684502495744 -150.10607925830118 0 0 0 0 22.326072014873716 -30.541655265682493 0 -30.541655265682493 -141.18243938343949 0 0 0 0 -4.3580046095517595 -28.228637944118471 0 -28.228637944118471 -94.083985595464014 0 0 0 0 19.57223407013953 -45.311742106088786 0 -45.311742106088786 -198.00323021263466 0 0 0 0 330.03977878547039 -8.81054233642908 0 -8.81054233642908 -182.92259966934944 0 0 0 0 25.230851529689971 99.863174772101047 0 99.863174772101047 -128.50918642556644 0 0 0 0 253.46898483759287 320.38543968131125 0 320.38543968131125 49.582414954937121 0 0 0 0 24.223809434250143 124.44647740991786 0 124.44647740991786 -85.34738900049706 0 0 0 0 128.62235373067961 102.28176094700757 0 102.28176094700757 -168.38319375472202 0 0 0 0 178.44349252337997 169.11843811240396 0 169.11843811240396 -136.86727497715765 0 0 0 0 33.5198899793686 -137.43370056596541 0 -137.43370056596541 -152.73336610519618 0 0 0 0 213.49630041343335 102.203876869753 0 102.203876869753 -182.98622425552458 0 0 0 0 -1.2114817781858491 -1.9634226927130456 0 -1.9634226927130456 -36.25918999132881 0 0 0 0 -10.985325142577494 -18.306440212960297 0 -18.306440212960297 -50.281155364272308 0 0 0 0 -9.8454778471459576 2.7723224692599615 0 2.7723224692599615 -30.728686726306478 0 0 0 0 -3.7690801399838278 0.60661266177042705 0 0.60661266177042705 -9.609403392527021 0 0 0 0 -2.6867697384650526 4.9352285312906545 0 4.9352285312906545 2.1573866964568822 0 0 0 0 -153.48660271914559 -178.14232772614923 0 -178.14232772614923 -396.71432631171774 0 0 0 0 20.971983953386371 -51.323105157192913 0 -51.323105157192913 -105.09780745777425 0 0 0 0 -8.3824591638185666 -20.870272795735218 0 -20.870272795735218 -92.031147464673268 0 0 0 0 2.2808517937572717 -6.0770313664189359 0 -6.0770313664189359 -15.514174684310561 0 0 0 0 55.139707975584315 -96.126757703008479 0 -96.126757703008479 -43.447390328452457 0 0 0 0 2.908149333909023 26.785199372130592 0 26.785199372130592 -16.129163441655692 0 0 0 0 8.9479315615461843 5.8761121543667798 0 5.8761121543667798 -41.76427852250854 0 0 0 0 2.4270477635163843 -80.120976536592934 0 -80.120976536592934 -108.51506700997561 0 0 0 0 -51.532162653267733 -23.815526154096005 0 -23.815526154096005 -130.55104409120395 0 0 0 0 -52.726127896141406 -27.92834709368617 0 -27.92834709368617 -120.44645457682054 0 0 0 0 -70.693683700876136 -35.684538644389249 0 -35.684538644389249 -100.93443775325431 0 0 0 0 -38.565983260792564 -66.309788399885292 0 -66.309788399885292 -77.977285619319446 0 0 0 0 -28.459080831460597 -50.914062042123987 0 -50.914062042123987 -136.30332704944885 0 0 0 0 -24.548094714438776 -54.186711714050034 0 -54.186711714050034 -112.80828594994819 0 0 0 0 -43.873711988708237 -32.64622500159021 0 -32.64622500159021 -129.18733579435502 0 0 0 0 -19.600807662329316 -61.09718491267995 0 -61.09718491267995 -116.81717375569133 0 0 0 0 -31.40721694482454 -30.920673798245843 0 -30.920673798245843 -147.937380596195 0 0 0 0 -27.569902482448015 -25.670844232517993 0 -25.670844232517993 -141.72509280144004 0 0 0 0 -50.491764180840619 17.698813366943796 0 17.698813366943796 -202.78715873800684 0 0 0 0 -62.383689707176018 7.2866541517141741 0 7.2866541517141741 -156.33448297697396 0 0 0 0 -51.530087371465683 -30.953573452023875 0 -30.953573452023875 -143.06059760854259 0 0 0 0 -69.986053383375292 5.9467195039323997 0 5.9467195039323997 -151.48150537700712 0 0 0 0 -23.640416985978497 -70.265730080863577 0 -70.265730080863577 -78.933352952094424 0 0 0 0 -48.346632363185563 14.862676802171336 0 14.862676802171336 -278.22865539134364 0 0 0 0 -111.69896557239917 -73.32964140360491 0 -73.32964140360491 -194.74644849717151 0 0 0 0 -148.10891037744295 -19.510783545483719 0 -19.510783545483719 -142.46106058763689 0 0 0 0 -107.86890223745286 -4.1506226624333067 0 -4.1506226624333067 -136.60442333423998 0 0 0 0 -39.318576173347537 -43.893741382147709 0 -43.893741382147709 -182.78680308966432 0 0 0 0 -39.787329590129957 -36.900476855982561 0 -36.900476855982561 -130.91335251004784 0 0 0 0 -22.329964198204834 -8.421936057478888 0 -8.421936057478888 -171.60581812469172 0 0 0 0 -19.495776431496779 -12.788010106349248 0 -12.788010106349248 -271.40864503184275 0 0 0 0 -23.695677187336422 -15.508183092641303 0 -15.508183092641303 -28.292134136001081 0 0 0 0 -59.126502044435256 13.204515643952618 0 13.204515643952618 -142.64318673902017 0 0 0 0 -137.72557231665269 57.938594834420655 0 57.938594834420655 -152.8335694957932 0 0 0 0 -1.8431336698701735 -17.316219150241636 0 -17.316219150241636 -24.395969862214514 0 0 0 0 -187.46688768001445 -67.263382855333475 0 -67.263382855333475 46.243733964274725 0 0 0 0 -138.90223213835111 161.06807550889062 0 161.06807550889062 -224.05598009913956 0 0 0 0 28.344716227311892 222.90260961054082 0 222.90260961054082 -204.69542309617282 0 0 0 0 -83.095211919530811 -54.757298278542294 0 -54.757298278542294 -175.37763346415522 0 0 0 0 2.7701928856280436 24.471862299350434 0 24.471862299350434 -115.34619899254702 0 0 0 0 -132.00583756775404 38.474254463588295 0 38.474254463588295 -214.52995353710139 0 0 0 0 -79.099468549121411 110.66811043696725 0 110.66811043696725 -378.08615275680495 0 0 0 0 -12.622628732714475 5.6224854046668042 0 5.6224854046668042 -296.79493939127133 0 0 0 0 -139.87888253757933 135.09512014234133 0 135.09512014234133 -343.59644651107374 0 0 0 0 -101.85036385410103 212.61054430004151 0 212.61054430004151 -565.88040248075413 0 0 0 0 -136.04997244290462 181.82440176084128 0 181.82440176084128 -401.1520959984191 0 0 0 0 15.161347056775185 86.421920034968934 0 86.421920034968934 -459.40344640308467 0 0 0 0 -62.615221257997064 85.195626356158755 0 85.195626356158755 -271.12854446470737 0 0 0 0 -73.822403708405091 19.625312197211315 0 19.625312197211315 -185.8223277872894 0 0 0 0 45.386282866510555 -81.807352198433364 0 -81.807352198433364 -177.66704303601364 0 0 0 0 -90.413768704829636 15.384262146653782 0 15.384262146653782 -153.03930140109151 0 0 0 0 -42.79064781237139 -56.713640157686314 0 -56.713640157686314 -187.11007792239252 0 0 0 0 4.7250982496536835 28.701077098039605 0 28.701077098039605 -162.7995373460144 0 0 0 0 -36.794519951482471 -37.241087952741509 0 -37.241087952741509 -131.69757126409968 0 0 0 0 -8.8176954820513345 -60.668255291676019 0 -60.668255291676019 -68.746842135454585 0 0 0 0 2.5207178187792385 15.398824535827913 0 15.398824535827913 -109.64163849570889 0 0 0 0 -5.2286087307920752 -9.0253732396668056 0 -9.0253732396668056 -47.887712882336928 0 0 0 0 -1.5548358824448769 7.5998605749337003 0 7.5998605749337003 -229.19109479448525 0 0 0 0 -25.074172162523404 -40.648683175940818 0 -40.648683175940818 -49.100611005709908 0 0 0 0 -3.7307147325995302 -47.165942226048855 0 -47.165942226048855 -49.922574197084003 0 0 0 0 -79.910012048420867 -22.509202993816871 0 -22.509202993816871 -11.902497960778419 0 0 0 0 3.1657662497875485 0.50776189589524279 0 0.50776189589524279 -17.585316328796182 0 0 0 0 -61.480257838889884 -55.052682003830341 0 -55.052682003830341 -63.870712454721797 0 0 0 0 -32.859866657606609 -39.654589828941909 0 -39.654589828941909 -10.197868511523282 0 0 0 0 -25.454566292009986 -38.946688020638248 0 -38.946688020638248 -94.075329218314437 0 0 0 0 17.996351222454432 -12.602276712381041 0 -12.602276712381041 -51.598325914388084 0 0 0 0 -959.94970196250722 20.818208524582587 0 20.818208524582587 -3511.8734099383582 0 0 0 0 -478.19422374188571 -987.75579750303586 0 -987.75579750303586 1917.3453629483411 0 0 0 0 7.3606562397699751 -21.456490487841904 0 -21.456490487841904 -43.914050878753315 0 0 0 0 -0.63054647779154038 -24.489400738162658 0 -24.489400738162658 -61.909778276691213 0 0 0 0 -403.76187828947519 -1598.4236251728362 0 -1598.4236251728362 -167.78906673120218 0 0 0 0 663.27677850596774 -474.77768438664498 0 -474.77768438664498 -2002.8768511022063 0 0 0 0 -105.77285129858012 733.24479338434867 0 733.24479338434867 -1043.3419956126163 0 0 0 0 -319.58824138109696 365.7344174394384 0 365.7344174394384 -193.09361202335276 0 0 0 0 183.73909747081188 250.52577291621128 0 250.52577291621128 -521.69740931192064 0 0 0 0 -254.56643914628478 275.43432885930088 0 275.43432885930088 -201.429945744836 0 0 0 0 -86.671890382265246 -10.437986099110276 0 -10.437986099110276 69.555021608772222 0 0 0 0 72.110704026401436 84.05871086649131 0 84.05871086649131 -108.31559084499895 0 0 0 0 -13.861128871192154 8.2601391455299904 0 8.2601391455299904 -56.911609490014968 0 0 0 0 9.9324357083277341 -20.076425963827468 0 -20.076425963827468 -33.830844760268178 0 0 0 0 -2439.3584948764583 -807.66806398628887 0 -807.66806398628887 -2378.2572784125805 0 0 0 0 149.75504241679846 -103.99455131485593 0 -103.99455131485593 -92.151158977416344 0 0 0 0 -3.5263327818326093 5.9329167872458868 0 5.9329167872458868 -14.580981569782637 0 0 0 0 -2190.0632556621795 -2186.3312536840967 0 -2186.3312536840967 3017.9298978777952 0 0 0 0 18.086221737829874 -69.877662497636265 0 -69.877662497636265 -56.716856142214965 0 0 0 0 -11.676237712830698 -35.471258326346288 0 -35.471258326346288 -67.343175579131639 0 0 0 0 694.56509864881173 -497.31382252997855 0 -497.31382252997855 -660.1549750759732 0 0 0 0 692.95604532797734 -666.44785957512795 0 -666.44785957512795 -369.37357300521398 0 0 0 0 -9.5552966245490687 -32.275605626208332 0 -32.275605626208332 -65.572237348419179 0 0 0 0 -21.973985605003691 -59.007973087114806 0 -59.007973087114806 -50.658976343747781 0 0 0 0 -147.91823724050846 40.66247864660545 0 40.66247864660545 -68.539827673945183 0 0 0 0 -21.221465412110504 -38.278053760946193 0 -38.278053760946193 -63.20589676883003 0 0 0 0 -231.68943015728655 -52.605291080995812 0 -52.605291080995812 100.30395295364724 0 0 0 0 223.07406882521173 -581.48400951870281 0 -581.48400951870281 127.5756811834699 0 0 0 0 15.659425212266797 -226.18543457947635 0 -226.18543457947635 147.22073847403226 0 0 0 0 10.320015260713262 -51.107619358961529 0 -51.107619358961529 -66.028913445945363 0 0 0 0 -28.708872130943639 -45.009170741650948 0 -45.009170741650948 -54.432270523280039 0 0 0 0 -25.448054699281784 -39.809721774145146 0 -39.809721774145146 -54.632013917551376 0 0 0 0 6.1558201604202623 -73.194629666380933 0 -73.194629666380933 -198.68252916558413 0 0 0 0 -17.079395246834792 -95.023204943667224 0 -95.023204943667224 -114.12452907653642 0 0 0 0 -15.462054339328688 -40.051653985247228 0 -40.051653985247228 -21.778574423913113 0 0 0 0 -36.072527981667008 -71.004084518506716 0 -71.004084518506716 -63.803249206030159 0 0 0 0 -8.168319902051735 -53.788843081973027 0 -53.788843081973027 -113.18314550902869 0 0 0 0 -9.7710867568330286 -17.662058182037072 0 -17.662058182037072 -54.359549106753548 0 0 0 0 -31.842552891906436 -28.914908013951248 0 -28.914908013951248 -22.79275061785869 0 0 0 0 -59.867812501761364 -54.860155583119194 0 -54.860155583119194 14.88440607967641 0 0 0 0 -11.338151213949761 -27.416560945320924 0 -27.416560945320924 -73.96579046368231 0 0 0 0 -67.210604770707505 -23.72972684391425 0 -23.72972684391425 70.464627928304253 0 0 0 0 -46.74810275355776 16.827150976891062 0 16.827150976891062 39.238603831530781 0 0 0 0 -7.1823393812033167 1.0717912765925348 0 1.0717912765925348 1.8695089799137463 0 0 0 0 -92.912172241412918 34.761258124766755 0 34.761258124766755 32.344491901902074 0 0 0 0 -144.32307508233134 -0.6279751922484138 0 -0.6279751922484138 63.742445297713857 0 0 0 0 -126.2642385239451 -50.408764421987144 0 -50.408764421987144 198.90007938913186 0 0 0 0 -85.700892859975283 -90.440506892358826 0 -90.440506892358826 61.689484021117096 0 0 0 0 -200.92550221661077 -155.14505785179063 0 -155.14505785179063 190.65490867493645 0 0 0 0 -330.33799202978844 -9.8594247335349792 0 -9.8594247335349792 191.46983417294541 0 0 0 0 -1085.2119017254954 401.14550335775857 0 401.14550335775857 -293.26105548214855 0 0 0 0 -249.95873535120336 -193.18282109703432 0 -193.18282109703432 -163.50381767108775 0 0 0 0 -5.1656464516236156 -149.0252174839261 0 -149.0252174839261 -378.19554079031514 0 0 0 0 482.41765346674583 188.40051932142342 0 188.40051932142342 -1058.8936929234551 0 0 0 0 -499.41485057678801 106.6166062343209 0 106.6166062343209 178.25304794133262 0 0 0 0 -2.9706854551492832 1.302016023765276 0 1.302016023765276 -0.40649743364508595 0 0 0 0 -135.24123778932153 165.5833062565107 0 165.5833062565107 153.52369834172714 0 0 0 0 85.690035661864385 115.81676685604907 0 115.81676685604907 68.152864932868397 0 0 0 0 -52.819620656944608 6.0923911090721958 0 6.0923911090721958 11.14041544313659 0 0 0 0 -49.238795605542691 7.649309256388733 0 7.649309256388733 3.1596277960634325 0 0 0 0 -283.52901828932954 -16.479689702282485 0 -16.479689702282485 36.168171651137527 0 0 0 0 -53.897644579701591 11.482481760809605 0 11.482481760809605 6.5293239965030807 0 0 0 0 0.10056917917346908 0.45472944068038146 0 0.45472944068038146 -1.8794369404377278 0 0 0 0 -513.53703749782289 334.76105419429587 0 334.76105419429587 -249.18859889538726 0 0 0 0 -144.07774706163036 374.74000816598891 0 374.74000816598891 -1010.147533387375 0 0 0 0 446.16186067278613 6.878438108604314 0 6.878438108604314 -322.06991573544656 0 0 0 0 -2.3396472389728515 14.339826576099867 0 14.339826576099867 -8.4903227202975415 0 0 0 0 -121.61007135447289 73.758831309372908 0 73.758831309372908 -761.6491191154164 0 0 0 0 96.959594178908446 364.79564981741714 0 364.79564981741714 -578.02673756807417 0 0 0 0 -99.424748647354136 112.82787152344827 0 112.82787152344827 -310.66959957343352 0 0 0 0 65.023411167465383 120.79557480541916 0 120.79557480541916 -14.238210931202048 0 0 0 0 31.256400119837053 61.346623850495234 0 61.346623850495234 -5.8555710524815368 0 0 0 0 -137.5529247419181 254.67740996459906 0 254.67740996459906 -200.99441913468036 0 0 0 0 -21.606762277755479 48.075869468812016 0 48.075869468812016 6.946170253038872 0 0 0 0 -9.2055674155982601 14.38096329952365 0 14.38096329952365 -52.688353802015541 0 0 0 0 -74.967526531439944 42.961945501563605 0 42.961945501563605 6.4784818674816051 0 0 0 0 6.5430353083866066 52.322830141711165 0 52.322830141711165 -10.805218988156412 0 0 0 0 -36.631092892544984 37.65453978509322 0 37.65453978509322 2.7801547573326388 0 0 0 0 -49.3120758996738 11.6255949707338 0 11.6255949707338 -2.8354370266679325 0 0 0 0 -40.626259956927242 16.095381154227653 0 16.095381154227653 -2.4155795549013419 0 0 0 0 -8.7889783100576153 0.020140352817129781 0 0.020140352817129781 -0.49718555622125393 0 0 0 0 -8.6008752708949032 3.7596332119537692 0 3.7596332119537692 -29.968470749277913 0 0 0 0 -7.0668943206988075 2.401270196240759 0 2.401270196240759 -7.323231866148241 0 0 0 0 -7.7832887205713632 0.24569555742618832 0 0.24569555742618832 -14.663074854041042 0 0 0 0 -8.2808078805683181 4.4100966815567517 0 4.4100966815567517 -32.428688890257035 0 0 0 0 -3.198934130698035 6.241155767806049 0 6.241155767806049 -17.843538325061672 0 0 0 0 29.733113363165103 46.598295685833364 0 46.598295685833364 -90.30753096663102 0 0 0 0 33.174489194345369 31.377623579282954 0 31.377623579282954 -53.420994209474884 0 0 0 0 -4.9843267184963906 2.8416216879311165 0 2.8416216879311165 -20.157182106312263 0 0 0 0 -7.7905423020558366 8.8640118083920783 0 8.8640118083920783 -28.427441401541302 0 0 0 0 -4.2018992551165866 31.50137863603959 0 31.50137863603959 -39.362877460720483 0 0 0 0 27.272937802408705 21.549523049186973 0 21.549523049186973 -44.011340538196237 0 0 0 0 5.4441150946804555 3.6323641675262479 0 3.6323641675262479 -52.041052070620935 0 0 0 0 -1.0234132868039438 6.2872453248329094 0 6.2872453248329094 -7.8860167233180416 0 0 0 0 -8.5128159132679428 19.671578079912017 0 19.671578079912017 -46.398254581492935 0 0 0 0 -34.057162857323419 41.479053613642463 0 41.479053613642463 -41.23171193205053 0 0 0 0 -12.378780404806633 11.477322847823274 0 11.477322847823274 -16.207575146232816 0 0 0 0 -9.6881277142529143 25.696330513746943 0 25.696330513746943 -34.626255429902812 0 0 0 0 49.473278823655619 -118.3810573828523 0 -118.3810573828523 292.84551852270624 0 0 0 0 -214.72765595465125 33.059947423807898 0 33.059947423807898 -297.92165045795264 0 0 0 0 -309.82115436779441 134.72937249173992 0 134.72937249173992 35.739208071681787 0 0 0 0 -97.507250342704765 191.86129346204325 0 191.86129346204325 -101.37487575665 0 0 0 0 -157.93055041679054 401.89550303861324 0 401.89550303861324 -264.90504076222715 0 0 0 0 -39.632260979932653 283.40820713661378 0 283.40820713661378 -362.88829677130707 0 0 0 0 0.5534975033293309 0.86796468575321128 0 0.86796468575321128 -13.300645643745895 0 0 0 0 -52.999909449555616 564.00697525849682 0 564.00697525849682 -327.27398774695757 0 0 0 0 499.5176669320611 123.86175027014906 0 123.86175027014906 -1936.621504702518 0 0 0 0 -177.60134599732328 333.94026667436992 0 333.94026667436992 286.23270177878226 0 0 0 0 -185.95636187705131 -1318.4923169212652 0 -1318.4923169212652 34.085177884931909 0 0 0 0 198.95629332099151 6.2237310844211606 0 6.2237310844211606 -1631.5417470228131 0 0 0 0 167.44161989576557 -160.73397805498098 0 -160.73397805498098 -526.60197423068894 0 0 0 0 -0.14640675832629441 -14.083723942196229 0 -14.083723942196229 -358.78887300656788 0 0 0 0 -140.22948056239292 -98.20536819314475 0 -98.20536819314475 21.963312059480813 0 0 0 0 -39.769087863854637 217.14593794048415 0 217.14593794048415 362.74709703171538 0 0 0 0 397.5182699359799 148.50438766465959 0 148.50438766465959 -12.376481591258198 0 0 0 0 3.2605227537295463 16.304153620534635 0 16.304153620534635 70.155167701712344 0 0 0 0 -52.730178980991838 154.76217493168951 0 154.76217493168951 -18.44536111069101 0 0 0 0 -0.14870393971431173 94.828688734610495 0 94.828688734610495 -231.79034568191855 0 0 0 0 -85.053506543826671 255.864031375595 0 255.864031375595 -189.93406072809012 0 0 0 0 0.24982688078616055 -0.10744461475262312 0 -0.10744461475262312 -10.587336386355162 0 0 0 0 22.11085250416329 -561.7336811167479 0 -561.7336811167479 -376.29161927163 0 0 0 0 -112.057774381733 -701.72894569890559 0 -701.72894569890559 -321.05617906476255 0 0 0 0 -0.48227745482568452 1.7894296838166994 0 1.7894296838166994 -11.33729435540323 0 0 0 0 242.68305418839145 533.79071582726465 0 533.79071582726465 -525.72598121788178 0 0 0 0 0.8359920176749418 2.6830767428672857 0 2.6830767428672857 -23.430348865464055 0 0 0 0 925.60718204715272 123.0903540626532 0 123.0903540626532 -501.34421264081902 0 0 0 0 -418.61882013610148 -371.26301076798336 0 -371.26301076798336 -596.38512453623116 0 0 0 0 -632.18980911378094 51.545789951604092 0 51.545789951604092 -26.45022415767744 0 0 0 0 35.908926830716382 54.585508899290289 0 54.585508899290289 -711.7388711773674 0 0 0 0 36.331092485691215 185.13053167074759 0 185.13053167074759 -214.52576969834627 0 0 0 0 -34.476016988951415 32.705409310074174 0 32.705409310074174 -214.68873041775078 0 0 0 0 -24.139952000911308 124.0226055358944 0 124.0226055358944 -327.6531876407098 0 0 0 0 -12.497384643712508 92.955189731084829 0 92.955189731084829 -324.26996462570969 0 0 0 0 -39.445625949495025 66.178183390395134 0 66.178183390395134 -330.34592310254811 0 0 0 0 18.737193772746423 103.02557188826177 0 103.02557188826177 -398.17761094003799 0 0 0 0 -130.52100880209355 56.053205888878438 0 56.053205888878438 -400.13167330198485 0 0 0 0 -145.53044630734075 -83.867478258005576 0 -83.867478258005576 -475.66206844102999 0 0 0 0 -168.4171467035203 -80.480011620449659 0 -80.480011620449659 -260.819070762911 0 0 0 0 9.1742692120858464 61.750744875695091 0 61.750744875695091 -522.84795276471414 0 0 0 0 -1.4975608190638443 0.21369830400854539 0 0.21369830400854539 1.3097137022438403 0 0 0 0 2.3278596335430848 271.42686335714825 0 271.42686335714825 -847.14159510849277 0 0 0 0 -14.817012719639024 118.36984659844893 0 118.36984659844893 -367.09244153017471 0 0 0 0 39.626527757459712 89.949986339435782 0 89.949986339435782 -365.96193181021954 0 0 0 0 34.646596482677523 124.94771460696938 0 124.94771460696938 -414.34324068520618 0 0 0 0 22.389610149909913 114.06806502848485 0 114.06806502848485 -415.50976380429347 0 0 0 0 34.672331943492736 -6.791695698419062 0 -6.791695698419062 -327.35773556755157 0 0 0 0 6.0146140378578252 132.69227105804202 0 132.69227105804202 -375.32727695954964 0 0 0 0 196.79074704469986 61.50271851324942 0 61.50271851324942 -394.23113886988722 0 0 0 0 69.988209949870907 72.01061017876782 0 72.01061017876782 -338.78654689126415 0 0 0 0 33.756364716706116 157.78945902884334 0 157.78945902884334 -377.18686157754564 0 0 0 0 -270.85358007852165 185.87836160423467 0 185.87836160423467 -337.41763647086191 0 0 0 0 -35.992518990900408 156.79004446227918 0 156.79004446227918 -373.09107730943651 0 0 0 0 222.88195580801221 77.855667666281079 0 77.855667666281079 -513.9264837839437 0 0 0 0 300.77736985266984 -194.02368299351656 0 -194.02368299351656 -167.0326851093414 0 0 0 0 37.977151001843595 46.83851158725156 0 46.83851158725156 -219.57972722862905 0 0 0 0 150.78120672124032 -286.148158902266 0 -286.148158902266 171.51052119315136 0 0 0 0 7.6689335644014385 4.1392047409578083 0 4.1392047409578083 -33.040055404304553 0 0 0 0 36.913648498571092 -25.031129092014453 0 -25.031129092014453 -123.944351078826 0 0 0 0 -151.54027896894331 37.804477387595398 0 37.804477387595398 -389.34604169872182 0 0 0 0 -73.782621097229821 2.4816399080227711 0 2.4816399080227711 -372.7119452834886 0 0 0 0 -109.18918192853107 -0.35905203016591258 0 -0.35905203016591258 -372.13780957982817 0 0 0 0 -241.61710573202816 -84.777727992749533 0 -84.777727992749533 -420.63425509864464 0 0 0 0 -31.815808817865218 -9.5086929224635242 0 -9.5086929224635242 -538.23224224330625 0 0 0 0 -71.611722540003939 223.58327887670021 0 223.58327887670021 -421.18614066303417 0 0 0 0 22.843446443329867 152.65964631717361 0 152.65964631717361 -368.01719737636449 0 0 0 0 -25.294478849879852 114.45829936488008 0 114.45829936488008 -89.485288733994821 0 0 0 0 44.287593708554823 63.351349509066495 0 63.351349509066495 -470.73796644232061 0 0 0 0 149.78487413320522 180.65206632552145 0 180.65206632552145 -395.12274087107653 0 0 0 0 -0.22410201981436634 0.45238459145845233 0 0.45238459145845233 -4.5482972442073333 0 0 0 0 1.0937094995922287 -9.7498289251395214 0 -9.7498289251395214 -10.921049300943082 0 0 0 0 -49.586200268160383 -71.250713522655133 0 -71.250713522655133 1.7320775132538984 0 0 0 0 189.37463064762733 -73.088802504033083 0 -73.088802504033083 -105.94333625762374 0 0 0 0 30.443870648516167 -130.06310669000959 0 -130.06310669000959 -77.587608122782967 0 0 0 0 -126.24992165222511 -176.64918378660514 0 -176.64918378660514 -67.699218586451025 0 0 0 0 -35.905210928878432 -59.862394622643478 0 -59.862394622643478 -130.18962816247949 0 0 0 0 12.454424228408243 -16.676947171683423 0 -16.676947171683423 -148.52698887523729 0 0 0 0 43.29632545151253 -17.794470493783592 0 -17.794470493783592 -153.54856254834158 0 0 0 0 25.160117184281262 -4.7406427499954589 0 -4.7406427499954589 -147.83855252010108 0 0 0 0 219.9585640907394 -57.603227483232331 0 -57.603227483232331 -194.46729947761924 0 0 0 0 58.978091719653094 -53.251273096255318 0 -53.251273096255318 -135.57660048498656 0 0 0 0 54.959444280582829 -74.514459274680121 0 -74.514459274680121 -192.22818500421999 0 0 0 0 -18.162838939765606 -332.21207923699694 0 -332.21207923699694 -232.62201208157785 0 0 0 0 -391.05039989270369 -169.44173599407168 0 -169.44173599407168 -53.233582958520856 0 0 0 0 23.645744564703136 -114.55908844087253 0 -114.55908844087253 -122.10731847968418 0 0 0 0 25.183663340933435 -83.306518967918237 0 -83.306518967918237 -36.106497733468132 0 0 0 0 499.18585032856026 -620.87749788467772 0 -620.87749788467772 18.535508085519723 0 0 0 0 6.241815658015998 -46.668390289108288 0 -46.668390289108288 -60.219692957388162 0 0 0 0 10.178131437522097 -107.09460936042888 0 -107.09460936042888 -75.979572374577401 0 0 0 0 414.29674984313351 -414.54471965739504 0 -414.54471965739504 7.9335144789629339 0 0 0 0 346.84506409591177 -260.36820663799881 0 -260.36820663799881 -215.86079592194619 0 0 0 0 550.78102521986875 -512.59191756049404 0 -512.59191756049404 -274.19337255209757 0 0 0 0 20.126312729527854 -39.18468886858318 0 -39.18468886858318 -129.20976101221459 0 0 0 0 288.34380354987388 -24.44706025380583 0 -24.44706025380583 -444.98714722892328 0 0 0 0 225.35656954497972 81.619810111689731 0 81.619810111689731 -349.44851740468584 0 0 0 0 19.589376685625041 -32.715606671582577 0 -32.715606671582577 -66.883034967050577 0 0 0 0 290.22836611043795 -102.58904579327304 0 -102.58904579327304 -244.14167647938302 0 0 0 0 195.47674763512623 35.348748998745577 0 35.348748998745577 -215.20443251608231 0 0 0 0 182.47045179533598 75.316039764013112 0 75.316039764013112 -335.31547721195966 0 0 0 0 205.24050927604185 99.346897588533466 0 99.346897588533466 -337.81163280855981 0 0 0 0 33.151296958545117 172.30442124198453 0 172.30442124198453 -208.53778382965538 0 0 0 0 252.37967034019812 107.33958663552767 0 107.33958663552767 -349.53799616813194 0 0 0 0 -78.383509989091635 -107.7434980639955 0 -107.7434980639955 -165.79239479868556 0 0 0 0 -27.226022027974807 -171.15008791807486 0 -171.15008791807486 -97.802317322726594 0 0 0 0 8.354761807643234 9.2690718386465996 0 9.2690718386465996 -100.80332333894847 0 0 0 0 -31.029120614727134 -123.67209576307187 0 -123.67209576307187 58.508987187611638 0 0 0 0 38.865023376325553 17.049628715278232 0 17.049628715278232 -401.62484515226242 0 0 0 0 157.9214955053194 -26.649879753429559 0 -26.649879753429559 -287.67103420309286 0 0 0 0 0.6879043893069916 3.5134657065512442 0 3.5134657065512442 -18.534071834310765 0 0 0 0 -63.662671708747894 26.107581060197845 0 26.107581060197845 -132.5009921554738 0 0 0 0 -54.615556104583447 5.5776493205339648 0 5.5776493205339648 -135.19504489222891 0 0 0 0 -113.23076383622902 -13.255418490931334 0 -13.255418490931334 -123.2283154912293 0 0 0 0 -58.577905919396926 53.262414269687724 0 53.262414269687724 -88.782238325220533 0 0 0 0 -56.091263196781256 77.936575487299706 0 77.936575487299706 -45.836132211343283 0 0 0 0 -63.545764437962134 18.156809990876354 0 18.156809990876354 -47.487234040854673 0 0 0 0 -18.540139388523471 57.555693662332487 0 57.555693662332487 -14.962835291808005 0 0 0 0 -61.109977088952292 16.243299636480515 0 16.243299636480515 -120.54093634012679 0 0 0 0 58.904379144325503 54.75567253457848 0 54.75567253457848 -39.080745782004669 0 0 0 0 -1.8022512179078944 14.130352070442314 0 14.130352070442314 2.6784831271215808 0 0 0 0 159.14928695209346 41.381797332971473 0 41.381797332971473 -21.287685573319322 0 0 0 0 -42.226714323592205 65.136137904410134 0 65.136137904410134 108.40192427384318 0 0 0 0 -131.55812569020782 -52.018148966002627 0 -52.018148966002627 9.3361109259676596 0 0 0 0 -84.592505932071163 -83.14317417590064 0 -83.14317417590064 -40.847388137393864 0 0 0 0 -56.371072233673431 -155.23792070984928 0 -155.23792070984928 -378.52129706050619 0 0 0 0 -161.04199253641423 -132.72227900697544 0 -132.72227900697544 -13.86573082342511 0 0 0 0 -206.28985686463284 -234.22086902428418 0 -234.22086902428418 -139.10365488565003 0 0 0 0 144.87903429596076 340.64446061331182 0 340.64446061331182 260.96831051325717 0 0 0 0 -176.78691534369545 -93.597088915557833 0 -93.597088915557833 45.888230100885266 0 0 0 0 -197.71499895576881 -90.710811494252994 0 -90.710811494252994 57.397846086882055 0 0 0 0 -404.11869696187898 -650.37937925836195 0 -650.37937925836195 -434.18834007659461 0 0 0 0 85.860998088029646 505.72301425776823 0 505.72301425776823 -934.18659394554561 0 0 0 0 -544.65053300608974 -209.73237070318646 0 -209.73237070318646 545.59205453743925 0 0 0 0 74.431948580870539 -16.711827946339326 0 -16.711827946339326 -346.05593469271844 0 0 0 0 68.870984506233071 -174.45496854328667 0 -174.45496854328667 -1256.159359120611 0 0 0 0 -208.4156339215304 250.23327891398367 0 250.23327891398367 -166.40815112441487 0 0 0 0 0.35441866181120607 80.635747940832516 0 80.635747940832516 -775.30718781198084 0 0 0 0 933.3212721101313 -626.07074448869025 0 -626.07074448869025 -1195.7722930602176 0 0 0 0 0.11934078530196102 -2.1357491113410561 0 -2.1357491113410561 -11.433994523824254 0 0 0 0 -329.88458847340547 551.54104209992511 0 551.54104209992511 -887.25695954041294 0 0 0 0 1.3911827890440496 -2.6802051875444306 0 -2.6802051875444306 -25.23505560743456 0 0 0 0 16.80285530197698 2.9414252143178601 0 2.9414252143178601 -111.58610590515309 0 0 0 0 32.424455467225606 -10.942530380052631 0 -10.942530380052631 -147.01212122724974 0 0 0 0 -0.31556986468413351 -20.156049064768013 0 -20.156049064768013 -95.789208427784615 0 0 0 0 2.6705577460628653 13.875792861210357 0 13.875792861210357 -11.365923734381795 0 0 0 0 607.01114306814611 16.888385848415055 0 16.888385848415055 -49.344735633872915 0 0 0 0 140.51422344668936 -18.331061694872915 0 -18.331061694872915 41.66011392333894 0 0 0 0 254.7312895595378 13.279630506818648 0 13.279630506818648 -26.731552897486836 0 0 0 0 109.75606192408623 -17.833490756514948 0 -17.833490756514948 -16.928016895370092 0 0 0 0 124.35245517023668 -6.1694383733120048 0 -6.1694383733120048 -35.409513461054303 0 0 0 0 7.6630539968347504 -19.501818865028326 0 -19.501818865028326 -9.1900082677393584 0 0 0 0 0.090906208569267247 -8.8088432650256436 0 -8.8088432650256436 -14.328864327428164 0 0 0 0 21.513187472873224 -13.606437912865658 0 -13.606437912865658 -21.597349064802984 0 0 0 0 277.48021240322436 -64.638935805965957 0 -64.638935805965957 -42.248378227144713 0 0 0 0 1.5003481498271416 -0.47398816069123484 0 -0.47398816069123484 -28.154161850252706 0 0 0 0 14.231521151320667 0.051775887055555359 0 0.051775887055555359 -33.262271852465346 0 0 0 0 14.647773395167127 6.1289833812479628 0 6.1289833812479628 -26.974721934762783 0 0 0 0 1.7799370156676759 6.0566801849927288 0 6.0566801849927288 -13.92135869699996 0 0 0 0 3.4216278458821812 -3.807482054520932 0 -3.807482054520932 -4.2643648087816928 0 0 0 0 215.04815680853244 24.603390677759307 0 24.603390677759307 50.344068949016219 0 0 0 0 222.16471755471548 -63.80206773604732 0 -63.80206773604732 25.111341520416318 0 0 0 0 223.15407109836588 -15.279084092573612 0 -15.279084092573612 -33.33027413135278 0 0 0 0 127.02348462354894 6.7943221323948819 0 6.7943221323948819 -5.8844594701677124 0 0 0 0 60.317561158524768 40.819739472586662 0 40.819739472586662 -33.262469971692553 0 0 0 0 109.57320330908988 -44.07479953164875 0 -44.07479953164875 -6.8571698891464621 0 0 0 0 16.856952486104547 -56.665549221259425 0 -56.665549221259425 -2.975895971612772 0 0 0 0 146.46434901356406 -77.865190664422698 0 -77.865190664422698 -74.916812365176156 0 0 0 0 241.2363577302699 4.0044966039713472 0 4.0044966039713472 -70.162433002435137 0 0 0 0 332.90872408930522 -186.83711437430611 0 -186.83711437430611 -275.57834322130657 0 0 0 0 444.92822095942506 115.41524994888459 0 115.41524994888459 -157.64398836030159 0 0 0 0 -110.66051260446466 -46.629309068564908 0 -46.629309068564908 -70.827333790550256 0 0 0 0 -0.02333029988246188 -0.31289653341082158 0 -0.31289653341082158 -13.698862978535317 0 0 0 0 -0.67845406080127035 1.7613029316940896 0 1.7613029316940896 -0.7176978669978098 0 0 0 0 -1.7931772736741376 8.008764968356445 0 8.008764968356445 -27.156293461147925 0 0 0 0 -13.470192785039254 39.008128317866067 0 39.008128317866067 34.648794569817255 0 0 0 0 -26.620504724757211 67.527919386870053 0 67.527919386870053 -143.6224995876546 0 0 0 0 -34.722786513392293 96.292586934236169 0 96.292586934236169 -103.41112228250131 0 0 0 0 -60.820368041659094 61.483518371307582 0 61.483518371307582 -100.05677522302722 0 0 0 0 -46.043482375283247 66.199788937577978 0 66.199788937577978 -19.076186804959434 0 0 0 0 19.593951813952344 14.276436641383043 0 14.276436641383043 -48.945658733166056 0 0 0 0 -6.6017984313132274 82.129764510899804 0 82.129764510899804 -106.56632983830059 0 0 0 0 -4.8931380179683757 0.66459229313144874 0 0.66459229313144874 0.88878836332055755 0 0 0 0 18.045620770423056 73.390245920490997 0 73.390245920490997 -347.56134080880292 0 0 0 0 -152.05609765406803 144.58417722094964 0 144.58417722094964 -84.929738185572205 0 0 0 0 -24.719945507497641 15.112338556420582 0 15.112338556420582 -123.47302233509254 0 0 0 0 -35.971182644331577 -27.600257385245641 0 -27.600257385245641 53.834720376442419 0 0 0 0 20.830902303264338 37.695026562534622 0 37.695026562534622 97.461153295480472 0 0 0 0 52.145234951948851 6.0544838617279311 0 6.0544838617279311 -109.03591399444849 0 0 0 0 -238.27026396770202 583.41177237786906 0 583.41177237786906 -374.49878421591711 0 0 0 0 -0.28366636562892911 56.023410138892359 0 56.023410138892359 -157.65828811064421 0 0 0 0 -30.454345256971862 -10.319114158184675 0 -10.319114158184675 14.889262359589338 0 0 0 0 -206.40151614276033 221.06934725779865 0 221.06934725779865 130.85949131486268 0 0 0 0 79.123022560230424 96.371058061205986 0 96.371058061205986 -199.68664364713186 0 0 0 0 -2.6748241484133986 8.2600692927871506 0 8.2600692927871506 -20.807622698440582 0 0 0 0 263.42735767583099 199.38951288672251 0 199.38951288672251 39.717930678365519 0 0 0 0 -97.373391531708023 -70.120288391808572 0 -70.120288391808572 -57.215629600468674 0 0 0 0 -7.3234753984621506 -197.13869288117712 0 -197.13869288117712 -681.44974720296159 0 0 0 0 0.20728356318011801 50.577615983235191 0 50.577615983235191 -957.36779868020676 0 0 0 0 85.691131107567585 42.444075775310921 0 42.444075775310921 -1046.40073111112 0 0 0 0 17.584832877807457 246.87388133080822 0 246.87388133080822 -1551.5604430700514 0 0 0 0 -95.996324880948578 -453.29449218927039 0 -453.29449218927039 -1144.9674783482187 0 0 0 0 -1.3369706490193376 3.1255068579536953 0 3.1255068579536953 -8.6284030582547189 0 0 0 0 244.52986873540254 149.50275360173691 0 149.50275360173691 -1424.7384384416655 0 0 0 0 -237.6875440888289 -117.16437940247852 0 -117.16437940247852 -1099.3441309052723 0 0 0 0 -493.87590506724729 158.0875666214888 0 158.0875666214888 -986.66871812628233 0 0 0 0 -82.264942748351928 141.31156577386719 0 141.31156577386719 -996.47394598949177 0 0 0 0 -240.58055219899953 -5.6471036422808538 0 -5.6471036422808538 -883.06779897375964 0 0 0 0 1.750475496554202 -15.017931962654984 0 -15.017931962654984 -1056.7134026176063 0 0 0 0 -44.894887406307987 28.328310442186194 0 28.328310442186194 -880.47361101285787 0 0 0 0 -106.76250997293823 54.272624782810453 0 54.272624782810453 -763.14018157652754 0 0 0 0 -122.79829408734686 13.006604390342545 0 13.006604390342545 -762.62024965332239 0 0 0 0 -94.012294219858376 142.50681497551886 0 142.50681497551886 -787.14642938991892 0 0 0 0 -0.081222353174472281 75.629743435740238 0 75.629743435740238 -791.66627874538244 0 0 0 0 0.11075793087948708 108.66275892489648 0 108.66275892489648 -1087.1052699855645 0 0 0 0 -56.117200667566138 214.67180805930548 0 214.67180805930548 -918.91589053801727 0 0 0 0 -91.57348887776898 74.723342969584337 0 74.723342969584337 -879.01302639991627 0 0 0 0 -123.69011027002784 42.625671991278068 0 42.625671991278068 -25.247224424937031 0 0 0 0 -128.9037805980754 196.58494410555431 0 196.58494410555431 -682.39974178169359 0 0 0 0 164.12159389216686 279.05780143231095 0 279.05780143231095 -770.80566116625414 0 0 0 0 0.71786941779059887 -2.7354294925866043 0 -2.7354294925866043 -5.9298073161271532 0 0 0 0 8.3183292019855344 -491.71449826235767 0 -491.71449826235767 -41.260591596279255 0 0 0 0 -170.82834830055936 -116.09977033938048 0 -116.09977033938048 -379.83895887386461 0 0 0 0 75.936765659853791 -311.27637256871822 0 -311.27637256871822 -687.71020986058284 0 0 0 0 -110.12739462405017 -68.796825518140395 0 -68.796825518140395 -699.99897069657163 0 0 0 0 -120.288957968055 -18.981319592443469 0 -18.981319592443469 -790.97705264888646 0 0 0 0 3.6961055523753181 38.720120508682839 0 38.720120508682839 -1189.0481831215729 0 0 0 0 -193.25286319573411 157.34114897645486 0 157.34114897645486 -783.67813359371121 0 0 0 0 -79.914403048611007 63.230664440201508 0 63.230664440201508 -921.77232106990414 0 0 0 0 -213.98440396492333 341.8301216750333 0 341.8301216750333 -964.78000411762332 0 0 0 0 13.497661494133808 399.1583316570468 0 399.1583316570468 -1538.8225003634652 0 0 0 0 1.4147681539209516 -1.3854508282631173 0 -1.3854508282631173 -2.7758668464546474 0 0 0 0 193.65453728476177 199.14019407439628 0 199.14019407439628 -830.43706881711842 0 0 0 0 42.492105979813459 161.3293095385452 0 161.3293095385452 -465.7950446688701 0 0 0 0 -187.20385113267506 -118.30258594372515 0 -118.30258594372515 -860.55997667441261 0 0 0 0 -197.03801762183207 460.66292077643448 0 460.66292077643448 -756.28724836496986 0 0 0 0 18.263610368237551 158.60469074716093 0 158.60469074716093 -1095.5444132976481 0 0 0 0 4.2382221807372993 -3.1431863093851575 0 -3.1431863093851575 -4.7700504652793825 0 0 0 0 29.158127748301922 340.78166933327157 0 340.78166933327157 -1260.0987418674122 0 0 0 0 -142.22807442807698 175.24169748236454 0 175.24169748236454 -803.64796017165645 0 0 0 0 120.62324751338201 310.1858543549024 0 310.1858543549024 -1170.140113821777 0 0 0 0 5.5104397241563152 -3.6990254063200041 0 -3.6990254063200041 -5.6320595860053686 0 0 0 0 112.33298914437387 119.06383601664129 0 119.06383601664129 -1253.7826849434641 0 0 0 0 31.436251388001892 35.545666106911085 0 35.545666106911085 -663.83386190564488 0 0 0 0 40.361368925247007 102.53928268569143 0 102.53928268569143 -14.788024247118301 0 0 0 0 -259.4511220297843 276.35854003929126 0 276.35854003929126 -314.15596755388833 0 0 0 0 -42.55642665297502 24.718548301135428 0 24.718548301135428 -14.84764815754167 0 0 0 0 76.794822310935956 215.60480578903662 0 215.60480578903662 254.56965637308895 0 0 0 0 39.1809417931388 101.04666016968258 0 101.04666016968258 3.0247809074207908 0 0 0 0 201.57561155813596 88.955645289934182 0 88.955645289934182 -1205.8369727016252 0 0 0 0 196.68911632916638 68.991547688514402 0 68.991547688514402 -643.01115520061285 0 0 0 0 -29.561649005530494 214.26774805108573 0 214.26774805108573 -428.6718396502547 0 0 0 0 -246.17554996002821 380.47190365660936 0 380.47190365660936 -603.31900057899475 0 0 0 0 32.736324884016085 -175.93835212250269 0 -175.93835212250269 -489.76053172054526 0 0 0 0 -7.96974080600992 6.1052611583884273 0 6.1052611583884273 -7.7177562866453968 0 0 0 0 -162.79354896581901 62.188028318385477 0 62.188028318385477 182.34478439248051 0 0 0 0 -10.740330400348579 5.2952759767102009 0 5.2952759767102009 -8.6102923573207306 0 0 0 0 -23.561656592354211 24.093380014550348 0 24.093380014550348 -95.559174118832743 0 0 0 0 0.41264657429132967 68.31825800200113 0 68.31825800200113 -44.069882017822238 0 0 0 0 -6.0114791970955403 20.895931197752201 0 20.895931197752201 -63.587715530356945 0 0 0 0 5.3374828651806183 3.5755943893891526 0 3.5755943893891526 -84.535763000603765 0 0 0 0 1.5036179186079868 17.740472609063339 0 17.740472609063339 -82.794973709073417 0 0 0 0 115.84739902309775 39.102856022207106 0 39.102856022207106 -145.51078094213153 0 0 0 0 5.1702610345856925 39.761567536838356 0 39.761567536838356 -116.46252918812388 0 0 0 0 -42.364046612872244 37.782256046732073 0 37.782256046732073 -82.670248461058691 0 0 0 0 -32.504265631178441 53.79056209744158 0 53.79056209744158 -102.50971048529027 0 0 0 0 146.85470201574708 192.43414890565327 0 192.43414890565327 -65.320832834608154 0 0 0 0 101.70342594213707 94.591594928269842 0 94.591594928269842 -141.42397258552955 0 0 0 0 135.81911835942992 53.186410786060151 0 53.186410786060151 -220.06465574307003 0 0 0 0 84.690025591260564 82.137142881998443 0 82.137142881998443 -57.899577332398621 0 0 0 0 142.76948031719303 128.44232613383065 0 128.44232613383065 -197.93515304126777 0 0 0 0 107.08829793801647 113.07284636059831 0 113.07284636059831 -128.3071982289257 0 0 0 0 20.413369801931367 31.956704931202694 0 31.956704931202694 -159.12100471640588 0 0 0 0 132.78800169430269 32.298096044949489 0 32.298096044949489 -163.13077793894627 0 0 0 0 189.23480207654609 42.525121716698777 0 42.525121716698777 -235.56333971844288 0 0 0 0 110.66171661084172 -1.8465691782184877 0 -1.8465691782184877 -208.19871408466133 0 0 0 0 163.56318546873445 100.59910289561958 0 100.59910289561958 -159.33151567418827 0 0 0 0 82.814309276594543 68.294455548289989 0 68.294455548289989 -171.49994511689874 0 0 0 0 175.06638967009758 118.16403257122147 0 118.16403257122147 -176.6529321875496 0 0 0 0 268.38756215272292 111.83158400224056 0 111.83158400224056 -274.60325538320467 0 0 0 0 195.75015826926233 168.67534277569939 0 168.67534277569939 -111.43026512554206 0 0 0 0 172.32174403215868 -2.8906207977270242 0 -2.8906207977270242 -389.48537153560756 0 0 0 0 154.87088564036776 -2.3403009977773763 0 -2.3403009977773763 -293.89791422856069 0 0 0 0 9.3636496389635795 32.327017933181196 0 32.327017933181196 -292.50364296819316 0 0 0 0 38.309698979952373 -9.6880153300444363 0 -9.6880153300444363 -281.05892573200981 0 0 0 0 166.51272225823197 -2.2370359491897034 0 -2.2370359491897034 -167.92966672350303 0 0 0 0 135.3530070196357 -32.324153850524453 0 -32.324153850524453 -326.6894684691797 0 0 0 0 -2542.0741949991179 -1438.6787127828866 0 -1438.6787127828866 -364.18716118735028 0 0 0 0 -84.133257691006293 -196.29566699650604 0 -196.29566699650604 -179.15706766908988 0 0 0 0 102.54632011448575 16.866421595310385 0 16.866421595310385 -348.33632971593761 0 0 0 0 140.08441882094144 -8.9791663175346912 0 -8.9791663175346912 -235.26102524364251 0 0 0 0 117.38223365528893 -24.802624718635343 0 -24.802624718635343 -242.42946099449182 0 0 0 0 130.08329439675981 -67.919392513649655 0 -67.919392513649655 -190.72954704210861 0 0 0 0 64.394140708201576 -37.030177096181433 0 -37.030177096181433 -144.61302941091708 0 0 0 0 80.412628910970852 10.820323943811673 0 10.820323943811673 -147.10443940130062 0 0 0 0 1096.4722794525878 481.80329569771129 0 481.80329569771129 132.92037712276215 0 0 0 0 613.97040159943572 -351.44644125677587 0 -351.44644125677587 -924.27301069005625 0 0 0 0 22.542197812436676 24.611788724453746 0 24.611788724453746 -27.158055109676638 0 0 0 0 -2708.1823753938006 -3667.5695980503879 0 -3667.5695980503879 1138.3479046798311 0 0 0 0 25.481485303966352 -10.980074111970996 0 -10.980074111970996 -115.90055132874144 0 0 0 0 -5.9830572870166208 -16.418691491746372 0 -16.418691491746372 -17.804717713463674 0 0 0 0 -478.14075150651843 -465.0471174546492 0 -465.0471174546492 -622.66094397270354 0 0 0 0 372.74671103433138 -11.976696478906888 0 -11.976696478906888 -828.77851984956942 0 0 0 0 -295.49361443435191 -362.64595424557046 0 -362.64595424557046 -906.18538018738036 0 0 0 0 -289.4601905468453 -277.50723436182329 0 -277.50723436182329 -1244.2127084772219 0 0 0 0 -1229.518843499005 150.13879248141893 0 150.13879248141893 -839.9324894596175 0 0 0 0 -2136.9024061689051 -425.78835727271507 0 -425.78835727271507 -1215.9062245566784 0 0 0 0 812.82993679245192 -332.51932882611072 0 -332.51932882611072 -1687.9779039649511 0 0 0 0 -370.50605417718907 -180.4406522515892 0 -180.4406522515892 -584.08735082857311 0 0 0 0 -685.9962862002867 860.02191223907357 0 860.02191223907357 -3612.0283277590352 0 0 0 0 -43.170848056218119 -207.57318216255771 0 -207.57318216255771 -581.01696449235897 0 0 0 0 929.98319598493254 42.031201700545353 0 42.031201700545353 -1290.7085071996844 0 0 0 0 20.546088032220986 1.2600665868386471 0 1.2600665868386471 -133.00631410603989 0 0 0 0 632.65368280789698 415.59208295425924 0 415.59208295425924 -1262.6984581303477 0 0 0 0 -247.00283551939947 -155.30470424478699 0 -155.30470424478699 -346.20148438293836 0 0 0 0 7.6660781462906016 439.15334568254912 0 439.15334568254912 -825.4174947730753 0 0 0 0 -429.42922339319733 598.47133337868536 0 598.47133337868536 453.60685532927164 0 0 0 0 -1150.1594582578618 125.43162995320381 0 125.43162995320381 132.01374634297099 0 0 0 0 84.139839300791209 2013.6814052152913 0 2013.6814052152913 -1375.6617548531376 0 0 0 0 -429.90589183495547 650.22052375389956 0 650.22052375389956 94.596565942221787 0 0 0 0 27.378826171297518 11.527854146983188 0 11.527854146983188 -123.99098326551984 0 0 0 0 903.87183138112596 304.93437012720642 0 304.93437012720642 -515.63217214302858 0 0 0 0 -2.4296713017249552 7.4269342191238934 0 7.4269342191238934 -2.6370945254441267 0 0 0 0 175.79186318801658 315.8436705896238 0 315.8436705896238 22.952829943220422 0 0 0 0 23.02946485305155 -3.4876494810746124 0 -3.4876494810746124 -117.91772406084962 0 0 0 0 894.58093196130176 891.85347296054533 0 891.85347296054533 -1454.3522433707622 0 0 0 0 -402.1376437300205 998.75144698457734 0 998.75144698457734 -65.892766589269741 0 0 0 0 -391.93928254455386 933.24565425293986 0 933.24565425293986 134.77791331733169 0 0 0 0 -466.95343415514799 695.79700383836462 0 695.79700383836462 1020.1027430673712 0 0 0 0 2.969823623119737 469.65670592183596 0 469.65670592183596 -2811.3015296279173 0 0 0 0 316.67094133005958 -294.3815694549412 0 -294.3815694549412 -2792.8716058965642 0 0 0 0 -13.067745073176432 5.8426757557747067 0 5.8426757557747067 -3.2510800972110871 0 0 0 0 -503.62249979430828 549.97627297847066 0 549.97627297847066 1229.2315968655021 0 0 0 0 2.9549451536995015 -2.2907318712314009 0 -2.2907318712314009 -4.1211558277467475 0 0 0 0 -31.793710075295259 18.220908729313408 0 18.220908729313408 -6.7888105675696977 0 0 0 0 -161.868544778863 312.24338215058378 0 312.24338215058378 -1287.4547355101749 0 0 0 0 133.63375944439849 -251.16279612540529 0 -251.16279612540529 -2763.068253223697 0 0 0 0 153.51742438708175 362.8999329321814 0 362.8999329321814 343.40091412860056 0 0 0 0 425.05929823040015 221.6183028827727 0 221.6183028827727 133.81014056314598 0 0 0 0 261.16639035939966 235.98841175134294 0 235.98841175134294 -117.15715836897652 0 0 0 0 172.23818104255906 255.21028429591388 0 255.21028429591388 129.99837457868853 0 0 0 0 286.63914052769587 291.01386451575672 0 291.01386451575672 -314.31726336959036 0 0 0 0 34.730317472909292 256.53495303729869 0 256.53495303729869 138.24681750303716 0 0 0 0 -75.237787384107833 477.13625826634961 0 477.13625826634961 48.291300982382381 0 0 0 0 138.90316265008141 -15.264437668549363 0 -15.264437668549363 846.32896626192814 0 0 0 0 -167.10026267454487 193.67514345057316 0 193.67514345057316 -369.83253460943524 0 0 0 0 -126.32256046931434 227.22770749750634 0 227.22770749750634 -805.90266689010605 0 0 0 0 -245.13240429492726 505.25341918008417 0 505.25341918008417 -757.7231452141059 0 0 0 0 -26.291121962928855 122.36379023751925 0 122.36379023751925 -1151.9471461300418 0 0 0 0 104.17403624532017 293.39640077794684 0 293.39640077794684 -941.40697388767148 0 0 0 0 -27.489725326895666 189.40894802812289 0 189.40894802812289 -745.86415702934028 0 0 0 0 15.905651695698907 291.66465124163005 0 291.66465124163005 -612.90536234717729 0 0 0 0 -6.8814474037488225 7.9408217984836966 0 7.9408217984836966 0.86431087694242237 0 0 0 0 -64.192994105338585 158.74725506114919 0 158.74725506114919 -1433.1012019878617 0 0 0 0 -0.56567848432678147 -42.45233366791399 0 -42.45233366791399 -1300.3460216992244 0 0 0 0 282.77209817401308 372.65193849446223 0 372.65193849446223 -821.91146961831691 0 0 0 0 68.932087512996077 172.91706701914188 0 172.91706701914188 -925.61554834825802 0 0 0 0 72.722133705960005 254.63203789250838 0 254.63203789250838 -815.33254136574396 0 0 0 0 136.71128667837911 128.58871128074679 0 128.58871128074679 -896.9919067683004 0 0 0 0 138.05561291817867 -65.819692321740149 0 -65.819692321740149 -1324.5510101982873 0 0 0 0 2.4530511696793837 -141.56692881144409 0 -141.56692881144409 -1152.2060764872513 0 0 0 0 -97.086197297365288 -421.37647060579911 0 -421.37647060579911 -1684.6914190937932 0 0 0 0 14.316176425352751 -168.10167289638321 0 -168.10167289638321 -922.29794394073542 0 0 0 0 -545.71496137465874 390.12453675422876 0 390.12453675422876 -1432.6828261133051 0 0 0 0 99.935344471316967 220.76515255711092 0 220.76515255711092 -1033.3406072087091 0 0 0 0 148.94496980174335 242.50403442769493 0 242.50403442769493 -2044.5323213738229 0 0 0 0 -592.96753269461624 -73.52478473512565 0 -73.52478473512565 266.42273174223374 0 0 0 0 -3.2764212674153157 2.9809095017582052 0 2.9809095017582052 -1.4350334756527676 0 0 0 0 401.53136833685858 48.186658544174861 0 48.186658544174861 -935.71757184270973 0 0 0 0 -220.23371537586354 257.68481085944222 0 257.68481085944222 -1056.686944878682 0 0 0 0 -338.96020527603105 654.91536278698186 0 654.91536278698186 -1407.3202021842808 0 0 0 0 -1105.8795437903173 652.33562428691948 0 652.33562428691948 -176.74419667193433 0 0 0 0 -798.51075155683066 581.14794219057148 0 581.14794219057148 -1166.5296695361612 0 0 0 0 -1507.9947875299258 347.57015821218374 0 347.57015821218374 -1078.0407862469365 0 0 0 0 -1216.4440359695873 1059.957547468628 0 1059.957547468628 -857.7909320545441 0 0 0 0 -569.84997651512094 82.750980435783276 0 82.750980435783276 -1079.6301606023117 0 0 0 0 -1117.752435488379 993.11570926960849 0 993.11570926960849 -2377.6978050280304 0 0 0 0 -513.79947476681264 -435.00384033138107 0 -435.00384033138107 -2191.0595710508278 0 0 0 0 -283.5010217188028 -166.260792736437 0 -166.260792736437 -2028.2464716305985 0 0 0 0 -567.23238746929565 116.53756117075682 0 116.53756117075682 -3780.3279132374664 0 0 0 0 -2365.0244253980163 1404.8258023689623 0 1404.8258023689623 -2345.3398127586988 0 0 0 0 -8.6650722990730173 9.4828016832013304 0 9.4828016832013304 -14.324650625221381 0 0 0 0 -1.2528915726143168 1016.988319551645 0 1016.988319551645 -821.43892067439447 0 0 0 0 -606.63931296558803 325.51581987141253 0 325.51581987141253 -369.34591436295887 0 0 0 0 -1304.8822528255041 1850.0476723600514 0 1850.0476723600514 -1333.4452833999239 0 0 0 0 -906.8221200465141 -1116.0907003272496 0 -1116.0907003272496 -1343.3520463391615 0 0 0 0 -850.79758884938929 -1269.0788485579469 0 -1269.0788485579469 -2679.8420016618111 0 0 0 0 -70.26202071607986 -341.99817699864798 0 -341.99817699864798 129.03676236355386 0 0 0 0 234.07413449516753 -339.97235499868839 0 -339.97235499868839 55.725334896909771 0 0 0 0 -72.807257785461843 -221.5865272867668 0 -221.5865272867668 129.28296744439285 0 0 0 0 149.14432415725605 -253.03728577688162 0 -253.03728577688162 133.17751230784052 0 0 0 0 6.2352165133979689 29.238104446822362 0 29.238104446822362 -3.1101183414358786 0 0 0 0 127.13145039621304 87.243605528194166 0 87.243605528194166 488.23675151979114 0 0 0 0 512.68902866107965 281.85752495584893 0 281.85752495584893 -93.316057166899554 0 0 0 0 175.20895605525584 175.75174029418849 0 175.75174029418849 -58.455218727358442 0 0 0 0 -158.72423855784291 62.542151546025707 0 62.542151546025707 106.31505052043212 0 0 0 0 126.82236902373552 149.40566881959785 0 149.40566881959785 -315.26419116472243 0 0 0 0 -26.538235664853005 27.128009234597215 0 27.128009234597215 -39.144682790026394 0 0 0 0 -1.451236953710179 -2.8486751363716962 0 -2.8486751363716962 -15.577003841325592 0 0 0 0 -1.1942914449418822 97.388126039502822 0 97.388126039502822 -154.83364280610112 0 0 0 0 -374.24129530781647 -344.76983236117667 0 -344.76983236117667 -557.00963959591172 0 0 0 0 -34.438663805369288 69.601776471892663 0 69.601776471892663 -45.794924908972462 0 0 0 0 -76.48564870705377 -84.612968582649046 0 -84.612968582649046 -167.31910664029419 0 0 0 0 -4.5267342024645245 -5.7129793421541422 0 -5.7129793421541422 -60.663058506441551 0 0 0 0 -5.1211720670489598 37.317087473087113 0 37.317087473087113 -90.577629107002423 0 0 0 0 -367.78699524341664 -407.89549571515909 0 -407.89549571515909 -535.10942902746319 0 0 0 0 -261.70068303235166 -344.15733541916416 0 -344.15733541916416 -581.33277490222827 0 0 0 0 -410.8635500632663 -582.47412590190652 0 -582.47412590190652 -862.95735142051853 0 0 0 0 -505.19192581921379 -487.09700456917926 0 -487.09700456917926 -457.1462253418249 0 0 0 0 -91.929000278975764 -350.05504887926054 0 -350.05504887926054 -1274.9641478709527 0 0 0 0 -183.0158826846382 -152.66189086042505 0 -152.66189086042505 -404.78310298433644 0 0 0 0 -11.201560046545637 -10.902218670365983 0 -10.902218670365983 -990.08013794342696 0 0 0 0 -48.745517501033646 -165.19865256966932 0 -165.19865256966932 -737.16494827708811 0 0 0 0 -10.108358146002502 43.539262326558401 0 43.539262326558401 -606.87135103860055 0 0 0 0 -229.51375096837728 -311.49092639728042 0 -311.49092639728042 -778.06819239650031 0 0 0 0 -266.51686656016682 -379.71214695143499 0 -379.71214695143499 -449.94045565594388 0 0 0 0 2.092638244828791 -37.783043866378918 0 -37.783043866378918 -108.0549834960199 0 0 0 0 -125.77011084102787 -287.2873890380281 0 -287.2873890380281 -642.12393588891337 0 0 0 0 -282.06341211673862 -335.38259606026986 0 -335.38259606026986 -475.23064153770247 0 0 0 0 -135.63239299010888 -160.88948580779788 0 -160.88948580779788 -300.63395391360973 0 0 0 0 -131.48675501735215 -36.321714982704407 0 -36.321714982704407 -452.32175444874156 0 0 0 0 7.0198193680153906 -40.689928014705337 0 -40.689928014705337 -105.90083667172451 0 0 0 0 40.650257738237997 -243.37300648086239 0 -243.37300648086239 -262.1322542641351 0 0 0 0 -131.96122138755163 -26.453814094333211 0 -26.453814094333211 -646.73070694298076 0 0 0 0 -20.919656140689767 -31.74551002655312 0 -31.74551002655312 -286.47185928202998 0 0 0 0 -94.965583767318094 -122.48817354199127 0 -122.48817354199127 -206.11644466483813 0 0 0 0 -222.19512123734239 -366.38291685060608 0 -366.38291685060608 -531.02510335586703 0 0 0 0 -137.0756924837151 -438.23789872864745 0 -438.23789872864745 -699.204621248482 0 0 0 0 -30.48342882510336 16.774361365085838 0 16.774361365085838 -43.014238980825652 0 0 0 0 -65.850608777283924 -106.90436657102691 0 -106.90436657102691 -244.88566840413114 0 0 0 0 15.691678976072581 0.30104213484446518 0 0.30104213484446518 -101.65346505592606 0 0 0 0 -23.273150396898203 -0.78837592056773076 0 -0.78837592056773076 -138.12172141967983 0 0 0 0 52.53753767748276 112.94075088562386 0 112.94075088562386 -152.08455563253665 0 0 0 0 39.544900230529421 16.948073061718489 0 16.948073061718489 -142.85969346983899 0 0 0 0 -31.463445002158551 34.625839262160298 0 34.625839262160298 -132.23732714163998 0 0 0 0 74.602841313996578 12.391879756467915 0 12.391879756467915 -131.84743831542437 0 0 0 0 -14.94327061281183 40.245057359485145 0 40.245057359485145 -189.70454328641063 0 0 0 0 40.349265957936495 18.51135245742244 0 18.51135245742244 -85.377243065908317 0 0 0 0 -53.561834365842515 154.05330295274325 0 154.05330295274325 -149.23263489069359 0 0 0 0 -64.360674701078096 7.6913087987268227 0 7.6913087987268227 -167.61450519534992 0 0 0 0 85.903910071589053 154.0597149017849 0 154.0597149017849 -110.84850483861919 0 0 0 0 107.76285740402818 57.737929487950169 0 57.737929487950169 -217.17246560064086 0 0 0 0 16.549705917597748 17.96100290123286 0 17.96100290123286 -73.327243055508006 0 0 0 0 250.06813398153099 16.608414203299617 0 16.608414203299617 4.4505006968392991 0 0 0 0 274.71130407050077 259.05381215109082 0 259.05381215109082 23.617239133711337 0 0 0 0 -0.58583158382222678 -16.41187869049358 0 -16.41187869049358 -17.463379991104347 0 0 0 0 106.90003121722475 16.001519982790342 0 16.001519982790342 -266.5047051931615 0 0 0 0 82.048601319795125 69.001442946464522 0 69.001442946464522 -201.18851740997343 0 0 0 0 102.06144713522008 61.715799480611167 0 61.715799480611167 -218.76044344399997 0 0 0 0 50.182796077220701 -0.88226117176236585 0 -0.88226117176236585 -108.31282529199962 0 0 0 0 18.860132337222197 -21.086337151474041 0 -21.086337151474041 -109.11691393249595 0 0 0 0 34.80740425987608 -15.900710893451254 0 -15.900710893451254 -115.3876438530742 0 0 0 0 -103.2353542359233 -84.274448862634017 0 -84.274448862634017 -160.38562064641155 0 0 0 0 -208.0277914649505 197.0642787639772 0 197.0642787639772 -272.56139570043888 0 0 0 0 -6.6519363689072719 -19.948531485350941 0 -19.948531485350941 -33.364283618691616 0 0 0 0 78.14786320773419 -10.849223304074258 0 -10.849223304074258 -165.4851696647238 0 0 0 0 38.823379541747272 -53.845006649222341 0 -53.845006649222341 -115.09484904410783 0 0 0 0 57.963135505036917 -3.0500285582820652 0 -3.0500285582820652 -73.968052379204892 0 0 0 0 15.921104759929634 -2.7051988616624101 0 -2.7051988616624101 -81.17524570293017 0 0 0 0 31.736936991707474 -78.696501172594992 0 -78.696501172594992 -206.71578650927205 0 0 0 0 29.452986210643459 17.20433471895479 0 17.20433471895479 -106.01173216858945 0 0 0 0 32.616699335750269 7.9956104805303312 0 7.9956104805303312 -35.787186984562027 0 0 0 0 81.795948284732731 -73.837109038300696 0 -73.837109038300696 -24.535193840667489 0 0 0 0 62.278336210647467 -78.002943150931969 0 -78.002943150931969 -148.72237054683501 0 0 0 0 7.6289487031278931 -34.336398000585845 0 -34.336398000585845 -83.629146825417024 0 0 0 0 24.076246685643127 -215.93519602581364 0 -215.93519602581364 -613.1120622579474 0 0 0 0 -55.305960314093682 70.625271687473287 0 70.625271687473287 -980.04274279325909 0 0 0 0 -17.053959987708367 144.14494716089393 0 144.14494716089393 -1033.6754917065555 0 0 0 0 94.429377180786105 -89.58342890660424 0 -89.58342890660424 -412.86989737458498 0 0 0 0 -91.497618017092464 125.94757119390852 0 125.94757119390852 -594.91366789587482 0 0 0 0 105.60218450295633 34.097077170926241 0 34.097077170926241 -864.19317199267971 0 0 0 0 20.478123386666994 -1.9622438161404716 0 -1.9622438161404716 -289.58730351903796 0 0 0 0 -276.42327448779542 196.91453358500439 0 196.91453358500439 -172.62297494682571 0 0 0 0 -16.644410458570661 74.260802461712274 0 74.260802461712274 -68.869641817816515 0 0 0 0 -2.1935012100518776 80.965497377884091 0 80.965497377884091 -40.169788622599171 0 0 0 0 29.576854039443788 55.181929847045467 0 55.181929847045467 -317.3960651514135 0 0 0 0 7.1490469509190007 4.7670268049914739 0 4.7670268049914739 -119.48100634748334 0 0 0 0 33.586561930253083 -12.585369634944072 0 -12.585369634944072 -619.25376583712205 0 0 0 0 -6.7337439210359662 100.6346581816415 0 100.6346581816415 -513.6483817530825 0 0 0 0 95.103100945161714 61.895035811467096 0 61.895035811467096 -719.75943661980273 0 0 0 0 26.760952832948533 -64.84440925927629 0 -64.84440925927629 -654.19917916522536 0 0 0 0 7.6990899161552875 68.347696952786933 0 68.347696952786933 -85.037227920016136 0 0 0 0 28.211818357768607 -35.397210761295355 0 -35.397210761295355 -715.79773296930944 0 0 0 0 42.042335028626269 44.091393602025057 0 44.091393602025057 -117.44825741000081 0 0 0 0 35.576188626467001 109.89677299621053 0 109.89677299621053 -220.73745323574258 0 0 0 0 -35.94105442167438 517.70859464679233 0 517.70859464679233 -1398.9118932517613 0 0 0 0 -156.77144099901057 -133.75083540630044 0 -133.75083540630044 -17.983504834250198 0 0 0 0 1.4157206232652548 -2.1091414195905713 0 -2.1091414195905713 -6.4154095315094537 0 0 0 0 -92.082979665514358 416.47745872942323 0 416.47745872942323 -880.55896281807509 0 0 0 0 57.215209605630207 216.40675375151113 0 216.40675375151113 -1118.6641558282572 0 0 0 0 50.776282053362593 -118.28585281639243 0 -118.28585281639243 -742.44225188538985 0 0 0 0 -379.52466744766571 415.8120763184852 0 415.8120763184852 -1375.1685430193174 0 0 0 0 338.22985684676678 -96.484168274415424 0 -96.484168274415424 -2211.7649266839435 0 0 0 0 -441.33479422154778 681.6146154471935 0 681.6146154471935 -2374.3669199516298 0 0 0 0 -719.44931939918297 694.02437749831006 0 694.02437749831006 -936.96783241535013 0 0 0 0 -191.43147655113353 -202.94955985344859 0 -202.94955985344859 36.397609510262555 0 0 0 0 621.9829344525433 -227.44451907295297 0 -227.44451907295297 -652.25404264550889 0 0 0 0 231.95351341644346 -300.17192985324073 0 -300.17192985324073 11.264626703021349 0 0 0 0 100.97846109013244 -100.702943415974 0 -100.702943415974 113.52465235762065 0 0 0 0 -169.46725646696541 -380.84128465090907 0 -380.84128465090907 -365.13716951136303 0 0 0 0 94.632847748276617 -145.66698370805534 0 -145.66698370805534 -166.34192163852276 0 0 0 0 69.433815044665607 -232.67199712989532 0 -232.67199712989532 -122.28614481828845 0 0 0 0 126.78631258228143 -153.71753777846607 0 -153.71753777846607 -482.24398557608947 0 0 0 0 461.06203914153593 -283.27229016565252 0 -283.27229016565252 -191.95323629904306 0 0 0 0 210.32086525878185 79.029503128724173 0 79.029503128724173 -113.01647291054542 0 0 0 0 97.390193024559267 -216.62777278728026 0 -216.62777278728026 -204.11396083083673 0 0 0 0 207.23165558941946 -244.86602774399216 0 -244.86602774399216 -544.30292307771742 0 0 0 0 127.94515094063172 -58.156847483231104 0 -58.156847483231104 -680.96090340870433 0 0 0 0 142.28132902137611 -181.25941478717777 0 -181.25941478717777 -521.86805049542454 0 0 0 0 130.03688460311969 -34.190000203772797 0 -34.190000203772797 -670.91109701710229 0 0 0 0 55.252402831922154 -98.038400065728638 0 -98.038400065728638 -685.53316708470811 0 0 0 0 115.47395745402537 -43.693086946703261 0 -43.693086946703261 -423.3176292717917 0 0 0 0 4.2528849090263066 -90.258444329305348 0 -90.258444329305348 -427.88893639804155 0 0 0 0 8.5046290692766888 35.773435395134584 0 35.773435395134584 -68.693886517561623 0 0 0 0 68.283683124553136 -20.381990692651016 0 -20.381990692651016 -331.65855343650219 0 0 0 0 58.344468014676636 -42.790132092217391 0 -42.790132092217391 -395.08664556483564 0 0 0 0 1.0144159805310409 -5.0567716556166431 0 -5.0567716556166431 -10.394277518022136 0 0 0 0 6.9919071267186155 61.267241659923457 0 61.267241659923457 -354.80863424099152 0 0 0 0 113.11550073576446 -55.917274658095266 0 -55.917274658095266 -790.98371887259418 0 0 0 0 114.57552514768793 -13.42097304392496 0 -13.42097304392496 -574.1009565810964 0 0 0 0 22.878465340743787 -93.538476933485072 0 -93.538476933485072 -514.69131879904307 0 0 0 0 17.292871901365288 -85.062409115518676 0 -85.062409115518676 -517.17268405831419 0 0 0 0 28.045697445785208 -82.507523500145908 0 -82.507523500145908 -502.03783184310305 0 0 0 0 82.337354001896301 3.1614310982267853 0 3.1614310982267853 -502.74401830328861 0 0 0 0 76.175985561928428 -37.029614450482768 0 -37.029614450482768 -588.56617686882964 0 0 0 0 128.0369286733858 23.843741091215605 0 23.843741091215605 -570.91987484431593 0 0 0 0 128.2110836354077 -2.9611450841184705 0 -2.9611450841184705 -593.80156496717245 0 0 0 0 137.56953052345216 -45.784182593422884 0 -45.784182593422884 -663.90637579077156 0 0 0 0 85.3714339226226 130.22459473705385 0 130.22459473705385 -677.2533433014778 0 0 0 0 118.109098932091 -42.165385632586549 0 -42.165385632586549 -649.65357033828332 0 0 0 0 100.16063666029936 44.046814476952022 0 44.046814476952022 -872.83310978655936 0 0 0 0 104.51180671322436 -32.831940023548668 0 -32.831940023548668 -654.01783889776561 0 0 0 0 -7.9240806719753891 197.12598703068215 0 197.12598703068215 -813.08739137578232 0 0 0 0 -102.54170711806728 49.467780318489531 0 49.467780318489531 -777.01928198826499 0 0 0 0 67.300068218151864 101.39751224618522 0 101.39751224618522 -709.5804954044288 0 0 0 0 106.6534265379496 54.279824794786691 0 54.279824794786691 -475.54214481270174 0 0 0 0 99.069632504380024 23.459810711276077 0 23.459810711276077 -566.34872645862197 0 0 0 0 261.17199691321002 129.96914783772081 0 129.96914783772081 -152.15135274584463 0 0 0 0 3.5211541690229389 -34.046408443161909 0 -34.046408443161909 4.1480026438089759 0 0 0 0 19.302014720973602 5.1194776101692696 0 5.1194776101692696 -374.03558239809354 0 0 0 0 14.85434590494333 67.57838924646785 0 67.57838924646785 -465.71042952348216 0 0 0 0 -1.5960567266465659 33.308814502030145 0 33.308814502030145 -138.25242910528323 0 0 0 0 -16.799082688188378 -17.098820309260304 0 -17.098820309260304 -226.39848755547428 0 0 0 0 -13.348853431244322 -189.2691934871001 0 -189.2691934871001 -100.36791278998135 0 0 0 0 259.74655545804853 -35.594368907768512 0 -35.594368907768512 -314.13476422669191 0 0 0 0 877.32449894832644 27.2049681780627 0 27.2049681780627 -487.62639812971884 0 0 0 0 141.6165235269782 -200.14562972641579 0 -200.14562972641579 -500.05237239404232 0 0 0 0 -13.398645281825338 -205.03398340042258 0 -205.03398340042258 -209.88703909381002 0 0 0 0 -0.45374999077970379 0.50699045471289317 0 0.50699045471289317 -13.564907919522682 0 0 0 0 -691.90573894913359 693.30617800600885 0 693.30617800600885 -131.24350088325446 0 0 0 0 -803.18711796493426 -615.32827874549548 0 -615.32827874549548 -94.047200548200635 0 0 0 0 -348.56978218833956 288.83837389825931 0 288.83837389825931 -144.15401765807474 0 0 0 0 544.56075089659134 248.73821666758158 0 248.73821666758158 -527.86194884419092 0 0 0 0 65.415001307110288 785.36499204982829 0 785.36499204982829 -670.37028926593484 0 0 0 0 -10.572698798829151 -106.68859384214738 0 -106.68859384214738 -461.78289170244534 0 0 0 0 -1.1325499765134701 -0.94748540028678008 0 -0.94748540028678008 9.162408662061722 0 0 0 0 62.104380420684571 -53.698057581133355 0 -53.698057581133355 -513.65028588159475 0 0 0 0 61.874933976214379 -107.53606413808302 0 -107.53606413808302 -601.48082428118505 0 0 0 0 9.6597718999873905 -80.978599763300736 0 -80.978599763300736 -516.27246061066398 0 0 0 0 5.2008407145367528 -90.572166761383414 0 -90.572166761383414 -511.71362491848413 0 0 0 0 28.451703274482497 -49.009487107708992 0 -49.009487107708992 -479.33736792065611 0 0 0 0 -0.13765993032903623 -36.186302368524053 0 -36.186302368524053 -2.3688703614082982 0 0 0 0 -2121.098920160759 32.047094791778363 0 32.047094791778363 -387.48845366835303 0 0 0 0 13.860180299057902 -28.080346139759058 0 -28.080346139759058 -509.17616390581315 0 0 0 0 661.3447989620729 -1123.4119459870544 0 -1123.4119459870544 -660.50388762721559 0 0 0 0 -46.875474506803585 -31.102703971875599 0 -31.102703971875599 17.853515345392225 0 0 0 0 82.313010809190018 49.016225925544859 0 49.016225925544859 -761.70528103120159 0 0 0 0 7.1321622787182974 5.3600253315266571 0 5.3600253315266571 1.7098175166474405 0 0 0 0 -39.311584031647726 43.067627867691044 0 43.067627867691044 -59.704659685565275 0 0 0 0 57.119310801652318 23.61847208776453 0 23.61847208776453 -785.57151656399219 0 0 0 0 101.54834460647089 9.8559747588651589 0 9.8559747588651589 -849.47744731529383 0 0 0 0 79.266637112936223 -72.2599916002182 0 -72.2599916002182 -852.47726686716487 0 0 0 0 79.694757531309733 5.8604462496077758 0 5.8604462496077758 -780.52027801322402 0 0 0 0 80.187199042717111 -38.059003435235354 0 -38.059003435235354 -717.87280569039649 0 0 0 0 100.97554793426752 9.0793585153232925 0 9.0793585153232925 -780.90726533273119 0 0 0 0 76.268511822612709 -7.9947290895088372 0 -7.9947290895088372 -774.42951453488786 0 0 0 0 86.417232290499669 -12.338024705233693 0 -12.338024705233693 -773.30743806509417 0 0 0 0 35.800815048740333 -45.145134903956205 0 -45.145134903956205 -103.81988687302328 0 0 0 0 16.428469473270113 -1.0604389119603468 0 -1.0604389119603468 -20.852171706132264 0 0 0 0 58.020937158289087 -8.3666338031911209 0 -8.3666338031911209 -771.85951662242587 0 0 0 0 50.481699028152434 -22.315554119624721 0 -22.315554119624721 -144.70516765216598 0 0 0 0 26.611608375536889 -210.32164479212224 0 -210.32164479212224 -933.91899296824704 0 0 0 0 -20.130371822779125 -108.98927484648448 0 -108.98927484648448 -588.15132375328358 0 0 0 0 23.12390816453965 -15.869886996962322 0 -15.869886996962322 -126.11381111123433 0 0 0 0 17.829109572164832 -13.636758923795782 0 -13.636758923795782 -71.744444938942195 0 0 0 0 -77.370695045116008 78.974864236726717 0 78.974864236726717 -954.96492558861792 0 0 0 0 57.748213307342667 -54.724982724768779 0 -54.724982724768779 -832.36163363805099 0 0 0 0 16.394530234080918 -37.810280986280318 0 -37.810280986280318 -114.12756961966556 0 0 0 0 -334.8508098009961 12.163605051184277 0 12.163605051184277 -741.20326928014401 0 0 0 0 -319.70206454484287 -1.7687284510029713 0 -1.7687284510029713 -732.5992289778078 0 0 0 0 -51.659333995266934 105.9125230324571 0 105.9125230324571 -987.6284530700359 0 0 0 0 -87.251346343051409 -1.2422429351427127 0 -1.2422429351427127 -958.78231331979623 0 0 0 0 0.83869149879300409 -3.761007440175689 0 -3.761007440175689 -19.872891313268504 0 0 0 0 2.7435920618117962 1.9398203230812214 0 1.9398203230812214 -105.21914701111382 0 0 0 0 -134.03667775439681 183.76932614625548 0 183.76932614625548 -540.28427054117492 0 0 0 0 24.138911913879813 0.12266833053645598 0 0.12266833053645598 -72.672537789577518 0 0 0 0 19.790551484758907 -5.4278374107088894 0 -5.4278374107088894 -57.918608035368379 0 0 0 0 -155.59467060617317 348.498362619197 0 348.498362619197 -748.25586189638125 0 0 0 0 119.21009060598954 -9.0696567455597688 0 -9.0696567455597688 -352.87896759172145 0 0 0 0 33.640484158651816 8.1164711979217827 0 8.1164711979217827 -177.84410927646968 0 0 0 0 24.710093475583562 -3.6579148029268254 0 -3.6579148029268254 -156.81134676499642 0 0 0 0 13.357324376360658 -34.344359136747727 0 -34.344359136747727 -4.2627750366935722 0 0 0 0 -1.2829827994407985 0.70248223746330041 0 0.70248223746330041 3.0583081060193535 0 0 0 0 200.65331039383636 -11.51831270402181 0 -11.51831270402181 -614.53376395428495 0 0 0 0 62.75048884674834 -131.21493444958469 0 -131.21493444958469 -271.09042792179389 0 0 0 0 -70.246000241839283 -98.999224896331725 0 -98.999224896331725 89.916146493153065 0 0 0 0 115.32262132865799 78.841694725051639 0 78.841694725051639 -201.52970852871658 0 0 0 0 38.813873912520648 88.373275074671255 0 88.373275074671255 -40.070588657792541 0 0 0 0 -31.337884784355992 74.485716216120636 0 74.485716216120636 -196.04067143215798 0 0 0 0 3.2626191829718394 -4.1801121568830126 0 -4.1801121568830126 -33.880430507290072 0 0 0 0 -124.77898773413835 -91.790270971774589 0 -91.790270971774589 -197.54663147736574 0 0 0 0 -152.85338406088522 -587.56265831807104 0 -587.56265831807104 376.4571390535566 0 0 0 0 -33.055884519766551 -80.630297467389028 0 -80.630297467389028 -126.90816638479009 0 0 0 0 -69.01745131030475 -129.35341231973143 0 -129.35341231973143 -189.76436847235891 0 0 0 0 -0.14167259056557668 -117.30639297813468 0 -117.30639297813468 -196.09773537149886 0 0 0 0 90.421838969687997 -47.426472225270118 0 -47.426472225270118 -188.83219324256061 0 0 0 0 140.88200944305754 120.37222211393237 0 120.37222211393237 -253.35407856435631 0 0 0 0 30.073162011703008 12.109651883581066 0 12.109651883581066 -83.854708099747711 0 0 0 0 12.677052989194522 0.31700701722145652 0 0.31700701722145652 -84.480050120723774 0 0 0 0 9.5608559568645433 -82.364184550868231 0 -82.364184550868231 -276.08008350741875 0 0 0 0 26.831274489532461 -6.2283998752545813 0 -6.2283998752545813 -91.483418848671135 0 0 0 0 26.950179955712883 -4.9585775964806089 0 -4.9585775964806089 -79.359793893677306 0 0 0 0 23.182998214006364 6.1225025471338199 0 6.1225025471338199 -54.723560393016989 0 0 0 0 36.985992187168449 6.5714031767420238 0 6.5714031767420238 -155.97342595178634 0 0 0 0 -58.083471802048734 -94.063157795259031 0 -94.063157795259031 -181.63457742171886 0 0 0 0 61.434896600687352 136.76046354814025 0 136.76046354814025 -452.90005798503989 0 0 0 0 15.063576188601076 9.9619797605990499 0 9.9619797605990499 -31.934973304396088 0 0 0 0 34.619187377322305 32.160324056352692 0 32.160324056352692 -82.926317101213499 0 0 0 0 13.156127904832829 19.804129241252667 0 19.804129241252667 -174.71822916241945 0 0 0 0 33.106346384512847 13.771480811654428 0 13.771480811654428 -134.80312583788614 0 0 0 0 166.44034961033685 798.98020522272054 0 798.98020522272054 -2191.8038047577138 0 0 0 0 15.556328937474895 14.779428769115242 0 14.779428769115242 -88.329666487592192 0 0 0 0 1017.7554768408681 -801.7716774056571 0 -801.7716774056571 -3155.8156346690375 0 0 0 0 295.017629159629 -918.40165724401595 0 -918.40165724401595 -388.15056572351023 0 0 0 0 2.7038994614249532 15.67904235320384 0 15.67904235320384 -157.03814030184003 0 0 0 0 -12.079136073572172 -25.349158406501417 0 -25.349158406501417 -35.064006058547733 0 0 0 0 7.7864195344154723 1.9645899570023175 0 1.9645899570023175 -173.28730026431731 0 0 0 0 4.3292966233093466 -10.509172811523968 0 -10.509172811523968 -272.75519673555391 0 0 0 0 -3.0900760430358289 14.590284577579695 0 14.590284577579695 -18.02747488552053 0 0 0 0 -3.8290890226287715 3.5197665618500196 0 3.5197665618500196 0.69707249268233085 0 0 0 0 19.067186256785135 4.4225998465335579 0 4.4225998465335579 -165.74049443018157 0 0 0 0 95.566156581284304 55.770952637591108 0 55.770952637591108 -379.75564771134668 0 0 0 0 -125.07022840406535 -192.08290368217604 0 -192.08290368217604 -56.385548024802119 0 0 0 0 -102.37020624001616 -3.4287423964142363 0 -3.4287423964142363 -69.285386359304539 0 0 0 0 53.760622462663378 31.609676888270769 0 31.609676888270769 -216.74800049487385 0 0 0 0 -73.288610811199305 -58.761484363880299 0 -58.761484363880299 -196.50760304258438 0 0 0 0 35.71949223277025 4.8650411684853907 0 4.8650411684853907 -134.01710213277713 0 0 0 0 49.878472068035308 -301.53276592600014 0 -301.53276592600014 -109.91010177744465 0 0 0 0 -20.413001235977589 -72.79539937186523 0 -72.79539937186523 -94.923838125070716 0 0 0 0 -6.3885221243963315 -1.6285274811634736 0 -1.6285274811634736 -210.16558178787272 0 0 0 0 -2.2877959423734691 -3.5689154318531884 0 -3.5689154318531884 -9.8451597778321229 0 0 0 0 -412.5716640429182 174.41276192447549 0 174.41276192447549 181.90900515807152 0 0 0 0 -616.30983168690182 776.3014287292317 0 776.3014287292317 -746.95891357150686 0 0 0 0 -389.17135477794909 298.16604318854661 0 298.16604318854661 -477.77279910678044 0 0 0 0 0.63505258624334004 -1.9186859874281197 0 -1.9186859874281197 -6.4266025662056165 0 0 0 0 -1.1003196379100295 -12.151596168682005 0 -12.151596168682005 -18.750227362980183 0 0 0 0 6.2790889666104022 -17.337695287806127 0 -17.337695287806127 -72.931373628685833 0 0 0 0 0.15911067278857516 -11.206562838877774 0 -11.206562838877774 -45.913338085938904 0 0 0 0 -197.30050723610293 10.83661333235068 0 10.83661333235068 -49.775548623219947 0 0 0 0 -143.78659274795245 -13.634263226165785 0 -13.634263226165785 -110.55699059856124 0 0 0 0 -84.761625909671466 97.723826408082459 0 97.723826408082459 -331.57913932198426 0 0 0 0 -93.66732648820107 -11.648190077146864 0 -11.648190077146864 -116.1576396394812 0 0 0 0 -473.63082109260358 246.97039779115585 0 246.97039779115585 -152.43723770450742 0 0 0 0 46.398826930580981 163.23800688625488 0 163.23800688625488 -584.25177881697891 0 0 0 0 63.541120656420389 -52.0091550893776 0 -52.0091550893776 -483.45057164764148 0 0 0 0 -208.96133654491859 401.28102013250464 0 401.28102013250464 -1075.3162642727111 0 0 0 0 154.99725433428375 12.194513304217253 0 12.194513304217253 -374.17682031595905 0 0 0 0 157.76552500897742 -20.654626009265485 0 -20.654626009265485 -465.39498312392971 0 0 0 0 200.5925922272877 47.418445145183796 0 47.418445145183796 -464.62935537521844 0 0 0 0 112.46119223133792 2.8466548381948087 0 2.8466548381948087 -317.06170669509447 0 0 0 0 77.192684442819882 -17.866757560244878 0 -17.866757560244878 -309.21736038357631 0 0 0 0 86.43469867999147 58.509139947613221 0 58.509139947613221 -181.29683437180938 0 0 0 0 153.83107318444672 -83.601949755538953 0 -83.601949755538953 -210.73063035136147 0 0 0 0 331.57569136859911 70.951449328756098 0 70.951449328756098 -180.68530465353979 0 0 0 0 5.8222708118650779 -0.072246920807430115 0 -0.072246920807430115 -0.33908946199331069 0 0 0 0 30.209757612133217 65.854231500612514 0 65.854231500612514 -10.158979137711867 0 0 0 0 204.12648456124839 -242.22253329480554 0 -242.22253329480554 146.96145300216449 0 0 0 0 230.52659747624148 -323.85950622549899 0 -323.85950622549899 120.56581745450967 0 0 0 0 421.33017408762498 64.888149224872905 0 64.888149224872905 -289.99703261660761 0 0 0 0 0.0743530244426438 115.72173221441335 0 115.72173221441335 -136.77205861416496 0 0 0 0 49.065925463660278 -19.18090028028746 0 -19.18090028028746 36.453431596513838 0 0 0 0 223.53091714618677 41.220535083928553 0 41.220535083928553 -148.09376941954542 0 0 0 0 12.142771969227564 1.1398850602301707 0 1.1398850602301707 -96.086173195725792 0 0 0 0 12.875265513506065 -10.910818532323901 0 -10.910818532323901 -198.5672424727818 0 0 0 0 -95.109026470752724 68.318750589613046 0 68.318750589613046 -88.856370395922568 0 0 0 0 -107.63785205528075 215.89998794966232 0 215.89998794966232 -179.78962707679602 0 0 0 0 -8.3209792622697023 0.92661696154755191 0 0.92661696154755191 -18.704210981028154 0 0 0 0 -174.7853329703139 -44.174152899329783 0 -44.174152899329783 84.361443377070827 0 0 0 0 0.036602329041464543 1.3843137465130724 0 1.3843137465130724 -25.34608263050211 0 0 0 0 -267.42924786433286 -30.93706338336051 0 -30.93706338336051 -79.661609902454074 0 0 0 0 -297.76567673465615 -93.421776014816714 0 -93.421776014816714 326.43474444549065 0 0 0 0 -396.84603803973005 258.27816821745364 0 258.27816821745364 -220.95014442475076 0 0 0 0 6.20953996182363 -16.518657764929713 0 -16.518657764929713 -37.324059857969416 0 0 0 0 -13.196642454420726 20.661332012299681 0 20.661332012299681 -84.927333595063828 0 0 0 0 7.4807589604413351 58.21755116028362 0 58.21755116028362 -148.93302507128101 0 0 0 0 2.9712301482140901 30.75217395411164 0 30.75217395411164 -105.44094216352823 0 0 0 0 9.6992375578684005 5.6122440966428258 0 5.6122440966428258 -140.68902767734835 0 0 0 0 11.140457692003547 -20.221203335712403 0 -20.221203335712403 -35.191599116399189 0 0 0 0 -3.8387471550772716 -28.673533154433244 0 -28.673533154433244 -225.7960625130363 0 0 0 0 -2.3641806253309205 -4.1192856646811791 0 -4.1192856646811791 -3.2486140127820704 0 0 0 0 -1.3982984578401556 6.9772367591749571 0 6.9772367591749571 -90.237818340639933 0 0 0 0 16.218896426190334 -20.092196348911955 0 -20.092196348911955 -58.820984372119881 0 0 0 0 5.0378089050755079 14.119993057818647 0 14.119993057818647 -114.92615679471055 0 0 0 0 4.7747391627463003 11.175116404314394 0 11.175116404314394 -172.79639154177858 0 0 0 0 0.16647357852161804 2.7809126110187208 0 2.7809126110187208 -136.24739479735945 0 0 0 0 -30.406725425160403 -129.05216221314913 0 -129.05216221314913 -92.389091693512455 0 0 0 0 -2.0074910073918701 12.994208316467578 0 12.994208316467578 -92.038496378778405 0 0 0 0 85.240982571853806 -60.403104541660468 0 -60.403104541660468 -136.15625904125045 0 0 0 0 19.217475488776472 19.307781928640907 0 19.307781928640907 -63.727034297953651 0 0 0 0 -0.51798809189315786 -1.9780659856555509 0 -1.9780659856555509 -38.665148781118546 0 0 0 0 -86.807882320332737 -4.8436644385365071 0 -4.8436644385365071 -28.025117934397713 0 0 0 0 216.55160817830239 117.20424908524365 0 117.20424908524365 -354.99448924000899 0 0 0 0 -50.193270180173386 230.28905673042755 0 230.28905673042755 -162.90865977376961 0 0 0 0 62.771408246869214 -52.056187807866081 0 -52.056187807866081 -138.46658184397165 0 0 0 0 62.675300335798966 -31.109280091717665 0 -31.109280091717665 -313.25072418149466 0 0 0 0 -6.3356877024050391 -45.057326812579049 0 -45.057326812579049 -234.42844730975048 0 0 0 0 54.940798910965896 -128.28243782736536 0 -128.28243782736536 -476.91308167060197 0 0 0 0 43.338289568426035 69.100564235410275 0 69.100564235410275 -175.47352352479356 0 0 0 0 13.429231192068073 17.94980889546423 0 17.94980889546423 -130.63763694986847 0 0 0 0 8.864631305171315 7.4409750046506815 0 7.4409750046506815 -75.431064559757942 0 0 0 0 11.487837043932814 29.305507014782052 0 29.305507014782052 -92.378467525806627 0 0 0 0 16.169286511595509 2.4308572377773316 0 2.4308572377773316 0.87358006971189184 0 0 0 0 65.044407281048734 12.908326846722048 0 12.908326846722048 -75.737482318319962 0 0 0 0 46.003118117651866 -0.59369440895534353 0 -0.59369440895534353 -69.988662639734684 0 0 0 0 32.667995522198453 -33.517476817731222 0 -33.517476817731222 11.82698156380502 0 0 0 0 20.484038592711272 -14.91164376908273 0 -14.91164376908273 -14.699946674925741 0 0 0 0 27.698524035759423 4.4590360668764504 0 4.4590360668764504 -9.4112672777071253 0 0 0 0 12.922005014708702 12.700238843797706 0 12.700238843797706 -63.676479475238011 0 0 0 0 66.289227169172591 1.7622250384883955 0 1.7622250384883955 -73.55741791469336 0 0 0 0 64.922636558240811 26.748141491902061 0 26.748141491902061 -70.502648090099683 0 0 0 0 303.01440841919703 -131.39810160197521 0 -131.39810160197521 -118.80191812437261 0 0 0 0 7.0827464998184304 -9.3642442090897635 0 -9.3642442090897635 -58.846871198829604 0 0 0 0 94.590709190615598 11.23886666621911 0 11.23886666621911 -87.194519127500826 0 0 0 0 232.08259570544305 -162.07013891248789 0 -162.07013891248789 -85.803864546847763 0 0 0 0 251.73762529347368 -107.13681399528286 0 -107.13681399528286 -50.169879604247399 0 0 0 0 242.01035396909356 -161.30271551507758 0 -161.30271551507758 76.301596515637357 0 0 0 0 22.733020619909439 -55.638084986741887 0 -55.638084986741887 113.35345707571832 0 0 0 0 251.01186474675666 -126.33302982721852 0 -126.33302982721852 44.488010260160081 0 0 0 0 7.5178714747393194 -4.0893238703296788 0 -4.0893238703296788 -5.237077954044878 0 0 0 0 273.26566072762398 -179.57741754688323 0 -179.57741754688323 69.113247755740304 0 0 0 0 39.090061589519109 -1.8520368473909912 0 -1.8520368473909912 -43.748057341188542 0 0 0 0 23.173405682705834 -14.377236060245195 0 -14.377236060245195 20.900611797616875 0 0 0 0 22.050503597676293 -23.684210002454165 0 -23.684210002454165 -40.674326871908249 0 0 0 0 238.28782542166573 -161.3620327571698 0 -161.3620327571698 88.563948318653274 0 0 0 0 -0.85915101251862769 -3.0216795776813825 0 -3.0216795776813825 3.9668881970077337 0 0 0 0 8.122233738460185 0.69832881524308732 0 0.69832881524308732 -9.4333198310579007 0 0 0 0 -108.39731933045869 -383.75926116007031 0 -383.75926116007031 754.02805372959119 0 0 0 0 -36.502992551923512 -603.38018574519083 0 -603.38018574519083 459.14418058059528 0 0 0 0 251.57133874655921 -273.89916134541272 0 -273.89916134541272 -318.53856069833273 0 0 0 0 220.27758218818781 -238.47695116483374 0 -238.47695116483374 139.81885540627991 0 0 0 0 392.43240722496103 -136.5482850614062 0 -136.5482850614062 -121.68260118144099 0 0 0 0 345.43179571250982 -19.640906943372102 0 -19.640906943372102 285.86937890015543 0 0 0 0 436.40664945495519 -19.674295382603304 0 -19.674295382603304 283.93722171278205 0 0 0 0 282.74731711327331 -246.68040399038 0 -246.68040399038 242.49655863025691 0 0 0 0 906.39368380605447 -320.38550369814038 0 -320.38550369814038 220.078478954616 0 0 0 0 92.869719014476672 -841.04049911010225 0 -841.04049911010225 -564.1420536825317 0 0 0 0 -164.14573170242321 560.07538064158416 0 560.07538064158416 -136.47691188121098 0 0 0 0 -241.21225187577465 481.86599496018607 0 481.86599496018607 -291.73940227812272 0 0 0 0 95.089280744929852 380.80651533063792 0 380.80651533063792 -799.54685294994852 0 0 0 0 -110.95903485732975 288.64752828900237 0 288.64752828900237 -106.63175672094803 0 0 0 0 299.15683017964147 -93.239802372598206 0 -93.239802372598206 -154.13677967942203 0 0 0 0 226.68190179434441 -78.930486025114078 0 -78.930486025114078 -106.42605839429962 0 0 0 0 205.37503699032732 49.72838882060023 0 49.72838882060023 -298.03393661511109 0 0 0 0 265.49777367352362 81.123585846027709 0 81.123585846027709 -306.27093988665729 0 0 0 0 -106.8836638318995 281.55821122245106 0 281.55821122245106 -300.63564017772296 0 0 0 0 107.52612963128261 105.46083927651489 0 105.46083927651489 -165.785398410575 0 0 0 0 43.495629193161221 39.303596557641868 0 39.303596557641868 -187.10007905265957 0 0 0 0 -191.55626718026534 274.96657516955747 0 274.96657516955747 -177.55193503087503 0 0 0 0 -98.40851262719201 250.18067622072704 0 250.18067622072704 -458.45987983595114 0 0 0 0 -99.077000917972327 221.5523114654352 0 221.5523114654352 -144.50815209279244 0 0 0 0 -159.75586388121519 229.19554016427719 0 229.19554016427719 -133.41461850467022 0 0 0 0 12.497065034673142 -40.29529173571791 0 -40.29529173571791 -128.45557982704486 0 0 0 0 -19.019028992973745 3.3405196090316167 0 3.3405196090316167 -103.86418085225159 0 0 0 0 -12.347597371369147 -50.252328124130145 0 -50.252328124130145 -270.71478627230681 0 0 0 0 -4.1321993066188973 2.1728114139293666 0 2.1728114139293666 -11.252847132581564 0 0 0 0 -104.6981286716665 145.73122952668746 0 145.73122952668746 23.310335783899063 0 0 0 0 -10.981190326857586 -14.927161070561851 0 -14.927161070561851 -568.38705528778519 0 0 0 0 -6.4475280662979957 -0.77478932946485202 0 -0.77478932946485202 3.3794598116057557 0 0 0 0 29.969897142233606 -8.7073324063215409 0 -8.7073324063215409 -20.464680308628516 0 0 0 0 30.194988737031053 1.0083346349856583 0 1.0083346349856583 -107.13611212783871 0 0 0 0 21.752397328071659 -17.120638871858887 0 -17.120638871858887 -22.712455196192167 0 0 0 0 116.32412194558674 -9.8892129048981587 0 -9.8892129048981587 -113.39789955044398 0 0 0 0 -91.775700888205392 87.092944771320617 0 87.092944771320617 136.04447032202734 0 0 0 0 51.047926284190453 -64.281070116907358 0 -64.281070116907358 -46.237986720196204 0 0 0 0 -5.9804934784881425 -28.64520252199145 0 -28.64520252199145 -344.66372727631824 0 0 0 0 -20.493221304211488 19.282204748224785 0 19.282204748224785 -16.723994713020488 0 0 0 0 59.027698246283762 96.038685180406901 0 96.038685180406901 -34.549363401980372 0 0 0 0 -56.863576934345247 1.2699039736035047 0 1.2699039736035047 -284.40587014367338 0 0 0 0 -9.9713756514765404 5.4505219378028187 0 5.4505219378028187 -3.4610428350090388 0 0 0 0 -89.062599185188219 -80.389640363107901 0 -80.389640363107901 -299.91921960018226 0 0 0 0 -177.23305611999649 309.24694232076763 0 309.24694232076763 55.277144391089678 0 0 0 0 64.41482319094348 -117.96023824124859 0 -117.96023824124859 -1076.3265887561283 0 0 0 0 -40.472304059897397 58.774415268650046 0 58.774415268650046 -352.52532987916493 0 0 0 0 -24.017366174615859 -35.554656200736645 0 -35.554656200736645 -247.58429310870997 0 0 0 0 15.540875859034486 31.332885977186379 0 31.332885977186379 -243.85438792997138 0 0 0 0 -36.754086031351676 -3.801965137157822 0 -3.801965137157822 -97.623485104442807 0 0 0 0 25.684443667934602 -16.419785501027945 0 -16.419785501027945 -224.74369975290483 0 0 0 0 16.838457384139474 -33.301053819915978 0 -33.301053819915978 -223.2638722559077 0 0 0 0 -8.2054111199350928 5.0316950493506738 0 5.0316950493506738 -94.781110659867409 0 0 0 0 14.69552738730772 13.202958140624105 0 13.202958140624105 -301.43648480204865 0 0 0 0 -12.840228341403872 62.28602778082859 0 62.28602778082859 -364.84749822336289 0 0 0 0 33.654799690630398 -26.306538497919973 0 -26.306538497919973 -358.56974515816546 0 0 0 0 39.142747387646182 -15.63937145377713 0 -15.63937145377713 -314.59047069925873 0 0 0 0 27.34590790978541 10.349120355313062 0 10.349120355313062 -310.89981184346834 0 0 0 0 6.7726443736589301 9.3742045628969208 0 9.3742045628969208 -3.7517005842637445 0 0 0 0 -12.293052463938807 66.576951672090217 0 66.576951672090217 35.85759357011284 0 0 0 0 -96.319461312304611 -60.387094800913474 0 -60.387094800913474 37.284026002744213 0 0 0 0 -114.07820959367865 -152.59915853524581 0 -152.59915853524581 -103.77666642796248 0 0 0 0 5.3368655276510708 -108.4746915781725 0 -108.4746915781725 -204.56620769187066 0 0 0 0 -14.369459571665516 -68.524381392620853 0 -68.524381392620853 -201.24184018906089 0 0 0 0 2.8632434162107074 -41.397629680810496 0 -41.397629680810496 -219.9399032953952 0 0 0 0 -36.628063250025662 -33.275719306984683 0 -33.275719306984683 -67.386762093621655 0 0 0 0 -5.5310729709594852 -57.755408264885773 0 -57.755408264885773 -220.10489822522482 0 0 0 0 107.35915584578947 -66.055111476103775 0 -66.055111476103775 -440.91861056661583 0 0 0 0 19.950417290139228 -32.742974011176557 0 -32.742974011176557 -410.27295561143546 0 0 0 0 0.16220260201389486 -66.894068390429311 0 -66.894068390429311 -548.25472276913933 0 0 0 0 -143.04789100494293 -255.08208160149661 0 -255.08208160149661 -317.04935620009201 0 0 0 0 0.087399341896792784 -0.023649832616086996 0 -0.023649832616086996 -2.9780741427587714 0 0 0 0 1.7103158849605933 -134.70352784819988 0 -134.70352784819988 -386.8391923001036 0 0 0 0 -3.0121396397136664 -175.67476732449722 0 -175.67476732449722 -412.66014409538184 0 0 0 0 140.24271986514509 -124.91717184703157 0 -124.91717184703157 -553.60519948945148 0 0 0 0 -252.40572334769939 295.2200824416359 0 295.2200824416359 -869.14192305289907 0 0 0 0 -18.403149232331433 -134.76274498863495 0 -134.76274498863495 -407.00414637988433 0 0 0 0 47.628543971838859 -269.8002339215891 0 -269.8002339215891 -516.34853269270388 0 0 0 0 -0.2386629328337356 67.592701204150217 0 67.592701204150217 -131.06636821774009 0 0 0 0 170.82050159294843 -0.13286233259714209 0 -0.13286233259714209 -409.5892032787649 0 0 0 0 1.2435145425237617 -0.31913058066587041 0 -0.31913058066587041 -0.30412365145673448 0 0 0 0 102.85759510519952 -106.75913040204978 0 -106.75913040204978 28.696826164174126 0 0 0 0 69.268676109922467 105.14815107865434 0 105.14815107865434 -631.4560987376899 0 0 0 0 40.810361443387876 17.539193108081236 0 17.539193108081236 -76.384755329730979 0 0 0 0 50.653335950310733 -5.0094261927297339 0 -5.0094261927297339 -113.68904325304902 0 0 0 0 44.308966528577088 35.856996413203888 0 35.856996413203888 -108.5499543883343 0 0 0 0 -16.170296968735784 -24.851913019680069 0 -24.851913019680069 -301.66297736342676 0 0 0 0 -7.8210306318210314 -1.3373643676968641 0 -1.3373643676968641 -270.89787676166452 0 0 0 0 1.3934613977695904 2.6467703203270219 0 2.6467703203270219 -5.8914606740597435 0 0 0 0 39.270487685460964 13.563788121979087 0 13.563788121979087 -23.857693905330962 0 0 0 0 3.9171574841297545 0.66221418920986252 0 0.66221418920986252 -6.1921528519396816 0 0 0 0 18.38685891026304 0.3904230139014544 0 0.3904230139014544 -69.451003307774954 0 0 0 0 18.359853118214012 -2.3196556857146788 0 -2.3196556857146788 -182.55100920906989 0 0 0 0 36.031758804505309 57.884524054007329 0 57.884524054007329 -7.6995779223216232 0 0 0 0 -0.10514457402675068 0.35409247568023261 0 0.35409247568023261 -0.4139107221219831 0 0 0 0 53.57066946292629 69.794158752512885 0 69.794158752512885 25.878125783783616 0 0 0 0 53.315112534504053 -47.674068690052081 0 -47.674068690052081 -214.26685219893989 0 0 0 0 -1.3702890962381105 -6.8010097687656526 0 -6.8010097687656526 -81.074746263198904 0 0 0 0 45.435694205471009 97.1311257071211 0 97.1311257071211 31.918770961055998 0 0 0 0 201.95398990101415 -13.332260946568567 0 -13.332260946568567 -483.36702519157552 0 0 0 0 152.13175247927356 178.88273157406911 0 178.88273157406911 -378.48386854067212 0 0 0 0 36.201503387996311 65.678893665295618 0 65.678893665295618 64.490968736441573 0 0 0 0 0.89692987133388946 -0.45958041496845681 0 -0.45958041496845681 -4.1060441680985811 0 0 0 0 -69.542239342714765 108.55430318519939 0 108.55430318519939 -194.78891906232457 0 0 0 0 0.389269958277218 -0.34425585031044648 0 -0.34425585031044648 -3.7577753523418096 0 0 0 0 37.422967415688618 96.556221133840154 0 96.556221133840154 106.19523505933466 0 0 0 0 0.12408098113678567 43.297304299267125 0 43.297304299267125 -93.334812033361231 0 0 0 0 -20.237315920370492 -10.83889228697808 0 -10.83889228697808 -104.52501666859462 0 0 0 0 36.78003657312604 18.635889523538935 0 18.635889523538935 -373.18495950257056 0 0 0 0 10.078163851776646 25.245464373540017 0 25.245464373540017 -63.120244844620174 0 0 0 0 0.015573303192790933 0.4445986889261917 0 0.4445986889261917 -0.74934997225037137 0 0 0 0 -20.575155803708569 89.444032296567457 0 89.444032296567457 -439.92130301671568 0 0 0 0 1.6474331370294981 129.82732126804331 0 129.82732126804331 -624.51945696256007 0 0 0 0 0.022098512439743201 56.206463275826536 0 56.206463275826536 -479.53699212312495 0 0 0 0 -11.774068706020699 82.991399970298517 0 82.991399970298517 -506.98848095335416 0 0 0 0 -6.6839726026529434 143.75463641335955 0 143.75463641335955 -425.84505873372837 0 0 0 0 7.7422124519058571 86.233307390328264 0 86.233307390328264 -770.39337684756174 0 0 0 0 -54.446930744195214 86.042846766438743 0 86.042846766438743 -644.73745656560641 0 0 0 0 12.28273636998 137.39031601359602 0 137.39031601359602 -621.14776516251732 0 0 0 0 -44.588500904073094 163.35969597610392 0 163.35969597610392 -632.07060396444285 0 0 0 0 -22.690132869684362 -12.475438838358968 0 -12.475438838358968 -527.97841789922313 0 0 0 0 17.660308197171616 39.456582004306256 0 39.456582004306256 -522.9184527349571 0 0 0 0 -6.1171061209245181 25.213447925209948 0 25.213447925209948 -529.94848745517083 0 0 0 0 98.307559061190233 35.713631048914976 0 35.713631048914976 -532.27370593213709 0 0 0 0 -6.462461939641452 24.456687710431652 0 24.456687710431652 -442.79715314443456 0 0 0 0 78.787582059293285 84.618508601895883 0 84.618508601895883 -528.25352924084291 0 0 0 0 29.711495645724433 69.603106135342387 0 69.603106135342387 -412.17662122763431 0 0 0 0 -26.20226762066725 80.577106270153308 0 80.577106270153308 -527.50273497399758 0 0 0 0 -34.932311710527642 57.056386612399365 0 57.056386612399365 -535.57432008972683 0 0 0 0 -78.396908612804054 59.164123584152549 0 59.164123584152549 -636.13495554763358 0 0 0 0 45.229663157216592 64.617592895374401 0 64.617592895374401 -636.1372459930717 0 0 0 0 -16.234549644908668 65.998837182996795 0 65.998837182996795 -740.5281241196426 0 0 0 0 -63.104906200840446 -28.314391654112114 0 -28.314391654112114 -679.94287013981375 0 0 0 0 -8.3367339242914227 34.857832688532653 0 34.857832688532653 -631.09014442710031 0 0 0 0 -26.467684998483222 -67.081307171258231 0 -67.081307171258231 -602.90601287623576 0 0 0 0 3.3319724819020848 -28.931295248366951 0 -28.931295248366951 -691.15338697769221 0 0 0 0 16.013028892852617 92.599352304823697 0 92.599352304823697 -526.9218412689479 0 0 0 0 2.9241057181009182 -107.6462287628965 0 -107.6462287628965 -494.69673352254904 0 0 0 0 -239.73286484828486 58.633829972837702 0 58.633829972837702 -583.84619208917138 0 0 0 0 7.9712467904180642 -74.947562387284506 0 -74.947562387284506 -896.67613790996256 0 0 0 0 -94.796758775507897 -289.01773684944783 0 -289.01773684944783 -852.50417002311588 0 0 0 0 8.6576941433900174 153.04526627371524 0 153.04526627371524 -578.84487915884529 0 0 0 0 14.791794098460286 265.97179658689856 0 265.97179658689856 -1181.0266444297158 0 0 0 0 -13.732905421956389 -64.077592710641511 0 -64.077592710641511 -589.42937575088581 0 0 0 0 0.36333984075281478 -164.49523507789854 0 -164.49523507789854 -585.47952700938913 0 0 0 0 45.061451263584331 -189.57633824217191 0 -189.57633824217191 -508.13628332721419 0 0 0 0 -22.558827633013152 11.134302664086135 0 11.134302664086135 -28.934213118860498 0 0 0 0 -134.01926241904061 25.649003759232073 0 25.649003759232073 -227.935329093365 0 0 0 0 -55.332819872311575 -94.751127266797994 0 -94.751127266797994 -344.39491302696115 0 0 0 0 24.723553723807072 -32.169207605431438 0 -32.169207605431438 -54.301649333243404 0 0 0 0 6.1988519919504164 -9.7032149334462758 0 -9.7032149334462758 -6.1902631524160405 0 0 0 0 4.4689067337374269 -26.491318775674983 0 -26.491318775674983 -13.615723122036627 0 0 0 0 290.92242752626538 -170.51147607981511 0 -170.51147607981511 -18.027267752811895 0 0 0 0 54.406852204668439 11.367349453852512 0 11.367349453852512 -148.12975211056619 0 0 0 0 19.520691866519186 -15.355950925482972 0 -15.355950925482972 -23.268500950117073 0 0 0 0 56.842918675414467 26.484171788060848 0 26.484171788060848 -67.275703242805321 0 0 0 0 9.8403757638452589 -32.274553272422054 0 -32.274553272422054 -15.903692164105451 0 0 0 0 27.281256046924781 22.524096840425045 0 22.524096840425045 -67.696421557673602 0 0 0 0 6.7573563470419815 6.1425060186210771 0 6.1425060186210771 -18.858295643239558 0 0 0 0 20.066554282428257 6.3252584528754596 0 6.3252584528754596 -30.952872391251731 0 0 0 0 25.923790125153261 -3.4019968555294327 0 -3.4019968555294327 -67.596229462316842 0 0 0 0 -43.135405969505996 -15.98685730332727 0 -15.98685730332727 -312.27758259604161 0 0 0 0 1.8679545759600209 6.5426095654756864 0 6.5426095654756864 -10.125636771544237 0 0 0 0 -0.79193425783140103 -9.271406472809673 0 -9.271406472809673 -1.009485526253723 0 0 0 0 11.465841325139081 -2.566675029520411 0 -2.566675029520411 -58.033568483733688 0 0 0 0 -26.002010587022596 -17.134803469685721 0 -17.134803469685721 -33.429434147064967 0 0 0 0 1.6105898514348143 -8.8363028784600033 0 -8.8363028784600033 1.4280459974282529 0 0 0 0 30.310015017426394 -13.266191078510019 0 -13.266191078510019 -71.373888956062729 0 0 0 0 1053.7143433924939 453.2867520428299 0 453.2867520428299 -501.24096755899518 0 0 0 0 352.77582338413049 207.86004502061769 0 207.86004502061769 690.39535368886573 0 0 0 0 -147.58081741844228 177.21838538608222 0 177.21838538608222 326.8366041835252 0 0 0 0 -94.922511716447843 796.12738307535619 0 796.12738307535619 -50.218690451278235 0 0 0 0 198.00759708488658 298.69915763363497 0 298.69915763363497 220.97579924294769 0 0 0 0 334.28043482450812 309.75546173327166 0 309.75546173327166 214.93906576393601 0 0 0 0 885.70666165057628 492.75019802725001 0 492.75019802725001 -264.03837514857878 0 0 0 0 459.35003275064628 702.17051089483721 0 702.17051089483721 401.97527877500397 0 0 0 0 453.07844106098128 1038.3640671372705 0 1038.3640671372705 974.45795183705195 0 0 0 0 834.94061576949707 11.304163455350135 0 11.304163455350135 -529.99270595068083 0 0 0 0 1319.9956618499236 1353.5172337771874 0 1353.5172337771874 -287.57564300810918 0 0 0 0 661.33943770812402 190.79842760880274 0 190.79842760880274 -287.87646249315731 0 0 0 0 843.81646492704567 351.58271832343962 0 351.58271832343962 -712.15718182866112 0 0 0 0 -11.43253669004298 -41.021023058263381 0 -41.021023058263381 -378.76366397691163 0 0 0 0 156.37989321880559 -54.575844371331186 0 -54.575844371331186 -515.14740591797454 0 0 0 0 20.491304351624422 147.02285814002244 0 147.02285814002244 -541.21239445218816 0 0 0 0 78.124773932399876 26.117706171811733 0 26.117706171811733 -330.80863765969116 0 0 0 0 -12.83339490567262 7.3488201161657116 0 7.3488201161657116 -216.54298716405174 0 0 0 0 35.04533189772792 33.014980202467996 0 33.014980202467996 -258.5132812522279 0 0 0 0 33.699319951388134 3.3900044982510735 0 3.3900044982510735 -243.12815007666541 0 0 0 0 40.405397383126811 -7.3582587208742396 0 -7.3582587208742396 -15.497022743005886 0 0 0 0 431.29622002321059 141.07649091004464 0 141.07649091004464 2.2728478839235322 0 0 0 0 12.41000906370504 -4.0592324407409848 0 -4.0592324407409848 3.4066999151033599 0 0 0 0 675.25997155451842 985.86811846297496 0 985.86811846297496 715.33103742925414 0 0 0 0 415.16253968290039 303.35651446316842 0 303.35651446316842 -247.46749028329941 0 0 0 0 624.5306865379498 122.05678184819408 0 122.05678184819408 -201.69328249570754 0 0 0 0 509.99857375524789 71.304661960577505 0 71.304661960577505 -86.043148079872481 0 0 0 0 937.73690065915071 -602.29948176908511 0 -602.29948176908511 -171.26308367309139 0 0 0 0 487.993381181328 76.702140096267613 0 76.702140096267613 -32.669936690443137 0 0 0 0 614.61239604295133 190.46322428274925 0 190.46322428274925 -483.60286932086456 0 0 0 0 189.81892243289985 -429.41253323770343 0 -429.41253323770343 -1060.3092450489712 0 0 0 0 766.70160970909637 854.57890156540452 0 854.57890156540452 -933.31325079782255 0 0 0 0 -290.32895722251851 -11.692950198759718 0 -11.692950198759718 -753.20710014367069 0 0 0 0 -176.96591158731826 147.81712803506798 0 147.81712803506798 -1376.4117404591307 0 0 0 0 -201.35916570067639 -216.8571660698035 0 -216.8571660698035 -900.84154730214868 0 0 0 0 -58.26159035555429 -44.810101319562818 0 -44.810101319562818 -1070.6855823585684 0 0 0 0 -48.099732620692521 -24.917787344813405 0 -24.917787344813405 -1210.9530220053111 0 0 0 0 -32.963547965192447 -113.44553586171105 0 -113.44553586171105 -1176.2959727148555 0 0 0 0 -22.884412143423106 -168.43721444364201 0 -168.43721444364201 -1332.551519903318 0 0 0 0 -150.92823432653859 -224.03638266277267 0 -224.03638266277267 -1226.1402543215227 0 0 0 0 -77.540227016816061 -168.22468875848608 0 -168.22468875848608 -1239.1956888077111 0 0 0 0 -47.82209710992538 -389.03675669241966 0 -389.03675669241966 -2074.6951655220055 0 0 0 0 77.334200462139961 -18.666454273712588 0 -18.666454273712588 -1146.8354334544274 0 0 0 0 94.36144672631599 -30.575707403681008 0 -30.575707403681008 -1152.3959610706188 0 0 0 0 62.600254255490654 -46.394983993326605 0 -46.394983993326605 -1157.0735365395176 0 0 0 0 71.703728748540016 -64.295132176768675 0 -64.295132176768675 -1127.6066553981582 0 0 0 0 49.703762312754407 -117.58341868595016 0 -117.58341868595016 -1196.8533229293753 0 0 0 0 68.886940250418775 -47.624381535591965 0 -47.624381535591965 -1163.0185317669311 0 0 0 0 24.038923711350435 -106.18910705543021 0 -106.18910705543021 -1216.030383621357 0 0 0 0 -80.203019045147812 -186.43385326735734 0 -186.43385326735734 -1183.6847766450992 0 0 0 0 -6.0899618162911793 -115.70645158155457 0 -115.70645158155457 -1134.4482676004263 0 0 0 0 47.679975889539492 -47.23133523742581 0 -47.23133523742581 -1126.6960483151415 0 0 0 0 9.0333626464816916 -103.6984201138257 0 -103.6984201138257 -1174.7093279320616 0 0 0 0 -1.7655508532297972 -120.27542994207761 0 -120.27542994207761 -1131.6312035282072 0 0 0 0 29.68346173104419 -71.310112155733805 0 -71.310112155733805 -1050.7053483326599 0 0 0 0 56.550875804361567 -7.4757624117919477 0 -7.4757624117919477 -1091.6746021215004 0 0 0 0 67.987594887787964 -31.249310692282961 0 -31.249310692282961 -1119.4381321548135 0 0 0 0 -35.308068243753951 -89.117951679512771 0 -89.117951679512771 -770.61658040303155 0 0 0 0 -50.878112100170256 -175.84032775702508 0 -175.84032775702508 -998.44879552221641 0 0 0 0 19.075632882475475 -64.160059187797742 0 -64.160059187797742 -1003.1077765545924 0 0 0 0 -107.63531788986438 -204.77856173244072 0 -204.77856173244072 -759.80730929230049 0 0 0 0 -139.9582778189415 -303.54920469367426 0 -303.54920469367426 -1061.1437247979593 0 0 0 0 1.0901745476221549 -153.43296176699005 0 -153.43296176699005 406.31019431799359 0 0 0 0 46.178614981545252 500.84075732514248 0 500.84075732514248 -339.85385582284107 0 0 0 0 124.66233739082236 -645.98376450036449 0 -645.98376450036449 -888.3382703515781 0 0 0 0 -109.93370550982399 -107.72267807032404 0 -107.72267807032404 -691.75349444211861 0 0 0 0 -31.469972940287334 -95.281240079370036 0 -95.281240079370036 -769.75197035480414 0 0 0 0 -178.44802152736156 234.71977649247128 0 234.71977649247128 246.94953891109617 0 0 0 0 -6.2669220591880617 2.4388921693512593 0 2.4388921693512593 -1.001424889942875 0 0 0 0 215.23193378898577 508.68514863037274 0 508.68514863037274 -847.34640626279725 0 0 0 0 -41.790165077834573 32.387854005728457 0 32.387854005728457 -19.846012178198478 0 0 0 0 171.37117825368296 258.56109202611879 0 258.56109202611879 346.96059644334673 0 0 0 0 -9.4953302344917745 6.6656636966544482 0 6.6656636966544482 -5.3545288268358746 0 0 0 0 -23.455591479112627 114.12294081116852 0 114.12294081116852 519.50175057705565 0 0 0 0 -63.109997147559625 -301.22267839621782 0 -301.22267839621782 -1297.8802757002486 0 0 0 0 -28.879192969204901 21.002659196850843 0 21.002659196850843 -13.353262014644415 0 0 0 0 148.4671317137545 177.87177236371645 0 177.87177236371645 226.57701774748784 0 0 0 0 91.526676499475798 136.69669267470636 0 136.69669267470636 196.88532946712803 0 0 0 0 149.67563351025456 125.86814651906025 0 125.86814651906025 -210.71486771966011 0 0 0 0 119.79841534220395 203.00091496728237 0 203.00091496728237 287.1225465180396 0 0 0 0 186.48401304669824 246.46610550551213 0 246.46610550551213 236.48890193276748 0 0 0 0 272.88608828678116 230.5368319361005 0 230.5368319361005 204.52513826972427 0 0 0 0 235.91887504715305 293.73622771507326 0 293.73622771507326 207.81406366223382 0 0 0 0 105.7369333509123 290.61983566074559 0 290.61983566074559 196.22691495436084 0 0 0 0 195.77382423252766 253.82200275867308 0 253.82200275867308 151.57657665490842 0 0 0 0 96.678147671154875 312.79400358450221 0 312.79400358450221 120.3659667447937 0 0 0 0 89.720082433435891 362.02069938332716 0 362.02069938332716 115.69243641161302 0 0 0 0 105.21495958808737 302.42545706205419 0 302.42545706205419 249.88526873005321 0 0 0 0 112.03164761990774 244.96191171163082 0 244.96191171163082 213.15610860398374 0 0 0 0 35.55165811902225 263.33189635048302 0 263.33189635048302 230.44574913287215 0 0 0 0 237.37898317355393 193.24958590076494 0 193.24958590076494 89.84585336229793 0 0 0 0 107.83668376513015 233.28221448350814 0 233.28221448350814 184.51386504541006 0 0 0 0 198.14217553917479 254.34969551476934 0 254.34969551476934 188.63631666623405 0 0 0 0 -172.79769405124534 -3.7558345495926915 0 -3.7558345495926915 28.494003621293814 0 0 0 0 2.7115552954439863 -5.2551815908154822 0 -5.2551815908154822 22.501234225019289 0 0 0 0 29.103306818386045 45.802346504413435 0 45.802346504413435 -80.078466111554008 0 0 0 0 174.74076597344538 363.01148056297097 0 363.01148056297097 100.36719327817445 0 0 0 0 -385.73705303163479 253.41020258179742 0 253.41020258179742 82.795421939583321 0 0 0 0 -7.5738644492339517 407.02120825431848 0 407.02120825431848 358.15296476203002 0 0 0 0 24.522632323528796 240.5204922661319 0 240.5204922661319 434.63942248273088 0 0 0 0 192.98161143782272 138.03691069349588 0 138.03691069349588 265.21804334095577 0 0 0 0 224.31810181348192 341.11303025373491 0 341.11303025373491 443.85477734131928 0 0 0 0 -11.41713108078693 142.19404311102335 0 142.19404311102335 857.27655360747667 0 0 0 0 3.3246720566768744 -1.2979403437441164 0 -1.2979403437441164 -0.46619122450695016 0 0 0 0 81.143486494062017 262.61138984991976 0 262.61138984991976 370.2106306904534 0 0 0 0 10.485306147340452 36.494514853375222 0 36.494514853375222 392.3445061557286 0 0 0 0 96.824889174215059 224.18089599320774 0 224.18089599320774 182.51962007162547 0 0 0 0 132.0613343392688 209.1589737742861 0 209.1589737742861 2.7888939083532023 0 0 0 0 161.66580843657175 160.53177667535965 0 160.53177667535965 208.68507722899813 0 0 0 0 66.202078776361304 180.53197850525794 0 180.53197850525794 251.02216956959819 0 0 0 0 173.66600078440933 166.4809811926898 0 166.4809811926898 38.883775648886512 0 0 0 0 96.001529771512651 185.39156117745733 0 185.39156117745733 -94.700109883608093 0 0 0 0 54.245689829756884 188.69714020968058 0 188.69714020968058 35.107461966630581 0 0 0 0 122.34053667700937 219.26843945483961 0 219.26843945483961 -121.00100971235588 0 0 0 0 62.764974310695834 219.35385343722191 0 219.35385343722191 1.3179166911413631 0 0 0 0 150.16062203794536 171.07604375062419 0 171.07604375062419 63.071233096066862 0 0 0 0 117.12960174744785 122.39566227158321 0 122.39566227158321 58.680467930178565 0 0 0 0 94.737457320716203 159.79592251814847 0 159.79592251814847 97.831038350785093 0 0 0 0 68.806903463082563 167.60508656912498 0 167.60508656912498 187.82269581402215 0 0 0 0 47.399149868288077 105.39433088082296 0 105.39433088082296 10.863035551319626 0 0 0 0 95.8220519652441 135.55673489161018 0 135.55673489161018 -106.44681716351261 0 0 0 0 76.949183832733979 185.63815418690865 0 185.63815418690865 81.735568063673782 0 0 0 0 26.517570866071765 134.64001830816778 0 134.64001830816778 -4.0142159034967335 0 0 0 0 70.838713251991066 34.584924645681895 0 34.584924645681895 -67.847979070180372 0 0 0 0 77.043527947611437 98.983913981304795 0 98.983913981304795 17.886696651274178 0 0 0 0 3.7700846607694984 -23.867310492583783 0 -23.867310492583783 -57.751614466810679 0 0 0 0 104.56401379854515 -9.8551904223847941 0 -9.8551904223847941 -37.425962418179552 0 0 0 0 147.95587995465758 -21.320760261420219 0 -21.320760261420219 -59.253682108454086 0 0 0 0 111.30416758258434 85.799987235564913 0 85.799987235564913 -10.138895969212172 0 0 0 0 47.307922127247366 -68.548307925455447 0 -68.548307925455447 -55.729090601334065 0 0 0 0 99.300904985719171 -74.38022476767037 0 -74.38022476767037 -54.085485429292021 0 0 0 0 154.47856763429809 -124.65823828008433 0 -124.65823828008433 -38.809737877607404 0 0 0 0 117.72082752417009 -163.74072986122883 0 -163.74072986122883 -64.868291371283703 0 0 0 0 179.2072322816839 -131.46912838375283 0 -131.46912838375283 -76.675023832583975 0 0 0 0 194.92456207056784 -151.04591538275963 0 -151.04591538275963 -65.453271994112583 0 0 0 0 263.54578968424539 -60.010733037071986 0 -60.010733037071986 -53.310339196963469 0 0 0 0 270.074888290128 -108.55765972898007 0 -108.55765972898007 -87.663947788420046 0 0 0 0 254.80573747985181 -112.34485358142774 0 -112.34485358142774 -86.215390169774764 0 0 0 0 202.81160494592041 106.34852273041543 0 106.34852273041543 -14.224030964554913 0 0 0 0 210.53029350611905 18.703694029270991 0 18.703694029270991 -34.317713805528001 0 0 0 0 175.73626676447384 -9.0028927623843629 0 -9.0028927623843629 -46.52389939601926 0 0 0 0 335.43145756801096 46.843571822388185 0 46.843571822388185 -27.544917581621121 0 0 0 0 251.72354929203175 211.83440726978733 0 211.83440726978733 110.62111093157 0 0 0 0 369.63714288365009 222.71233513230982 0 222.71233513230982 111.56372561186799 0 0 0 0 354.0862525545308 157.60821987195231 0 157.60821987195231 102.04983284539776 0 0 0 0 312.47418648315761 63.224707250102256 0 63.224707250102256 -36.543500301864697 0 0 0 0 491.81932146029067 198.85300590383486 0 198.85300590383486 62.542685634900408 0 0 0 0 451.77521956389319 -56.516542566860153 0 -56.516542566860153 -107.18626607675105 0 0 0 0 462.20116790420434 -62.605817195493728 0 -62.605817195493728 -106.69233835771774 0 0 0 0 238.4046212212379 -154.87557199803996 0 -154.87557199803996 -104.87798407099035 0 0 0 0 655.88839372998882 -271.83184143397375 0 -271.83184143397375 58.674434076616308 0 0 0 0 211.81414821449653 -236.82032337400597 0 -236.82032337400597 60.67621645698091 0 0 0 0 596.48634539350314 -160.67325369544415 0 -160.67325369544415 -123.53741748146422 0 0 0 0 0.88713546847012736 3.8654626019604095 0 3.8654626019604095 -13.786008394926412 0 0 0 0 487.68269886866074 -13.375493076202474 0 -13.375493076202474 -59.983051201226772 0 0 0 0 935.03115418239759 13.567495886927645 0 13.567495886927645 -61.693856050330396 0 0 0 0 582.02611714013801 332.45651706978242 0 332.45651706978242 215.3358077010198 0 0 0 0 662.73416996161563 173.01287297765862 0 173.01287297765862 -62.878814751406026 0 0 0 0 3.2440140110606563 6.5753251970247035 0 6.5753251970247035 -16.474509650643256 0 0 0 0 551.69263728700389 369.62527635945116 0 369.62527635945116 -6.4196280630058027 0 0 0 0 660.94437444720825 225.08768719110594 0 225.08768719110594 -126.73304004402598 0 0 0 0 785.41871847011862 296.13417161299731 0 296.13417161299731 -88.853838442199049 0 0 0 0 614.13491829431405 183.08370544789614 0 183.08370544789614 174.29892291953001 0 0 0 0 -4.0857448413034945 58.24692584560853 0 58.24692584560853 -153.29641582300246 0 0 0 0 37.488361091053775 74.297356984869111 0 74.297356984869111 -233.28681739389322 0 0 0 0 -145.19980295490132 169.90160829689012 0 169.90160829689012 -152.15177661606867 0 0 0 0 -121.58814199667631 118.91159613124091 0 118.91159613124091 -48.76476084191745 0 0 0 0 -0.10915578479334798 11.185369398978725 0 11.185369398978725 -16.680616143541229 0 0 0 0 -132.9488917618728 252.95379822897121 0 252.95379822897121 -327.72780245746617 0 0 0 0 -49.317333534512727 150.2147036701972 0 150.2147036701972 -340.05241899903967 0 0 0 0 67.189643365742086 -125.82431300811731 0 -125.82431300811731 11.845918993843952 0 0 0 0 49.169809203145633 91.015829091372552 0 91.015829091372552 -166.40985953552808 0 0 0 0 17.805034442857504 17.626555276667204 0 17.626555276667204 -146.88784374358511 0 0 0 0 -9.0802782940007205 21.769038508917468 0 21.769038508917468 -44.014532334940476 0 0 0 0 11.783078472548706 0.61878536757047442 0 0.61878536757047442 -80.439509002360026 0 0 0 0 2.7265997343958759 4.8763984251058829 0 4.8763984251058829 -111.76041764181929 0 0 0 0 -2.7983883006490942 33.043719590161345 0 33.043719590161345 -60.223742162177587 0 0 0 0 238.97457629597693 -149.69510758855722 0 -149.69510758855722 -189.94945953977003 0 0 0 0 159.56802953325678 -204.44153584271407 0 -204.44153584271407 -121.89378456339182 0 0 0 0 59.680163823346447 177.2038550261268 0 177.2038550261268 -244.19993221893856 0 0 0 0 -2.0198236142697894 60.292313940118305 0 60.292313940118305 -28.610307847371789 0 0 0 0 -15.429212123994652 -15.242671944522991 0 -15.242671944522991 -43.170665612108358 0 0 0 0 383.27635670397376 -224.49492447749526 0 -224.49492447749526 -415.67648226898928 0 0 0 0 97.763667590814293 109.27607157609873 0 109.27607157609873 -517.8034013352335 0 0 0 0 18.41049227049421 -12.662859703431877 0 -12.662859703431877 -108.34377967170818 0 0 0 0 108.93387118028753 -124.67284303039722 0 -124.67284303039722 -131.4801676667048 0 0 0 0 108.7460588768663 -177.95971351281696 0 -177.95971351281696 -79.798748175489891 0 0 0 0 167.78136710441868 -147.94108988431253 0 -147.94108988431253 -88.644100408397208 0 0 0 0 252.40992933710459 -176.66153089600766 0 -176.66153089600766 -123.15989106029156 0 0 0 0 244.7397246730543 -168.10765236610314 0 -168.10765236610314 -392.20420609411667 0 0 0 0 150.87211858454975 -147.71131499032526 0 -147.71131499032526 -106.81547199341003 0 0 0 0 176.2861370530627 -174.00730489116177 0 -174.00730489116177 -91.406712011858417 0 0 0 0 264.15137398129446 -110.91150419155747 0 -110.91150419155747 -7.9006554252264323 0 0 0 0 153.47112032405494 -211.84358016162332 0 -211.84358016162332 -3.0507894408656284 0 0 0 0 196.73697055983939 -208.35918013425908 0 -208.35918013425908 -104.96145927218106 0 0 0 0 162.91239234367094 -269.54556281088662 0 -269.54556281088662 255.71812984770804 0 0 0 0 60.43261374730173 -144.14567892646301 0 -144.14567892646301 4.4357606107510037 0 0 0 0 -397.49761001649858 -129.32308048283448 0 -129.32308048283448 -50.410881945329493 0 0 0 0 52.695931667260311 -43.531471293604227 0 -43.531471293604227 -1.1946233975477298 0 0 0 0 34.448631454897395 -30.733162356244716 0 -30.733162356244716 -74.96495132518082 0 0 0 0 9.4807225043326895 -0.77071742268158516 0 -0.77071742268158516 -24.960765833828539 0 0 0 0 -68.985748234754283 -652.11710170328479 0 -652.11710170328479 121.57783289276267 0 0 0 0 -3.1587883335447842 -9.2295502822593765 0 -9.2295502822593765 -8.847377568859045 0 0 0 0 319.63515057737686 817.20753285613955 0 817.20753285613955 -659.51004368717622 0 0 0 0 -333.4492752614151 241.84215956901244 0 241.84215956901244 310.35374566340397 0 0 0 0 -243.44162881654665 -336.04542056510763 0 -336.04542056510763 351.65206449017592 0 0 0 0 -56.6299832713039 408.07841713473135 0 408.07841713473135 -543.18458041140184 0 0 0 0 1.7316209026821525 101.34323587216386 0 101.34323587216386 -116.62944900858201 0 0 0 0 -268.85482525335647 418.3155834152476 0 418.3155834152476 60.218847792613815 0 0 0 0 -226.23951181110988 626.02775213889981 0 626.02775213889981 -951.95445936023316 0 0 0 0 -50.337620656320667 201.79787586504244 0 201.79787586504244 -427.50563960953878 0 0 0 0 5.6026650774801965 145.66520658022819 0 145.66520658022819 -687.54638162871925 0 0 0 0 -61.464942297092421 297.15242155142005 0 297.15242155142005 -491.43116879775698 0 0 0 0 -88.994112180247612 -547.21079830387316 0 -547.21079830387316 -576.37751906609628 0 0 0 0 156.4691680851447 -108.11236931854728 0 -108.11236931854728 -410.07983067581154 0 0 0 0 -281.50400462576181 -688.60429807463152 0 -688.60429807463152 205.5844276520038 0 0 0 0 215.26184620490721 -153.59964735379071 0 -153.59964735379071 -2019.5317517934527 0 0 0 0 -72.987142023208435 -1324.4546027498 0 -1324.4546027498 -952.91623958761193 0 0 0 0 -22.123009019492088 -448.63553590487618 0 -448.63553590487618 -396.74386860851519 0 0 0 0 -98.651219833586765 -207.03515741628871 0 -207.03515741628871 17.50203727569442 0 0 0 0 56.242391196426979 -289.26033160698717 0 -289.26033160698717 -592.49308971841674 0 0 0 0 8.9664944662116906 2.8159080009326622 0 2.8159080009326622 1.6422422395674339 0 0 0 0 114.23576129335618 39.81059081517742 0 39.81059081517742 -198.4551185857963 0 0 0 0 -512.40199847959775 22.45431223968626 0 22.45431223968626 -75.038342640486007 0 0 0 0 34.007442161696417 82.868893551423753 0 82.868893551423753 -221.00711403408786 0 0 0 0 120.63517161314871 64.395198543436891 0 64.395198543436891 -664.10031544204685 0 0 0 0 -92.871531906109908 -233.39869045518662 0 -233.39869045518662 -449.12873995024711 0 0 0 0 26.257642613769349 92.633941270129071 0 92.633941270129071 -238.51214989254186 0 0 0 0 21.340084845867658 20.057260762506885 0 20.057260762506885 -8.0063388597549938 0 0 0 0 6.9256921154972133 124.27854003844004 0 124.27854003844004 -92.735695916459917 0 0 0 0 124.23066917784217 200.77517441529926 0 200.77517441529926 -347.75627348504349 0 0 0 0 158.18405279175568 99.284156107776653 0 99.284156107776653 -476.53109456141101 0 0 0 0 169.32874291268217 204.27694197742676 0 204.27694197742676 -581.2761859534512 0 0 0 0 75.510011004476837 -22.278668490627751 0 -22.278668490627751 -559.29158834300915 0 0 0 0 137.60507203197994 7.9936918689672893 0 7.9936918689672893 -590.91045807093178 0 0 0 0 -25.311439402415999 -159.84928718092851 0 -159.84928718092851 -464.75351427122951 0 0 0 0 -21.542219311671943 -175.36160216256394 0 -175.36160216256394 -400.93672236430575 0 0 0 0 157.01850433848449 -21.655481789028272 0 -21.655481789028272 -411.29588433492609 0 0 0 0 126.4515881656007 5.235899877267002 0 5.235899877267002 -368.13298201971338 0 0 0 0 -160.35987063137327 -42.533260870055528 0 -42.533260870055528 -1839.655588599946 0 0 0 0 -908.5994609046877 1094.7508713312081 0 1094.7508713312081 -749.28693818891043 0 0 0 0 -111.703953399081 -19.481117613508104 0 -19.481117613508104 -643.06435498909195 0 0 0 0 78.674365167908036 27.478733689486035 0 27.478733689486035 -819.26092683384923 0 0 0 0 -100.87122615874796 151.7489466884017 0 151.7489466884017 -1211.9435739845212 0 0 0 0 -371.67782039872691 -437.55846386864141 0 -437.55846386864141 -933.17267645087668 0 0 0 0 -124.09417414924428 -303.24891220373684 0 -303.24891220373684 -671.97473985032593 0 0 0 0 -119.10711971515411 -288.34900056611514 0 -288.34900056611514 -862.35542972637268 0 0 0 0 -1.8238257107199605 3.9769247184625574 0 3.9769247184625574 -12.603031171748086 0 0 0 0 -757.43211395773869 -787.08999344078984 0 -787.08999344078984 -967.76552256083232 0 0 0 0 -302.29388287807797 341.75454087485923 0 341.75454087485923 -253.51045395465189 0 0 0 0 -337.76138792586607 -508.39248273421981 0 -508.39248273421981 -1670.4177519382647 0 0 0 0 -205.54756684717631 8.485221620885568 0 8.485221620885568 131.37751952936014 0 0 0 0 11.86999943780711 -192.18591839221244 0 -192.18591839221244 71.509446580988879 0 0 0 0 -315.2774574854011 -191.35502321352033 0 -191.35502321352033 -107.10032331807452 0 0 0 0 -711.70913265630975 -506.11364739850842 0 -506.11364739850842 -343.96455292708561 0 0 0 0 -198.23807416531599 -160.62987561068439 0 -160.62987561068439 -180.78975743390401 0 0 0 0 181.86327249442456 -16.561418558972946 0 -16.561418558972946 -125.16323173641285 0 0 0 0 -3.8011082953497679 10.714901683809151 0 10.714901683809151 -36.30092444398079 0 0 0 0 -163.69049192903458 -56.429759253827797 0 -56.429759253827797 -13.071906157660123 0 0 0 0 49.91787913485814 -53.226039003374353 0 -53.226039003374353 -13.175961265438673 0 0 0 0 1.7916239905413713 6.028519646995564 0 6.028519646995564 -7.7134375152582955 0 0 0 0 53.519586679522035 -212.25219451312296 0 -212.25219451312296 -258.4277340704466 0 0 0 0 44.953984550931636 -127.67382492730758 0 -127.67382492730758 -181.26683653524378 0 0 0 0 -300.68171545139876 -307.31704333015932 0 -307.31704333015932 -217.03900572263228 0 0 0 0 -17.870230202079256 -264.31079949624109 0 -264.31079949624109 -266.06272115479078 0 0 0 0 -86.24109245012005 -235.32562834095006 0 -235.32562834095006 -221.93759898999269 0 0 0 0 41.041632787512754 -158.07678069280701 0 -158.07678069280701 -409.96001599768351 0 0 0 0 -113.21324039203682 -322.31457089440664 0 -322.31457089440664 -452.28333374659451 0 0 0 0 -199.89388745055112 -174.29780195752028 0 -174.29780195752028 -240.68022624556761 0 0 0 0 -143.62377573050981 -231.62299910513684 0 -231.62299910513684 -182.29901113305095 0 0 0 0 86.17064669159663 -255.63851224608152 0 -255.63851224608152 -333.6713884366618 0 0 0 0 -143.77028712717987 -253.64879216060248 0 -253.64879216060248 -177.50755963483243 0 0 0 0 152.15114406374778 -382.28240530114999 0 -382.28240530114999 -259.58343080081613 0 0 0 0 101.36418043503727 -428.64025058104926 0 -428.64025058104926 -71.35063594494568 0 0 0 0 -20.236053915264165 -250.93415148116037 0 -250.93415148116037 -93.314349929409218 0 0 0 0 -12.193643604902263 -17.002642507348355 0 -17.002642507348355 -86.228090672571852 0 0 0 0 -4.8685453258271991 -9.8851838355221844 0 -9.8851838355221844 -104.22154687118973 0 0 0 0 14.201518649240903 4.8940698416776378 0 4.8940698416776378 -77.539384952595981 0 0 0 0 -135.7684705126685 -225.93979443212811 0 -225.93979443212811 -414.71288256965636 0 0 0 0 -13.859289148445052 -6.0907431567268802 0 -6.0907431567268802 -18.719813710962342 0 0 0 0 -44.28428608408467 -164.00591962620092 0 -164.00591962620092 -396.88499177755511 0 0 0 0 18.278541306882289 7.2032939817941042 0 7.2032939817941042 -100.82346453505852 0 0 0 0 10.949599268335078 4.3434017993677116 0 4.3434017993677116 -82.855786788646355 0 0 0 0 1.5692112155420546 5.7491788782836011 0 5.7491788782836011 -19.062036478870141 0 0 0 0 9.4585488913390634 7.8608484908073635 0 7.8608484908073635 -32.931536232628737 0 0 0 0 10.396783258726714 17.784968075688994 0 17.784968075688994 -121.71255634323825 0 0 0 0 4.94838572732065 11.66068230672643 0 11.66068230672643 -57.824838414309205 0 0 0 0 -84.404940592888124 52.252464048509864 0 52.252464048509864 61.094303684287297 0 0 0 0 14.078914526330209 27.142559187690551 0 27.142559187690551 -31.545892774882532 0 0 0 0 -3.1578448050304342 19.708978683393994 0 19.708978683393994 -27.045565238203771 0 0 0 0 -3.0642414376309017 47.215693748806153 0 47.215693748806153 -70.53060248334161 0 0 0 0 -14.149144791658273 52.868453924505957 0 52.868453924505957 -162.58045847494213 0 0 0 0 6.3008346591445843 75.598889856049936 0 75.598889856049936 -155.63298646362227 0 0 0 0 -5.6524143726668736 63.598704877177866 0 63.598704877177866 -25.812648324977722 0 0 0 0 33.523294943031374 84.824738606725077 0 84.824738606725077 -198.5752779928298 0 0 0 0 -174.8244118297871 96.556614471495777 0 96.556614471495777 74.159509838897293 0 0 0 0 18.38566915084084 96.728081571311122 0 96.728081571311122 -641.734231617349 0 0 0 0 -10.036758421797526 11.798788421035608 0 11.798788421035608 16.203532437070038 0 0 0 0 20.362491939357824 69.121560432869046 0 69.121560432869046 -333.82295306622473 0 0 0 0 -64.081682064894267 -7.7337435644294601 0 -7.7337435644294601 -91.507155784145652 0 0 0 0 -285.24111980770886 279.71767220376933 0 279.71767220376933 -296.74149545027467 0 0 0 0 -105.38061488085395 9.2730564277235317 0 9.2730564277235317 18.122531877022993 0 0 0 0 -36.767746185319993 74.160663247967022 0 74.160663247967022 -246.54876903180411 0 0 0 0 -61.640392462233649 75.944321210121416 0 75.944321210121416 -207.97165607148781 0 0 0 0 14.276352785645827 -17.380212278492436 0 -17.380212278492436 -27.857850333305294 0 0 0 0 55.73777220399279 -38.304015056404751 0 -38.304015056404751 -314.01182265569514 0 0 0 0 8.703960239303342 25.010487312778423 0 25.010487312778423 -83.570260713066091 0 0 0 0 9.0488794167868036 28.388314646901563 0 28.388314646901563 -112.90397183201276 0 0 0 0 8.6028345714657917 37.491349227917169 0 37.491349227917169 -98.784806002030081 0 0 0 0 10.706364260764531 64.307643789348731 0 64.307643789348731 -74.497942748192145 0 0 0 0 19.540442609697493 13.548830927335075 0 13.548830927335075 -52.535049659673405 0 0 0 0 41.532202743561356 87.134158344915704 0 87.134158344915704 -59.725098595354211 0 0 0 0 -528.86992929619737 -1026.7966953653668 0 -1026.7966953653668 -1003.2191434508568 0 0 0 0 3.7657370467903064 -48.029823872135744 0 -48.029823872135744 -70.900602354668521 0 0 0 0 50.482163241009403 166.64158330630016 0 166.64158330630016 -109.71903282278345 0 0 0 0 16.287949005440169 -31.214799386187224 0 -31.214799386187224 -181.12931432308687 0 0 0 0 2813.6097023271432 1454.9916680707611 0 1454.9916680707611 -3361.8784618390237 0 0 0 0 19.336362483443736 -157.13137312276558 0 -157.13137312276558 -256.59922256597565 0 0 0 0 -153.71258180747827 67.511747748729249 0 67.511747748729249 -21.46893029214948 0 0 0 0 25.346641126388931 -56.787259141212417 0 -56.787259141212417 -474.37052120211956 0 0 0 0 -620.3535499153586 -348.35090001337994 0 -348.35090001337994 -344.02663991658483 0 0 0 0 -9.8020989545622399 7.7007865277964598 0 7.7007865277964598 -7.7730858795821689 0 0 0 0 34.486573909519393 188.04395803833313 0 188.04395803833313 72.185439585024142 0 0 0 0 134.58660083138238 -750.20663530433376 0 -750.20663530433376 -1175.1217911178137 0 0 0 0 13.305353646690492 61.098087577001934 0 61.098087577001934 84.676417471753666 0 0 0 0 94.014595176164221 75.429210129569583 0 75.429210129569583 -44.021621884505294 0 0 0 0 36.312194910922699 98.505672363651684 0 98.505672363651684 -50.562292069402247 0 0 0 0 -20.110304078652099 30.21880212004082 0 30.21880212004082 -22.339926577075332 0 0 0 0 5.8882567855762318 -97.894309366032758 0 -97.894309366032758 -405.13455509398318 0 0 0 0 -47.537009485089584 -24.616598491685181 0 -24.616598491685181 -352.33068982826444 0 0 0 0 -0.59864265564700447 -12.346457997986599 0 -12.346457997986599 0.91377819467537336 0 0 0 0 157.78112003576462 -6.4387605282390723 0 -6.4387605282390723 -349.33422144448923 0 0 0 0 306.90339775198117 48.460048678283783 0 48.460048678283783 -201.20774939975308 0 0 0 0 123.01238977637331 -71.571137785555038 0 -71.571137785555038 -418.99555294241327 0 0 0 0 33.08262091108918 14.347836255918082 0 14.347836255918082 -337.17814867734887 0 0 0 0 291.47356205817596 -23.430562208070114 0 -23.430562208070114 -371.49205364283989 0 0 0 0 148.8371177110057 -22.359758432670787 0 -22.359758432670787 -187.16585594963544 0 0 0 0 29.999528741613176 -318.53993529632316 0 -318.53993529632316 274.97498894432647 0 0 0 0 -1.5025374652503203 2.9697492929277374 0 2.9697492929277374 -8.1380080467496754 0 0 0 0 50.402259296528428 -152.9798265386471 0 -152.9798265386471 99.803616691839125 0 0 0 0 170.4699468437102 -53.861411790043348 0 -53.861411790043348 -210.33312925984501 0 0 0 0 176.04336534613867 6.822196433490717 0 6.822196433490717 116.32622063756571 0 0 0 0 -1.9550165037095439 -19.92639901623884 0 -19.92639901623884 -81.490462013288848 0 0 0 0 -11.88128253638444 -7.4259594298252125 0 -7.4259594298252125 -27.060206831944573 0 0 0 0 47.16472684846849 -5.6987810729333432 0 -5.6987810729333432 -888.97830123170206 0 0 0 0 -10.024493669438016 -16.46775795582289 0 -16.46775795582289 -104.96619427267069 0 0 0 0 6.2872393632351304 42.482115003465879 0 42.482115003465879 -779.83009536359168 0 0 0 0 -9.550584877079908 -0.24689224410374955 0 -0.24689224410374955 -100.00414620077356 0 0 0 0 38.801818530351738 -231.95974948786898 0 -231.95974948786898 -900.8110716679148 0 0 0 0 -39.909016118665022 -64.760984427208314 0 -64.760984427208314 -548.43597719941317 0 0 0 0 -9.2785759454618528 -17.23180606491951 0 -17.23180606491951 -95.359992071764282 0 0 0 0 3.212335007799993 -89.914952849343535 0 -89.914952849343535 -324.92887468406843 0 0 0 0 112.49484580675211 147.78650187095423 0 147.78650187095423 -926.78547193032864 0 0 0 0 -0.63005781031671049 -3.5650016044746025 0 -3.5650016044746025 -26.632029097513584 0 0 0 0 -22.112169583728452 -10.934494938692538 0 -10.934494938692538 -13.50217001936241 0 0 0 0 5.1998654929334123 -39.614328960959341 0 -39.614328960959341 -53.010244509076394 0 0 0 0 -113.99067887041747 -168.92198930268569 0 -168.92198930268569 -9.2527815428557005 0 0 0 0 -28.446309065301222 13.601930229167138 0 13.601930229167138 -143.80363352699351 0 0 0 0 -23.44279332307633 34.298309904363123 0 34.298309904363123 -146.15805198231465 0 0 0 0 -12.553773358475155 22.269343930456671 0 22.269343930456671 -193.40987762319492 0 0 0 0 -3.4975985636739324 6.3401824110097778 0 6.3401824110097778 -219.55721136684588 0 0 0 0 -5.0615546597309731 47.641445154491521 0 47.641445154491521 -389.80203209579486 0 0 0 0 5.9514692829634441 -33.064445008629264 0 -33.064445008629264 -256.92081365239574 0 0 0 0 22.008947105616244 -9.0740539971047838 0 -9.0740539971047838 -210.31422721111085 0 0 0 0 -3.9645127598996623 25.877951954025775 0 25.877951954025775 -194.43167302761503 0 0 0 0 14.586620167522263 -2.6629198134099852 0 -2.6629198134099852 -23.730469559225227 0 0 0 0 -7.578982331069696 -9.1528294931178635 0 -9.1528294931178635 -4.7923383563578454 0 0 0 0 -80.514397968472622 -25.290533684197726 0 -25.290533684197726 -172.36137709510513 0 0 0 0 -5.6713359518209856 8.2660577096794015 0 8.2660577096794015 -6.9223101465300996 0 0 0 0 2.5283695756188536 -46.554896742858546 0 -46.554896742858546 -231.48051710273285 0 0 0 0 8.2253556731438948 -9.1559659434651621 0 -9.1559659434651621 -215.72009635934955 0 0 0 0 -11.126917346016853 30.824861423185212 0 30.824861423185212 -130.12922050502493 0 0 0 0 41.230892921579652 28.202110258178436 0 28.202110258178436 -217.61142417380688 0 0 0 0 38.31757482210196 78.140216735235299 0 78.140216735235299 -256.46541725011775 0 0 0 0 -10.576527466656206 3.2625193911649859 0 3.2625193911649859 2.0153740427951021 0 0 0 0 -6.5998982647379307 6.3122241761666373 0 6.3122241761666373 -89.521442284752993 0 0 0 0 -38.242005397449702 -14.3962753311298 0 -14.3962753311298 -170.83404372465156 0 0 0 0 -19.003220731140186 2.7148232986368299 0 2.7148232986368299 -23.29152760972196 0 0 0 0 -8.2811261070892215 24.614932047814364 0 24.614932047814364 -188.66508635425998 0 0 0 0 -8.346722362698948 -10.007979758642705 0 -10.007979758642705 -21.294093681035207 0 0 0 0 -67.01888828718711 -27.784053684179526 0 -27.784053684179526 -90.088549316322315 0 0 0 0 -49.063833181126938 -84.669292018472333 0 -84.669292018472333 -170.24870548229228 0 0 0 0 -10.713145164407887 -14.482510595513304 0 -14.482510595513304 -76.793459738568345 0 0 0 0 -4.1083706362214478 6.4094327838808738 0 6.4094327838808738 -11.67046007455963 0 0 0 0 -18.944372510600999 -14.859702001599203 0 -14.859702001599203 -87.000831744895549 0 0 0 0 -16.929119224007081 -11.740401486757037 0 -11.740401486757037 -89.453439160599373 0 0 0 0 -4.0222510513004606 -13.233264537827564 0 -13.233264537827564 -78.545919383096958 0 0 0 0 -12.280299982558063 -11.007757047686027 0 -11.007757047686027 -89.324343169531858 0 0 0 0 -14.57872471553128 -16.300221615718328 0 -16.300221615718328 -89.003736526665307 0 0 0 0 -11.16810133220315 -15.155773192524066 0 -15.155773192524066 -87.885746826970717 0 0 0 0 -14.100125411800491 -13.917189046925159 0 -13.917189046925159 -83.664792259369278 0 0 0 0 -12.594790607166942 -9.0866342003282625 0 -9.0866342003282625 -83.215853970468743 0 0 0 0 4.2221374747223308 -11.277449614586658 0 -11.277449614586658 -88.970687525121321 0 0 0 0 -9.5052239182386984 -18.063542282714479 0 -18.063542282714479 -84.225297950710228 0 0 0 0 -8.5321748707840452 -8.4747806053508068 0 -8.4747806053508068 -65.847628717438994 0 0 0 0 -21.554566882770814 -10.585254699002689 0 -10.585254699002689 -81.240799058381526 0 0 0 0 -5.5634643993307691 -7.752658804449311 0 -7.752658804449311 -99.787343788106227 0 0 0 0 -17.068059175867383 -7.445529731399283 0 -7.445529731399283 -84.585565109136041 0 0 0 0 -6.1126998437924769 -7.2081413907962855 0 -7.2081413907962855 -54.715133797162302 0 0 0 0 -2.231057707373111 -4.3813138290788629 0 -4.3813138290788629 -96.406229871307005 0 0 0 0 15.594456385384547 6.6421082694723736 0 6.6421082694723736 -105.41777127113892 0 0 0 0 8.353833483177219 12.81595059383055 0 12.81595059383055 -63.818330497739709 0 0 0 0 14.219557016644103 -60.866683157350963 0 -60.866683157350963 -531.07794681946689 0 0 0 0 33.964339442421306 8.5387828018870451 0 8.5387828018870451 -122.45682291402264 0 0 0 0 -24.716346879879069 8.4256709229302942 0 8.4256709229302942 -221.68009330614586 0 0 0 0 -10.849980890067854 13.124796036492626 0 13.124796036492626 -226.40207368525444 0 0 0 0 -14.558703775090992 -7.6436845062668226 0 -7.6436845062668226 -92.337164953731559 0 0 0 0 -18.265139109669462 8.6522856438241433 0 8.6522856438241433 -225.05003959881651 0 0 0 0 -75.913647907104561 15.235222667578796 0 15.235222667578796 -245.03533986548427 0 0 0 0 -3.8249419140323369 -0.88256733426657341 0 -0.88256733426657341 -100.01006107408907 0 0 0 0 -20.725536559920997 20.052776561060455 0 20.052776561060455 -220.03528744008509 0 0 0 0 -62.00851798992862 -20.278589444563025 0 -20.278589444563025 -217.97368201849457 0 0 0 0 212.91296261551543 -148.75474335874856 0 -148.75474335874856 -993.34599284377123 0 0 0 0 -273.17110975418473 34.032392177554357 0 34.032392177554357 504.52592826369118 0 0 0 0 115.70787975343046 -216.56359236158846 0 -216.56359236158846 -623.75313352196372 0 0 0 0 -12.977062355058671 9.9836138538381469 0 9.9836138538381469 -29.746984800432564 0 0 0 0 -114.70257364554664 115.39552832381798 0 115.39552832381798 -501.42389875173103 0 0 0 0 -138.88644046828267 -100.63785258734106 0 -100.63785258734106 -763.24099328185457 0 0 0 0 43.624974595730322 85.022645765173593 0 85.022645765173593 -99.224436075867928 0 0 0 0 428.52746345413107 40.889528355766515 0 40.889528355766515 -851.34660198092888 0 0 0 0 69.243861761695229 -38.053789762626664 0 -38.053789762626664 -175.07288342959154 0 0 0 0 -378.36342827820732 -113.62980044169865 0 -113.62980044169865 -897.82856873515993 0 0 0 0 -139.52992290172733 46.487290474018664 0 46.487290474018664 -621.76038366444845 0 0 0 0 49.586367003083467 30.801595559843577 0 30.801595559843577 -99.721136868074382 0 0 0 0 212.72037803216517 -110.68708126911224 0 -110.68708126911224 -1526.623425033089 0 0 0 0 -5.5125132159607251 2.6644942899661146 0 2.6644942899661146 -35.893741878177117 0 0 0 0 -16.765152073977333 225.16233757662849 0 225.16233757662849 -711.20718343189947 0 0 0 0 -138.7149726921848 -298.2964177113754 0 -298.2964177113754 -1079.5408875259454 0 0 0 0 107.57233906524721 -145.42862596676969 0 -145.42862596676969 -1134.4817331402301 0 0 0 0 169.94939031810281 112.14809147773485 0 112.14809147773485 -911.4591624735076 0 0 0 0 88.482937794599934 -0.49908556306884577 0 -0.49908556306884577 -143.56065270847336 0 0 0 0 -66.953468194430457 46.356409771101852 0 46.356409771101852 -153.88009492492924 0 0 0 0 25.130201237358051 -45.64645635837951 0 -45.64645635837951 -293.32302078635621 0 0 0 0 -13.644802475090728 21.782303124826285 0 21.782303124826285 -272.00861372223153 0 0 0 0 -26.394771315672529 26.973546800201802 0 26.973546800201802 -221.32667657893035 0 0 0 0 -65.146275617121546 21.34599206695566 0 21.34599206695566 -250.49354508281976 0 0 0 0 -25.231895065964636 16.416127070551738 0 16.416127070551738 -255.13255860705976 0 0 0 0 -65.583187375721081 11.141432501513918 0 11.141432501513918 -254.86686127484427 0 0 0 0 19.666894681184203 43.158912581253389 0 43.158912581253389 -259.1634172621998 0 0 0 0 -73.139231343015126 -4.2169986773296841 0 -4.2169986773296841 56.811747638639645 0 0 0 0 54.136039110155252 -104.57893921309733 0 -104.57893921309733 -232.39182495616478 0 0 0 0 1.3437332437359082 4.8561226643248574 0 4.8561226643248574 -0.18584437626785189 0 0 0 0 -212.20056104873947 61.842772999429144 0 61.842772999429144 -530.82245863433491 0 0 0 0 -17.025063294542633 -97.405000474900589 0 -97.405000474900589 -78.04286822276481 0 0 0 0 -340.44479183705698 341.27162733350269 0 341.27162733350269 -735.88525077690429 0 0 0 0 94.021651273685166 311.56651785475697 0 311.56651785475697 -1282.1107539332443 0 0 0 0 -404.58140975781998 -178.92435599000237 0 -178.92435599000237 -533.73250150826061 0 0 0 0 152.08388509921861 -4.6915326263842871 0 -4.6915326263842871 -1280.9998347751098 0 0 0 0 -169.35376662024282 -316.93964915520337 0 -316.93964915520337 -976.61851980634674 0 0 0 0 45.686113973300962 -60.039406281124684 0 -60.039406281124684 -706.00522776553407 0 0 0 0 84.031491332661972 -61.238381345770904 0 -61.238381345770904 -932.09601740576909 0 0 0 0 117.32491110589763 -4.0485359745216556 0 -4.0485359745216556 -837.35166957898764 0 0 0 0 123.54297421586307 82.155020962803974 0 82.155020962803974 -810.59958433634165 0 0 0 0 158.87483234674437 82.567654503072845 0 82.567654503072845 -972.90774997842891 0 0 0 0 -5.7625446520014521 100.25198276802985 0 100.25198276802985 -65.112137136296951 0 0 0 0 45.510553230811638 -51.999600643299345 0 -51.999600643299345 -116.27615578405675 0 0 0 0 58.394801440917945 -107.70969525261262 0 -107.70969525261262 -404.55629002236412 0 0 0 0 39.07514525415354 37.423958062683596 0 37.423958062683596 -254.30936206632396 0 0 0 0 34.996366592758932 11.50764172670165 0 11.50764172670165 -338.25173780615296 0 0 0 0 -125.1328097896112 -145.64824166875894 0 -145.64824166875894 -444.85266441989393 0 0 0 0 1.040769922255731 26.075535888624128 0 26.075535888624128 6.5322798842277798 0 0 0 0 53.878813008998023 40.419629813201041 0 40.419629813201041 -92.26806005241329 0 0 0 0 57.346716166053412 -37.863180866947005 0 -37.863180866947005 -173.5939555569712 0 0 0 0 4.7097144663073323 150.59668751729964 0 150.59668751729964 -98.142000244677547 0 0 0 0 3.6302416768612602 -165.12228639973591 0 -165.12228639973591 -274.7338997747238 0 0 0 0 25.15605227156966 -21.493350808181717 0 -21.493350808181717 -115.48956999910992 0 0 0 0 15.519367634031966 35.752117093457855 0 35.752117093457855 -185.88953249205224 0 0 0 0 27.880630932191707 38.493409295791935 0 38.493409295791935 -197.34251100371932 0 0 0 0 16.110747174547441 -39.098636306643243 0 -39.098636306643243 -42.315348674164852 0 0 0 0 32.452713551078205 30.254958487647713 0 30.254958487647713 -114.47888401696309 0 0 0 0 14.797212414849534 1.2445456549471459 0 1.2445456549471459 -92.779063639500237 0 0 0 0 14.481851949931553 32.321845935817691 0 32.321845935817691 -167.44730411043929 0 0 0 0 4.0055208195617524 -7.4281592611314409 0 -7.4281592611314409 -78.976340375988002 0 0 0 0 27.040694419865112 4.1067188077705339 0 4.1067188077705339 -76.459336919720272 0 0 0 0 6.0733126769837327 -16.655336364907271 0 -16.655336364907271 -109.56850419232569 0 0 0 0 -11.361445918807533 -6.2285882221911493 0 -6.2285882221911493 -75.050838857387134 0 0 0 0 2.6343301420968999 -14.19607441962296 0 -14.19607441962296 -86.974953909062606 0 0 0 0 14.325707938434741 1.1343180078586244 0 1.1343180078586244 -76.163514009576872 0 0 0 0 7.1290556535386713 0.89738415629426527 0 0.89738415629426527 -85.865625036232814 0 0 0 0 -38.439854753633426 -60.983380397971729 0 -60.983380397971729 -372.41620339644896 0 0 0 0 25.437886149538372 15.031263609038124 0 15.031263609038124 -65.488373974808496 0 0 0 0 13.251857543062215 -0.855440670682583 0 -0.855440670682583 -100.98713108417542 0 0 0 0 2.7168811282190291 -12.500233975524679 0 -12.500233975524679 -92.236921238698415 0 0 0 0 -1.7545858607991249 -5.8243385680907522 0 -5.8243385680907522 -98.388028689150815 0 0 0 0 16.754550973448204 -6.313391176488949 0 -6.313391176488949 -144.73734596563736 0 0 0 0 2.8732975529633791 -5.279976386260266 0 -5.279976386260266 -21.815018034442559 0 0 0 0 -35.108678709628293 -83.473194034221933 0 -83.473194034221933 -149.96849585445329 0 0 0 0 -15.864979920605037 -145.16381985186672 0 -145.16381985186672 -280.57287520788509 0 0 0 0 290.90184438586402 552.56750632222929 0 552.56750632222929 -1353.3905147725904 0 0 0 0 -326.75705517780898 -371.01146590131202 0 -371.01146590131202 -98.928582288210237 0 0 0 0 -63.773507940539275 -103.19125264736067 0 -103.19125264736067 -471.06816707703274 0 0 0 0 0.56051598853943574 8.8952286734896351 0 8.8952286734896351 -44.85710376188181 0 0 0 0 -303.37593298232241 384.78686480175656 0 384.78686480175656 -306.77599578342279 0 0 0 0 -13.519630008464446 190.87892294860649 0 190.87892294860649 -341.60208562953176 0 0 0 0 4.5549422384538047 -23.657524507816561 0 -23.657524507816561 -63.36716015356069 0 0 0 0 29.768983601240052 35.467730003040316 0 35.467730003040316 -58.046732463203263 0 0 0 0 -4.1759174932644427 4.4777033230224639 0 4.4777033230224639 9.4594105697260211 0 0 0 0 -108.22687623323873 -446.87965535861622 0 -446.87965535861622 -438.81072292261069 0 0 0 0 -79.355532859284722 -39.526379911911135 0 -39.526379911911135 280.38647589541938 0 0 0 0 -3.7135358395003522 5.4087826696353236 0 5.4087826696353236 -2.9884451570088988 0 0 0 0 72.712314931077344 -272.84644315541868 0 -272.84644315541868 -1775.4766798981418 0 0 0 0 -308.2669200386008 1.5155483500543596 0 1.5155483500543596 -729.17867315908802 0 0 0 0 -140.74995334386404 258.51195953887327 0 258.51195953887327 -510.95829767970122 0 0 0 0 177.60174275022291 -148.79524639416286 0 -148.79524639416286 -818.31340865669927 0 0 0 0 202.09571299416166 98.79791962793206 0 98.79791962793206 -249.02534512340208 0 0 0 0 14.357598089287011 -7.0144437429312632 0 -7.0144437429312632 -100.72334336304544 0 0 0 0 12.343494382769279 17.617805583628805 0 17.617805583628805 -21.585372618504859 0 0 0 0 213.82124305377192 48.706054032731117 0 48.706054032731117 -315.1118571870993 0 0 0 0 -190.63019163337594 2.3184599756641546 0 2.3184599756641546 264.29464314338065 0 0 0 0 4.4676537306804676 179.29954127935707 0 179.29954127935707 -182.41652874792635 0 0 0 0 -0.56590383545335499 -5.0273199438961456 0 -5.0273199438961456 29.712297722377116 0 0 0 0 13.961993737223867 7.11464575694594 0 7.11464575694594 -12.030832572242332 0 0 0 0 -81.881792813037464 185.82786620342449 0 185.82786620342449 -273.54166987924691 0 0 0 0 130.18969979524263 150.09590972524165 0 150.09590972524165 -267.99785696849358 0 0 0 0 234.83099303108065 -3.7427094611903158 0 -3.7427094611903158 -848.43769972831797 0 0 0 0 153.85277029274039 174.60279240769341 0 174.60279240769341 -784.76395769197734 0 0 0 0 5.0380808201236231 -15.965417960527592 0 -15.965417960527592 -106.08629062595588 0 0 0 0 504.23802603095282 105.65933278140801 0 105.65933278140801 -848.66059700258484 0 0 0 0 -135.29537596228602 249.49265268399961 0 249.49265268399961 -499.77081681978143 0 0 0 0 -138.27608250898402 195.2846655200571 0 195.2846655200571 -170.18238056442351 0 0 0 0 -148.66037037142451 253.94131255554237 0 253.94131255554237 -496.78635989093618 0 0 0 0 -141.21219604480848 243.96376193826143 0 243.96376193826143 -488.59267292094228 0 0 0 0 23.193712369444256 -84.137778663325207 0 -84.137778663325207 -314.85333047202857 0 0 0 0 160.69482250928377 117.91710625536666 0 117.91710625536666 -347.53167810287687 0 0 0 0 159.47977580521911 -63.647050551065604 0 -63.647050551065604 -543.49877834348399 0 0 0 0 145.59198719341657 35.999256386765182 0 35.999256386765182 -703.26808461077144 0 0 0 0 149.28344056583092 60.869061479782332 0 60.869061479782332 -685.02550923041235 0 0 0 0 53.002196335972258 91.104483600752815 0 91.104483600752815 -664.94872117671127 0 0 0 0 152.16171738491903 135.68949327213159 0 135.68949327213159 -849.98164422035336 0 0 0 0 94.771668223002052 241.24777615564028 0 241.24777615564028 -729.48827063313354 0 0 0 0 54.413958228844422 106.26051894636669 0 106.26051894636669 -802.19832215991357 0 0 0 0 -140.22507772108474 -46.641423389612385 0 -46.641423389612385 -750.5343976328594 0 0 0 0 -32.899906930830184 51.752276260515458 0 51.752276260515458 -676.86837334710503 0 0 0 0 -0.17071373583530658 111.56897266785586 0 111.56897266785586 -593.78405558527243 0 0 0 0 -42.517666337909759 56.024755996080899 0 56.024755996080899 -664.21145939798771 0 0 0 0 -43.495588571172902 32.242520748764804 0 32.242520748764804 -568.79400891480122 0 0 0 0 -55.58802762770847 -27.452372865022227 0 -27.452372865022227 -741.15584351926645 0 0 0 0 11.409714902401902 26.07005796557587 0 26.07005796557587 -755.0294607351891 0 0 0 0 214.46736074178261 73.926600614522613 0 73.926600614522613 -753.16446648975352 0 0 0 0 196.14381321519613 -101.72112508635109 0 -101.72112508635109 -782.99244960574879 0 0 0 0 158.48907550090371 -116.91162862434885 0 -116.91162862434885 -655.69788882427383 0 0 0 0 231.4164274656232 -96.229264826233702 0 -96.229264826233702 -977.75054637946596 0 0 0 0 -195.04636170690719 50.651339775791712 0 50.651339775791712 -861.75368896896907 0 0 0 0 0.11179447185713798 91.835428672904527 0 91.835428672904527 -853.60562305928215 0 0 0 0 178.88786889790208 -43.777904607749406 0 -43.777904607749406 -959.99417550872022 0 0 0 0 6.8727868779312544 -14.798429972025758 0 -14.798429972025758 -105.80889518311264 0 0 0 0 453.75422234070402 100.85883301522881 0 100.85883301522881 -918.64988932091364 0 0 0 0 72.421139910083639 2.3232109476274729 0 2.3232109476274729 -479.67012013864041 0 0 0 0 -113.47954437721637 -57.822263480116817 0 -57.822263480116817 -315.14307684641062 0 0 0 0 46.087317924851959 142.89832870562356 0 142.89832870562356 -292.03548851035094 0 0 0 0 91.375023536747904 -91.978885173797607 0 -91.978885173797607 -731.82050569931744 0 0 0 0 91.375023536784283 -91.978885173797607 0 -91.978885173797607 -731.82050569925923 0 0 0 0 26.261407711212087 -110.28997071801859 0 -110.28997071801859 -726.16721659814357 0 0 0 0 91.375023536766093 -91.978885173797607 0 -91.978885173797607 -731.82050569925923 0 0 0 0 73.836663202724594 -43.88446717862098 0 -43.88446717862098 -712.79843637050362 0 0 0 0 40.289685952397122 200.80078745027618 0 200.80078745027618 -129.33790288532418 0 0 0 0 -248.54526104335309 19.420449287856172 0 19.420449287856172 -420.66705676450511 0 0 0 0 65.23363669355652 146.5018029580354 0 146.5018029580354 -85.860450268577267 0 0 0 0 242.27624271791137 28.624893464234631 0 28.624893464234631 -702.26996509282299 0 0 0 0 21.237197136564646 -246.87020543435938 0 -246.87020543435938 -769.09236599253563 0 0 0 0 -100.00542569373647 -67.575263562906372 0 -67.575263562906372 -560.54366963298583 0 0 0 0 -145.58897056779824 -419.38026966938355 0 -419.38026966938355 -1857.3051552683664 0 0 0 0 0.22334786601894052 4.9270316437897712 0 4.9270316437897712 -6.8996286804918556 0 0 0 0 -66.905355680763137 -572.66954246553905 0 -572.66954246553905 -1674.6859517049556 0 0 0 0 -263.42539365151606 237.8264742884237 0 237.8264742884237 165.28573135596889 0 0 0 0 22.463512674439698 191.94675823686612 0 191.94675823686612 171.89607765949677 0 0 0 0 73.805578066968195 130.0779297969377 0 130.0779297969377 -114.30581433865696 0 0 0 0 -125.78080571716418 -175.93639318334522 0 -175.93639318334522 542.59252187427956 0 0 0 0 39.96460455043416 121.29828504148463 0 121.29828504148463 -40.253105528169726 0 0 0 0 -22.639703432183531 33.710462382016026 0 33.710462382016026 38.100115332571058 0 0 0 0 13.559144788712729 362.30250929309295 0 362.30250929309295 -830.06155773061164 0 0 0 0 -15.322632087718375 483.41385121591725 0 483.41385121591725 -961.23694274789023 0 0 0 0 66.752725109001403 227.57474773381978 0 227.57474773381978 -2108.9827678230231 0 0 0 0 -363.61027193001428 289.585574326639 0 289.585574326639 -338.41439572730405 0 0 0 0 107.06724740542995 -122.47995785874065 0 -122.47995785874065 -833.00898797927186 0 0 0 0 -4.7010063467257979 14.402904307186766 0 14.402904307186766 -2.7593961818492465 0 0 0 0 -93.135827682686795 -230.45446566122064 0 -230.45446566122064 -29.917657785957999 0 0 0 0 -19.436929294490255 213.18268430710759 0 213.18268430710759 30.269225350404668 0 0 0 0 -103.37118897647451 -193.41997605863435 0 -193.41997605863435 -125.78851677148486 0 0 0 0 -40.64735855082472 -187.3435072922407 0 -187.3435072922407 -787.73505369008308 0 0 0 0 51.039769846316631 -39.334421742051063 0 -39.334421742051063 -719.64698144388603 0 0 0 0 -199.08567289590428 67.413564207137142 0 67.413564207137142 -710.32752212645073 0 0 0 0 -114.7889649630597 -136.93929869769704 0 -136.93929869769704 -761.26890132401047 0 0 0 0 21.727922680951451 361.53589154186113 0 361.53589154186113 -33.129118341023798 0 0 0 0 148.33432371087792 28.660337602580057 0 28.660337602580057 -1168.186283096285 0 0 0 0 89.351821100390225 278.56772138283247 0 278.56772138283247 -982.95948125395762 0 0 0 0 72.332985852883212 381.25838567939206 0 381.25838567939206 -553.96821233424839 0 0 0 0 29.983720193813497 38.589338532485044 0 38.589338532485044 -417.59207746864888 0 0 0 0 119.0378067581114 79.809286589559406 0 79.809286589559406 -524.99428501076341 0 0 0 0 99.70476249199055 -33.569367565326615 0 -33.569367565326615 -521.25879204461239 0 0 0 0 -69.718037016507878 -183.50652631715411 0 -183.50652631715411 -677.63170656268721 0 0 0 0 78.521395149211457 28.238019266223091 0 28.238019266223091 -674.11854745002256 0 0 0 0 270.59861365560937 -55.26120740211536 0 -55.26120740211536 -570.72932658954301 0 0 0 0 169.2364945594818 2.7761621397112322 0 2.7761621397112322 -576.4808009240586 0 0 0 0 111.82412917587135 -41.482581654886189 0 -41.482581654886189 -221.77075358328443 0 0 0 0 137.60154603456976 -80.481680413329286 0 -80.481680413329286 -527.41991944348229 0 0 0 0 -5.096188994819272 11.680245362477624 0 11.680245362477624 -13.20822401497084 0 0 0 0 196.07392969847933 -37.032449298808388 0 -37.032449298808388 -518.24001314103202 0 0 0 0 -33.126945174510183 -139.56966692763615 0 -139.56966692763615 -491.94097792105697 0 0 0 0 333.70609614736168 -170.94881790809723 0 -170.94881790809723 -506.2457840511297 0 0 0 0 -90.88206518800871 -140.4659925059791 0 -140.4659925059791 -473.41804578882102 0 0 0 0 -8.0653114781125623 -329.33204220902735 0 -329.33204220902735 -713.49073765366177 0 0 0 0 -16.191463526570573 17.365613005004725 0 17.365613005004725 -13.073353922814659 0 0 0 0 -30.668516333564185 -113.54823825695757 0 -113.54823825695757 -474.84681414720035 0 0 0 0 -44.285414084117292 -64.495470350454752 0 -64.495470350454752 -33.536697086386994 0 0 0 0 62.700865315084229 -63.025977106208302 0 -63.025977106208302 -195.63163752513447 0 0 0 0 40.099784367212123 -256.40066801106332 0 -256.40066801106332 -370.85940125965772 0 0 0 0 85.557984380408016 -93.907034495445259 0 -93.907034495445259 -366.59693583586341 0 0 0 0 395.64892952956689 -350.43034407319146 0 -350.43034407319146 -169.10257948972867 0 0 0 0 -136.93195499486683 -196.66296531716398 0 -196.66296531716398 -90.553499426567669 0 0 0 0 1.7140928385317302 -1.9808581680993669 0 -1.9808581680993669 1.9336543550967811 0 0 0 0 1095.9008641501241 384.62869278078688 0 384.62869278078688 -23.41032428489234 0 0 0 0 231.03603028807629 -233.28657208039294 0 -233.28657208039294 88.702155586881872 0 0 0 0 -8.4124578017508611 -27.448595908784682 0 -27.448595908784682 2.9638823776422214 0 0 0 0 159.47553828260061 4.8932276248192466 0 4.8932276248192466 79.486293458207001 0 0 0 0 506.69108135037004 7.7525711014360468 0 7.7525711014360468 -429.27802731708834 0 0 0 0 222.14066885575266 -30.147160382915445 0 -30.147160382915445 -428.2921809636191 0 0 0 0 13.734446191898314 -297.9257389527038 0 -297.9257389527038 92.096731204743264 0 0 0 0 96.679334091273631 31.237370335946252 0 31.237370335946252 -461.64713144703728 0 0 0 0 111.72881641417916 -172.85314913656748 0 -172.85314913656748 -465.08276327489614 0 0 0 0 -177.36893969121411 -166.40810467471601 0 -166.40810467471601 132.71704247908019 0 0 0 0 29.349283867135455 -194.57247999721676 0 -194.57247999721676 -667.05156505763625 0 0 0 0 -293.96442066947566 -18.113906148528258 0 -18.113906148528258 -652.29076941064704 0 0 0 0 206.52100195045932 -117.04179921881041 0 -117.04179921881041 -1668.6412947590984 0 0 0 0 -2.9307126963682322 6.3171589001738795 0 6.3171589001738795 -0.50604779892670981 0 0 0 0 -341.90439988465369 -202.02478559294559 0 -202.02478559294559 -736.46348667523671 0 0 0 0 285.36591902061446 -3.9989842322565892 0 -3.9989842322565892 -736.96973808575967 0 0 0 0 -206.66750072732066 -221.27307025949494 0 -221.27307025949494 20.54439290636401 0 0 0 0 138.15883854544518 -193.09488631825843 0 -193.09488631825843 164.83560527766849 0 0 0 0 996.77613644330268 175.01329267970777 0 175.01329267970777 -974.61170143500203 0 0 0 0 6.7275122125199829 -23.458063103128111 0 -23.458063103128111 -4.3581386939902771 0 0 0 0 -12.416262048657984 9.4544366741258088 0 9.4544366741258088 -28.68685141162084 0 0 0 0 -140.24099135597135 143.38145984794755 0 143.38145984794755 -690.74034089085433 0 0 0 0 489.75514182080951 445.03003197971611 0 445.03003197971611 -1796.9426636631033 0 0 0 0 393.03302892841748 -165.39395589116248 0 -165.39395589116248 -2157.0365856366443 0 0 0 0 -644.92658852371824 978.56087732707965 0 978.56087732707965 -3408.0546919927729 0 0 0 0 6.2940699480114191 5.7535058439608662 0 5.7535058439608662 -111.92917217946949 0 0 0 0 270.14773456033436 -825.5266934840256 0 -825.5266934840256 -82.025386765395524 0 0 0 0 11.568991122422183 3.8020149057143868 0 3.8020149057143868 -15.490111521936399 0 0 0 0 -58.339379297547566 368.11596430504142 0 368.11596430504142 -1443.9779582236511 0 0 0 0 213.04781047109282 180.18193355301628 0 180.18193355301628 -1133.0909285831176 0 0 0 0 -347.28899281583836 454.14450158259751 0 454.14450158259751 -1137.5089371345748 0 0 0 0 -10.081778349674906 9.566695685073924 0 9.566695685073924 -26.15165235385205 0 0 0 0 5.8265146429420938 -34.316301637893908 0 -34.316301637893908 -106.9853854483473 0 0 0 0 -246.85630522423162 459.16812603544531 0 459.16812603544531 -1139.4434385780314 0 0 0 0 12.271132975456567 -139.81030500722864 0 -139.81030500722864 -45.539992276184421 0 0 0 0 -32.877536373456294 -64.660120692354241 0 -64.660120692354241 -50.968536573321671 0 0 0 0 -300.14562438450594 -90.992920492903977 0 -90.992920492903977 301.46992414480792 0 0 0 0 54.194540412173183 -114.39674043873879 0 -114.39674043873879 -402.1814310144473 0 0 0 0 -142.76766334411877 -201.19242859700171 0 -201.19242859700171 -6.9658926792471902 0 0 0 0 -16.874326526493093 -59.520356608091191 0 -59.520356608091191 -34.094663746236662 0 0 0 0 44.910332793293946 -55.541069309750128 0 -55.541069309750128 -254.42699290015298 0 0 0 0 17.235339540111454 -235.87817092346268 0 -235.87817092346268 -326.70700441558438 0 0 0 0 104.61417243465257 -157.70878359421113 0 -157.70878359421113 -662.99792166533007 0 0 0 0 161.98681907709033 -39.600304354289619 0 -39.600304354289619 -603.24952277297962 0 0 0 0 4.124467365093075 -24.282229073827537 0 -24.282229073827537 -108.27730226122269 0 0 0 0 93.992115914486931 -104.63020778258669 0 -104.63020778258669 -408.35665403648454 0 0 0 0 -28.332888255517901 -5.3770525744600945 0 -5.3770525744600945 -650.38756218299113 0 0 0 0 0.47411529048369516 -4.8968383130986517 0 -4.8968383130986517 -17.221517449835467 0 0 0 0 -3.2719355113026936 1.3176456625440807 0 1.3176456625440807 1.457654657034543 0 0 0 0 -54.955350616091891 -304.73057633676399 0 -304.73057633676399 483.35320203126412 0 0 0 0 33.593660631247985 52.106982018309282 0 52.106982018309282 -1164.1798784120433 0 0 0 0 79.762786377115845 -233.03658548481144 0 -233.03658548481144 -48.83293416108063 0 0 0 0 103.81629523017546 -135.90177136957846 0 -135.90177136957846 119.56345173144109 0 0 0 0 116.94621212403445 -229.00670658579725 0 -229.00670658579725 102.0345215551115 0 0 0 0 406.89195367225329 -184.53846622613491 0 -184.53846622613491 -90.698160595301488 0 0 0 0 -5.5394577409981167 -9.2630082594470586 0 -9.2630082594470586 -6.9787701706040153 0 0 0 0 130.74873932437549 -348.54823878661136 0 -348.54823878661136 -154.60958912224123 0 0 0 0 -195.54918882996571 -61.849724484543003 0 -61.849724484543003 -55.299744266064579 0 0 0 0 -0.24741159148152292 3.1837117095178193 0 3.1837117095178193 -1.1967433067333271 0 0 0 0 210.13206779470602 40.862200783343724 0 40.862200783343724 -1418.6966573576337 0 0 0 0 -33.523689505062066 389.67802024862431 0 389.67802024862431 -136.38968932670113 0 0 0 0 432.89579801456148 -359.51852279970308 0 -359.51852279970308 -3010.6261690751526 0 0 0 0 340.12704698856578 523.19699651750852 0 523.19699651750852 -682.0781791739646 0 0 0 0 1.7928714174568441 1.0987284333335801 0 1.0987284333335801 -8.8715042708505365 0 0 0 0 416.56012260985517 -284.67519089810276 0 -284.67519089810276 -3186.9086703535186 0 0 0 0 -500.52952161920985 -607.67701326280985 0 -607.67701326280985 -762.79395842828308 0 0 0 0 -868.27475087515086 -1785.9924193675693 0 -1785.9924193675693 -1431.931098037734 0 0 0 0 -1685.3740640875476 -1199.5323749294075 0 -1199.5323749294075 348.83706211700337 0 0 0 0 185.18844357107673 380.48414157542413 0 380.48414157542413 539.91303627073466 0 0 0 0 -1114.8318497902219 102.58327178931631 0 102.58327178931631 1064.2131261225909 0 0 0 0 269.14234439175561 -226.79587708348026 0 -226.79587708348026 10.944053325785717 0 0 0 0 -449.95881672673204 -269.60266397346732 0 -269.60266397346732 377.24025161181396 0 0 0 0 -30.779037175629128 -344.79017917472811 0 -344.79017917472811 367.0244702389391 0 0 0 0 419.92891360132353 -395.35975139889149 0 -395.35975139889149 -913.41304507358473 0 0 0 0 250.0207749264373 81.953434308724354 0 81.953434308724354 -1086.7589204547353 0 0 0 0 390.63973234361583 -94.56129474231966 0 -94.56129474231966 -999.79249595023339 0 0 0 0 226.59810786887829 -84.392990851001969 0 -84.392990851001969 -622.8268053249576 0 0 0 0 212.88049068275177 -85.878695469999457 0 -85.878695469999457 -562.36275164880135 0 0 0 0 195.08418922705096 -107.4584525088203 0 -107.4584525088203 -146.14985830737442 0 0 0 0 213.85242473814287 -81.720298992413746 0 -81.720298992413746 -190.92838930333619 0 0 0 0 140.09691113431836 0.39551273756455885 0 0.39551273756455885 -160.86272265960361 0 0 0 0 78.888947021842796 -101.93607236795333 0 -101.93607236795333 -132.54148199779047 0 0 0 0 13.734637312274572 -39.775292982810242 0 -39.775292982810242 -32.628336278436109 0 0 0 0 3.3005458071148439 -41.39991970475004 0 -41.39991970475004 -22.121645335997911 0 0 0 0 3.2422303428793384 -176.11446421346773 0 -176.11446421346773 -16.172416220979358 0 0 0 0 3.241793708668915 -10.412261279855873 0 -10.412261279855873 -26.379949499778863 0 0 0 0 -9.2293530643510167 -197.55182500356932 0 -197.55182500356932 482.62009278947608 0 0 0 0 365.92893314421417 -665.65202060063166 0 -665.65202060063166 -170.97042831795807 0 0 0 0 495.59239032508867 -401.00843387643636 0 -401.00843387643636 -2053.6595422294195 0 0 0 0 -8.6426505861055389 5.9138675652376023 0 5.9138675652376023 -7.6165079866593182 0 0 0 0 532.28238141844849 -1069.6208467677607 0 -1069.6208467677607 -1298.270466617294 0 0 0 0 -8.0449760363769727 -7.6172960912102976 0 -7.6172960912102976 -41.984054787210937 0 0 0 0 916.06857216068784 555.45126764302677 0 555.45126764302677 105.06026808796378 0 0 0 0 -23.698197254382386 27.473889012703566 0 27.473889012703566 -33.506210445693995 0 0 0 0 190.83745498496137 74.309894255243307 0 74.309894255243307 -85.464182077373209 0 0 0 0 -22.226295772685262 9.0565307246451994 0 9.0565307246451994 -93.541703486744836 0 0 0 0 12.940634851905983 -14.876106916371931 0 -14.876106916371931 -52.271329756054911 0 0 0 0 2.5261366795057256 -9.3078530442526244 0 -9.3078530442526244 -32.16087964446524 0 0 0 0 23.380104974417918 -44.032090411466925 0 -44.032090411466925 -62.372872553543857 0 0 0 0 1.2576536278401917 -24.848604705910333 0 -24.848604705910333 -39.786921305295692 0 0 0 0 20.126709517553095 -27.476229391823637 0 -27.476229391823637 -47.093914629152806 0 0 0 0 16.411403437475016 -15.653290097615375 0 -15.653290097615375 -4.7272424453809094 0 0 0 0 6.227191642609796 -56.196247074281928 0 -56.196247074281928 -56.737508227663056 0 0 0 0 -2.3364798794555099 -58.466412749598703 0 -58.466412749598703 -56.497083398509858 0 0 0 0 1.5683330429455964 -42.458995836535905 0 -42.458995836535905 -56.979060262088751 0 0 0 0 1.5674179578972698 -17.413713214956275 0 -17.413713214956275 -32.547138874094358 0 0 0 0 54.846038867664902 -47.129190694360659 0 -47.129190694360659 -65.499056450014905 0 0 0 0 23.561725912592919 -65.93909991141345 0 -65.93909991141345 -79.006076468773244 0 0 0 0 8.1150994941926911 -57.141417576112872 0 -57.141417576112872 -64.580437932476343 0 0 0 0 30.256009767608703 -39.478408304073128 0 -39.478408304073128 -59.469543383020209 0 0 0 0 14.665960043635096 -29.206254230985905 0 -29.206254230985905 -50.528871450347651 0 0 0 0 49.970915329312902 -4.8368089382987591 0 -4.8368089382987591 -39.621271715790499 0 0 0 0 4.4655046374238196 -1.1592097051764263 0 -1.1592097051764263 -8.4581708555903319 0 0 0 0 -21.029813232631568 69.084888058696379 0 69.084888058696379 -418.81104871553907 0 0 0 0 73.891047683915531 -79.836658110558346 0 -79.836658110558346 -435.7033929226086 0 0 0 0 125.63086671560814 187.96291767124785 0 187.96291767124785 0.31103078358137282 0 0 0 0 28.515449938113306 -53.990603850186744 0 -53.990603850186744 -40.42831490332901 0 0 0 0 23.379327906764956 -38.234601455293159 0 -38.234601455293159 -66.751174392000394 0 0 0 0 6.8595146232974002 15.697531680260454 0 15.697531680260454 -9.3098930478809052 0 0 0 0 12.927874327542668 -34.459187412377105 0 -34.459187412377105 -60.457089059709688 0 0 0 0 8.0974385933981736 -27.359626475625177 0 -27.359626475625177 -10.754083516613754 0 0 0 0 -102.00506647586735 228.93981778775333 0 228.93981778775333 -581.28855889715851 0 0 0 0 -2.8749100693505767 -4.939716026143671 0 -4.939716026143671 -4.4790534228136352 0 0 0 0 -534.94960495485793 -400.43523193921646 0 -400.43523193921646 -255.87376776235033 0 0 0 0 -216.81775496778573 -150.54489646097863 0 -150.54489646097863 -59.595815677865176 0 0 0 0 -47.283462803152361 -390.7337028028378 0 -390.7337028028378 -688.01104790850513 0 0 0 0 376.49579470330355 -306.05394663638435 0 -306.05394663638435 -680.87013257231774 0 0 0 0 -1196.8908867881619 -169.74784038011421 0 -169.74784038011421 -613.49766824274775 0 0 0 0 17.579630395073764 -229.58680086409549 0 -229.58680086409549 -1452.7418432365666 0 0 0 0 249.80901741210073 -643.48409009669558 0 -643.48409009669558 -918.18654257697926 0 0 0 0 0.62379601585003286 0.39034691550284606 0 0.39034691550284606 -1.6719652568642127 0 0 0 0 -256.6786481608724 -312.61074085086511 0 -312.61074085086511 -1102.6097086439768 0 0 0 0 9.2803169016806351 -78.84040050931435 0 -78.84040050931435 -984.4094548935791 0 0 0 0 -58.813830777973635 -85.830019941122373 0 -85.830019941122373 -946.47737715059338 0 0 0 0 -88.929720333384466 -57.897094149946497 0 -57.897094149946497 -980.77583645046252 0 0 0 0 30.393958047014166 -274.11565065982722 0 -274.11565065982722 -930.6357808743378 0 0 0 0 68.33638067622087 -106.11441921682126 0 -106.11441921682126 -1021.8470803706841 0 0 0 0 -102.21359783531352 -201.27099253270922 0 -201.27099253270922 -1065.5168358952433 0 0 0 0 -50.535234101432479 -186.63419817080603 0 -186.63419817080603 -1040.6256430138965 0 0 0 0 162.28046223356432 78.618240423900716 0 78.618240423900716 -795.45122170778995 0 0 0 0 -33.249714082114224 -58.839112438683514 0 -58.839112438683514 -1211.1675601445349 0 0 0 0 13.48342156090257 -317.69157546099268 0 -317.69157546099268 -751.4859380516391 0 0 0 0 2.0734677810382678 -1.4656026433175739 0 -1.4656026433175739 -1.8245638763048202 0 0 0 0 36.913388670171116 -180.69647517630074 0 -180.69647517630074 -1124.3492381484539 0 0 0 0 -2.7418604001722997 -213.84292571245442 0 -213.84292571245442 -1239.9125881563086 0 0 0 0 2.4897275965582111 1.1263430428178332 0 1.1263430428178332 -2.6120002516565251 0 0 0 0 -16.246597410507889 -162.31815791232157 0 -162.31815791232157 -796.83977167306148 0 0 0 0 -9.0635675050871214 -243.75339874999918 0 -243.75339874999918 -854.05298028636753 0 0 0 0 -13.120533004315689 -124.96137047227171 0 -124.96137047227171 -1022.2668342755278 0 0 0 0 -0.050009191461867886 -302.05607014945053 0 -302.05607014945053 -809.03258202786674 0 0 0 0 17.008910712105717 -187.62873565289556 0 -187.62873565289556 -1045.3104313205022 0 0 0 0 17.118904068658594 -260.34658929916986 0 -260.34658929916986 -905.17253699440698 0 0 0 0 0.16154362231463892 -271.40842746938506 0 -271.40842746938506 -912.10348179228458 0 0 0 0 95.109441954690737 -338.3042043193409 0 -338.3042043193409 -866.50532985207974 0 0 0 0 59.755771807816927 -229.94959742951824 0 -229.94959742951824 -901.02740119869122 0 0 0 0 -3.8022936496727198 -300.65948804476648 0 -300.65948804476648 -804.66847148560555 0 0 0 0 -82.544524236371217 -309.84855586583581 0 -309.84855586583581 -801.58070402048179 0 0 0 0 3.4063320865443529 -365.84004234651366 0 -365.84004234651366 -799.10020570224151 0 0 0 0 -108.9825268681434 -317.66704235494763 0 -317.66704235494763 -807.22355735908786 0 0 0 0 158.63988250971488 -492.90415840273272 0 -492.90415840273272 -762.24264874484652 0 0 0 0 189.08491551199745 -173.61198676156619 0 -173.61198676156619 -812.36396720408447 0 0 0 0 885.73692530021981 -397.24596606236628 0 -397.24596606236628 -892.89152590949743 0 0 0 0 -0.40351494775730856 -0.43107512663174674 0 -0.43107512663174674 -0.49828663373068594 0 0 0 0 -319.93500387444237 590.84234168747389 0 590.84234168747389 -868.08357056930981 0 0 0 0 119.9375541310983 68.360943389561726 0 68.360943389561726 -1110.6321494581316 0 0 0 0 251.95640354438365 -83.415444704740366 0 -83.415444704740366 -946.49780566994013 0 0 0 0 46.835914426104864 -277.39781352014688 0 -277.39781352014688 -824.22862410823609 0 0 0 0 95.558274584559513 -199.2825555036743 0 -199.2825555036743 -813.30252256115273 0 0 0 0 192.79308965247765 -124.89348923706712 0 -124.89348923706712 -1018.7058380894996 0 0 0 0 74.601697700106342 -77.49654414476754 0 -77.49654414476754 -817.20875672363763 0 0 0 0 78.590755043540412 -77.033590490300412 0 -77.033590490300412 -1006.2881915997286 0 0 0 0 107.06508860848953 -70.68100592711744 0 -70.68100592711744 -1143.4176102293786 0 0 0 0 99.496860792788539 -41.959013891389986 0 -41.959013891389986 -1117.5627209084269 0 0 0 0 55.607159602980119 -158.89456036821412 0 -158.89456036821412 -990.6952740354609 0 0 0 0 19.551572494172433 -299.83051355419229 0 -299.83051355419229 -877.47772528566202 0 0 0 0 -73.134950634481356 -212.75433436593448 0 -212.75433436593448 -924.4152145113876 0 0 0 0 125.12931505094639 -135.68610665405504 0 -135.68610665405504 -983.21534450067884 0 0 0 0 68.841260144887201 -222.83321554538998 0 -222.83321554538998 -782.0397299245833 0 0 0 0 -33.047694403840978 -274.12793086575402 0 -274.12793086575402 -800.35902681610605 0 0 0 0 152.50870887576912 -406.78057844618888 0 -406.78057844618888 -574.13407841357184 0 0 0 0 -14.194298961392178 -177.20460451386111 0 -177.20460451386111 -264.01605726914204 0 0 0 0 -13.629386528644318 -321.73955034595019 0 -321.73955034595019 -740.48123070745351 0 0 0 0 -8.3636306814369163 -232.4999730517884 0 -232.4999730517884 -710.89571404840535 0 0 0 0 -9.3091268970674719 -190.04009487890653 0 -190.04009487890653 -750.7119912871749 0 0 0 0 3.7709858966896519 -1.4955914169247251 0 -1.4955914169247251 -1.7343549284152093 0 0 0 0 138.06851986378024 -71.141356555745006 0 -71.141356555745006 -1204.5273278906516 0 0 0 0 -19.12943478190391 -190.46035318647409 0 -190.46035318647409 -746.85462755912522 0 0 0 0 -120.4670266376047 -289.80078556880562 0 -289.80078556880562 -964.35906362590322 0 0 0 0 2.3339302022761927 0.46217642621860477 0 0.46217642621860477 -1.1879284038699023 0 0 0 0 263.67538844995215 -72.979263057339267 0 -72.979263057339267 -1035.3638326109503 0 0 0 0 -178.1929190982205 113.34656250735975 0 113.34656250735975 -653.36115995253931 0 0 0 0 279.87850257200262 -340.63933085531789 0 -340.63933085531789 -610.04710051573784 0 0 0 0 340.36794973369251 -229.58586754123098 0 -229.58586754123098 -529.5356418301908 0 0 0 0 365.7836386448389 -213.01069013541746 0 -213.01069013541746 -846.12116992242954 0 0 0 0 99.45679556489813 -128.20565021523907 0 -128.20565021523907 -481.59477713715751 0 0 0 0 70.919020391993399 -245.70766106324663 0 -245.70766106324663 -785.68743523725061 0 0 0 0 -115.96288753907993 -185.30340707561299 0 -185.30340707561299 36.274960767663288 0 0 0 0 -10.375983747053397 -117.20328498309755 0 -117.20328498309755 -91.501585234858794 0 0 0 0 2.1222824173964909 -16.487133414488198 0 -16.487133414488198 -80.908175114933783 0 0 0 0 5.4744562817621159 -1.0308651185757114 0 -1.0308651185757114 -1.3577349934904674 0 0 0 0 155.13207177944059 37.634536433341054 0 37.634536433341054 -7.460643714555772 0 0 0 0 63.516040213342421 -415.12318295483237 0 -415.12318295483237 -224.43397804353481 0 0 0 0 -195.88048530133437 -329.24070742719232 0 -329.24070742719232 -167.776449628509 0 0 0 0 190.65618268216349 79.218179066903758 0 79.218179066903758 -571.7025252455569 0 0 0 0 -136.51145365968478 -60.756534321077197 0 -60.756534321077197 -140.3390037483332 0 0 0 0 2.6155495248822263 -79.841139555039263 0 -79.841139555039263 -146.36065116056125 0 0 0 0 -6.7146587486859062 -25.958281151011761 0 -25.958281151011761 -605.58914539105717 0 0 0 0 -18.984951565485972 -149.29654564067823 0 -149.29654564067823 -199.77510666979651 0 0 0 0 7.6605611659106216 -29.975788922056381 0 -29.975788922056381 -188.41394035902681 0 0 0 0 -112.60028287682508 -70.639318766590804 0 -70.639318766590804 -53.480896341501648 0 0 0 0 12.388769481619548 -5.0106271045177664 0 -5.0106271045177664 2.0098968840970883 0 0 0 0 -31.283749260350305 -68.979840346350102 0 -68.979840346350102 -59.068384186211915 0 0 0 0 -23.709013265986869 -44.408497101350804 0 -44.408497101350804 -47.201530991305845 0 0 0 0 33.751127350937168 -72.306142781322706 0 -72.306142781322706 -2.9516674521801178 0 0 0 0 26.629551388030222 -11.261316844603016 0 -11.261316844603016 -91.436602139743627 0 0 0 0 5.7846527078427243 58.614355180960047 0 58.614355180960047 -113.83637202597311 0 0 0 0 25.182833594892145 18.700441682989549 0 18.700441682989549 -38.49232233901057 0 0 0 0 -13.577477632898471 -6.5332974830621282 0 -6.5332974830621282 -5.3341708175173963 0 0 0 0 82.003661377631943 -36.907087339885948 0 -36.907087339885948 -130.52560502872075 0 0 0 0 -363.55195546311006 -154.24250208762896 0 -154.24250208762896 177.80738617298266 0 0 0 0 -2537.5989096233388 -652.4454869449437 0 -652.4454869449437 -955.94857412578131 0 0 0 0 -31.24385373586874 -18.370161457361259 0 -18.370161457361259 -8.2163979198866315 0 0 0 0 47.436555930788018 -114.08156015157147 0 -114.08156015157147 7.0273106786626158 0 0 0 0 108.00713672738129 -84.195312658761395 0 -84.195312658761395 -67.269999520312012 0 0 0 0 1222.1529660057058 1160.7911412580706 0 1160.7911412580706 -2083.044351767554 0 0 0 0 -308.00068940196206 -524.02066094705197 0 -524.02066094705197 -334.17039496708094 0 0 0 0 -177.03101290267023 -196.55762942918864 0 -196.55762942918864 -166.61804463120279 0 0 0 0 -131.9125550540175 -213.78500112494294 0 -213.78500112494294 -173.98769760008508 0 0 0 0 -610.20810070347034 -720.84273236862464 0 -720.84273236862464 -533.15981281737368 0 0 0 0 -104.6242727187564 -350.76272653152591 0 -350.76272653152591 -864.6788495220535 0 0 0 0 -83.811868421269381 -182.31618492591724 0 -182.31618492591724 -638.95108213565982 0 0 0 0 -81.748974237325825 -98.356623583760864 0 -98.356623583760864 -1924.1551723713928 0 0 0 0 -1244.8153964388748 194.84081434497057 0 194.84081434497057 -494.14923693413039 0 0 0 0 -181.97945070207697 -66.819070630147507 0 -66.819070630147507 -430.41723261912921 0 0 0 0 -462.40729596727397 101.54512470537611 0 101.54512470537611 -124.96818353264462 0 0 0 0 -132.90826393424913 220.47289922471646 0 220.47289922471646 -657.59590137309897 0 0 0 0 -185.34280584835687 14.574417729141715 0 14.574417729141715 -119.79568695653325 0 0 0 0 -233.48787759248171 -44.103021814703425 0 -44.103021814703425 45.026928826753647 0 0 0 0 -166.57554423071633 -256.30655959854357 0 -256.30655959854357 262.19099266186277 0 0 0 0 -317.14971516715741 -16.525463421237873 0 -16.525463421237873 148.88836235245981 0 0 0 0 -17.954884188122378 -166.08018733261952 0 -166.08018733261952 -139.07583071077897 0 0 0 0 -104.94011840114399 -176.9570788795736 0 -176.9570788795736 153.51347356245668 0 0 0 0 -134.98072063851214 -195.66753137400156 0 -195.66753137400156 205.14317708743692 0 0 0 0 -5.4173139769307852 -15.968138754662984 0 -15.968138754662984 -39.266557918549466 0 0 0 0 93.583791733166436 -195.85485545988013 0 -195.85485545988013 193.88248429122541 0 0 0 0 -68.935132629456348 -137.32465941669034 0 -137.32465941669034 114.8356081059087 0 0 0 0 -117.22898107452238 -79.111316088025887 0 -79.111316088025887 88.200338688647207 0 0 0 0 -147.77414035787569 -34.294057096750748 0 -34.294057096750748 40.830909907665045 0 0 0 0 -209.61789904329271 -92.970580417969359 0 -92.970580417969359 129.09966042753149 0 0 0 0 -21.637773492077255 -23.27902633698919 0 -23.27902633698919 -9.5890632449695286 0 0 0 0 6.3541748372508664 17.718967978885303 0 17.718967978885303 53.538893869846561 0 0 0 0 179.5236066777652 -302.52481789368539 0 -302.52481789368539 129.93411014773665 0 0 0 0 -16.048982139784073 -29.525083588459175 0 -29.525083588459175 -40.36533312765998 0 0 0 0 95.371032808090604 -332.27572573140787 0 -332.27572573140787 184.38778581906627 0 0 0 0 -4.4486887909733923 53.410871796688127 0 53.410871796688127 -3.8415873451183415 0 0 0 0 -44.700105181218532 61.319853990630122 0 61.319853990630122 -4.1218004955412653 0 0 0 0 -342.53603429019131 -11.145155294027063 0 -11.145155294027063 259.60905674442802 0 0 0 0 344.47757716074557 95.121186048110303 0 95.121186048110303 -189.99458143622269 0 0 0 0 -276.66302952079604 52.604109033580244 0 52.604109033580244 59.260963761884341 0 0 0 0 -3.434239116318949 -13.973261493840297 0 -13.973261493840297 -41.792695836206441 0 0 0 0 616.29424321075567 -786.4246359647359 0 -786.4246359647359 -165.65761160718102 0 0 0 0 948.34974923352274 609.31930184851444 0 609.31930184851444 -3185.8892158351864 0 0 0 0 119.1877254550709 443.67602872945281 0 443.67602872945281 -51.510192598721005 0 0 0 0 -194.91344216831567 -691.13034742807304 0 -691.13034742807304 -2532.8165017201864 0 0 0 0 -3.0304639995428566 -7.4429121617230898 0 -7.4429121617230898 -17.324818803206249 0 0 0 0 -673.28951936414978 -894.05437872480661 0 -894.05437872480661 -797.74541225790199 0 0 0 0 528.78824872116365 816.68188574559872 0 816.68188574559872 -2232.5879236767069 0 0 0 0 7.1126619271526579 -1321.6824928927945 0 -1321.6824928927945 -2024.0610361972585 0 0 0 0 376.78426791355741 -752.5041042474395 0 -752.5041042474395 -1908.2166280001038 0 0 0 0 -21.954013807540832 -224.32352873728132 0 -224.32352873728132 -1859.6050441667148 0 0 0 0 -199.07116895289437 -387.13412531932681 0 -387.13412531932681 -1049.4003924093586 0 0 0 0 -213.34898838746449 -545.53026089948526 0 -545.53026089948526 -1089.4779035928668 0 0 0 0 -9.5689234212550218 -306.01212318574835 0 -306.01212318574835 -1363.5621245577422 0 0 0 0 14.029456124244462 -138.24352034321146 0 -138.24352034321146 -1416.018993423218 0 0 0 0 -186.11611556430398 -30.810719365045657 0 -30.810719365045657 -238.53465720085023 0 0 0 0 -418.44924110265356 -456.42711561622991 0 -456.42711561622991 -748.04840633896674 0 0 0 0 -337.94759548638467 -58.896956231648801 0 -58.896956231648801 -34.746315983645218 0 0 0 0 -153.54696026358579 -201.35730259531692 0 -201.35730259531692 -972.28541625654725 0 0 0 0 -221.93525477874573 846.86057194048976 0 846.86057194048976 -633.12504218995753 0 0 0 0 -62.406857181473242 1039.4416572129453 0 1039.4416572129453 -471.34513764652576 0 0 0 0 216.65448282190573 400.53662236519602 0 400.53662236519602 -251.16991772173424 0 0 0 0 32.72704909691538 -1405.5964876855319 0 -1405.5964876855319 -2996.2364215653715 0 0 0 0 -75.582111984189396 475.61800189178393 0 475.61800189178393 171.8614019527468 0 0 0 0 -9.7728062929671538 8.2691010275747932 0 8.2691010275747932 -9.2137813690062593 0 0 0 0 -390.63208854352706 -314.3917421841586 0 -314.3917421841586 -1207.5476325251389 0 0 0 0 -244.35824179918927 443.53853564782571 0 443.53853564782571 356.5327055063899 0 0 0 0 935.39324759157171 391.14401464956018 0 391.14401464956018 -2392.387012106296 0 0 0 0 -850.92429120569432 -1337.3327059008525 0 -1337.3327059008525 -1037.3607155021946 0 0 0 0 180.59086249933716 -209.754333927689 0 -209.754333927689 4.9090267373649112 0 0 0 0 -32.948929310858482 -38.7885363073121 0 -38.7885363073121 -42.612866703736643 0 0 0 0 -71.091565718286802 24.018818895678578 0 24.018818895678578 33.224364086792775 0 0 0 0 30.072916432901792 -121.86133172533255 0 -121.86133172533255 -110.48086620583854 0 0 0 0 -117.33802801977981 -421.30081363158808 0 -421.30081363158808 469.86679417958885 0 0 0 0 -48.844330024274321 -47.379918296209532 0 -47.379918296209532 -37.815580346648282 0 0 0 0 -6.5927095722327067 -76.633102779800538 0 -76.633102779800538 14.797169000408758 0 0 0 0 -13.250390276896002 -23.440649120673505 0 -23.440649120673505 -20.293840201316193 0 0 0 0 -1.5938950072527405 -171.3470586493404 0 -171.3470586493404 92.491496931215806 0 0 0 0 126.21776349418889 -117.89001953802654 0 -117.89001953802654 -26.898043836161378 0 0 0 0 -40.451611414711806 53.666231015422682 0 53.666231015422682 -118.8177944171635 0 0 0 0 -172.10446886901161 75.781008706646105 0 75.781008706646105 38.069819706784074 0 0 0 0 -153.02075507877839 -142.65629421962726 0 -142.65629421962726 -177.98518844114278 0 0 0 0 -9.2334788410480542 60.12065531059136 0 60.12065531059136 28.352617562360592 0 0 0 0 5.2262539771516003 -78.81188263666445 0 -78.81188263666445 -30.266149409166246 0 0 0 0 -26.334911712626599 -30.789820808425951 0 -30.789820808425951 -22.720626092724423 0 0 0 0 -178.91217498628248 -24.359569053690961 0 -24.359569053690961 293.81092912611166 0 0 0 0 -21.068686521326526 -29.086980375239364 0 -29.086980375239364 -29.185782314023527 0 0 0 0 -18.926960689068437 -37.663221947346415 0 -37.663221947346415 82.096535709820728 0 0 0 0 -33.094628063986491 -30.407929184004097 0 -30.407929184004097 -19.67994901900208 0 0 0 0 -20.432176814972763 -29.942970775317686 0 -29.942970775317686 -28.310884382822508 0 0 0 0 7.4784399773009227 -23.887627622214723 0 -23.887627622214723 -31.231375723138626 0 0 0 0 -28.056232794027892 -32.224323074777203 0 -32.224323074777203 -23.862792116895434 0 0 0 0 10.989041080337756 -40.625883756503754 0 -40.625883756503754 -45.732028719990922 0 0 0 0 8.7315663027804931 -31.0709570878862 0 -31.0709570878862 -64.391034095322539 0 0 0 0 36.594800909017749 45.422542748679916 0 45.422542748679916 -11.410305603836605 0 0 0 0 -0.027974736346416229 1.1619230651143653 0 1.1619230651143653 -1.8481482228004609 0 0 0 0 -56.55417715158228 -197.81989052551216 0 -197.81989052551216 -570.28932683067615 0 0 0 0 -68.610530741098501 -137.43967697413245 0 -137.43967697413245 -389.26208520066393 0 0 0 0 -118.24678275173801 -151.00679829149976 0 -151.00679829149976 -344.81827666948084 0 0 0 0 -3.8823700503803265 -0.78803188959634696 0 -0.78803188959634696 -7.6100155048916491 0 0 0 0 -67.694268634567379 -139.04243129949828 0 -139.04243129949828 -390.27271239281617 0 0 0 0 7.7846148394648935 -139.26464039682469 0 -139.26464039682469 -27.612575920288805 0 0 0 0 30.800257839307335 -54.311394585456583 0 -54.311394585456583 -311.4310205425063 0 0 0 0 86.016983387220876 -208.00187940987053 0 -208.00187940987053 -307.57593984722189 0 0 0 0 55.146553843272159 -40.058153229489108 0 -40.058153229489108 -195.90086194043943 0 0 0 0 85.924994953487612 -160.88890045411426 0 -160.88890045411426 -145.59135127769696 0 0 0 0 67.248195409705204 -52.770419009859324 0 -52.770419009859324 -186.21303539798828 0 0 0 0 113.82176225315614 11.34074306274988 0 11.34074306274988 -328.59018646363256 0 0 0 0 15.134389430980036 121.47541652342534 0 121.47541652342534 -280.41055139157834 0 0 0 0 115.53526538041137 9.8943703718687175 0 9.8943703718687175 -413.7839100258152 0 0 0 0 62.126336854055353 58.781042999202327 0 58.781042999202327 -371.88558915594922 0 0 0 0 125.90765931179521 -84.060166634688358 0 -84.060166634688358 -397.91103155064775 0 0 0 0 11.489255529392494 -21.636859273330629 0 -21.636859273330629 -156.7416422397946 0 0 0 0 -11.484902496617678 -61.318790476720096 0 -61.318790476720096 -213.80541487829578 0 0 0 0 95.191674057704404 -32.982993276033085 0 -32.982993276033085 -311.13360033743083 0 0 0 0 -2.0288225568186373 -0.86602264154032582 0 -0.86602264154032582 -0.45139185302534202 0 0 0 0 102.29305525471386 -50.613746087030449 0 -50.613746087030449 -380.57963708161515 0 0 0 0 12.929705239707801 -27.923180296877035 0 -27.923180296877035 -326.13217999088374 0 0 0 0 1.3481920224719488 -78.829648721264675 0 -78.829648721264675 -224.01625823129143 0 0 0 0 -68.903341446815602 -175.52832544493504 0 -175.52832544493504 -208.09196610802428 0 0 0 0 -101.14645578510954 -121.49763550918942 0 -121.49763550918942 -407.76269858869637 0 0 0 0 -133.77529868679949 -125.92210866937239 0 -125.92210866937239 -334.63975658841264 0 0 0 0 -1.2883551825872894 -0.30863848249010317 0 -0.30863848249010317 -0.53554219932632918 0 0 0 0 -175.09389273536226 -143.80400036672654 0 -143.80400036672654 -48.717943223598922 0 0 0 0 -70.169553136866853 141.40666715783664 0 141.40666715783664 -319.20395079989248 0 0 0 0 20.28931508276105 -68.721890931848066 0 -68.721890931848066 -621.94887818967618 0 0 0 0 -184.55762551720636 -131.07761346302141 0 -131.07761346302141 -382.97219992197643 0 0 0 0 -102.12449395912881 5.2404856118155294 0 5.2404856118155294 -388.79221999659012 0 0 0 0 -74.620183385148948 -30.075368877387518 0 -30.075368877387518 -345.54899143359944 0 0 0 0 -37.545886725554283 1.7906038733117384 0 1.7906038733117384 -331.36433133125684 0 0 0 0 -85.466548570020677 -78.134619715288864 0 -78.134619715288864 -287.90552983757516 0 0 0 0 -65.889581894301955 -82.485449900290405 0 -82.485449900290405 -328.55923138739377 0 0 0 0 -115.56287863570378 -161.63418534212542 0 -161.63418534212542 -301.2322490153565 0 0 0 0 -17.473297608098164 -100.56461443534317 0 -100.56461443534317 -235.38310397617897 0 0 0 0 4.7867818769534694 -3.2018455330021567 0 -3.2018455330021567 -15.675158561511232 0 0 0 0 7.7646270743607602 53.658472486808023 0 53.658472486808023 -26.256402974184311 0 0 0 0 -40.277640962217447 -160.74009450079029 0 -160.74009450079029 -224.94348057079605 0 0 0 0 35.495869573592245 -38.127691533016332 0 -38.127691533016332 -315.47970755515416 0 0 0 0 -43.243438788284948 -25.491070283729641 0 -25.491070283729641 -189.06303866860981 0 0 0 0 -47.196084518817315 -9.6619090216972836 0 -9.6619090216972836 -326.85884914085545 0 0 0 0 -24.14097027340722 -31.478723660879041 0 -31.478723660879041 -308.21352052420843 0 0 0 0 -82.442530175196225 -74.022575071063329 0 -74.022575071063329 -267.83892855596241 0 0 0 0 64.746577368812723 -110.66866534048859 0 -110.66866534048859 -223.03350618005425 0 0 0 0 62.30644907342139 30.230496098878575 0 30.230496098878575 -210.09544352865123 0 0 0 0 44.406241161958725 2.252848093122827 0 2.252848093122827 -127.53515703034245 0 0 0 0 -20.982168976664752 -16.528662569790185 0 -16.528662569790185 -145.8204985877619 0 0 0 0 -3.638499401437457 -48.263712256063627 0 -48.263712256063627 -197.01336858537832 0 0 0 0 -16.633324695000937 -51.449060380532174 0 -51.449060380532174 -199.37189749578829 0 0 0 0 -23.934568260572632 -83.088408631980201 0 -83.088408631980201 -276.11379305491118 0 0 0 0 0.56277385807266711 -26.72119378856204 0 -26.72119378856204 -100.94619210550653 0 0 0 0 20.619584321917568 27.047700788223196 0 27.047700788223196 -74.997219410119129 0 0 0 0 -41.567638816329577 -97.770083593230424 0 -97.770083593230424 -215.95734727336071 0 0 0 0 -30.063044188394997 62.78182469584317 0 62.78182469584317 -229.10492502848501 0 0 0 0 -38.573428857453109 -65.971732908401464 0 -65.971732908401464 -215.5143499367523 0 0 0 0 -268.73991758280226 -75.974279417878279 0 -75.974279417878279 -302.35618705984234 0 0 0 0 39.305809195139318 -47.808090917902518 0 -47.808090917902518 -326.16708954705973 0 0 0 0 -39.254075724879385 -71.734332810746196 0 -71.734332810746196 -209.1491790806823 0 0 0 0 -45.730537164927696 -46.248091392099489 0 -46.248091392099489 -193.45649437083898 0 0 0 0 -137.95779701696756 -83.264515855524223 0 -83.264515855524223 96.843071666015021 0 0 0 0 -59.897085877841519 -72.192304089731792 0 -72.192304089731792 -40.680867548777798 0 0 0 0 17.25237609528596 25.735559938406631 0 25.735559938406631 -87.632834449949783 0 0 0 0 4.7712138601987135 -102.25025179130535 0 -102.25025179130535 -261.14329207360788 0 0 0 0 -62.973703954486197 -71.833147763298655 0 -71.833147763298655 -17.258261193764813 0 0 0 0 -217.37874210030714 -179.95620949777003 0 -179.95620949777003 -4.3699626144807553 0 0 0 0 -65.708313949608055 6.3676357894437388 0 6.3676357894437388 -374.73202540080092 0 0 0 0 -96.819259215280908 -190.6968224360462 0 -190.6968224360462 -384.33424782720977 0 0 0 0 14.785280876152683 -71.935001382360497 0 -71.935001382360497 -239.61679781608836 0 0 0 0 -45.530881431102898 -66.529719852365815 0 -66.529719852365815 -127.21325246313063 0 0 0 0 -28.948346300045266 -31.373061781511723 0 -31.373061781511723 20.782192450754366 0 0 0 0 -240.60443952269452 -269.32485209035804 0 -269.32485209035804 -121.66015948733548 0 0 0 0 -156.76654043287999 -212.30792301761539 0 -212.30792301761539 -407.58422417473048 0 0 0 0 -13.70248556124352 -111.85714260599343 0 -111.85714260599343 -438.82427185960114 0 0 0 0 -31.681164281955489 -77.713092872856578 0 -77.713092872856578 -369.60283069217257 0 0 0 0 -100.36155290081842 -101.93976756488701 0 -101.93976756488701 -228.46679505482462 0 0 0 0 -28.05290558939123 -33.155810079984803 0 -33.155810079984803 -62.068270326305083 0 0 0 0 -27.31775913090895 -22.891418160782635 0 -22.891418160782635 -2.412615773470641 0 0 0 0 -196.37553355764248 -347.95990221947432 0 -347.95990221947432 -237.81497793862081 0 0 0 0 -7.6770466293711177 1.2633670569476578 0 1.2633670569476578 6.3782139845231001 0 0 0 0 -138.60972911248882 -131.22709561650117 0 -131.22709561650117 -344.72811108004316 0 0 0 0 -50.287049833319088 -158.53072598312974 0 -158.53072598312974 -382.69885457248893 0 0 0 0 -39.515612576602052 -178.86900374276775 0 -178.86900374276775 -361.70452851093432 0 0 0 0 -177.57498092072819 -223.07740476614345 0 -223.07740476614345 -358.82566061957186 0 0 0 0 -32.598609758608745 -172.13841037750535 0 -172.13841037750535 -586.8533352844388 0 0 0 0 -118.53899848011235 -150.77863423551844 0 -150.77863423551844 -321.5398791324842 0 0 0 0 -74.173068517926367 -111.16893732024255 0 -111.16893732024255 -293.42275624290778 0 0 0 0 -75.734510559538649 -185.80906468193643 0 -185.80906468193643 -300.70019650614267 0 0 0 0 47.664637616316213 -96.112908634338964 0 -96.112908634338964 -256.90857478663384 0 0 0 0 -46.725314988074388 -185.24902338341053 0 -185.24902338341053 -259.11011673127894 0 0 0 0 1.9641672215817838 8.1421609815819522 0 8.1421609815819522 -10.105177901820326 0 0 0 0 -126.24963073433537 -147.27977556185215 0 -147.27977556185215 -142.49682946534085 0 0 0 0 -81.091957651708981 -133.50943058857592 0 -133.50943058857592 -376.10579326312291 0 0 0 0 -2.6188812735717875 -184.32817469603833 0 -184.32817469603833 -378.52388522247202 0 0 0 0 -33.484389293344066 -175.84396708373242 0 -175.84396708373242 -364.56741188556271 0 0 0 0 -39.323717315575777 -165.36087933920498 0 -165.36087933920498 -361.62727243429981 0 0 0 0 -167.85424263331697 87.072113993463972 0 87.072113993463972 -47.118247297599737 0 0 0 0 -6.353770753464854 -12.272290504948115 0 -12.272290504948115 -17.721219013523637 0 0 0 0 -90.189748640324979 82.71368502511541 0 82.71368502511541 -107.78231300410698 0 0 0 0 -136.58455374441837 14.617592588187108 0 14.617592588187108 -43.912267646148393 0 0 0 0 -42.386315042407659 72.383500194999215 0 72.383500194999215 -73.219941823670524 0 0 0 0 -3.0231293956239824 35.152064597627032 0 35.152064597627032 -85.97130994273175 0 0 0 0 -416.11864489184154 94.7702648367449 0 94.7702648367449 162.98963342384013 0 0 0 0 -49.328959442020277 89.023299819724343 0 89.023299819724343 -135.19589504488977 0 0 0 0 15.651855600142881 309.24246596032572 0 309.24246596032572 267.61356802657065 0 0 0 0 -324.26760030761034 -175.66927616792896 0 -175.66927616792896 902.93463452314609 0 0 0 0 -9.9673970191501304 -7.9366142895602536 0 -7.9366142895602536 -43.183416851414506 0 0 0 0 -54.978889599507966 46.54314898503435 0 46.54314898503435 -32.010818865977853 0 0 0 0 -445.32072702536243 -656.25673527327308 0 -656.25673527327308 -982.31962084912811 0 0 0 0 -20.467210333055846 3.0745917591339094 0 3.0745917591339094 -71.400673094882222 0 0 0 0 -1648.5650415745222 -645.98786207982448 0 -645.98786207982448 951.9563800085416 0 0 0 0 103.3319961891757 462.30656477113735 0 462.30656477113735 -218.8044915135888 0 0 0 0 -1.1317974296600823 15.281747487980041 0 15.281747487980041 -103.28114713239498 0 0 0 0 -100.37250162238342 361.75289535272168 0 361.75289535272168 -447.11646806096542 0 0 0 0 -330.41838993522288 -27.847355573090681 0 -27.847355573090681 -447.50471686414676 0 0 0 0 -3.705078153582015 20.204924878706784 0 20.204924878706784 -99.008416359417566 0 0 0 0 71.440516524311533 32.760666318674339 0 32.760666318674339 -917.34009303116181 0 0 0 0 24.189455995663593 142.05622670576849 0 142.05622670576849 -523.30268208346752 0 0 0 0 -104.41641407061798 224.51385917764401 0 224.51385917764401 -539.79118998144622 0 0 0 0 -120.19483153229157 -12.598952179268963 0 -12.598952179268963 -842.29799790641482 0 0 0 0 -44.647177413955433 -405.98247491532948 0 -405.98247491532948 -1604.2832628870183 0 0 0 0 -105.26640156320354 82.794309212862572 0 82.794309212862572 -861.66964756635343 0 0 0 0 -11.292881422394657 -0.85596597334414781 0 -0.85596597334414781 -0.30725254467969876 0 0 0 0 20.018224255240057 -46.9630910600672 0 -46.9630910600672 -754.31664582627855 0 0 0 0 -113.723125647095 79.311801506975826 0 79.311801506975826 -770.39075633402445 0 0 0 0 -129.44256775489612 -6.9259568640809448 0 -6.9259568640809448 -719.64579621384109 0 0 0 0 -10.243431580212928 60.550551914865537 0 60.550551914865537 -603.47923536269957 0 0 0 0 1.9164870869281003 61.371282345950931 0 61.371282345950931 -685.01245950564589 0 0 0 0 75.911307733533249 69.286272256266784 0 69.286272256266784 -817.8019441126271 0 0 0 0 120.02586122187313 4.7835147586210951 0 4.7835147586210951 -814.04886341731617 0 0 0 0 -201.20536354687283 30.608468085687491 0 30.608468085687491 1039.2930262234358 0 0 0 0 -28.002390235594319 -9.5090991210786839 0 -9.5090991210786839 -2.1250888633696299 0 0 0 0 105.23931846654364 -169.18226657360606 0 -169.18226657360606 112.92759835026663 0 0 0 0 -346.15627417487121 -80.435933786335227 0 -80.435933786335227 139.87447600052292 0 0 0 0 101.28996792320868 -217.46572840962745 0 -217.46572840962745 -133.2853215016803 0 0 0 0 134.46673696654318 -379.76957592194049 0 -379.76957592194049 -170.81415448294138 0 0 0 0 -37.11617804211815 -15.271833442750776 0 -15.271833442750776 -3.2543531195224684 0 0 0 0 -253.88332579060716 -109.21998953998354 0 -109.21998953998354 896.79685753975718 0 0 0 0 -301.84179509207752 -254.6911832967653 0 -254.6911832967653 -259.15897461789473 0 0 0 0 26.236719728645767 -469.17484049180803 0 -469.17484049180803 -1323.2523870852183 0 0 0 0 156.20096407971869 -85.641342267294021 0 -85.641342267294021 -627.20812782583198 0 0 0 0 154.01282112720583 256.0060107519912 0 256.0060107519912 -390.29770898900301 0 0 0 0 431.24249024885921 352.98254068311098 0 352.98254068311098 -1466.5465014262554 0 0 0 0 -664.15397946421399 -221.1475997570933 0 -221.1475997570933 -349.58198040756179 0 0 0 0 71.623504301481262 75.508586292625296 0 75.508586292625296 -336.06288438692354 0 0 0 0 -133.04925878559283 -57.302431256533424 0 -57.302431256533424 208.25072835339051 0 0 0 0 -130.56368237437346 -145.63069606718091 0 -145.63069606718091 -733.61986351400992 0 0 0 0 -12.480474188677412 -14.715036433819559 0 -14.715036433819559 -18.485662494541206 0 0 0 0 -129.07561275293278 -758.66552489164792 0 -758.66552489164792 -48.084092964802039 0 0 0 0 -169.16437380848038 -943.50437025973406 0 -943.50437025973406 -898.34221581061138 0 0 0 0 125.05333966744001 1133.4549333717894 0 1133.4549333717894 -918.94120938226013 0 0 0 0 171.08611318212934 1335.0281893831993 0 1335.0281893831993 -2708.0362955155115 0 0 0 0 167.1641945084566 675.70451804904144 0 675.70451804904144 -1540.3554755168307 0 0 0 0 304.59379336219899 114.28487353025776 0 114.28487353025776 -103.83237953706521 0 0 0 0 -106.24291391185352 78.456519972010938 0 78.456519972010938 -80.421908414115023 0 0 0 0 178.6506822771189 33.711614078109051 0 33.711614078109051 -248.11568556308293 0 0 0 0 -167.17885502559056 28.103613576902717 0 28.103613576902717 -55.126695509117781 0 0 0 0 -35.848440041651578 -18.326180297897686 0 -18.326180297897686 -4.4605286108985212 0 0 0 0 154.45945617051075 -22.662774020111101 0 -22.662774020111101 -0.92485788900376065 0 0 0 0 -165.73409420401708 -239.59541517297475 0 -239.59541517297475 795.18167842110142 0 0 0 0 56.241561016018011 -319.94086080777197 0 -319.94086080777197 73.791861116515065 0 0 0 0 -110.72553476614195 -182.87165054337584 0 -182.87165054337584 480.69997328961836 0 0 0 0 -26.91062178808745 -18.188992632581019 0 -18.188992632581019 -3.3505381290508929 0 0 0 0 -323.92497385853801 -36.661822772079177 0 -36.661822772079177 -373.6715638005951 0 0 0 0 -81.888843166453512 -104.54875624155829 0 -104.54875624155829 36.655773954322285 0 0 0 0 4.2114638145471872 -209.68606570540578 0 -209.68606570540578 -382.83490843379695 0 0 0 0 21.674006848104412 -198.20017832604481 0 -198.20017832604481 -507.50794585113181 0 0 0 0 -136.53855570650148 -61.472065672576718 0 -61.472065672576718 -4.5738080280243594 0 0 0 0 -75.402535609492872 218.59476642763184 0 218.59476642763184 -666.40417581673137 0 0 0 0 -68.128371564919448 -93.668237801663054 0 -93.668237801663054 -1001.7440746838547 0 0 0 0 28.213509774065415 -56.432754559647947 0 -56.432754559647947 -10.343610633713979 0 0 0 0 -16.875275531347864 -7.738117931062547 0 -7.738117931062547 -5.5663022895634313 0 0 0 0 154.47161795405282 101.1960933072678 0 101.1960933072678 -973.41047606286156 0 0 0 0 -0.37469400505365602 -0.72424087807117132 0 -0.72424087807117132 -4.4843706575072275 0 0 0 0 25.953047902508299 -187.74295507083116 0 -187.74295507083116 -605.57226460251695 0 0 0 0 70.80427901985864 110.26133311786111 0 110.26133311786111 -646.10828869382385 0 0 0 0 -188.66727154342794 222.61398583871051 0 222.61398583871051 -301.22791716169013 0 0 0 0 -1.6982441635057215 -1.8290255288223278 0 -1.8290255288223278 -5.7367911983973841 0 0 0 0 -35.411027116368814 5.0939422493029269 0 5.0939422493029269 -58.640947858744767 0 0 0 0 -11.164358794067255 -21.772349871549523 0 -21.772349871549523 -38.067079060438118 0 0 0 0 -12.195441837354082 -26.883280978827315 0 -26.883280978827315 -83.015816769111552 0 0 0 0 -50.182686969462907 -61.645038708757056 0 -61.645038708757056 -88.169914315869391 0 0 0 0 -30.061285725106018 -26.489803715139715 0 -26.489803715139715 -38.13397180337779 0 0 0 0 15.956969143266406 3.3249006070036558 0 3.3249006070036558 -77.430771558741981 0 0 0 0 -140.82619182447829 -87.785131769654981 0 -87.785131769654981 -88.645347662734366 0 0 0 0 8.3345864596211925 33.17759059732407 0 33.17759059732407 -26.386039258322853 0 0 0 0 10.891187085448273 3.2035877783600739 0 3.2035877783600739 -25.54950906617205 0 0 0 0 -13.599225352048506 49.27837238358552 0 49.27837238358552 -45.323807589642456 0 0 0 0 72.610469275869036 -26.448850935499649 0 -26.448850935499649 -99.088790490408428 0 0 0 0 12.127401568805681 17.322410128737829 0 17.322410128737829 -33.801753973639279 0 0 0 0 7.6899491486505482 14.145016022998064 0 14.145016022998064 -34.437653897698354 0 0 0 0 194.85923466521399 140.72137076709259 0 140.72137076709259 9.7762556335428599 0 0 0 0 299.89901826790901 -98.540680492544197 0 -98.540680492544197 -58.12145531477654 0 0 0 0 -19.347580514489096 90.234339084973726 0 90.234339084973726 -108.15077672080224 0 0 0 0 -1.3656224960487364 3.0641812616471356 0 3.0641812616471356 -0.54226757639187895 0 0 0 0 58.058020963647778 18.319939261458785 0 18.319939261458785 -165.06758842128329 0 0 0 0 55.135944099367407 -205.76461067422315 0 -205.76461067422315 147.61332166678403 0 0 0 0 -6.7256291506995751 0.23937133054488413 0 0.23937133054488413 -0.16118041498148017 0 0 0 0 -112.81051282694489 -162.94388699873525 0 -162.94388699873525 -598.30289187941162 0 0 0 0 56.005023913570085 128.55148189879765 0 128.55148189879765 -313.72909098726996 0 0 0 0 198.20274184121581 157.15266755377343 0 157.15266755377343 -1538.2175261133743 0 0 0 0 -32.999973771543409 84.372341865901944 0 84.372341865901944 -440.19993331017758 0 0 0 0 -386.93686780755979 -391.03088694293911 0 -391.03088694293911 -188.91089365631524 0 0 0 0 -92.047357215491502 -303.2478569636769 0 -303.2478569636769 -759.99293696078166 0 0 0 0 -44.710205891451551 -193.40076696567121 0 -193.40076696567121 -541.37147085414472 0 0 0 0 -364.33192150415562 -349.09578333004174 0 -349.09578333004174 -581.47114541748124 0 0 0 0 -404.62480692713143 -392.66596158639004 0 -392.66596158639004 -582.40501255932031 0 0 0 0 -439.2327290904359 -269.74579539556726 0 -269.74579539556726 -885.47278702529729 0 0 0 0 -647.28623550896009 -598.03669105753943 0 -598.03669105753943 -712.14896820838476 0 0 0 0 -137.65096266303044 -458.18220054162884 0 -458.18220054162884 -663.88171119119215 0 0 0 0 -233.83198647506288 -242.51779927557072 0 -242.51779927557072 -589.94231026167836 0 0 0 0 -58.86874159547142 -484.83752206324789 0 -484.83752206324789 -435.73913991232985 0 0 0 0 -45.548828651433723 -388.50770683589508 0 -388.50770683589508 -719.87225967352424 0 0 0 0 169.88996552485696 116.11197727585022 0 116.11197727585022 -378.76782611775707 0 0 0 0 -103.79612135859134 -84.524680993676157 0 -84.524680993676157 -159.44242877026772 0 0 0 0 298.71898148164871 -26.923382127550894 0 -26.923382127550894 -272.59016183664789 0 0 0 0 -94.440546915166124 -35.491004348474235 0 -35.491004348474235 -205.94158738240367 0 0 0 0 -44.519103749888018 158.43066306359833 0 158.43066306359833 -220.60124872741289 0 0 0 0 37.086115817686277 59.404146477234463 0 59.404146477234463 -100.50375198152324 0 0 0 0 67.63492758925895 155.16840575610695 0 155.16840575610695 -51.384293254814111 0 0 0 0 -198.87766302809905 17.211859502283914 0 17.211859502283914 -107.79873074536818 0 0 0 0 -191.52519271092024 65.69627172586479 0 65.69627172586479 -256.39461464231135 0 0 0 0 -430.90301957023621 -19.223048425159504 0 -19.223048425159504 -245.31672613332921 0 0 0 0 -541.75857696647836 -154.64382928608757 0 -154.64382928608757 -620.77083007679903 0 0 0 0 -108.07857910481835 48.822113752139558 0 48.822113752139558 -495.50849342590664 0 0 0 0 -298.41937912252979 -90.883551740458643 0 -90.883551740458643 -407.17300175903802 0 0 0 0 -94.93336277091305 -228.80662231583278 0 -228.80662231583278 -710.09571311267791 0 0 0 0 -309.70736677918831 -393.21074663280888 0 -393.21074663280888 -876.423723996646 0 0 0 0 -335.77073550236673 46.833786761559168 0 46.833786761559168 -822.08450829202775 0 0 0 0 -577.323288500942 -585.34494565892965 0 -585.34494565892965 -1600.9819255156472 0 0 0 0 -792.06123571199714 209.97823440240609 0 209.97823440240609 -1150.1687553272386 0 0 0 0 -1225.870708654089 -339.36960625673964 0 -339.36960625673964 -575.44833522637782 0 0 0 0 -535.03774653840082 -679.49944659134781 0 -679.49944659134781 -1100.6720833686413 0 0 0 0 -459.33963493179544 -257.3078563862291 0 -257.3078563862291 -568.4717817841447 0 0 0 0 -541.73453296196021 -471.15034796767395 0 -471.15034796767395 -534.53916979025234 0 0 0 0 -449.8854371933412 69.84171288406651 0 69.84171288406651 -487.28066319395657 0 0 0 0 -313.41920926824969 -107.31946461213374 0 -107.31946461213374 -281.71163104769221 0 0 0 0 -640.95234004127997 -223.59779905459436 0 -223.59779905459436 -313.30228172866919 0 0 0 0 -418.39865444333191 -185.94166324620528 0 -185.94166324620528 -168.50543784897309 0 0 0 0 -271.87918309549241 -316.28413102512059 0 -316.28413102512059 -387.63619235358783 0 0 0 0 -422.85437493216523 -58.366639228723216 0 -58.366639228723216 -117.96964874242258 0 0 0 0 -116.53000773381791 -250.99161300338164 0 -250.99161300338164 -325.382156231095 0 0 0 0 -126.39457789333392 -287.53488191366705 0 -287.53488191366705 -439.13768161626649 0 0 0 0 -253.84967116812913 -259.60876501771418 0 -259.60876501771418 -250.26633405038228 0 0 0 0 -237.06701917650935 -279.64788152088295 0 -279.64788152088295 -415.80586345912161 0 0 0 0 -239.67199010340846 -366.1020436290928 0 -366.1020436290928 -470.71794605146351 0 0 0 0 -21.252681952480543 -295.72166445773701 0 -295.72166445773701 -647.52025719554513 0 0 0 0 -118.26331210177523 -331.16438516950438 0 -331.16438516950438 -818.29142728752777 0 0 0 0 -122.49496239545624 -321.51183473670972 0 -321.51183473670972 -646.08112506648467 0 0 0 0 66.742294859162939 -210.58977750872145 0 -210.58977750872145 -836.19439022714505 0 0 0 0 -11.341985442435544 10.058716396131786 0 10.058716396131786 -23.437893550913941 0 0 0 0 -9.2812293340395087 3.3959244627304486 0 3.3959244627304486 -2.5151161697211784 0 0 0 0 -79.660044033505983 -42.993072340630533 0 -42.993072340630533 -147.53195231345308 0 0 0 0 -18.189105419285625 166.63672123182914 0 166.63672123182914 -497.04505278239958 0 0 0 0 -490.60505133821425 102.24106871397817 0 102.24106871397817 -46.74965587828774 0 0 0 0 -7.3821499996452715 -3.1344835576659804 0 -3.1344835576659804 -2.5049096707799521 0 0 0 0 -3.6329748459538678 -7.1894779432259384 0 -7.1894779432259384 -1306.4608953589632 0 0 0 0 15.791811815910478 719.83991327679905 0 719.83991327679905 477.49864326180978 0 0 0 0 -1347.3099251425497 -1812.2462699411117 0 -1812.2462699411117 -1754.7016881150776 0 0 0 0 -1295.7427204335399 -639.52878169116593 0 -639.52878169116593 -651.09960278238577 0 0 0 0 -925.67685452511068 -280.96682349065668 0 -280.96682349065668 -304.22437599995465 0 0 0 0 -538.74797939465498 -90.504129116299737 0 -90.504129116299737 -326.21402727653913 0 0 0 0 2.971612269285302 2.2446224784020643 0 2.2446224784020643 -4.0837662156528793 0 0 0 0 -454.84425132998149 -10.436220886909723 0 -10.436220886909723 -152.38785367304808 0 0 0 0 -3.4034435604944342 -4.7062256872271817 0 -4.7062256872271817 -4.7258924086069385 0 0 0 0 -551.8196870533593 -115.08736495482663 0 -115.08736495482663 -262.39989671139119 0 0 0 0 -236.64367470994694 154.54496375400777 0 154.54496375400777 -11.458275648376002 0 0 0 0 -137.37063268298516 -55.955034265289214 0 -55.955034265289214 -29.408374134400219 0 0 0 0 16.840417246152356 33.914114990759117 0 33.914114990759117 -125.17440496026393 0 0 0 0 0.83017978006240156 -3.5621826810903663 0 -3.5621826810903663 -9.3493582822127053 0 0 0 0 -4.9463742289722141 3.4114237899451609 0 3.4114237899451609 -2.1017674491230522 0 0 0 0 133.11324466125598 177.76437180417452 0 177.76437180417452 -583.72610928857102 0 0 0 0 -525.94258595672272 428.20885726876077 0 428.20885726876077 276.38541699376947 0 0 0 0 42.137109450960907 87.158963486894208 0 87.158963486894208 -219.44711852920591 0 0 0 0 42.05653391472606 87.017503614644738 0 87.017503614644738 -213.55319425577181 0 0 0 0 -54.809629901465087 75.422039680086527 0 75.422039680086527 57.424757912303903 0 0 0 0 55.602445969575456 -0.49311189602303784 0 -0.49311189602303784 0.71891743709420552 0 0 0 0 -76.443484145677758 42.877640817663632 0 42.877640817663632 142.2940909533354 0 0 0 0 -49.080140803882387 -89.075143386391574 0 -89.075143386391574 -124.4705265071243 0 0 0 0 -15.972724749825375 32.651622201678947 0 32.651622201678947 15.472315208608052 0 0 0 0 -93.776701304625021 -148.2337999335723 0 -148.2337999335723 -165.07985162350815 0 0 0 0 -161.61757942732402 -133.41363432922662 0 -133.41363432922662 -24.212693003137247 0 0 0 0 -151.56481640180573 -217.38815295945824 0 -217.38815295945824 -247.76297991271895 0 0 0 0 -103.71246514264931 -236.68338966707961 0 -236.68338966707961 -326.20939942129007 0 0 0 0 -176.85829546760942 -223.10215638738373 0 -223.10215638738373 -177.28977194975596 0 0 0 0 -271.66043791537413 -46.952514885022538 0 -46.952514885022538 -6.9732834284368437 0 0 0 0 -167.98311459545948 9.8548441332459333 0 9.8548441332459333 -122.67791792887101 0 0 0 0 -248.30562638830452 -166.82208850415554 0 -166.82208850415554 -85.174641709047137 0 0 0 0 -189.02895159336913 -135.09571823623264 0 -135.09571823623264 -179.42316331140046 0 0 0 0 -93.270376989890792 -79.31182384803833 0 -79.31182384803833 -67.413793595875177 0 0 0 0 -76.710487990434558 -5.0894493913147016 0 -5.0894493913147016 -28.132327235754929 0 0 0 0 -10.778527492275316 -31.315673307974066 0 -31.315673307974066 77.034852560918807 0 0 0 0 -122.62820452774213 31.280402365275222 0 31.280402365275222 241.3988793630997 0 0 0 0 -31.934074198905176 28.870076011227752 0 28.870076011227752 -9.5116120813639853 0 0 0 0 32.070485796623416 131.77072671176575 0 131.77072671176575 106.00060669032973 0 0 0 0 -168.96218417924683 -34.276880377856287 0 -34.276880377856287 85.315982390020508 0 0 0 0 -17.322617619277239 25.618329762693222 0 25.618329762693222 -15.554498782461536 0 0 0 0 -72.390844101954826 142.27330574936786 0 142.27330574936786 260.98524242272106 0 0 0 0 -29.75365920720651 39.205354556324892 0 39.205354556324892 6.0424242174958636 0 0 0 0 161.22415972587623 113.57961212020746 0 113.57961212020746 -269.35612334632606 0 0 0 0 -5.7736433580972424 1.9252619893120411 0 1.9252619893120411 7.9474268302804063 0 0 0 0 41.926470672609867 64.717569350192207 0 64.717569350192207 146.75783810162102 0 0 0 0 -57.880887844385143 86.804489483078214 0 86.804489483078214 9.9965310245752335 0 0 0 0 -146.77121911827271 42.458125580713386 0 42.458125580713386 109.21377589174608 0 0 0 0 57.724526523132226 144.75056339412549 0 144.75056339412549 6.9470363884483959 0 0 0 0 -87.748778904580831 106.46350043383791 0 106.46350043383791 133.56019451761676 0 0 0 0 -83.721275954037992 127.29509822990804 0 127.29509822990804 -102.0904444720577 0 0 0 0 -82.627131537890818 89.001982523113838 0 89.001982523113838 14.705793277884368 0 0 0 0 -215.28391905108947 28.920074779616698 0 28.920074779616698 21.612035094265593 0 0 0 0 195.97899331552071 114.17566594633536 0 114.17566594633536 -67.65314194867824 0 0 0 0 3.5684084755498588 194.36811033421873 0 194.36811033421873 128.04651510249096 0 0 0 0 74.273425686934388 88.234577706221899 0 88.234577706221899 78.322856197657529 0 0 0 0 8.5293133205086633 187.2400140630125 0 187.2400140630125 -63.179615205783193 0 0 0 0 23.091267814366802 27.608998402971338 0 27.608998402971338 -54.557285063259769 0 0 0 0 35.846533915580949 70.171182388352463 0 70.171182388352463 41.835998904665757 0 0 0 0 0.16851715922705068 2.6066771249268896 0 2.6066771249268896 -7.6044111751097461 0 0 0 0 132.9641120576855 218.23986731482 0 218.23986731482 100.9525161849524 0 0 0 0 -19.822940670651601 10.525954550390807 0 10.525954550390807 -4.3798355418128168 0 0 0 0 -3.2745572251915291 140.19354308801849 0 140.19354308801849 162.4772598673735 0 0 0 0 -2.515910127264025 18.244802520284686 0 18.244802520284686 -26.963447581618567 0 0 0 0 46.626261442868781 165.5369301623432 0 165.5369301623432 99.067995386878465 0 0 0 0 68.858461716670945 226.24376883395598 0 226.24376883395598 152.19670650973421 0 0 0 0 -44.469373999305844 176.54799781205656 0 176.54799781205656 200.72629531248822 0 0 0 0 -72.751689668052336 181.16711006494734 0 181.16711006494734 306.50968556712542 0 0 0 0 -63.712920237459606 83.302716034329933 0 83.302716034329933 91.251892171101645 0 0 0 0 -50.53024856489796 17.17004592755984 0 17.17004592755984 -85.919635019745328 0 0 0 0 -109.41232948001425 -5.639705480010889 0 -5.639705480010889 133.14837997940413 0 0 0 0 -36.857531582880256 -67.640590788447298 0 -67.640590788447298 -82.503271343513916 0 0 0 0 -57.880575056809221 57.776614162074111 0 57.776614162074111 32.074739025621966 0 0 0 0 -79.819096495537622 58.753900118688762 0 58.753900118688762 88.849396259261994 0 0 0 0 -17.311767591181251 -65.704927076454624 0 -65.704927076454624 291.28635671595111 0 0 0 0 -92.064143663371397 19.876161142325145 0 19.876161142325145 343.18603173468728 0 0 0 0 -102.91455832766928 89.954193167061021 0 89.954193167061021 268.25313702353742 0 0 0 0 -24.79746596389532 -28.51601231515815 0 -28.51601231515815 161.54254402524384 0 0 0 0 -59.620007802312557 110.173799812791 0 110.173799812791 186.45312464478047 0 0 0 0 -43.358755537847173 190.28776062669203 0 190.28776062669203 74.214515677493182 0 0 0 0 33.847970885337418 -147.18008800585812 0 -147.18008800585812 -28.974551853432786 0 0 0 0 -14.619805087932447 8.4707435968705909 0 8.4707435968705909 -4.1503878187201479 0 0 0 0 165.06653432667235 106.54255753247708 0 106.54255753247708 -24.688997636680142 0 0 0 0 65.354394505568735 147.12116819591756 0 147.12116819591756 -40.401518809929257 0 0 0 0 168.21123785154168 -36.344842831749702 0 -36.344842831749702 71.221702322058263 0 0 0 0 -151.20813565892342 4.3822119447268051 0 4.3822119447268051 -111.98709790862631 0 0 0 0 -44.807291375852174 122.01142285155584 0 122.01142285155584 -195.69278470371501 0 0 0 0 -204.50559682674319 -101.64828135686184 0 -101.64828135686184 -214.0729379053173 0 0 0 0 -51.197535159350046 -11.66702067299957 0 -11.66702067299957 -332.29504944573273 0 0 0 0 -161.70224519781857 -234.10724801261313 0 -234.10724801261313 -413.80265648721979 0 0 0 0 -154.57147764064263 -121.51639465237349 0 -121.51639465237349 -111.08179694481078 0 0 0 0 -65.138282406422491 11.638625796889755 0 11.638625796889755 -173.01963108770724 0 0 0 0 -146.41836149686503 -168.23146406076557 0 -168.23146406076557 -424.31105480681072 0 0 0 0 -133.76739567206545 -67.813840135553619 0 -67.813840135553619 -263.39384440056892 0 0 0 0 -204.38118333031153 -183.58087125647216 0 -183.58087125647216 -195.28802998064202 0 0 0 0 -186.53438550972467 -148.07668282865234 0 -148.07668282865234 -529.58821031991101 0 0 0 0 -357.26755637891301 -258.20312293937968 0 -258.20312293937968 -371.00427126316754 0 0 0 0 -236.34704310335087 -392.26116433379502 0 -392.26116433379502 -605.68022455005848 0 0 0 0 -223.6476067082076 -221.089334371929 0 -221.089334371929 -449.01428096736709 0 0 0 0 -88.415725716011622 -245.86522113751329 0 -245.86522113751329 -410.79040780523792 0 0 0 0 -406.03062848482801 -453.49492504052341 0 -453.49492504052341 -365.40139485478721 0 0 0 0 -91.108543983098457 -12.057379507266887 0 -12.057379507266887 29.753400844383577 0 0 0 0 -43.896328181793706 -114.04310564367188 0 -114.04310564367188 -222.76825467971503 0 0 0 0 -29.310004334230598 0.78213767421584635 0 0.78213767421584635 -77.786290992880822 0 0 0 0 -98.729874476489158 -228.67356067909714 0 -228.67356067909714 -264.03272450501754 0 0 0 0 -247.08408912587493 -241.11691137342132 0 -241.11691137342132 -209.89202942563861 0 0 0 0 -145.47038236112303 -138.75756402942534 0 -138.75756402942534 -119.62301730069157 0 0 0 0 -28.215821765750434 -76.480728048860328 0 -76.480728048860328 -218.32631117796154 0 0 0 0 -95.466549016606848 -67.950228391126075 0 -67.950228391126075 -36.018377752581728 0 0 0 0 53.890987782712386 95.445683473473764 0 95.445683473473764 5.0366662473679753 0 0 0 0 -38.788552113079049 -48.218801556649851 0 -48.218801556649851 37.343079804966692 0 0 0 0 12.136295306740578 83.047624840430217 0 83.047624840430217 49.470881374145392 0 0 0 0 27.90027883957373 -18.622821656019369 0 -18.622821656019369 -123.95225105475402 0 0 0 0 -27.739511072904861 -19.441049311499228 0 -19.441049311499228 185.46785238546363 0 0 0 0 175.41478588586904 178.88143618262256 0 178.88143618262256 88.772893750385265 0 0 0 0 0.033278699083528096 0.6179842230937993 0 0.6179842230937993 -0.34419304964035291 0 0 0 0 24.402270578891603 60.856371681816199 0 60.856371681816199 116.95746140351548 0 0 0 0 210.40355127518183 -20.006627337745158 0 -20.006627337745158 26.894928651912778 0 0 0 0 -56.46564425532722 -109.49070064540865 0 -109.49070064540865 109.53375767010584 0 0 0 0 11.707400384936591 39.674505188844705 0 39.674505188844705 -64.38388070599467 0 0 0 0 -0.46068918339915399 50.675635995990888 0 50.675635995990888 -1.2350956874215626 0 0 0 0 0.073188804090477788 -31.521126491972609 0 -31.521126491972609 -53.442401520587737 0 0 0 0 6.5919261064777608 10.080179563599287 0 10.080179563599287 -29.044038872433816 0 0 0 0 4.5805425652133636 -7.1348509679992276 0 -7.1348509679992276 -59.886153515901242 0 0 0 0 -4.3219254657183228 9.9598620278211456 0 9.9598620278211456 54.389060458197491 0 0 0 0 4.6846505877807187 5.0888697685076707 0 5.0888697685076707 -18.636823713809079 0 0 0 0 4.698539585301555 4.5493384751163717 0 4.5493384751163717 -6.6184249933576211 0 0 0 0 2.4889000633891873 1.5122730994834797 0 1.5122730994834797 -4.4489304655289601 0 0 0 0 -164.2208453501305 76.480138262399123 0 76.480138262399123 179.63383521572541 0 0 0 0 35.612092151830439 135.01352343219332 0 135.01352343219332 25.923158931109356 0 0 0 0 -18.787330044980152 9.3370818259548471 0 9.3370818259548471 -7.2387694135492922 0 0 0 0 68.383254839856789 17.186002182710581 0 17.186002182710581 -193.8110344143679 0 0 0 0 -582.76732788085621 -119.30207702008192 0 -119.30207702008192 -72.809778255443234 0 0 0 0 -442.94318486688405 -519.49116686075649 0 -519.49116686075649 -391.61890345984284 0 0 0 0 -4.6558195416584134 -1.5033660623481779 0 -1.5033660623481779 -3.2215612555823157 0 0 0 0 -45.090858329793491 76.946348072575347 0 76.946348072575347 -6.1601153434239677 0 0 0 0 -349.46756919916089 -55.571446600955824 0 -55.571446600955824 82.667235025408445 0 0 0 0 -15.935599766301721 -5.9635598673557979 0 -5.9635598673557979 -67.490896154071379 0 0 0 0 -35.451756812534995 5.5866552758161561 0 5.5866552758161561 -60.046190999652026 0 0 0 0 -7.9779859991808735 -21.182752670534683 0 -21.182752670534683 -57.783424585184548 0 0 0 0 -28.040860057984219 -9.798104081855854 0 -9.798104081855854 -49.884378395632666 0 0 0 0 -34.76518979137586 -123.12145276950469 0 -123.12145276950469 -128.15720450707886 0 0 0 0 -191.16925217702146 -232.069222745562 0 -232.069222745562 -133.53501287489053 0 0 0 0 -150.74514001030465 -329.675982303414 0 -329.675982303414 -302.85515418682189 0 0 0 0 -241.46397543735623 -290.31732299131363 0 -290.31732299131363 -200.85873424168676 0 0 0 0 -140.33597991928639 -289.52937998506968 0 -289.52937998506968 -224.7824712912734 0 0 0 0 -96.374100819379009 -325.56705028775332 0 -325.56705028775332 -414.07511061631521 0 0 0 0 -95.7360872960802 -337.33432125233958 0 -337.33432125233958 -598.61509756942178 0 0 0 0 -448.62285593246031 -375.02154468680783 0 -375.02154468680783 -507.3439073596237 0 0 0 0 -403.15664178860197 -270.70670932422217 0 -270.70670932422217 -428.68925546617902 0 0 0 0 -25.103144811157904 -381.52699756112452 0 -381.52699756112452 -625.7574820380396 0 0 0 0 -129.50497347276183 -175.00497014430584 0 -175.00497014430584 -504.24239829080034 0 0 0 0 -220.42264776387628 -415.39254691052702 0 -415.39254691052702 -1130.9939875798591 0 0 0 0 -526.6691766322715 -406.76915497443406 0 -406.76915497443406 -516.09835813252357 0 0 0 0 -179.73323339413264 240.88489612997 0 240.88489612997 -1054.3654929286804 0 0 0 0 -76.070769888588529 -236.47979776904504 0 -236.47979776904504 -2352.608945402666 0 0 0 0 -145.40937469080302 26.607877617110717 0 26.607877617110717 -521.04506196941657 0 0 0 0 929.111312314006 817.87289579868593 0 817.87289579868593 -1857.4445058104757 0 0 0 0 598.90341363312018 2713.2357189968679 0 2713.2357189968679 -4486.7189703002368 0 0 0 0 821.91298927032358 825.22866709092705 0 825.22866709092705 -945.09269740310265 0 0 0 0 1.9730293048437901 1.9277702751852175 0 1.9277702751852175 -5.3559814228084193 0 0 0 0 -419.57200711272208 -1115.0311879753317 0 -1115.0311879753317 -2705.3757500969768 0 0 0 0 -137.05779146634541 -528.79591751925545 0 -528.79591751925545 -2001.3550156555884 0 0 0 0 -207.18421657466411 -937.90926633508207 0 -937.90926633508207 -2225.8064899823585 0 0 0 0 -293.0278454679036 -705.21951198005854 0 -705.21951198005854 -1696.9830568209145 0 0 0 0 5.2998918304473488 3.7583609618291547 0 3.7583609618291547 -10.827494353826921 0 0 0 0 784.47823332413429 -249.45526772404082 0 -249.45526772404082 -4501.2220705280524 0 0 0 0 79.499854530140112 -558.03271043964196 0 -558.03271043964196 -2611.1868628271041 0 0 0 0 3.6254694230246787 1.1455367379638801 0 1.1455367379638801 -9.8166076234802233 0 0 0 0 -442.28289146926267 -1556.2025520705447 0 -1556.2025520705447 -4498.1406871774525 0 0 0 0 -288.74397188489877 -681.00114399557788 0 -681.00114399557788 -1837.4664253992451 0 0 0 0 -259.05165536491813 -537.56642939546145 0 -537.56642939546145 -1437.2008523690674 0 0 0 0 -123.87841507530209 -747.22489836273962 0 -747.22489836273962 -1814.8090566929532 0 0 0 0 -363.10156866668854 -419.77977372036366 0 -419.77977372036366 -1034.119192633043 0 0 0 0 -218.68111590641649 -600.1752993381524 0 -600.1752993381524 -1416.0426341184157 0 0 0 0 -472.47001510532743 -326.38331161703718 0 -326.38331161703718 -1003.5652384530404 0 0 0 0 -259.3941571549708 -338.04908172943033 0 -338.04908172943033 -1633.2392624386403 0 0 0 0 -371.38464987669772 -357.31227628308807 0 -357.31227628308807 -1001.9711717204191 0 0 0 0 -450.19184479470272 -342.50968255425141 0 -342.50968255425141 -611.83516369400604 0 0 0 0 -212.98064739907841 -339.4900760850087 0 -339.4900760850087 -1057.2224633693477 0 0 0 0 -359.1972734053021 -384.80518150365606 0 -384.80518150365606 -608.60254684188385 0 0 0 0 -241.87741427342212 -187.19022125138508 0 -187.19022125138508 -602.0928002892615 0 0 0 0 -321.87864021217268 -197.09768832612644 0 -197.09768832612644 -383.21145321738732 0 0 0 0 -192.34948055982136 -71.08294082764769 0 -71.08294082764769 -262.63824374931301 0 0 0 0 -147.11907885721666 -56.101673211607704 0 -56.101673211607704 -526.36020185001689 0 0 0 0 -449.38705533470511 -251.10066362462749 0 -251.10066362462749 -442.04922267012989 0 0 0 0 -382.11610784571531 -379.15048655056671 0 -379.15048655056671 -720.72042901031818 0 0 0 0 -499.39584766709879 -593.39302335892808 0 -593.39302335892808 -914.53254769457999 0 0 0 0 -209.91488882551994 -555.24043924690341 0 -555.24043924690341 -1270.9660988170269 0 0 0 0 -394.37542169439479 -1304.7636965419188 0 -1304.7636965419188 -2037.7072620551044 0 0 0 0 -116.80821662816959 -822.15954452833466 0 -822.15954452833466 -1278.3224443207432 0 0 0 0 440.72931552351304 -849.55517662811326 0 -849.55517662811326 -2285.7744942515274 0 0 0 0 89.153277226043599 -485.98002917422855 0 -485.98002917422855 -1781.2648406713743 0 0 0 0 42.05987818827839 -2057.2357103556878 0 -2057.2357103556878 -4482.4002583142865 0 0 0 0 -1306.5182450678985 -1060.6544771200388 0 -1060.6544771200388 -542.34867257354199 0 0 0 0 188.4714709074633 -129.56309589043667 0 -129.56309589043667 -468.50205535972418 0 0 0 0 -697.11036378425797 -252.45317110974247 0 -252.45317110974247 -111.66425127549883 0 0 0 0 -179.90914218608862 709.50112437890857 0 709.50112437890857 -4751.291040801123 0 0 0 0 -2626.4357516893965 -2133.3016955549174 0 -2133.3016955549174 -998.69393776560901 0 0 0 0 -6.5755435859868268 -8.6886271681248033 0 -8.6886271681248033 -17.687037924965267 0 0 0 0 -418.88255687585848 506.35426515395193 0 506.35426515395193 -36.089987022583955 0 0 0 0 -791.2829801178209 2205.2580657738217 0 2205.2580657738217 -4891.969820094946 0 0 0 0 -1518.9507431506154 2923.7615189126664 0 2923.7615189126664 -4075.7830987910784 0 0 0 0 1.4265343727943054 -0.98985048035027035 0 -0.98985048035027035 -16.417024030160718 0 0 0 0 -2033.5788774075384 682.62581730826059 0 682.62581730826059 -4494.5683706257187 0 0 0 0 -1512.5782523256394 2467.2672206017669 0 2467.2672206017669 -2911.4147472946206 0 0 0 0 -84.886317226009623 -243.20498181899893 0 -243.20498181899893 -84.176695704178883 0 0 0 0 8.0853436087609225 43.651476761195227 0 43.651476761195227 129.73917642961351 0 0 0 0 -8.0479478280247854 -19.039240574680996 0 -19.039240574680996 -43.919480933023038 0 0 0 0 -132.44978385128167 111.56359416387932 0 111.56359416387932 -53.707985731998633 0 0 0 0 343.4105094185752 -390.51768267661828 0 -390.51768267661828 -285.48914563696599 0 0 0 0 -429.00966969603081 -26.854626850185468 0 -26.854626850185468 -150.91156480445352 0 0 0 0 -0.27385344307685955 -24.050784033381206 0 -24.050784033381206 -402.89604456066445 0 0 0 0 -119.93910170818413 117.15379831038535 0 117.15379831038535 -156.12960565891262 0 0 0 0 -8.2935695912675627 -23.540835850040455 0 -23.540835850040455 -53.832918341384499 0 0 0 0 279.40290570002344 -220.03324588257601 0 -220.03324588257601 74.034912415264444 0 0 0 0 196.56634875614429 116.32871071447153 0 116.32871071447153 -238.96400524987257 0 0 0 0 -277.38309527197089 -371.81128469286068 0 -371.81128469286068 -579.50213596029698 0 0 0 0 -273.16000738363255 -361.90689006064895 0 -361.90689006064895 -638.63998222074451 0 0 0 0 48.603537968799046 28.864472207177748 0 28.864472207177748 -148.24541402748463 0 0 0 0 -40.230696044562137 40.780400475414353 0 40.780400475414353 -265.75459128193324 0 0 0 0 -399.22627115607975 -253.64750429818559 0 -253.64750429818559 -569.27836947153901 0 0 0 0 -550.98051804653187 -416.31628116026241 0 -416.31628116026241 -615.26489351700911 0 0 0 0 -317.59580405776069 -290.49468401717968 0 -290.49468401717968 -450.93455082140281 0 0 0 0 -246.81822411758549 -366.49856286370414 0 -366.49856286370414 -211.06869140140816 0 0 0 0 -156.29602742483257 -149.84169370376003 0 -149.84169370376003 -288.30244970247213 0 0 0 0 -223.52275248387014 -402.73371202733142 0 -402.73371202733142 -561.96522444366747 0 0 0 0 -363.51362816828282 -708.5146797290181 0 -708.5146797290181 -528.94768889031911 0 0 0 0 -31.44344210016061 -434.9575174927013 0 -434.9575174927013 -760.18044820460727 0 0 0 0 -99.692925041531453 -354.30281598945248 0 -354.30281598945248 -649.26136549286639 0 0 0 0 -113.40455236513662 26.962687293354975 0 26.962687293354975 -269.31349754895382 0 0 0 0 66.446038076375771 -39.885647845560015 0 -39.885647845560015 -732.01244510872857 0 0 0 0 15.770486511702984 377.46811680268365 0 377.46811680268365 -1620.6402611133126 0 0 0 0 -292.65362183724574 -928.06197322019034 0 -928.06197322019034 -1407.7261107591712 0 0 0 0 -11.420705311867117 -10.605238822282878 0 -10.605238822282878 -3.1992138303480715 0 0 0 0 14.156142097606899 2.3560423359133651 0 2.3560423359133651 -55.445864307229229 0 0 0 0 73.436573980784488 127.88870148727983 0 127.88870148727983 -293.07352000904757 0 0 0 0 46.971984454868775 22.432953473807956 0 22.432953473807956 -155.55152575915827 0 0 0 0 -43.956889564732137 2.2088553621906613 0 2.2088553621906613 -312.62768567127932 0 0 0 0 49.024497767815475 29.024442349949211 0 29.024442349949211 -148.69931826937244 0 0 0 0 -47.957922778633929 3.8602956611994159 0 3.8602956611994159 -313.03840098321962 0 0 0 0 -44.618418028930591 30.355514753277021 0 30.355514753277021 -264.16418500797226 0 0 0 0 -38.240516474890683 4.4993853036467044 0 4.4993853036467044 -351.94362916307728 0 0 0 0 -80.554764397278632 -23.385829288219611 0 -23.385829288219611 -326.49809649474992 0 0 0 0 -3.5893414802353618 -81.49571203427513 0 -81.49571203427513 -376.26754802929736 0 0 0 0 -25.748374965432163 -103.37619715542678 0 -103.37619715542678 -376.6661376199263 0 0 0 0 144.48909882633188 -87.358540648325288 0 -87.358540648325288 -383.82312516022466 0 0 0 0 -13.087969469121617 -7.4057042059903324 0 -7.4057042059903324 -332.66042795465455 0 0 0 0 76.511026048322407 39.119528804124684 0 39.119528804124684 -315.83737290281715 0 0 0 0 -31.371305739052445 -243.32430439235577 0 -243.32430439235577 -295.87991517341288 0 0 0 0 15.753302231855514 -193.8667501841519 0 -193.8667501841519 -244.1028344551487 0 0 0 0 56.202210039128431 -178.41535593635854 0 -178.41535593635854 -380.00977271022293 0 0 0 0 24.03253552168519 -204.19111783859626 0 -204.19111783859626 -387.41924907167777 0 0 0 0 155.79492341940818 -231.56822103697414 0 -231.56822103697414 -382.24862831736937 0 0 0 0 67.490461963546068 -293.92700672029014 0 -293.92700672029014 -419.51024867920933 0 0 0 0 75.861896502371337 -325.64499099503155 0 -325.64499099503155 -450.9324952199604 0 0 0 0 258.67867848952608 -210.46699608043855 0 -210.46699608043855 -462.13548723114764 0 0 0 0 540.61065043344558 43.876338793626928 0 43.876338793626928 -328.23832643562827 0 0 0 0 325.02817298241371 -306.78526918027819 0 -306.78526918027819 -323.36360956671706 0 0 0 0 70.417767752132477 -178.92877116469754 0 -178.92877116469754 -379.40482788211739 0 0 0 0 138.63906593876243 -381.51386245383037 0 -381.51386245383037 -510.66529734232245 0 0 0 0 -26.110274117185327 63.603324742027326 0 63.603324742027326 -293.56409469679056 0 0 0 0 509.02185165225978 58.221036036768055 0 58.221036036768055 -422.85001228399778 0 0 0 0 70.124839322395928 -32.747795155697531 0 -32.747795155697531 -423.91390033205971 0 0 0 0 6.188077336431661 249.71412210926064 0 249.71412210926064 -433.31968201635755 0 0 0 0 9.6810520713301376 6.6886924433998161 0 6.6886924433998161 -32.932117557626057 0 0 0 0 40.544872838588169 23.013466637766086 0 23.013466637766086 -152.89186616139145 0 0 0 0 -51.791602174680065 93.8922718472204 0 93.8922718472204 -271.62715073031541 0 0 0 0 -611.25671992798925 -435.33796129173197 0 -435.33796129173197 -180.47522525196837 0 0 0 0 -40.630468190351294 -51.63636803199627 0 -51.63636803199627 -85.336963608951095 0 0 0 0 687.02186506023156 -2.4171766414765443 0 -2.4171766414765443 -138.46367031207956 0 0 0 0 707.60427428164962 -195.46060348736864 0 -195.46060348736864 -68.014267690621637 0 0 0 0 -0.060994465222075522 19.342732536321741 0 19.342732536321741 -77.267745517701428 0 0 0 0 -608.50895772778711 -587.95559957648948 0 -587.95559957648948 -854.75327829319019 0 0 0 0 -558.9726161442477 -183.1729652652366 0 -183.1729652652366 -848.83641961513604 0 0 0 0 436.10398050491699 128.83281895922119 0 128.83281895922119 -378.96199358093236 0 0 0 0 314.90257469975512 -255.43084534327681 0 -255.43084534327681 -518.63847844481643 0 0 0 0 693.72779117909261 66.197518843247281 0 66.197518843247281 -342.17733878453873 0 0 0 0 740.37938261449221 -147.83368452975901 0 -147.83368452975901 -277.07431958139932 0 0 0 0 1347.727584980561 625.75867181372087 0 625.75867181372087 -296.34499318579356 0 0 0 0 487.62972014954551 27.948240696629 0 27.948240696629 -209.5558968560872 0 0 0 0 274.8138574959907 -193.10401396923771 0 -193.10401396923771 -836.02003054986562 0 0 0 0 242.49433094925692 103.62351707830476 0 103.62351707830476 526.92543094562279 0 0 0 0 -34.019067614901019 852.62616021348367 0 852.62616021348367 -1308.705893189519 0 0 0 0 1.895419105823231 21.323653941601805 0 21.323653941601805 -56.087387154191916 0 0 0 0 -1476.4991802452141 -2759.3495842664261 0 -2759.3495842664261 -4494.9797299545844 0 0 0 0 378.04122825861032 2009.2629710388173 0 2009.2629710388173 107.63368247397784 0 0 0 0 -0.64933530628975755 7.3620734459734152 0 7.3620734459734152 -25.113002405583558 0 0 0 0 -429.32897583245892 -817.89368083380668 0 -817.89368083380668 -2025.7728953213755 0 0 0 0 -18.658397758065064 -218.9303754032926 0 -218.9303754032926 -2966.5010206765055 0 0 0 0 -484.89883243641572 -947.51846406242657 0 -947.51846406242657 -2324.0195538829412 0 0 0 0 -643.02644234075694 -1413.4019389957812 0 -1413.4019389957812 -2344.5888464636801 0 0 0 0 298.91698807583396 -1181.9258027822834 0 -1181.9258027822834 -4499.5234466842612 0 0 0 0 357.83495771341904 -618.13754576887459 0 -618.13754576887459 -3119.7631425489471 0 0 0 0 393.31756030668129 -343.45084200299652 0 -343.45084200299652 -4500.1526226110936 0 0 0 0 69.937250161542977 193.14655748773748 0 193.14655748773748 -3618.1610623068536 0 0 0 0 -124.30321493581141 -11.851446581042524 0 -11.851446581042524 -2909.5818719979143 0 0 0 0 -62.69420057549442 145.29510126206605 0 145.29510126206605 -3010.5005889062959 0 0 0 0 -31.300087328806569 -297.96160766898538 0 -297.96160766898538 -2903.1917933503155 0 0 0 0 -410.47709331224621 78.976353008071783 0 78.976353008071783 -1180.7157094721088 0 0 0 0 -76.766706719332291 207.21194875642777 0 207.21194875642777 -2319.9427884840552 0 0 0 0 -533.35984365657509 -282.05011476754044 0 -282.05011476754044 -220.91363837169047 0 0 0 0 -53.301196698601927 -54.506869899888287 0 -54.506869899888287 -44.473678796389009 0 0 0 0 -9.9140358745874764 -12.296702896716504 0 -12.296702896716504 -20.485105091478417 0 0 0 0 160.21437466740281 27.169963626126446 0 27.169963626126446 -14.175460525030175 0 0 0 0 -23.36414137426042 -14.792020941401164 0 -14.792020941401164 -14.149679378924418 0 0 0 0 -32.550362398999908 -29.245000390802883 0 -29.245000390802883 -27.07132913189173 0 0 0 0 163.90570006723283 -141.22183193010869 0 -141.22183193010869 -11.271001854844179 0 0 0 0 -354.21360884649584 -125.74624352056253 0 -125.74624352056253 -60.888218292602687 0 0 0 0 -214.35495852835083 -178.15557508645998 0 -178.15557508645998 -444.22622790934474 0 0 0 0 -325.48307096288045 -318.53904114346597 0 -318.53904114346597 -530.36992837099388 0 0 0 0 -3.4285392408015554 7.3646171202095765 0 7.3646171202095765 -5.179720797082453 0 0 0 0 -459.48786125550032 -192.96278036216427 0 -192.96278036216427 -627.74101870842742 0 0 0 0 -327.25909967697135 -366.41808890615812 0 -366.41808890615812 -406.53520350138933 0 0 0 0 -15.381500137069224 31.342990340741267 0 31.342990340741267 -89.472069749866932 0 0 0 0 -18.168235399815089 -25.787854373982281 0 -25.787854373982281 -11.439700608667504 0 0 0 0 -19.631313586152068 22.229661175609316 0 22.229661175609316 -28.576843969822544 0 0 0 0 -139.10922212712831 -312.92525447513799 0 -312.92525447513799 -594.26404729359274 0 0 0 0 149.79317386268917 81.353650031055395 0 81.353650031055395 -243.08705648704199 0 0 0 0 179.10255142189271 -186.93963223960554 0 -186.93963223960554 -277.84699713634518 0 0 0 0 61.936585297232362 391.10435298265747 0 391.10435298265747 -285.22313408864511 0 0 0 0 -375.68848705927758 3.0436665637698752 0 3.0436665637698752 278.21831799554548 0 0 0 0 -1082.3670088117719 -1525.4393043368764 0 -1525.4393043368764 -1906.0791968064127 0 0 0 0 -352.65858500055356 -143.28000743529788 0 -143.28000743529788 221.43354153158225 0 0 0 0 -11.777065610805504 -10.456515453968738 0 -10.456515453968738 -12.801082732251363 0 0 0 0 55.955125955957158 296.26446769572203 0 296.26446769572203 -6409.9928503064548 0 0 0 0 -1498.0053546830436 -579.58711856812454 0 -579.58711856812454 -4499.7177157156857 0 0 0 0 -1166.6516953692737 135.12439700697797 0 135.12439700697797 -4628.5136165998447 0 0 0 0 30.383124406884281 -644.7128997251184 0 -644.7128997251184 -4500.2690809327278 0 0 0 0 420.68903377848181 -798.10691089537659 0 -798.10691089537659 -4129.1649472993995 0 0 0 0 623.13275121053016 -569.98802252392807 0 -569.98802252392807 -4720.746250097669 0 0 0 0 498.5802432860736 -322.87716689701574 0 -322.87716689701574 -4077.9327898242659 0 0 0 0 168.84044682654974 -1218.5636428016801 0 -1218.5636428016801 -3744.9831091627784 0 0 0 0 404.50789474228941 -814.5495582055969 0 -814.5495582055969 -5186.3162196594394 0 0 0 0 246.58356196397858 -62.225703974618227 0 -62.225703974618227 -2370.7020899314989 0 0 0 0 -356.11931337819368 -1076.0723171485961 0 -1076.0723171485961 -4755.4458635378869 0 0 0 0 289.48352171316594 -575.56144004756698 0 -575.56144004756698 -4500.4383409172142 0 0 0 0 33.320273815745423 115.75678389008863 0 115.75678389008863 -4640.4201394824195 0 0 0 0 7.5285202744037178 -455.27546414444896 0 -455.27546414444896 -6646.7918441955189 0 0 0 0 -274.37587985251946 -468.72445573454843 0 -468.72445573454843 960.46658738778751 0 0 0 0 87.10416164981325 -397.75453001999631 0 -397.75453001999631 -3248.7992198751372 0 0 0 0 -19.934876019116729 -26.780535320778565 0 -26.780535320778565 -13.074281541563362 0 0 0 0 181.92007290015044 -324.73191992085049 0 -324.73191992085049 131.42708159394533 0 0 0 0 288.1912719609968 -29.050929309554704 0 -29.050929309554704 -178.69834524158796 0 0 0 0 309.81667518028212 -425.73953152887225 0 -425.73953152887225 -472.05040302939233 0 0 0 0 310.61659589347892 15.819868897100605 0 15.819868897100605 -507.59138858508663 0 0 0 0 -24.161711554153253 -32.154790640305634 0 -32.154790640305634 -12.564904648406969 0 0 0 0 -732.23652135069119 -1015.5403498058593 0 -1015.5403498058593 -842.75237049163843 0 0 0 0 64.668981330006318 -85.026116134180484 0 -85.026116134180484 -136.18241659259729 0 0 0 0 71.170767411942506 7.5946272070250416 0 7.5946272070250416 -141.73737666265151 0 0 0 0 -24.562526105005873 -14.168477968381239 0 -14.168477968381239 -64.904192401310866 0 0 0 0 69.945197335159719 38.242433199673542 0 38.242433199673542 -49.103986335621812 0 0 0 0 -1487.9796801549637 -124.79297343114376 0 -124.79297343114376 -213.09905582118694 0 0 0 0 -243.50587261099736 256.72042119048785 0 256.72042119048785 -210.52387790225475 0 0 0 0 -17.981341049018987 23.875481248556515 0 23.875481248556515 -24.294752146269865 0 0 0 0 82.918747521842192 83.245086717243794 0 83.245086717243794 16.015473297062272 0 0 0 0 212.93803207708879 94.254992694097382 0 94.254992694097382 -223.22216779732662 0 0 0 0 298.72054819920095 68.766728851755033 0 68.766728851755033 -371.57848347610707 0 0 0 0 259.3577169055925 232.61766331919171 0 232.61766331919171 -351.1438466513755 0 0 0 0 208.50463643896819 152.97015709301195 0 152.97015709301195 -6.9628442801149504 0 0 0 0 235.66326306219116 114.86266709683696 0 114.86266709683696 2.8548074160307806 0 0 0 0 187.79159231441326 205.27140951146066 0 205.27140951146066 49.602266100632733 0 0 0 0 -9.3140637670748525 17.038206979776763 0 17.038206979776763 -20.461158996726965 0 0 0 0 767.88749964310284 187.87934595389379 0 187.87934595389379 189.55593130581474 0 0 0 0 181.84913855660284 169.41905027773282 0 169.41905027773282 188.99342724110465 0 0 0 0 -0.8287051667279357 5.900081663233685 0 5.900081663233685 -9.1891017349444724 0 0 0 0 -162.00873755676861 -739.16048737071833 0 -739.16048737071833 -1159.8575687832272 0 0 0 0 -49.29258450922589 -170.13281371044286 0 -170.13281371044286 -1113.8986883576927 0 0 0 0 -157.57875309327756 -416.06862247454319 0 -416.06862247454319 -868.91296137113386 0 0 0 0 -315.7296890956768 -551.65925782344311 0 -551.65925782344311 -712.40692130092066 0 0 0 0 -127.64198429532735 -505.92700634144603 0 -505.92700634144603 -513.8599968500348 0 0 0 0 -130.78376931009007 -527.51861658473172 0 -527.51861658473172 -656.86737206763428 0 0 0 0 -1168.4802218083059 -479.42866287447032 0 -479.42866287447032 -47.451121014371211 0 0 0 0 -467.15106783991178 -416.75242335070288 0 -416.75242335070288 -337.22059131135757 0 0 0 0 -160.3066100565411 34.345548014898668 0 34.345548014898668 -103.79871867351699 0 0 0 0 -615.55182796809822 -1069.2670277422785 0 -1069.2670277422785 -1044.3660943205978 0 0 0 0 218.43176949598273 -496.8768038227081 0 -496.8768038227081 -1639.5533517885215 0 0 0 0 174.14540944970213 -166.67952775146659 0 -166.67952775146659 -798.64765786557291 0 0 0 0 -325.63824860574186 11.337748357898818 0 11.337748357898818 101.66505845126085 0 0 0 0 -820.03293866748959 -397.81104348239387 0 -397.81104348239387 -812.77028388065082 0 0 0 0 -257.3578001155804 -241.6294021083886 0 -241.6294021083886 -112.9283089362616 0 0 0 0 -0.2446769148629846 2.150274757463535 0 2.150274757463535 -4.5734745002346386 0 0 0 0 -154.85237558169945 -755.75721927794075 0 -755.75721927794075 -1625.1057515968278 0 0 0 0 -153.82862432766535 -176.10980818931421 0 -176.10980818931421 -302.41436359775616 0 0 0 0 -216.97162485950957 -91.702127627369919 0 -91.702127627369919 -95.91829421530565 0 0 0 0 -127.04580649311515 -78.058422656078619 0 -78.058422656078619 -260.90816459108464 0 0 0 0 858.42713731271624 31.385303137838491 0 31.385303137838491 -190.81080774778457 0 0 0 0 193.49784384404984 68.156814099147596 0 68.156814099147596 -293.28412968589691 0 0 0 0 173.41909735335867 9.4664626503144973 0 9.4664626503144973 64.265951272580423 0 0 0 0 -97.980245823175665 20.711266740147948 0 20.711266740147948 45.656535365058517 0 0 0 0 0.20893132205414156 -7.2658499003451311 0 -7.2658499003451311 -34.669848994565626 0 0 0 0 986.4581559731854 -228.60169304375995 0 -228.60169304375995 -216.21470482629957 0 0 0 0 1036.7233330675147 217.17447367746718 0 217.17447367746718 -1086.2301156608009 0 0 0 0 610.47546409469714 -479.66781207287022 0 -479.66781207287022 -166.60405515215007 0 0 0 0 162.94894551702328 -117.09053593933641 0 -117.09053593933641 -57.700190815969108 0 0 0 0 216.40707091967352 197.34820128929641 0 197.34820128929641 172.89260571498016 0 0 0 0 -189.72057401400798 -269.38260953831559 0 -269.38260953831559 -49.600190230723456 0 0 0 0 496.21168396928329 -228.72219593259797 0 -228.72219593259797 -668.89413185650483 0 0 0 0 -0.60061626504228549 -7.4583904462239268 0 -7.4583904462239268 -29.771945524760184 0 0 0 0 499.35695972823419 112.87898368136848 0 112.87898368136848 -24.727908245480648 0 0 0 0 -141.19610296205201 455.19351881350485 0 455.19351881350485 -485.08232633439911 0 0 0 0 74.559861357714112 51.616376481444604 0 51.616376481444604 0.94761740917601855 0 0 0 0 -1087.1324944113683 -1166.7235483504192 0 -1166.7235483504192 -502.9628919716215 0 0 0 0 -716.14236740849992 -505.33230734670724 0 -505.33230734670724 48.494964709690976 0 0 0 0 -1.7823374427405358 -4.6653160186517582 0 -4.6653160186517582 -11.801122110141137 0 0 0 0 -745.5604488874103 -901.2021333731301 0 -901.2021333731301 -76.607953517399437 0 0 0 0 -387.61998074938788 -1037.0492892772891 0 -1037.0492892772891 -186.20847949542804 0 0 0 0 -386.19079676158015 -703.19325334934183 0 -703.19325334934183 -879.16245602322306 0 0 0 0 -500.25311291813193 -1071.238989005903 0 -1071.238989005903 738.70389337698725 0 0 0 0 -3.7257910767219049 -3.8743717972689282 0 -3.8743717972689282 -2.8497051293053488 0 0 0 0 185.94154906272229 -175.41025337272731 0 -175.41025337272731 -1951.2135550242529 0 0 0 0 -129.26241069318075 -226.23407363182469 0 -226.23407363182469 372.82812307351924 0 0 0 0 -166.59152969467482 -559.01789915815243 0 -559.01789915815243 -848.4193109008429 0 0 0 0 277.61241953646231 -386.82985672148061 0 -386.82985672148061 -2106.8316665467901 0 0 0 0 -346.5498245794177 -790.77612736682568 0 -790.77612736682568 -928.7856333098407 0 0 0 0 -283.65295362310627 -680.44089022021262 0 -680.44089022021262 -1878.7627984989413 0 0 0 0 -35.564588806095855 -289.18756367294918 0 -289.18756367294918 -2927.3797277496287 0 0 0 0 -9.9429687559905346 -480.67495953781327 0 -480.67495953781327 -2134.9519323459845 0 0 0 0 287.53737809788169 221.12079383957416 0 221.12079383957416 -1202.375593587858 0 0 0 0 -806.68665664333571 -737.80017881041567 0 -737.80017881041567 -1878.9612513477859 0 0 0 0 -175.35432228289295 -633.01749264695172 0 -633.01749264695172 -3605.9188908017222 0 0 0 0 -993.71818314002303 -1172.7142993467605 0 -1172.7142993467605 -2819.9420366426166 0 0 0 0 -7.748819337538043 -10.229612504968252 0 -10.229612504968252 -7.8124607606097811 0 0 0 0 -859.33221164824636 -1642.6247877926471 0 -1642.6247877926471 -1226.243669638003 0 0 0 0 -802.53327022087444 -1105.914019883654 0 -1105.914019883654 -4998.2534445269921 0 0 0 0 -517.2121388568205 -298.55557082114728 0 -298.55557082114728 -3415.0890400867011 0 0 0 0 -617.11140361914408 -720.20026401497353 0 -720.20026401497353 -4499.1570820288071 0 0 0 0 575.52881168653607 -74.549763115235692 0 -74.549763115235692 -3261.8570421592813 0 0 0 0 320.3470429424255 -439.86002358533005 0 -439.86002358533005 -4500.0815584598749 0 0 0 0 545.22576440704461 96.491285237167631 0 96.491285237167631 -3222.8358883611581 0 0 0 0 1057.604576087929 402.08514089463279 0 402.08514089463279 -4498.143835394163 0 0 0 0 808.16256053716756 253.73001013920293 0 253.73001013920293 -2796.2839793547369 0 0 0 0 1070.8665568792087 808.72515461227522 0 808.72515461227522 -2660.3090119748199 0 0 0 0 1094.8023560204799 1499.1386994214918 0 1499.1386994214918 -4501.986469414438 0 0 0 0 770.67380993552626 1164.3463046042798 0 1164.3463046042798 -4830.1492257849277 0 0 0 0 515.44458512670644 1259.4870628766876 0 1259.4870628766876 -4491.7949748252649 0 0 0 0 46.219366780920154 594.81312614431408 0 594.81312614431408 1206.6290875186028 0 0 0 0 6.1651074395542675 9.0463298024137657 0 9.0463298024137657 -1.3007285538244915 0 0 0 0 959.37616329011121 783.49447264282571 0 783.49447264282571 -944.68689239606101 0 0 0 0 290.74257972621535 265.19567837094928 0 265.19567837094928 -379.7243890849204 0 0 0 0 146.36117486338708 140.80058445365648 0 140.80058445365648 -331.16228283143209 0 0 0 0 271.59925915016197 -96.897204932576642 0 -96.897204932576642 -1251.8669603671924 0 0 0 0 608.2249611247363 53.770419507190127 0 53.770419507190127 -2200.3018726529153 0 0 0 0 363.97463378049224 -275.54293949514704 0 -275.54293949514704 -1034.4373539050903 0 0 0 0 225.43620025630798 -493.24761576843594 0 -493.24761576843594 -1069.7449362791085 0 0 0 0 524.55004098332824 -386.71042620687695 0 -386.71042620687695 -1805.1844879610398 0 0 0 0 517.74590806112758 91.536416906005798 0 91.536416906005798 -1812.3193003521083 0 0 0 0 589.08450875486017 -1085.5172862090294 0 -1085.5172862090294 -4500.1989039340187 0 0 0 0 193.58105933901663 -418.33794184409999 0 -418.33794184409999 -3119.7709799365184 0 0 0 0 -1735.5999951568556 -1002.0905775813044 0 -1002.0905775813044 -2854.4672241521766 0 0 0 0 -1468.4484502461319 -1973.9576135221951 0 -1973.9576135221951 -3265.3069735864628 0 0 0 0 -19.455305462804297 -4.3471546473775078 0 -4.3471546473775078 -21.862459315484752 0 0 0 0 -4.2754050809140018 6.804075532708687 0 6.804075532708687 -25.770360326307127 0 0 0 0 -1499.8853567089702 -2465.1979435084104 0 -2465.1979435084104 -4493.2683463856156 0 0 0 0 -1549.2278278634528 1185.6368914701634 0 1185.6368914701634 -938.67899883336804 0 0 0 0 26.365321168833816 11.295377868325076 0 11.295377868325076 -21.213832784606367 0 0 0 0 90.852661039243685 230.30576755674883 0 230.30576755674883 241.33496026252897 0 0 0 0 288.39680296505594 -78.20565608529796 0 -78.20565608529796 -827.46356946427477 0 0 0 0 89.944543301703561 -13.124178509020567 0 -13.124178509020567 -161.52768817896958 0 0 0 0 249.2215129391675 213.41709677786912 0 213.41709677786912 -207.60739812954489 0 0 0 0 35.806869642597604 -4.3963570838135482 0 -4.3963570838135482 -106.21587042690895 0 0 0 0 -1745.5303943547701 -491.7971883942846 0 -491.7971883942846 304.66052500111982 0 0 0 0 -956.12056711882815 327.64634596326505 0 327.64634596326505 -257.78828248852642 0 0 0 0 1469.0783200323249 -602.26946507002867 0 -602.26946507002867 -4062.9761759333196 0 0 0 0 31.599851228365303 3.0260779968897253 0 3.0260779968897253 -133.02059362290129 0 0 0 0 272.89825851127762 -19.997213313736211 0 -19.997213313736211 -615.10511718584166 0 0 0 0 -1.174768615161156 -1653.0085220292021 0 -1653.0085220292021 550.69768052126528 0 0 0 0 -11.289572182177267 -18.021160460612435 0 -18.021160460612435 -22.423246953583742 0 0 0 0 -127.32264188889437 -2617.7148664608203 0 -2617.7148664608203 2154.1005238570069 0 0 0 0 -328.27454862745981 -730.84581924673694 0 -730.84581924673694 1900.1333056078729 0 0 0 0 -631.82458528376492 -1729.7418061941935 0 -1729.7418061941935 -1308.4633673485077 0 0 0 0 -405.32556404460797 589.39447088572024 0 589.39447088572024 -1267.2938621489739 0 0 0 0 33.489217866823893 12.461551967744263 0 12.461551967744263 -123.72168790351162 0 0 0 0 -1657.2235869191982 1390.6776600336889 0 1390.6776600336889 1701.0801711340609 0 0 0 0 -243.62821854138065 24.625176185629243 0 24.625176185629243 -618.36975672643166 0 0 0 0 -350.7842586360548 -150.3969114184074 0 -150.3969114184074 -901.47037409939367 0 0 0 0 79.175410800183755 -262.39515642952313 0 -262.39515642952313 -665.1764068552875 0 0 0 0 92.336480583946468 -84.698300472688061 0 -84.698300472688061 -948.36459764049687 0 0 0 0 195.74882214503941 -235.40399391668689 0 -235.40399391668689 -720.16851815067457 0 0 0 0 53.00142725038495 -11.129916544399748 0 -11.129916544399748 -904.60335808761738 0 0 0 0 133.36610249202431 -144.79674226470706 0 -144.79674226470706 -855.85451120522339 0 0 0 0 17.078014780892318 19.981153401173287 0 19.981153401173287 -857.12063631234923 0 0 0 0 50.627691982143915 6.119845790151885 0 6.119845790151885 -1104.5639708924864 0 0 0 0 -67.726629569742727 97.635159371322516 0 97.635159371322516 -1066.7203705755255 0 0 0 0 42.498104878236973 12.30279064784736 0 12.30279064784736 -1098.3519216563727 0 0 0 0 -54.050341693336122 72.370322806689728 0 72.370322806689728 -1241.4304560947494 0 0 0 0 -253.11185755984297 17.758767410290602 0 17.758767410290602 -1047.3960916609212 0 0 0 0 -110.25532064562958 115.58045172250786 0 115.58045172250786 -1135.6159741914889 0 0 0 0 -48.696466051945208 -55.668641414304147 0 -55.668641414304147 -897.2769632664058 0 0 0 0 -41.978944249752601 68.496600897421672 0 68.496600897421672 -1075.1585545004928 0 0 0 0 -193.31183457607949 5.6871757543631247 0 5.6871757543631247 -879.75452825057437 0 0 0 0 -184.32845325059679 11.566076067952963 0 11.566076067952963 -1056.7290426570107 0 0 0 0 -370.34887435090786 245.65796094158941 0 245.65796094158941 -1289.0168114558037 0 0 0 0 -649.92820189338818 133.1374204810927 0 133.1374204810927 -1019.8913373277555 0 0 0 0 -254.13034912094474 29.646932766273267 0 29.646932766273267 -1031.6720240075665 0 0 0 0 -172.01985778429662 21.250940419544349 0 21.250940419544349 -1231.7491158986595 0 0 0 0 -174.43948932494823 36.61402735345473 0 36.61402735345473 -1303.3221111884632 0 0 0 0 -309.99856980003824 -98.47343418818491 0 -98.47343418818491 -1140.997869979823 0 0 0 0 -329.0672935010266 -189.55856985238643 0 -189.55856985238643 -1120.4453394973098 0 0 0 0 -477.05840342309602 -357.49720354357851 0 -357.49720354357851 -920.88949380868871 0 0 0 0 -107.53307696643969 -363.85482551353198 0 -363.85482551353198 -1415.4738980988113 0 0 0 0 -116.58951140746285 -436.44997195302858 0 -436.44997195302858 -1982.0301823260379 0 0 0 0 -525.18059344330231 -173.22562659927098 0 -173.22562659927098 -418.5024977705325 0 0 0 0 -54.195647983907293 -82.496187283908512 0 -82.496187283908512 -598.80334154987213 0 0 0 0 -497.11004133296592 -141.31008832182306 0 -141.31008832182306 -600.48048323349212 0 0 0 0 -1046.6498458723909 204.20734639823786 0 204.20734639823786 -723.54994908654044 0 0 0 0 -541.69786376129559 -382.77368333248887 0 -382.77368333248887 -105.9933116146567 0 0 0 0 -1.8808003017802903 -4.0226012663750481 0 -4.0226012663750481 -28.223774065648158 0 0 0 0 243.52767237858848 -310.93299187728007 0 -310.93299187728007 -342.69147455208076 0 0 0 0 162.07309880347867 -45.006943730748389 0 -45.006943730748389 -1440.6437141128117 0 0 0 0 542.97120419368775 -232.90070715270303 0 -232.90070715270303 -991.95419662802215 0 0 0 0 -4.0303382995913513 -8.1192980700707551 0 -8.1192980700707551 -6.8203606421253227 0 0 0 0 395.61887933369042 -558.48328776288281 0 -558.48328776288281 -754.20355650320562 0 0 0 0 -1.5908084708905434 -3.0150284486586969 0 -3.0150284486586969 -3.1256231669340266 0 0 0 0 195.19765905839813 -595.50219891083725 0 -595.50219891083725 500.52721686446603 0 0 0 0 367.2661337790355 -441.99596788115014 0 -441.99596788115014 -591.01114435169438 0 0 0 0 125.11325283307997 -78.418164836424694 0 -78.418164836424694 -534.96910957297132 0 0 0 0 267.75845312060801 -124.76895292084555 0 -124.76895292084555 -511.40129150046414 0 0 0 0 288.62194923764861 -270.49416995350202 0 -270.49416995350202 -731.39237126386433 0 0 0 0 324.59743914473847 -89.910069033347099 0 -89.910069033347099 -886.38398661847168 0 0 0 0 107.83490208535522 55.584478883207339 0 55.584478883207339 -1061.8978310446837 0 0 0 0 79.603775502203462 -90.786959356745683 0 -90.786959356745683 -823.61932844157127 0 0 0 0 163.40024077412068 -148.24035498071498 0 -148.24035498071498 -837.91199145102291 0 0 0 0 189.48963929939691 -137.00383181892539 0 -137.00383181892539 -865.79329217950624 0 0 0 0 179.67312939945941 -214.78273661722778 0 -214.78273661722778 -567.36591595190112 0 0 0 0 24.95860797372552 -437.22366215334296 0 -437.22366215334296 -793.82107381365358 0 0 0 0 143.18438199871298 -32.721289098924899 0 -32.721289098924899 -738.71556714522012 0 0 0 0 -152.44082343946116 -613.93101986777037 0 -613.93101986777037 -890.83094655801688 0 0 0 0 -0.98433126111152691 4.5051568504425461 0 4.5051568504425461 -7.5643479632317963 0 0 0 0 -2.2772571607706595 -402.39937902085148 0 -402.39937902085148 -712.33104452882617 0 0 0 0 -131.63662708169346 16.621799352242306 0 16.621799352242306 -423.76430682243154 0 0 0 0 -172.10792982623502 -297.15266175764555 0 -297.15266175764555 -610.0030244268637 0 0 0 0 -66.003003977383287 100.09503584876802 0 100.09503584876802 -994.67737648627735 0 0 0 0 27.289285039872084 92.050042982934883 0 92.050042982934883 -485.46122409233067 0 0 0 0 12.043306561415278 -73.638147278483302 0 -73.638147278483302 -1215.6420482587419 0 0 0 0 -50.35177399546842 90.151208428524114 0 90.151208428524114 -1374.7776485947688 0 0 0 0 -27.058239367746864 32.655326822467032 0 32.655326822467032 -450.89592131521204 0 0 0 0 -18.665587088821432 6.1352092369568396 0 6.1352092369568396 -0.031975275423432592 0 0 0 0 -48.853512626526026 34.436966829467565 0 34.436966829467565 -1479.6603110192445 0 0 0 0 -33.012664987718381 -37.686144979175879 0 -37.686144979175879 -442.22439180591755 0 0 0 0 1.9228224624021095 -355.06226743330626 0 -355.06226743330626 -1256.1399301081374 0 0 0 0 0.67922466918682822 2.5516484059539124 0 2.5516484059539124 -5.5264676043506 0 0 0 0 8.9829338091999489 -275.46221387205151 0 -275.46221387205151 -1746.4360534089428 0 0 0 0 133.18017723679532 215.44099041461959 0 215.44099041461959 -503.69325123102499 0 0 0 0 136.1473296385002 306.89737182337922 0 306.89737182337922 -1102.6396124311359 0 0 0 0 -15.785833054742398 195.54648729760811 0 195.54648729760811 -856.52378113090094 0 0 0 0 98.856106257590227 152.22654011687882 0 152.22654011687882 -1327.1137564450473 0 0 0 0 67.000395811008275 101.58639314689935 0 101.58639314689935 -1090.6113194784193 0 0 0 0 174.14799380589739 208.09459521162717 0 208.09459521162717 -1495.5626873634901 0 0 0 0 -24.671514006628918 -36.996446001379098 0 -36.996446001379098 -10.756627370376734 0 0 0 0 -81.957926048233276 -51.624642033115379 0 -51.624642033115379 30.101043882761587 0 0 0 0 -29.222278050390734 4.804716697482462 0 4.804716697482462 -10.620379394939171 0 0 0 0 69.906301832540521 91.768018851271336 0 91.768018851271336 -1486.3678623980741 0 0 0 0 -24.284700428691281 35.233998030324074 0 35.233998030324074 -483.13330661736836 0 0 0 0 -5.2616584737970697 187.75069809112028 0 187.75069809112028 -1698.9773356152732 0 0 0 0 -92.064889901689639 -12.019264567730715 0 -12.019264567730715 -1544.6948631895484 0 0 0 0 24.618732784865642 -92.208005710184807 0 -92.208005710184807 -97.754124219383812 0 0 0 0 108.49667241891439 -42.558761987842445 0 -42.558761987842445 -145.98779496541829 0 0 0 0 52.215626700086432 39.111564579354308 0 39.111564579354308 -99.759847562032519 0 0 0 0 -17.926231760154224 17.412124779448277 0 17.412124779448277 -105.28190758792334 0 0 0 0 10.116298531047505 -68.405470585334115 0 -68.405470585334115 -151.21277978434955 0 0 0 0 34.744916382524025 -37.554497804434504 0 -37.554497804434504 -212.34329035719566 0 0 0 0 -28.837464790945887 -70.811851033329731 0 -70.811851033329731 -252.48042174057809 0 0 0 0 -61.078260365569804 -118.5667852133447 0 -118.5667852133447 -47.772188875256688 0 0 0 0 14.76390478308349 -12.598737515516405 0 -12.598737515516405 -230.77011852541182 0 0 0 0 -32.774599345979368 -22.794289105899225 0 -22.794289105899225 -633.0516856958784 0 0 0 0 -6.0513636847449703 -2.7228410953729423 0 -2.7228410953729423 -1.4107371304464706 0 0 0 0 34.38744804541966 29.145696213468909 0 29.145696213468909 -400.05065558388014 0 0 0 0 -26.611612481880456 -37.998395292588611 0 -37.998395292588611 -212.23514912748942 0 0 0 0 -1.8033706474021969 -1.7731294086153042 0 -1.7731294086153042 -1.031172766541399 0 0 0 0 -9.7860242615570314 4.3138877621677238 0 4.3138877621677238 -322.87617319114543 0 0 0 0 -121.59498539750541 -18.513358970182253 0 -18.513358970182253 -205.5618460715632 0 0 0 0 29.045050404435642 13.517849334159109 0 13.517849334159109 -567.29632224824309 0 0 0 0 -98.345522313369315 -204.60791035011471 0 -204.60791035011471 -394.98000230766775 0 0 0 0 -26.343928167696504 -55.300202185157104 0 -55.300202185157104 -278.42820277155624 0 0 0 0 -67.293241492968264 48.86847366132497 0 48.86847366132497 -91.009972726722481 0 0 0 0 55.361075186825474 -94.848170889352332 0 -94.848170889352332 -267.64311034987622 0 0 0 0 -20.537069622969003 -42.168239338537987 0 -42.168239338537987 -13.811460604742464 0 0 0 0 -103.01461605967052 20.833429601276293 0 20.833429601276293 -42.102688601480622 0 0 0 0 -81.901238378952257 -51.108059701073216 0 -51.108059701073216 -17.019956946314778 0 0 0 0 -68.777862667666341 -25.360391569411149 0 -25.360391569411149 -101.06687300208887 0 0 0 0 -64.829740630176275 -46.319520132886282 0 -46.319520132886282 -107.00548659061315 0 0 0 0 -45.772636582762061 20.91660999871965 0 20.91660999871965 -195.78857828718537 0 0 0 0 -35.192797702821281 138.78787409923643 0 138.78787409923643 30.394212912462535 0 0 0 0 73.898294162452657 -213.1849953183264 0 -213.1849953183264 73.134574464107573 0 0 0 0 1124.5241989610149 142.53460776199063 0 142.53460776199063 -1611.0094342790544 0 0 0 0 159.68045653648733 385.63847088663169 0 385.63847088663169 -1912.9163577005238 0 0 0 0 -200.60030368676598 289.47236043193698 0 289.47236043193698 -1467.2766534172188 0 0 0 0 -16.477411486393976 -24.265523852658589 0 -24.265523852658589 -1949.1616897323547 0 0 0 0 -58.419920663247467 -24.045819105296687 0 -24.045819105296687 -1571.4139264662626 0 0 0 0 -131.66555995928866 22.256833953259047 0 22.256833953259047 -1537.5848085138714 0 0 0 0 -192.91200870238754 119.77467538056953 0 119.77467538056953 -1571.6974743952451 0 0 0 0 -212.84248458117145 73.579579535209632 0 73.579579535209632 -1607.6371794345032 0 0 0 0 -258.56751064709897 102.04069739854458 0 102.04069739854458 -1572.4227596075943 0 0 0 0 -122.88303601227744 73.106853366654832 0 73.106853366654832 -1657.195381155223 0 0 0 0 -116.25455780056723 60.479523841414448 0 60.479523841414448 -1506.749919666443 0 0 0 0 -113.34516751732008 86.601855895700282 0 86.601855895700282 -1606.0635024204057 0 0 0 0 -160.7709920709367 -9.9897880115968292 0 -9.9897880115968292 -1344.0640262645611 0 0 0 0 -117.20160435810249 89.501548004394863 0 89.501548004394863 -1486.4847023427574 0 0 0 0 -115.87800870536739 70.25293720607533 0 70.25293720607533 -1389.2055849089375 0 0 0 0 -89.375743581440474 157.78119045867061 0 157.78119045867061 -1580.2549824738962 0 0 0 0 -77.646476938476553 134.62753458251609 0 134.62753458251609 -1536.1332120865845 0 0 0 0 -78.396918700631431 171.61031705010828 0 171.61031705010828 -1541.4506460734119 0 0 0 0 -46.478431175237347 184.05311883805552 0 184.05311883805552 -1702.257106296538 0 0 0 0 -58.017723114036926 253.9676320842118 0 253.9676320842118 -1622.6168254557124 0 0 0 0 -7.0822500770802037 -1.0518943601757371 0 -1.0518943601757371 -1.4578170018169168 0 0 0 0 -250.23718926584661 -112.11260746155313 0 -112.11260746155313 437.42376133339712 0 0 0 0 -229.79466090428105 -1.2281792599242181 0 -1.2281792599242181 358.72974898487155 0 0 0 0 -68.062232043090589 -17.14995349258048 0 -17.14995349258048 0.11741518626697811 0 0 0 0 168.57445879250736 -93.813529307051795 0 -93.813529307051795 60.036624596454203 0 0 0 0 -542.16823517121838 179.9370961034183 0 179.9370961034183 284.10709800400946 0 0 0 0 -78.785143094311934 142.5097462865815 0 142.5097462865815 -1696.5801106487343 0 0 0 0 -44.410380424045002 -20.198202659559101 0 -20.198202659559101 -12.206727336700473 0 0 0 0 -20.854890618884383 217.17194089442637 0 217.17194089442637 -1444.8975998631395 0 0 0 0 -145.85261461362052 54.370971799748077 0 54.370971799748077 110.17793578207056 0 0 0 0 -23.03630675274982 -1.6201501486843881 0 -1.6201501486843881 -0.74030086072172452 0 0 0 0 -149.09001219028505 -148.77000447227329 0 -148.77000447227329 209.90263605548535 0 0 0 0 15.221304113383667 -243.87854194696411 0 -243.87854194696411 29.263613287912449 0 0 0 0 146.73601752483773 -139.16745981645363 0 -139.16745981645363 -127.71652721354621 0 0 0 0 -79.629427249575656 234.86024659751274 0 234.86024659751274 -1434.5750202792697 0 0 0 0 -85.547326701385828 176.33450548168912 0 176.33450548168912 -1455.3330950590025 0 0 0 0 -52.567183294567258 128.06367892595699 0 128.06367892595699 -1433.0974369420874 0 0 0 0 -106.03849053115118 121.55723180414498 0 121.55723180414498 -1322.8182509035032 0 0 0 0 -87.188652120514689 72.673930485754681 0 72.673930485754681 -1237.2193531993544 0 0 0 0 -41.32335012636031 191.23176700809927 0 191.23176700809927 -1340.2183564634324 0 0 0 0 -51.033928304255824 176.57752856307343 0 176.57752856307343 -1152.0542845704949 0 0 0 0 6.157018257832533 123.94732029214538 0 123.94732029214538 -1326.5606285667163 0 0 0 0 -76.162050172888485 72.677749712100194 0 72.677749712100194 -1358.8442857181217 0 0 0 0 -81.539729553679535 232.78861513029915 0 232.78861513029915 -1371.3406679700201 0 0 0 0 23.879811202353267 -112.16284135431488 0 -112.16284135431488 -216.90308832454321 0 0 0 0 -42.493855619476562 17.117691146229845 0 17.117691146229845 23.54800109298958 0 0 0 0 -35.466810950205399 -108.13720358809223 0 -108.13720358809223 -314.54749509986141 0 0 0 0 -81.76810844927013 35.292903392406515 0 35.292903392406515 -269.37837528655655 0 0 0 0 53.012403018467012 -39.57682702850434 0 -39.57682702850434 -603.22463445384346 0 0 0 0 -815.62921212674701 -291.47841072344454 0 -291.47841072344454 -433.90169353697638 0 0 0 0 -7.7547544086886901 -1.7727591665331488 0 -1.7727591665331488 -1.2974925943969211 0 0 0 0 401.14255345132915 123.28754442789796 0 123.28754442789796 -778.73073394627136 0 0 0 0 388.05083833106892 255.59291064021818 0 255.59291064021818 -1398.9999875246431 0 0 0 0 -25.496901667564089 67.046715829659661 0 67.046715829659661 -467.46534369375149 0 0 0 0 29.557383855692024 -82.272266185420449 0 -82.272266185420449 -357.64575645264995 0 0 0 0 -119.4255572195143 -139.70386759695248 0 -139.70386759695248 -318.59276641570614 0 0 0 0 -154.7790738174408 -22.653612466499908 0 -22.653612466499908 -305.53622081154026 0 0 0 0 -56.861024882789025 -42.116614029389893 0 -42.116614029389893 -73.399363669537706 0 0 0 0 -13.601382225784619 -36.174527131013747 0 -36.174527131013747 -141.64528223630623 0 0 0 0 -247.33522103122414 -193.6876384633797 0 -193.6876384633797 -216.07794115002616 0 0 0 0 -288.31850870518974 -72.664219626152772 0 -72.664219626152772 36.562614185486382 0 0 0 0 30.32687584075029 -148.348775140832 0 -148.348775140832 -450.95282856587437 0 0 0 0 15.311715264888335 100.2422518256044 0 100.2422518256044 5.9834965922054835 0 0 0 0 25.330292390286559 -216.61590267625434 0 -216.61590267625434 -951.95509382490854 0 0 0 0 -3.6703862917206607 0.29136205855938613 0 0.29136205855938613 -0.9530677658174298 0 0 0 0 -19.224320781662755 37.113069792714668 0 37.113069792714668 -501.7688275753253 0 0 0 0 -154.48807632908029 -198.95574965938431 0 -198.95574965938431 -758.00467078652582 0 0 0 0 -186.3193032356503 -206.36119583389154 0 -206.36119583389154 -673.10216110057809 0 0 0 0 -259.11531012267147 57.400237477581413 0 57.400237477581413 -171.57455152946932 0 0 0 0 -8.4940979173034066 -33.534333983749093 0 -33.534333983749093 -643.96127366001747 0 0 0 0 -21.749562718895504 -3.2335041548722074 0 -3.2335041548722074 -160.25742975126195 0 0 0 0 -152.94956011541581 195.25622747124817 0 195.25622747124817 -470.16859094434767 0 0 0 0 -240.63160302625147 169.40085785141127 0 169.40085785141127 -366.44744743732736 0 0 0 0 -27.788180366710549 -23.270385988827911 0 -23.270385988827911 -476.29010262797237 0 0 0 0 -49.381558570346897 86.357743356020364 0 86.357743356020364 -879.61955010792371 0 0 0 0 29.891618642301182 -16.899270714970044 0 -16.899270714970044 -807.01553940409212 0 0 0 0 -79.055381582205882 8.675525432197901 0 8.675525432197901 -494.76519938721322 0 0 0 0 -251.75972364885456 128.47910447977483 0 128.47910447977483 -251.37543865863699 0 0 0 0 -198.9927215860298 77.838671421384788 0 77.838671421384788 -128.25161996031966 0 0 0 0 -99.963294468706636 -69.890218229523271 0 -69.890218229523271 -360.93624024940073 0 0 0 0 110.67182578281427 -265.50706372067361 0 -265.50706372067361 -180.25251153132285 0 0 0 0 286.37454056280512 -336.46471652670152 0 -336.46471652670152 -427.81892686620995 0 0 0 0 453.33220851647275 -364.49492700306655 0 -364.49492700306655 -1129.6743190920388 0 0 0 0 -622.08719821712748 894.30153204315502 0 894.30153204315502 -1149.8931786874455 0 0 0 0 0.1092212803312016 -3.3012702081512941 0 -3.3012702081512941 -11.659720112241814 0 0 0 0 346.01682165387138 320.74019616188161 0 320.74019616188161 -1482.5265391786525 0 0 0 0 707.36107250117038 -849.74058710513964 0 -849.74058710513964 -209.84539490249881 0 0 0 0 197.5366896234118 11.025214395558578 0 11.025214395558578 185.39029944222784 0 0 0 0 69.803099959406836 -358.22232977915974 0 -358.22232977915974 344.04590494466538 0 0 0 0 87.189119320908958 -214.99358224283515 0 -214.99358224283515 210.12102747353492 0 0 0 0 229.47152746030315 45.598190868517122 0 45.598190868517122 -162.57056620727235 0 0 0 0 -42.653842327938037 160.3486585317296 0 160.3486585317296 -210.77642207097233 0 0 0 0 -311.56214554690814 87.806651605933439 0 87.806651605933439 -51.058700725821836 0 0 0 0 -206.79170712715768 246.17625120201592 0 246.17625120201592 -238.28638518998923 0 0 0 0 -378.39978261606666 285.60108753990789 0 285.60108753990789 -102.00172574589669 0 0 0 0 -156.98964826899464 156.2645204770597 0 156.2645204770597 -204.23504321760265 0 0 0 0 -158.322877385026 191.45987959311606 0 191.45987959311606 -15.385593802988296 0 0 0 0 111.70628983645656 -140.85014816136027 0 -140.85014816136027 -75.863618458402925 0 0 0 0 -306.33105063807852 -37.201485968369525 0 -37.201485968369525 -239.12987809539482 0 0 0 0 -433.8339320924897 224.36580163698454 0 224.36580163698454 -301.87186040196684 0 0 0 0 -109.79082341295725 301.88451508596336 0 301.88451508596336 -490.57083751067694 0 0 0 0 -0.60326827072264422 -2.5045365299552529 0 -2.5045365299552529 -5.6949871614295944 0 0 0 0 -322.02107430209435 352.88710583506327 0 352.88710583506327 -407.219092253501 0 0 0 0 -713.20996462350922 225.02715814112162 0 225.02715814112162 -86.648589787233504 0 0 0 0 -1.6966984033451737 2.6891981026928988 0 2.6891981026928988 -2.3948699871121732 0 0 0 0 -395.71904782947968 190.71319043098629 0 190.71319043098629 -83.234313146094792 0 0 0 0 7.2894690459157232 38.001333290095317 0 38.001333290095317 -28.325756289574201 0 0 0 0 5.4775414143587113 12.239302432608383 0 12.239302432608383 49.236814075979055 0 0 0 0 2.6374962317903119 8.2002522424091282 0 8.2002522424091282 -32.048897488270939 0 0 0 0 4.0568164109226927 12.10682009334414 0 12.10682009334414 -43.495233848182579 0 0 0 0 30.468377707982654 -30.043693702962628 0 -30.043693702962628 -39.135672091593733 0 0 0 0 -8.9126033946435683 -10.312894722832169 0 -10.312894722832169 -14.996138404641158 0 0 0 0 -147.16222399309481 148.70791268956236 0 148.70791268956236 -378.00956765477895 0 0 0 0 -92.78654835551788 87.601917633244739 0 87.601917633244739 -511.94774239197432 0 0 0 0 -100.88835853712362 71.188038207419595 0 71.188038207419595 -311.84472271100822 0 0 0 0 -7.8589501703063434 97.724635404385481 0 97.724635404385481 -405.89081102343334 0 0 0 0 -16.337815302884337 27.436828771646105 0 27.436828771646105 -413.45097719443584 0 0 0 0 -82.643811735262545 73.711032729258022 0 73.711032729258022 -443.70748008022201 0 0 0 0 -70.802548661198671 -41.238903483470494 0 -41.238903483470494 -717.82133590528792 0 0 0 0 -50.225181438628169 127.09486926307727 0 127.09486926307727 -830.70712152518536 0 0 0 0 -44.777059924353125 77.638496807452611 0 77.638496807452611 -509.88497582491254 0 0 0 0 -224.33463234322426 278.7573968483357 0 278.7573968483357 -424.24867459739471 0 0 0 0 -237.20930382471124 225.64301757173598 0 225.64301757173598 -410.50847554604479 0 0 0 0 -199.39247411005044 164.85937248467235 0 164.85937248467235 -341.7551447928854 0 0 0 0 -217.08768495804316 156.84025929722884 0 156.84025929722884 -189.08005555652198 0 0 0 0 879.18231800584545 -401.65488011832713 0 -401.65488011832713 22.722880614099267 0 0 0 0 1.3173281237165213 -8.5200922444229406 0 -8.5200922444229406 -29.710502911989892 0 0 0 0 287.41531174374359 47.641451993848023 0 47.641451993848023 -64.585699302562716 0 0 0 0 571.60529916768246 -382.45820079685473 0 -382.45820079685473 30.033886947370775 0 0 0 0 2.2844877936401389 -10.766718463705814 0 -10.766718463705814 -39.581922005592332 0 0 0 0 -245.26935583114391 117.36599193686925 0 117.36599193686925 -193.4711729473147 0 0 0 0 -238.73238067480997 95.260955703375657 0 95.260955703375657 -154.39958252125871 0 0 0 0 -141.26721683534561 63.893862417320634 0 63.893862417320634 -185.83796115292353 0 0 0 0 -79.794817785252235 124.63784382671656 0 124.63784382671656 -321.76999073897241 0 0 0 0 -55.885132367564438 73.081347681563784 0 73.081347681563784 -214.25359234248026 0 0 0 0 -144.58245606289256 71.875802138416475 0 71.875802138416475 -124.56996593621443 0 0 0 0 31.282360883272304 94.67707717950907 0 94.67707717950907 -230.40381952166354 0 0 0 0 4.2399249233003502 86.185407122640754 0 86.185407122640754 -141.89340402617745 0 0 0 0 82.504662292296189 149.32294675644334 0 149.32294675644334 -183.27608071207942 0 0 0 0 130.45393712493069 102.30194161114559 0 102.30194161114559 -247.83925030623504 0 0 0 0 92.466908951008008 124.64495739796621 0 124.64495739796621 -295.889478408586 0 0 0 0 46.157865692924133 84.736005786009628 0 84.736005786009628 -240.06041650465886 0 0 0 0 56.434930397563676 104.47756161970028 0 104.47756161970028 -329.44515012404008 0 0 0 0 -3.6263581611801783 69.020247654363629 0 69.020247654363629 -314.84660327832535 0 0 0 0 67.78502711309693 58.241882963455282 0 58.241882963455282 -380.45411125676765 0 0 0 0 51.316757125545564 74.703225894452771 0 74.703225894452771 -300.58325974177569 0 0 0 0 63.937043860953963 76.893806183237757 0 76.893806183237757 -310.23625679953693 0 0 0 0 50.366060824273518 20.248552177916281 0 20.248552177916281 -370.26856688240514 0 0 0 0 38.533561151605682 29.339323959567992 0 29.339323959567992 -352.74245925972355 0 0 0 0 29.720032522088786 59.997683011282788 0 59.997683011282788 -440.87036628846545 0 0 0 0 -10.271995708307259 46.195382337446063 0 46.195382337446063 -275.62481663856306 0 0 0 0 -15.251421333421149 51.956642495511915 0 51.956642495511915 -157.17861378731141 0 0 0 0 -23.945645667721919 129.66181294560738 0 129.66181294560738 -195.81697652059665 0 0 0 0 32.428596263025611 28.460855860161246 0 28.460855860161246 -314.04232667802717 0 0 0 0 49.749103591071616 55.326600071864959 0 55.326600071864959 -333.67759891027526 0 0 0 0 12.188305102878758 64.492623299858678 0 64.492623299858678 -275.75730432519049 0 0 0 0 14.241629973073032 79.966970818531991 0 79.966970818531991 -236.40034246590221 0 0 0 0 36.160566797314686 126.01214224369323 0 126.01214224369323 -263.41279179175763 0 0 0 0 70.582733575101884 105.20845727199048 0 105.20845727199048 -291.48229810336852 0 0 0 0 9.1153493188285211 143.21700527454232 0 143.21700527454232 -220.58285211998009 0 0 0 0 27.55438860662025 117.64403843472974 0 117.64403843472974 -249.07656235633294 0 0 0 0 -10.648702693850964 160.11246348099667 0 160.11246348099667 -218.43669159148703 0 0 0 0 -3.1274953615570666 149.28442195823663 0 149.28442195823663 -223.03981332795229 0 0 0 0 33.493980558618659 189.27196073492451 0 189.27196073492451 -206.60217003947764 0 0 0 0 7.7100107101200592 162.48577616846705 0 162.48577616846705 -218.38773268531077 0 0 0 0 13.102400475748709 151.54991245706697 0 151.54991245706697 -222.93611443250506 0 0 0 0 8.2519493996400719 36.204493081810597 0 36.204493081810597 -111.22155486767298 0 0 0 0 88.927736277687018 100.22080572006962 0 100.22080572006962 -226.59035117624444 0 0 0 0 110.07153476002122 151.95719415006533 0 151.95719415006533 -259.49812139541609 0 0 0 0 192.64964713437757 191.89038589542179 0 191.89038589542179 -207.29660902640535 0 0 0 0 156.34244813096802 61.061762756715325 0 61.061762756715325 -113.37732389873418 0 0 0 0 18.510891831381535 27.442062833211743 0 27.442062833211743 -96.871999584725913 0 0 0 0 -110.9949614945196 44.291560641424439 0 44.291560641424439 -275.11989686226252 0 0 0 0 -80.437146776709483 2.5989364265024051 0 2.5989364265024051 -383.0378101643646 0 0 0 0 -2.2600710436172449 54.607461434636207 0 54.607461434636207 -356.52701007993528 0 0 0 0 -89.92576664285582 105.32594892759971 0 105.32594892759971 -295.76811959085717 0 0 0 0 -123.0670078005611 84.39660524512874 0 84.39660524512874 -276.92481757094038 0 0 0 0 -10.648702693846644 160.11246348099667 0 160.11246348099667 -218.43669159147794 0 0 0 0 -67.22779908305256 -139.69874335654094 0 -139.69874335654094 -728.07349239339237 0 0 0 0 -20.82614357694365 -30.474547602865641 0 -30.474547602865641 -476.87222651899629 0 0 0 0 -34.021776396519726 42.007882755890932 0 42.007882755890932 -305.40827142127455 0 0 0 0 1.8235436444961124 -4.8399680217721652 0 -4.8399680217721652 -515.57725025034597 0 0 0 0 -103.51165754778231 46.97747241036268 0 46.97747241036268 -244.06286623295091 0 0 0 0 -217.37687255694959 114.34856771253783 0 114.34856771253783 -74.490580210491316 0 0 0 0 -48.100135253020198 84.789206504525282 0 84.789206504525282 -252.86648372196805 0 0 0 0 -9.8720986021126009 9.4356633288862213 0 9.4356633288862213 -133.75684780683878 0 0 0 0 -16.03260272485322 130.74129342719573 0 130.74129342719573 -17.192764567045742 0 0 0 0 -7.8710710432115807 29.17688406248844 0 29.17688406248844 -33.2219753478836 0 0 0 0 -28.070859270472965 -26.900857007092782 0 -26.900857007092782 -128.25770393759103 0 0 0 0 5.3653576591750127 33.583336115169885 0 33.583336115169885 -109.8830821825994 0 0 0 0 -9.9413481098228438 10.734327142816294 0 10.734327142816294 -58.45256427487967 0 0 0 0 -63.232062365574166 54.639243973125303 0 54.639243973125303 81.533039612118955 0 0 0 0 -139.80072962861504 0.3330353328228739 0 0.3330353328228739 59.384892729905914 0 0 0 0 10.277152457730697 29.528976626703951 0 29.528976626703951 -68.901700812647675 0 0 0 0 -44.671045404131405 146.70448775740078 0 146.70448775740078 -196.8979295811514 0 0 0 0 -11.935643749450318 23.211319445737608 0 23.211319445737608 -56.613021353503456 0 0 0 0 -43.422659503112754 130.71320361343533 0 130.71320361343533 -94.332387129266863 0 0 0 0 -10.64870269385392 160.11246348102577 0 160.11246348102577 -218.43669159145793 0 0 0 0 -58.516145814656738 -37.742659084306069 0 -37.742659084306069 -68.975323552404006 0 0 0 0 43.784131088585582 -11.654574677822893 0 -11.654574677822893 -278.44017192794854 0 0 0 0 54.804723167415887 120.83632353752 0 120.83632353752 -300.43353720923733 0 0 0 0 -44.86004049011899 17.278522394710308 0 17.278522394710308 -150.24425405604416 0 0 0 0 -4.8416060783592911 -6.0620757932520064 0 -6.0620757932520064 -126.43223341943303 0 0 0 0 -4.7738069681017237 6.1211165563399845 0 6.1211165563399845 -279.808337186274 0 0 0 0 32.407222061709042 -30.799422759738235 0 -30.799422759738235 -38.095405764168063 0 0 0 0 59.118232519429569 33.338775438820448 0 33.338775438820448 -255.0614116647339 0 0 0 0 -156.97967273199356 -211.64448705633549 0 -211.64448705633549 -96.180139270476502 0 0 0 0 -4.6191696560854787 2.3083690581815119 0 2.3083690581815119 -0.54467021674253768 0 0 0 0 164.70555352172664 250.14641317094447 0 250.14641317094447 -752.08103484374806 0 0 0 0 -100.51630725261521 -277.7262565567562 0 -277.7262565567562 -180.40079386716388 0 0 0 0 -28.875078780425383 -33.363026846313005 0 -33.363026846313005 -179.7850727405712 0 0 0 0 -25.025866247588965 -55.432215969565505 0 -55.432215969565505 -229.98828557949719 0 0 0 0 -27.103249158139732 -39.062972719824153 0 -39.062972719824153 -71.456718944106683 0 0 0 0 44.32588548819497 12.538414184002207 0 12.538414184002207 -132.63822282619014 0 0 0 0 96.716506242421929 349.87296362085453 0 349.87296362085453 -137.88544382451073 0 0 0 0 43.665829196932442 19.382443264476798 0 19.382443264476798 -112.91662909381307 0 0 0 0 183.54804821902326 65.087701417811331 0 65.087701417811331 -160.26281777200347 0 0 0 0 -111.49065539083949 -175.70045067541105 0 -175.70045067541105 -246.9709424015964 0 0 0 0 60.483137699720828 -234.83588397132917 0 -234.83588397132917 -349.33233314222343 0 0 0 0 -161.97736302208978 -332.91871414050547 0 -332.91871414050547 -341.48717202705302 0 0 0 0 -83.642128447118012 -299.22927722652821 0 -299.22927722652821 -526.18215170613257 0 0 0 0 -58.952267896725971 -165.52327384715682 0 -165.52327384715682 -223.83094292713849 0 0 0 0 -67.159642516876374 -148.83909142007906 0 -148.83909142007906 -252.50999016452988 0 0 0 0 9.0203485320689651 -446.21415155478462 0 -446.21415155478462 -742.11851606302116 0 0 0 0 -189.31699325218074 -1244.968410707148 0 -1244.968410707148 -1140.6486722276459 0 0 0 0 995.13160927411775 -665.13455668786628 0 -665.13455668786628 -1928.8768919561699 0 0 0 0 676.23045565748089 52.632032392703877 0 52.632032392703877 -617.9008616361607 0 0 0 0 -128.77656348394498 -253.01052234616827 0 -253.01052234616827 -345.7973391738924 0 0 0 0 74.817882041654229 -8.332455388183007 0 -8.332455388183007 -89.768986378921909 0 0 0 0 137.30308409305417 -244.6472592085338 0 -244.6472592085338 -463.7323448315401 0 0 0 0 -176.25976553253713 -439.40833677031515 0 -439.40833677031515 -536.9186044823 0 0 0 0 -133.75723203117559 -378.51071566608516 0 -378.51071566608516 -693.67956447625511 0 0 0 0 -159.54879473570799 -590.14675683370115 0 -590.14675683370115 -460.53041188940551 0 0 0 0 226.66947049776081 -767.81403249566574 0 -767.81403249566574 -594.32897434001643 0 0 0 0 -398.46038538102857 -745.38501168468065 0 -745.38501168468065 -560.45991341551053 0 0 0 0 47.428781354793273 620.58266127804563 0 620.58266127804563 -860.78000323291053 0 0 0 0 81.19964719733639 742.98523108124937 0 742.98523108124937 505.51813688212133 0 0 0 0 -1.1232846951889734 -4.7794348603436703 0 -4.7794348603436703 -16.591007826890632 0 0 0 0 -409.45145117490944 -700.76277220417683 0 -700.76277220417683 308.1576730262459 0 0 0 0 -513.23656781525392 -1095.6132439532157 0 -1095.6132439532157 -330.12051316083671 0 0 0 0 61.767795970918769 422.13752919232684 0 422.13752919232684 -37.74183505421388 0 0 0 0 475.38968253405983 -349.07610935844059 0 -349.07610935844059 172.81932029878953 0 0 0 0 -1823.0601609992823 -385.41318854562996 0 -385.41318854562996 -1188.9216304423062 0 0 0 0 333.29232763603125 617.92946209710317 0 617.92946209710317 -1429.5296947348543 0 0 0 0 554.95159130221509 425.05565361687695 0 425.05565361687695 -1695.724495952767 0 0 0 0 562.03601873540947 199.79269149656466 0 199.79269149656466 -1335.0807093089679 0 0 0 0 614.54279720974455 278.26490735758853 0 278.26490735758853 -1351.5675251083012 0 0 0 0 425.52871721852898 425.47839524444862 0 425.47839524444862 -1343.4353333210865 0 0 0 0 438.63835806382667 288.82919551260056 0 288.82919551260056 -912.62582440990082 0 0 0 0 353.37645832811108 512.90163859499262 0 512.90163859499262 -886.78824785514735 0 0 0 0 381.29256776554212 122.17083075263145 0 122.17083075263145 -1277.0202810057308 0 0 0 0 234.54943542828187 308.34536427702551 0 308.34536427702551 -524.52999127068324 0 0 0 0 317.26660231908363 278.33560438415952 0 278.33560438415952 -807.85135555551824 0 0 0 0 336.29286971090733 310.50994137051021 0 310.50994137051021 -913.35897404502111 0 0 0 0 32.189494692696826 36.613814426767931 0 36.613814426767931 -281.42692341994552 0 0 0 0 44.33137977806382 57.9825794164135 0 57.9825794164135 -575.46195894465927 0 0 0 0 -112.6291592272969 -44.877989765729581 0 -44.877989765729581 -247.06925968595715 0 0 0 0 -6.9826429697609456 -11.892781325808755 0 -11.892781325808755 -844.71592458024679 0 0 0 0 184.83760127133337 120.34728929437551 0 120.34728929437551 -969.62549562840513 0 0 0 0 5.6981881082961081 76.350161223766918 0 76.350161223766918 -565.74610726028914 0 0 0 0 -87.171190755188206 -49.483572610333795 0 -49.483572610333795 -633.82355042541894 0 0 0 0 -120.68175065642214 86.595489375797115 0 86.595489375797115 -655.41939481032023 0 0 0 0 -134.86665173974598 -19.413346965011442 0 -19.413346965011442 -800.54777690689662 0 0 0 0 -8.2884730488269902 3.1271108858985599 0 3.1271108858985599 -1.7320596244825168 0 0 0 0 51.592194571736172 117.11081268471753 0 117.11081268471753 -1415.8686173232127 0 0 0 0 -25.993889377927871 60.660509891631591 0 60.660509891631591 -1128.3943360745034 0 0 0 0 -350.98116815557705 71.921276637043775 0 71.921276637043775 -1056.9587157094793 0 0 0 0 -171.60216978539711 261.77593327308568 0 261.77593327308568 -1138.2391927085223 0 0 0 0 374.05969354315948 35.254455223912373 0 35.254455223912373 -1450.719227934871 0 0 0 0 -5.0207886429382143 0.75505202731375221 0 0.75505202731375221 -1.9113208086037154 0 0 0 0 240.96422150836588 124.62535098168883 0 124.62535098168883 -969.49482302942147 0 0 0 0 189.15900741841006 16.078608603347675 0 16.078608603347675 -1190.5953881033129 0 0 0 0 -109.10816255931877 24.412647463410394 0 24.412647463410394 -843.86917250357806 0 0 0 0 -33.636558711680209 54.806124619346519 0 54.806124619346519 -1060.7914750612254 0 0 0 0 -40.29508693923799 -141.01627057115184 0 -141.01627057115184 -1269.9749306010053 0 0 0 0 19.513991407232425 -2.1352822008157091 0 -2.1352822008157091 -331.6655611427268 0 0 0 0 99.757582318290417 172.55776799520117 0 172.55776799520117 -574.70493050130608 0 0 0 0 -46.540150889097276 -84.608127332568984 0 -84.608127332568984 -185.13132867066088 0 0 0 0 -27.730745714005025 -29.05323652199877 0 -29.05323652199877 -215.30921629639488 0 0 0 0 -14.903982434373402 -41.14203160637355 0 -41.14203160637355 -13.441870594165415 0 0 0 0 -51.53944821404184 -145.09648405393091 0 -145.09648405393091 -396.12330912168181 0 0 0 0 18.257133413055271 -8.0019032986529055 0 -8.0019032986529055 -289.77531102302601 0 0 0 0 36.154817265433849 -13.767110824541305 0 -13.767110824541305 -365.15905941311212 0 0 0 0 28.921636659704745 -57.606461185823719 0 -57.606461185823719 -364.87513240941917 0 0 0 0 -23.880470820644177 -104.66907560907907 0 -104.66907560907907 -278.57374053605599 0 0 0 0 42.204727085483682 -32.748063793595065 0 -32.748063793595065 -406.55941902322047 0 0 0 0 34.912602446058372 -16.604338974913844 0 -16.604338974913844 -347.33670308194996 0 0 0 0 25.606918412502637 -2.6325026967388112 0 -2.6325026967388112 -331.95748538520274 0 0 0 0 17.742788325212132 -2.4753563734338968 0 -2.4753563734338968 -331.02966526014643 0 0 0 0 2.7093956513226658 -5.5536008132112329 0 -5.5536008132112329 -328.70777022033144 0 0 0 0 9.7023663014279009 14.563647452414443 0 14.563647452414443 -322.23873640989768 0 0 0 0 26.183511671791024 8.5879137765721225 0 8.5879137765721225 -320.21187935350463 0 0 0 0 -21.510580575836684 3.9545070657186443 0 3.9545070657186443 -306.67969485491267 0 0 0 0 15.875351525657152 27.576337873819284 0 27.576337873819284 -300.62381626456045 0 0 0 0 -3.117302119363103 46.795159513323597 0 46.795159513323597 -277.77659133297857 0 0 0 0 14.673603044743231 33.646855352635612 0 33.646855352635612 -317.68704726142096 0 0 0 0 -19.868128988256103 29.073964773859188 0 29.073964773859188 -284.40609735627004 0 0 0 0 10.150021910109961 -35.569075315082216 0 -35.569075315082216 -8.609706185216325 0 0 0 0 -7.4385467703747512 -0.039396054377618839 0 -0.039396054377618839 -1.792790560036079 0 0 0 0 153.32940238027095 232.88872364655253 0 232.88872364655253 -686.4692675663814 0 0 0 0 -80.392943808203199 -245.16605260350843 0 -245.16605260350843 -297.62823930730519 0 0 0 0 -4.654226016708952 -39.648993050844879 0 -39.648993050844879 -13.855682875186496 0 0 0 0 443.25127981316939 374.77513472604187 0 374.77513472604187 -1753.5187885149026 0 0 0 0 412.26031726058761 -589.91506519278482 0 -589.91506519278482 -4164.8495614026542 0 0 0 0 -1.4860699312430239 846.29557932549505 0 846.29557932549505 -1187.1646289128694 0 0 0 0 1.4027144595507908 4.7714471913167813 0 4.7714471913167813 -10.238545183422559 0 0 0 0 1318.9266790978725 494.50017751149426 0 494.50017751149426 -2011.172030725691 0 0 0 0 -236.52001576069142 848.49318393008434 0 848.49318393008434 -1439.5893415867977 0 0 0 0 -1005.0258756632657 580.50099858712201 0 580.50099858712201 -289.98378811829025 0 0 0 0 -75.987905563155437 465.86497924432479 0 465.86497924432479 -543.52663161943201 0 0 0 0 113.6047685246599 232.57844475381353 0 232.57844475381353 -972.51893398824905 0 0 0 0 92.96630519941391 88.639395648331629 0 88.639395648331629 -1764.9031260535703 0 0 0 0 -229.50889990320047 -171.83729899192986 0 -171.83729899192986 -1242.1063647676929 0 0 0 0 88.0645884098235 -16.265300402070352 0 -16.265300402070352 -1148.5591642316867 0 0 0 0 -8.3176614861185953 104.57216610712203 0 104.57216610712203 -982.42631426480511 0 0 0 0 -71.815973480126274 -167.2073810086149 0 -167.2073810086149 -2623.4531606710516 0 0 0 0 -25.715149989140972 4.7924233441280819 0 4.7924233441280819 -5.9475089015389457 0 0 0 0 -187.3472101145926 599.25859819797915 0 599.25859819797915 -2194.651689337421 0 0 0 0 -157.67911451910641 -188.80233668856818 0 -188.80233668856818 -540.74479896357661 0 0 0 0 -2.4737648890488808 -1.1972777614134884 0 -1.1972777614134884 -1.2006794161442826 0 0 0 0 -8.3277274542861619 -36.993845380537095 0 -36.993845380537095 -3651.2783660566602 0 0 0 0 -8.0382900632115319 13.193263185414764 0 13.193263185414764 -24.615544453890038 0 0 0 0 6.7717291717914208 6.334660670851008 0 6.334660670851008 -56.752595762576675 0 0 0 0 -13.172404163687105 -32.582772047790058 0 -32.582772047790058 -3626.2165138463461 0 0 0 0 -257.35058305854506 194.07570196287566 0 194.07570196287566 -1193.8659229819023 0 0 0 0 -14.935272239059827 -23.673330005420212 0 -23.673330005420212 -1236.3125135985174 0 0 0 0 -0.83287261312441041 4.0152463041559372 0 4.0152463041559372 -12.153819208770642 0 0 0 0 0.044633505308940336 25.555372309463564 0 25.555372309463564 -10.913768405356677 0 0 0 0 0.46166724714192497 6.3594305631995667 0 6.3594305631995667 -15.306357672692684 0 0 0 0 -0.041182345351298853 25.705263029535413 0 25.705263029535413 -42.167576681385981 0 0 0 0 -0.99873037429873124 -4.2043817221218376 0 -4.2043817221218376 -7.6759394984412666 0 0 0 0 14.030744586985762 18.814032943046186 0 18.814032943046186 -67.122627671615192 0 0 0 0 -0.060925534725617743 -108.60451661895786 0 -108.60451661895786 -3581.8744950687469 0 0 0 0 145.83955787656947 -574.29885801675846 0 -574.29885801675846 -4498.1263087056323 0 0 0 0 7.9439765646142746 54.08967861662677 0 54.08967861662677 -3496.9471271066577 0 0 0 0 -95.406119169140766 -103.29023566668184 0 -103.29023566668184 -3408.1744070844143 0 0 0 0 -63.629299176831317 -117.85335275146099 0 -117.85335275146099 -3562.9467309045576 0 0 0 0 0.15813834165109963 -0.63752949989586227 0 -0.63752949989586227 -7.5003083053462252 0 0 0 0 -0.89751498753953052 -100.07626317062386 0 -100.07626317062386 -3792.2905151834439 0 0 0 0 128.43473547515077 -87.846973807379982 0 -87.846973807379982 -4049.908467969668 0 0 0 0 71.364776161095847 -700.19631689983362 0 -700.19631689983362 -3533.191500767949 0 0 0 0 16.746266434104342 -225.7402242625526 0 -225.7402242625526 -2976.5323728125077 0 0 0 0 -166.20468652782179 -510.88908573976732 0 -510.88908573976732 -3156.4958445565862 0 0 0 0 147.17636744090487 -157.02302710682852 0 -157.02302710682852 -3792.2789833471061 0 0 0 0 0.17140051726640215 -0.31463576115095293 0 -0.31463576115095293 -5.8528566480827173 0 0 0 0 -83.310440789175701 137.85469694643325 0 137.85469694643325 -2939.3705568997248 0 0 0 0 181.85693606935291 195.97663306442337 0 195.97663306442337 -2574.7800630995189 0 0 0 0 42.141144493758759 -451.32678110677807 0 -451.32678110677807 -3296.1674583906279 0 0 0 0 -194.98196197569922 -342.95726731266768 0 -342.95726731266768 -2668.1626291389457 0 0 0 0 -40.082338771604668 -192.53457376192091 0 -192.53457376192091 -2667.1371682247845 0 0 0 0 -497.2178290492343 49.598877482643729 0 49.598877482643729 -2101.5792666238849 0 0 0 0 35.357413121084846 165.25261845852219 0 165.25261845852219 -2146.3396116355107 0 0 0 0 -834.14162807301159 -372.79781820942844 0 -372.79781820942844 -1493.2879613120167 0 0 0 0 -575.7771094107211 -177.89640078306729 0 -177.89640078306729 -2263.8333828037576 0 0 0 0 -84.687544577254585 -433.04701198903786 0 -433.04701198903786 -3193.2612088676542 0 0 0 0 -473.37369772025448 -603.25529249971805 0 -603.25529249971805 -2894.1141781556653 0 0 0 0 -199.55787257360316 -1182.2372858439921 0 -1182.2372858439921 -3881.6040857828775 0 0 0 0 -909.01477354844576 -708.96165511085565 0 -708.96165511085565 -3885.6892267590651 0 0 0 0 -253.43694309680404 -802.63115098155686 0 -802.63115098155686 -5201.7416797891201 0 0 0 0 -8.4663339750126951 -2.9640032357284269 0 -2.9640032357284269 -4.5053430389984541 0 0 0 0 -31.798075503069413 24.583863517313148 0 24.583863517313148 -1307.7523571441452 0 0 0 0 -156.47394741303322 -562.68489527560996 0 -562.68489527560996 -4707.1614830735343 0 0 0 0 -24.239245975401762 -10.954497847176555 0 -10.954497847176555 -4.1893409878885954 0 0 0 0 -79.582427523696197 -110.33282504582348 0 -110.33282504582348 -1054.7565110386204 0 0 0 0 61.357967030477084 40.94606796559674 0 40.94606796559674 -1997.5698774685079 0 0 0 0 -17.100719115646825 43.756201809497725 0 43.756201809497725 -1944.3077598374366 0 0 0 0 4.0258881713575576 5.7454372309230735 0 5.7454372309230735 -3.6535529050021029 0 0 0 0 1.5709655271092764 3.5470268459016552 0 3.5470268459016552 -3.2052049337636639 0 0 0 0 -90.600575542021943 104.75078366482194 0 104.75078366482194 -2270.6703586070921 0 0 0 0 -23.615495364292656 -11.861902107935748 0 -11.861902107935748 -2081.3656257097609 0 0 0 0 9.4801906839111325 194.36013953496877 0 194.36013953496877 -2145.8536018744089 0 0 0 0 44.090337126428494 89.313911673598341 0 89.313911673598341 -1988.8911970838599 0 0 0 0 -7.9082380108366124 163.25742067148531 0 163.25742067148531 -1855.5052772699855 0 0 0 0 -5.4840386793155176 201.20581707106612 0 201.20581707106612 -1877.5329842093051 0 0 0 0 -8.0228548667105315 185.98219136269472 0 185.98219136269472 -1746.0238497553801 0 0 0 0 -56.694443007285599 156.82702613450328 0 156.82702613450328 -524.22345462822705 0 0 0 0 -136.33801433415101 157.94257307454245 0 157.94257307454245 -666.32527882580689 0 0 0 0 -123.03542100619075 304.11972290161066 0 304.11972290161066 -1826.1644427290885 0 0 0 0 -38.337577769493194 -3.348833291506395 0 -3.348833291506395 -3.177326163365521 0 0 0 0 -117.46186919173385 179.99592285402468 0 179.99592285402468 -1676.6922684145102 0 0 0 0 121.73421465271349 72.087289636394416 0 72.087289636394416 -916.71559015664388 0 0 0 0 -324.31380653397616 37.034081356956449 0 37.034081356956449 -1795.6389478881392 0 0 0 0 -35.621421601525618 -0.5568177989767662 0 -0.5568177989767662 -1.7160159871236829 0 0 0 0 26.817669375133846 204.29934271963793 0 204.29934271963793 -1087.4483585095877 0 0 0 0 -310.37254144311555 682.76455233143497 0 682.76455233143497 -1311.7547549001101 0 0 0 0 503.12035929591184 -181.88669522352575 0 -181.88669522352575 -262.27384225709829 0 0 0 0 339.79941933652299 403.06284576658072 0 403.06284576658072 -1202.4197364966021 0 0 0 0 2.7426460068877496 0.88094746929309053 0 0.88094746929309053 -2.2920240551332824 0 0 0 0 -143.91797604142994 430.92628832622722 0 430.92628832622722 -866.88371881692728 0 0 0 0 -87.482484506562287 306.0064287772002 0 306.0064287772002 -637.36384244014334 0 0 0 0 -42.816447377185114 215.34506613476424 0 215.34506613476424 -898.110081477309 0 0 0 0 -110.9734169425974 315.39185426227777 0 315.39185426227777 -776.41578528600803 0 0 0 0 -24.065006061331587 141.02903530671756 0 141.02903530671756 -622.35077523747714 0 0 0 0 -52.694844638155701 253.18157050612353 0 253.18157050612353 -717.63317141614061 0 0 0 0 -70.218512718683996 312.06704659324896 0 312.06704659324896 -705.71274857775643 0 0 0 0 -151.34123981486209 369.17989070804106 0 369.17989070804106 -692.92248502731672 0 0 0 0 60.919153232408092 10.197616231561454 0 10.197616231561454 -161.37616055277653 0 0 0 0 -207.97487649925461 224.40471517486003 0 224.40471517486003 -646.92083385903607 0 0 0 0 219.66691334803136 739.74221917021168 0 739.74221917021168 -650.67378803223983 0 0 0 0 -178.49387224332986 -135.90471570928639 0 -135.90471570928639 -922.43589109021195 0 0 0 0 -85.070482885756178 353.28023295525418 0 353.28023295525418 -405.80523541718139 0 0 0 0 333.25940310117221 181.8781175584736 0 181.8781175584736 -347.64348207930925 0 0 0 0 67.429125566192567 16.120468802420291 0 16.120468802420291 -148.07697730216091 0 0 0 0 -31.686083237693978 -11.725891468573195 0 -11.725891468573195 -24.736529671960412 0 0 0 0 -255.56438009530029 60.584164985091775 0 60.584164985091775 -207.15439932020672 0 0 0 0 -73.908474989440947 -219.09932003602444 0 -219.09932003602444 -1203.831426841236 0 0 0 0 21.831623010903968 152.90692414942896 0 152.90692414942896 -223.44635034136445 0 0 0 0 96.130562932357336 45.553117313500564 0 45.553117313500564 -20.158274142818676 0 0 0 0 -145.70819220887824 79.874619018602971 0 79.874619018602971 155.56192314183136 0 0 0 0 -4.2898762336716416 30.956134969192689 0 30.956134969192689 -40.787475212705431 0 0 0 0 -6.0114269906740887 9.1004398531030688 0 9.1004398531030688 -16.340481567251402 0 0 0 0 -55.43223788380692 -316.20667747102561 0 -316.20667747102561 -1571.914059991017 0 0 0 0 120.21554712007128 -350.36532209140569 0 -350.36532209140569 -1575.9818423518864 0 0 0 0 161.19010721330778 -303.58472828273079 0 -303.58472828273079 -2037.4958876244345 0 0 0 0 109.63635928838994 19.299573004595004 0 19.299573004595004 -1512.4437625948558 0 0 0 0 84.448402681126936 103.87214724634396 0 103.87214724634396 -1787.9034672017588 0 0 0 0 -37.382760789812224 -5.1249037721188984 0 -5.1249037721188984 -0.0016273877501689071 0 0 0 0 24.831886095047594 104.85465465989546 0 104.85465465989546 -1653.0422965697799 0 0 0 0 99.170212923396321 115.27328709994617 0 115.27328709994617 -1861.6471148642595 0 0 0 0 -145.00050212936671 -418.15695862285247 0 -418.15695862285247 -4501.4182974666546 0 0 0 0 98.871798258911895 109.66515336377233 0 109.66515336377233 -1792.4468912509183 0 0 0 0 33.753911253686056 110.34807790407831 0 110.34807790407831 -1838.7606969494082 0 0 0 0 334.3184240957853 164.60149730970443 0 164.60149730970443 -1825.9283884288379 0 0 0 0 2.6502564446677397 6.3333954024510888 0 6.3333954024510888 -2.9637547619242657 0 0 0 0 109.52660361342896 314.37711797747761 0 314.37711797747761 -1397.0875017219587 0 0 0 0 50.048359258340497 72.46103901850438 0 72.46103901850438 -1766.7914518774451 0 0 0 0 70.559172345230763 -8.833638544754649 0 -8.833638544754649 -1927.4322558819695 0 0 0 0 79.396200973606028 52.797031388181495 0 52.797031388181495 -1310.9729547004445 0 0 0 0 -81.849507630739723 -339.51586809338914 0 -339.51586809338914 -4601.3925157549293 0 0 0 0 -203.93467763859007 -84.089472703206411 0 -84.089472703206411 -737.96344289684203 0 0 0 0 244.80350646258739 83.109513564020745 0 83.109513564020745 -1333.6232345025055 0 0 0 0 -36.954528075342836 -19.448427251993905 0 -19.448427251993905 -2.2214435542488253 0 0 0 0 -37.538294356063538 -314.31205410165785 0 -314.31205410165785 -4946.1250593144505 0 0 0 0 -45.352615649796746 -303.29234910860396 0 -303.29234910860396 -4721.9264401987384 0 0 0 0 -45.276684062952789 -29.480363606929558 0 -29.480363606929558 0.65891632124853317 0 0 0 0 -427.12667529999817 68.066346038453048 0 68.066346038453048 -298.75714345151391 0 0 0 0 434.62995898607187 34.80919511851971 0 34.80919511851971 -1538.7760394417928 0 0 0 0 0.10893678990664313 2.194646060655856 0 2.194646060655856 -1.4998754087093644 0 0 0 0 268.81252130778557 -116.10207527831517 0 -116.10207527831517 -1646.7692816095223 0 0 0 0 -1470.0789023885682 570.77980967448821 0 570.77980967448821 -65.270871487729892 0 0 0 0 467.87593275600557 470.97290830292332 0 470.97290830292332 -1968.4704646438331 0 0 0 0 360.83286884441577 64.353864156430063 0 64.353864156430063 -2297.348902981932 0 0 0 0 -755.0315236815477 1409.1401836840378 0 1409.1401836840378 -3084.3401069011452 0 0 0 0 -301.55208355710965 -1530.7251942005969 0 -1530.7251942005969 -4227.511192361635 0 0 0 0 -2179.8398823824455 -251.57313072985926 0 -251.57313072985926 -1619.3611583217134 0 0 0 0 454.63061618258507 225.26418394086068 0 225.26418394086068 -4205.8954366438993 0 0 0 0 436.82547249144045 367.03681678789872 0 367.03681678789872 -1986.4518929202313 0 0 0 0 -266.68365952036947 -444.20945034656688 0 -444.20945034656688 -397.81053165161575 0 0 0 0 234.40998398106331 385.5458240921871 0 385.5458240921871 -1885.6507487056879 0 0 0 0 212.70680588128016 209.05535116684041 0 209.05535116684041 -1568.3924465125674 0 0 0 0 -406.75529574915345 -78.775373875520017 0 -78.775373875520017 -754.0711532846326 0 0 0 0 -924.35377507087105 253.36614745968836 0 253.36614745968836 159.49863945663674 0 0 0 0 -45.303806347400098 -42.474279492247177 0 -42.474279492247177 -6.4058760928411154 0 0 0 0 -165.22968288345825 -780.3883402995998 0 -780.3883402995998 -4799.5699602528912 0 0 0 0 -510.79634877113494 384.0180755538313 0 384.0180755538313 199.95685385445904 0 0 0 0 28.143318696013949 88.85278553180251 0 88.85278553180251 -4499.4854329785521 0 0 0 0 -13.403917499778837 0.45892535883058372 0 0.45892535883058372 15.066279097550705 0 0 0 0 335.95273839297806 -116.46832589651603 0 -116.46832589651603 -396.54984699841589 0 0 0 0 -366.21886281207662 -458.94141496025622 0 -458.94141496025622 -549.49679733978701 0 0 0 0 -26.962800152584045 -55.353489547934316 0 -55.353489547934316 -68.640996347118914 0 0 0 0 1603.5774485844124 -18.983665453335561 0 -18.983665453335561 -3423.4083966325315 0 0 0 0 94.051062747968444 -638.26730976288673 0 -638.26730976288673 -471.88717461375927 0 0 0 0 -292.59619782330947 17.322630596681847 0 17.322630596681847 -243.06169420924289 0 0 0 0 -156.71702656608767 769.18712102912832 0 769.18712102912832 -5339.5818715511559 0 0 0 0 -3.2278622953684302 -10.839270394018882 0 -10.839270394018882 -16.139757933167559 0 0 0 0 1053.3528367978977 635.15717667933859 0 635.15717667933859 -5408.5198909536066 0 0 0 0 1661.4557328863502 -293.79930204747507 0 -293.79930204747507 -3931.0582122690757 0 0 0 0 1412.2957978555278 -731.00710320480721 0 -731.00710320480721 -3468.2932509742823 0 0 0 0 1257.6467336421688 -461.63489565816235 0 -461.63489565816235 -2878.6128047355451 0 0 0 0 1436.1410176663494 230.49115303962753 0 230.49115303962753 -2402.0153458050954 0 0 0 0 261.56906633064892 -1468.5882028107819 0 -1468.5882028107819 -2078.0218814490654 0 0 0 0 1418.0987444345892 -650.35694725876601 0 -650.35694725876601 -1535.1061055368773 0 0 0 0 1387.5754305854052 -1934.2253371660445 0 -1934.2253371660445 213.13593288363336 0 0 0 0 -21.321451099661886 -45.339252357718721 0 -45.339252357718721 -61.941716657480299 0 0 0 0 237.47349948606791 352.20292093311491 0 352.20292093311491 -1697.0240450352139 0 0 0 0 -51.060718928908045 593.46052064816467 0 593.46052064816467 -1848.5902146614135 0 0 0 0 -362.21097705437205 1559.3260095299629 0 1559.3260095299629 -3496.739873431281 0 0 0 0 -233.74110413282324 -370.33736007846346 0 -370.33736007846346 -2523.1870415478334 0 0 0 0 70.991115577019642 41.450236524266074 0 41.450236524266074 -11.855156820464565 0 0 0 0 -319.62317466587865 199.63679074486936 0 199.63679074486936 -751.08500005561655 0 0 0 0 363.23302210426482 62.592336390433047 0 62.592336390433047 -2005.8252831005375 0 0 0 0 385.58293220544965 602.02765168454061 0 602.02765168454061 -2171.8902603146271 0 0 0 0 469.0225608190317 416.65207170985559 0 416.65207170985559 -2048.9301447511534 0 0 0 0 -188.63038976023017 869.38258118773956 0 869.38258118773956 -1458.4031118489729 0 0 0 0 -1181.0971298204922 1696.0556580524171 0 1696.0556580524171 -963.82860816433094 0 0 0 0 98.003332926649819 28.881155307477457 0 28.881155307477457 -505.89482922889874 0 0 0 0 -57.45037665548989 109.13284618346734 0 109.13284618346734 -508.24165846392862 0 0 0 0 75.206386600793948 46.460377234120074 0 46.460377234120074 15.144650415151144 0 0 0 0 -79.694363195938422 -61.127207651716162 0 -61.127207651716162 84.954594812001233 0 0 0 0 77.908533792169692 271.26007788104835 0 271.26007788104835 -658.67535867389233 0 0 0 0 129.70766382860984 293.51042961611529 0 293.51042961611529 -336.04899638354618 0 0 0 0 -70.187216860913395 190.75027404282082 0 190.75027404282082 -919.99473515417412 0 0 0 0 48.455145215549692 -103.31692444139799 0 -103.31692444139799 -723.84510951647098 0 0 0 0 81.860550992723802 159.65950155494284 0 159.65950155494284 -676.08329599696663 0 0 0 0 238.09420106467769 -32.439811930387805 0 -32.439811930387805 -1592.1727745908356 0 0 0 0 209.54414888019437 457.57521339185405 0 457.57521339185405 -2229.1214127081621 0 0 0 0 -189.70702200133564 693.88715799344936 0 693.88715799344936 -300.71358445595433 0 0 0 0 -1.9253614174287357 4.1836156150698969 0 4.1836156150698969 -15.961709237911521 0 0 0 0 -850.61125127664218 -1506.0776305084619 0 -1506.0776305084619 -2321.7551036423101 0 0 0 0 -637.50036671624548 -916.09725746320328 0 -916.09725746320328 -907.51475346746884 0 0 0 0 169.95824108180204 -43.971090501472645 0 -43.971090501472645 29.145279762073187 0 0 0 0 3.2537203498710454 21.738450140215768 0 21.738450140215768 -32.932871512830246 0 0 0 0 75.118019065128948 -192.00206026961911 0 -192.00206026961911 -181.45494257981045 0 0 0 0 -105.18956952647841 108.51402221785975 0 108.51402221785975 154.92398297771479 0 0 0 0 -59.767733431433967 -16.069767120189198 0 -16.069767120189198 -2.5715136939620713 0 0 0 0 -353.91451512991171 -303.58440325848824 0 -303.58440325848824 -330.25386959383468 0 0 0 0 -219.42109737225655 0.85856411605345784 0 0.85856411605345784 393.59888837561539 0 0 0 0 -74.707159829055541 -18.496761320448201 0 -18.496761320448201 -1.8468995518569908 0 0 0 0 -42.684570831222118 -133.98818297031539 0 -133.98818297031539 -25.572702885547187 0 0 0 0 -530.84497576197282 881.09105051827646 0 881.09105051827646 -1900.9397201976244 0 0 0 0 -514.5459139163504 146.63763014709548 0 146.63763014709548 -583.04271497185982 0 0 0 0 180.84850478840963 -126.84266094212944 0 -126.84266094212944 -1915.7737297902386 0 0 0 0 98.269638423498236 -582.54960518621465 0 -582.54960518621465 -3137.1671127531154 0 0 0 0 -135.91420088081554 -799.140926938539 0 -799.140926938539 -2080.1636408983613 0 0 0 0 -77.045709173919022 -98.981020299990632 0 -98.981020299990632 -1582.1691705374569 0 0 0 0 63.505725663624617 -317.05883953207376 0 -317.05883953207376 -1249.5822674302763 0 0 0 0 163.03838322110823 -100.42643354956272 0 -100.42643354956272 -2030.6130895570896 0 0 0 0 -35.770912277019882 -9.8620693043362309 0 -9.8620693043362309 -2.8466323931492408 0 0 0 0 -55.592395846188992 29.308877842602669 0 29.308877842602669 143.07823459991778 0 0 0 0 -78.156565812006647 -37.059102351719048 0 -37.059102351719048 -71.164965698582819 0 0 0 0 16.922919708281768 47.255058179363914 0 47.255058179363914 -304.12061547199846 0 0 0 0 17.257872789133884 97.29312186748075 0 97.29312186748075 -391.25778826135502 0 0 0 0 28.678043076513063 -19.14414806591958 0 -19.14414806591958 -369.74981722714438 0 0 0 0 29.345299393858568 128.09483878401443 0 128.09483878401443 -635.66219698137866 0 0 0 0 6.7778325443305221 53.313683372594824 0 53.313683372594824 -576.63633655192098 0 0 0 0 -111.87408532302834 194.12511553176591 0 194.12511553176591 -319.95600129608647 0 0 0 0 -145.21776019033314 128.84902852086088 0 128.84902852086088 -149.23548104964357 0 0 0 0 -194.78184543299722 -69.545453196747985 0 -69.545453196747985 -92.798515801154281 0 0 0 0 -498.1077231861791 24.152598500259046 0 24.152598500259046 -462.18815762545273 0 0 0 0 -104.22291259482614 -49.084326833149817 0 -49.084326833149817 -451.97735748979903 0 0 0 0 -178.78306760049179 347.46865739534678 0 347.46865739534678 -1319.9687211988712 0 0 0 0 -187.2466306836468 -303.19107006385093 0 -303.19107006385093 -993.79095800247887 0 0 0 0 -186.47620120041165 284.50266452458163 0 284.50266452458163 -853.17248143641336 0 0 0 0 18.197026163235023 -230.14887029771489 0 -230.14887029771489 -1185.2017457237489 0 0 0 0 -5.3622598017609242 -4.0174772823819609 0 -4.0174772823819609 -3.623112501724421 0 0 0 0 -298.64403867301826 -308.83612167457977 0 -308.83612167457977 -120.61916582391132 0 0 0 0 -116.98638208334523 49.768715489488386 0 49.768715489488386 -70.189657197222914 0 0 0 0 23.210267891120452 -0.74115117393739638 0 -0.74115117393739638 -80.513350815424928 0 0 0 0 -201.27231979493888 -119.15910522002196 0 -119.15910522002196 -89.6638404011901 0 0 0 0 -36.733314190562851 -22.295531629915786 0 -22.295531629915786 -84.339492756520031 0 0 0 0 -85.068034248836057 6.133254079037215 0 6.133254079037215 -7.7682468241546303 0 0 0 0 -36.557087382421741 49.638793501653709 0 49.638793501653709 -72.639153797575091 0 0 0 0 2.4277706888715329 10.106576067315473 0 10.106576067315473 -37.111859672717401 0 0 0 0 -91.26716220866092 -105.57307423083694 0 -105.57307423083694 34.51737732240872 0 0 0 0 -20.488920544154098 -89.952804718373955 0 -89.952804718373955 -466.66279063180991 0 0 0 0 -37.357500797897728 -86.289619499097171 0 -86.289619499097171 -252.18253211059346 0 0 0 0 -32.940344427726757 -145.80933462198846 0 -145.80933462198846 -152.76715897995746 0 0 0 0 14.742909692320097 11.360119815959479 0 11.360119815959479 -179.09375183522206 0 0 0 0 7.4899041414079193 -5.5089554906953708 0 -5.5089554906953708 -539.85226577670983 0 0 0 0 0.99656208007729674 -103.88631372635064 0 -103.88631372635064 -473.22823126993899 0 0 0 0 63.000111129875904 -49.686017276428174 0 -49.686017276428174 -744.54306733260819 0 0 0 0 51.9241670899263 -27.327997774224059 0 -27.327997774224059 -543.37095241803036 0 0 0 0 -6.1844107229167093 52.97478941845111 0 52.97478941845111 -639.89393770800598 0 0 0 0 -180.01333519287738 -10.989624111054582 0 -10.989624111054582 -470.22080533670669 0 0 0 0 -858.69281121575023 -264.35560979454021 0 -264.35560979454021 -527.69232189578906 0 0 0 0 -169.95699076828328 38.007172814497608 0 38.007172814497608 -1101.389374550854 0 0 0 0 -799.97611025197511 361.68236872660054 0 361.68236872660054 -297.08783522023441 0 0 0 0 -370.44354769810047 -172.78618472343078 0 -172.78618472343078 89.881130584137281 0 0 0 0 -153.00494768800672 85.066481260008004 0 85.066481260008004 -470.07619494402655 0 0 0 0 -108.47359537704574 -27.185494001460029 0 -27.185494001460029 -202.54998296219128 0 0 0 0 -284.68535921188959 -636.35103648446238 0 -636.35103648446238 -283.68933434510109 0 0 0 0 -49.894820457904757 -55.789047530904654 0 -55.789047530904654 -49.102072100451409 0 0 0 0 -71.518069002093853 149.79425269062449 0 149.79425269062449 -789.52193881478161 0 0 0 0 -41.888357256657741 -48.923877925454264 0 -48.923877925454264 -45.743768501433749 0 0 0 0 30.066490833580247 -36.169197718256328 0 -36.169197718256328 -563.40465179882449 0 0 0 0 -359.63036374264084 -273.51978538522962 0 -273.51978538522962 -745.80035913834217 0 0 0 0 -1650.579442187367 185.07542112287774 0 185.07542112287774 -886.89735865127659 0 0 0 0 -536.22082697232327 -186.25431888403546 0 -186.25431888403546 204.50340284715639 0 0 0 0 -334.39273880818109 -5.3454028991473024 0 -5.3454028991473024 -485.3812604235427 0 0 0 0 -464.26827150850295 -37.344548410328571 0 -37.344548410328571 -139.67616556338908 0 0 0 0 -362.65599486625433 -323.34991504650679 0 -323.34991504650679 -292.43464281548222 0 0 0 0 -623.26049603396632 -25.869125195476954 0 -25.869125195476954 -78.243337380845333 0 0 0 0 -385.41103600198949 -488.80195105796156 0 -488.80195105796156 253.69680163826888 0 0 0 0 -108.33529105131356 -120.59158629890953 0 -120.59158629890953 -67.814240265579429 0 0 0 0 -55.843074626672617 -51.171103784918373 0 -51.171103784918373 -48.781772705566226 0 0 0 0 -361.88544450055394 -715.1838693028285 0 -715.1838693028285 -636.52896690861962 0 0 0 0 -362.90465841168225 250.7697986923813 0 250.7697986923813 -344.52197363116284 0 0 0 0 -11.312159822596442 -3.5400769452000986 0 -3.5400769452000986 -23.524626750870063 0 0 0 0 -786.13148665790504 188.05355628400866 0 188.05355628400866 -263.51964249081357 0 0 0 0 -9.0439418321839185 102.82775169944944 0 102.82775169944944 -376.53591906826477 0 0 0 0 -0.18520862623410039 -196.01429342433016 0 -196.01429342433016 -18.811857529755798 0 0 0 0 -89.184100957369083 93.744617561584164 0 93.744617561584164 -396.07519504595257 0 0 0 0 -385.69438183873353 216.27115940075601 0 216.27115940075601 -305.1129935678 0 0 0 0 -288.66198848169188 171.32158589968094 0 171.32158589968094 -398.62637995458499 0 0 0 0 -276.83502374042928 236.65234803679596 0 236.65234803679596 -637.28375985733874 0 0 0 0 -307.64971923560097 115.02672031318798 0 115.02672031318798 -550.60670130193466 0 0 0 0 -180.37656195677482 108.58323527110042 0 108.58323527110042 -554.57513553144781 0 0 0 0 -376.6499411608238 -80.441824127407017 0 -80.441824127407017 -696.37591125276231 0 0 0 0 -575.67926833311503 20.380141527588421 0 20.380141527588421 -341.31473217297025 0 0 0 0 -496.28921389411289 204.62658970597477 0 204.62658970597477 -337.73684870871512 0 0 0 0 -390.93804040338091 200.24001601601958 0 200.24001601601958 -353.08106791225146 0 0 0 0 -593.01382710401776 120.20644372619427 0 120.20644372619427 -299.39057426866202 0 0 0 0 -281.30655932897344 110.06575074942884 0 110.06575074942884 -361.50922731980972 0 0 0 0 -430.8742209787506 -34.317950780023239 0 -34.317950780023239 -435.93219574020623 0 0 0 0 -95.985363783510365 -62.825413454062073 0 -62.825413454062073 -610.76948896479007 0 0 0 0 16.764193825744087 -126.07071287508734 0 -126.07071287508734 -253.69851160565304 0 0 0 0 -361.94441433876182 2.7363646297089872 0 2.7363646297089872 -334.22755329255233 0 0 0 0 -466.44241967408698 130.66780061035024 0 130.66780061035024 -256.82078239235852 0 0 0 0 -915.59803434907371 -265.11703506523918 0 -265.11703506523918 -233.94224421069748 0 0 0 0 -12.103757355379354 -1.8726287800334518 0 -1.8726287800334518 -1.8504355216277659 0 0 0 0 -551.10928991913715 118.20857723581139 0 118.20857723581139 157.38735296924278 0 0 0 0 28.145965323520159 192.66552034547931 0 192.66552034547931 -279.80252624505374 0 0 0 0 -162.23685707213644 -227.32292672307085 0 -227.32292672307085 -1475.6542774919326 0 0 0 0 -119.11274300375317 236.97791891049201 0 236.97791891049201 -1136.3271690436195 0 0 0 0 -218.60874409101325 -451.25418987969169 0 -451.25418987969169 -2373.934388777554 0 0 0 0 -762.30612342464156 253.83750830009376 0 253.83750830009376 -495.547669630374 0 0 0 0 236.39886004613436 378.71109547251399 0 378.71109547251399 -1518.0946874298679 0 0 0 0 233.20812513736564 497.92113775855978 0 497.92113775855978 -721.9443203380506 0 0 0 0 -10.467112633403303 282.42512061730667 0 282.42512061730667 -675.72631804387311 0 0 0 0 61.093895961368432 6.9448290772512564 0 6.9448290772512564 -165.90898830789632 0 0 0 0 -215.38492022378796 333.88807841522248 0 333.88807841522248 -1337.7971764257527 0 0 0 0 46.509260061968362 -2.3809225264677139 0 -2.3809225264677139 -75.904218360658405 0 0 0 0 124.06099364492002 -473.86078731474845 0 -473.86078731474845 -258.16844559086894 0 0 0 0 -93.097233577274892 -156.30155915101932 0 -156.30155915101932 -712.02215694482584 0 0 0 0 -522.69996731653737 -617.58891549427608 0 -617.58891549427608 -1198.0438906481286 0 0 0 0 56.731008424905667 222.81780978897586 0 222.81780978897586 -594.20151984524091 0 0 0 0 -122.28601547709331 309.37220974166121 0 309.37220974166121 -574.35081014037132 0 0 0 0 -79.639636210904428 217.32912535063224 0 217.32912535063224 -682.66861066473939 0 0 0 0 -90.466102077283722 411.19666201015934 0 411.19666201015934 -762.19703583121736 0 0 0 0 22.399586908801961 7.7833431334479712 0 7.7833431334479712 -34.859898827572181 0 0 0 0 -26.50200315313441 204.58243067395961 0 204.58243067395961 -588.69349019756191 0 0 0 0 3.0635031263250809 2.5646555335047765 0 2.5646555335047765 2.9058388450977191 0 0 0 0 -11.567353278668634 216.93024457402498 0 216.93024457402498 -514.8435842058243 0 0 0 0 113.31403568211499 158.78651974640525 0 158.78651974640525 -501.25113772024633 0 0 0 0 36.016405926206517 292.19331028948727 0 292.19331028948727 -521.52803489468351 0 0 0 0 33.575141896253626 296.32916345406557 0 296.32916345406557 -515.67454918118892 0 0 0 0 -18.746633995862794 297.33215483679669 0 297.33215483679669 -512.91332335967309 0 0 0 0 -88.669891025176184 390.82729624666536 0 390.82729624666536 -362.10752155055525 0 0 0 0 -205.4092667159739 214.17094506970898 0 214.17094506970898 -549.44551650539506 0 0 0 0 20.548661422542864 196.4205716237484 0 196.4205716237484 -604.58868579522823 0 0 0 0 30.984729216541382 229.3469631550106 0 229.3469631550106 -657.65631488151848 0 0 0 0 37.576036017835577 249.86341204674682 0 249.86341204674682 -594.06568836983934 0 0 0 0 25.308160248445347 192.4921382603643 0 192.4921382603643 -454.50000584765803 0 0 0 0 10.915535432579706 19.674536865722928 0 19.674536865722928 12.387461448992866 0 0 0 0 -36.402892998037714 105.85858583688969 0 105.85858583688969 -192.14562929998647 0 0 0 0 17.522548479507805 226.65204542352876 0 226.65204542352876 -434.6682993338618 0 0 0 0 57.480112383633923 18.313417605648283 0 18.313417605648283 -31.229237900319276 0 0 0 0 7.9387971311159049 91.319665529738359 0 91.319665529738359 -461.9765153889748 0 0 0 0 4.9796788188861214 2.573949499413807 0 2.573949499413807 -1.7621304685132486 0 0 0 0 -281.14287546569722 412.4232818094315 0 412.4232818094315 -405.43166400624614 0 0 0 0 6.18555833576014 13.973602662578397 0 13.973602662578397 -47.840799095721081 0 0 0 0 88.201732634723868 13.547124543447353 0 13.547124543447353 -75.652114283031551 0 0 0 0 57.81860330382483 9.0603424639484729 0 9.0603424639484729 -56.80613357675611 0 0 0 0 15.420883693290762 43.79718436395342 0 43.79718436395342 -169.0302377538319 0 0 0 0 16.052812801930941 31.284516660678491 0 31.284516660678491 -50.975812044140184 0 0 0 0 40.590103340843484 42.539397216816724 0 42.539397216816724 -83.060179287742358 0 0 0 0 54.268435857602526 49.987534175517794 0 49.987534175517794 -146.41595141585276 0 0 0 0 43.076366898950134 31.595589363096195 0 31.595589363096195 -14.189794883496745 0 0 0 0 -91.141859568329892 236.40329219240812 0 236.40329219240812 -428.62311857401801 0 0 0 0 109.94119498372402 189.87285777453872 0 189.87285777453872 -440.06450328708161 0 0 0 0 64.46828689781853 15.39272781114741 0 15.39272781114741 -155.92855862308522 0 0 0 0 -107.73841876040387 95.445334307056328 0 95.445334307056328 -617.42111752476194 0 0 0 0 18.890657812291465 -127.2233272470985 0 -127.2233272470985 -184.80436005978117 0 0 0 0 56.890397066821841 7.8336477829291766 0 7.8336477829291766 -151.27303460935406 0 0 0 0 -225.09684858627224 71.640739762227895 0 71.640739762227895 -273.98905252898112 0 0 0 0 -185.56124918826936 114.16831300635022 0 114.16831300635022 -222.3096865867119 0 0 0 0 -72.773570441362608 14.793421742971987 0 14.793421742971987 -128.02170656127419 0 0 0 0 -50.820681035630514 -2.5581706019643775 0 -2.5581706019643775 -18.2602573795034 0 0 0 0 -21.412561637156166 -67.949232637407562 0 -67.949232637407562 -80.044295215408482 0 0 0 0 -25.325097805795664 -39.665539194503879 0 -39.665539194503879 -51.70018225203961 0 0 0 0 -0.80585839740160736 4.5801025296532316 0 4.5801025296532316 -114.52164873943548 0 0 0 0 -32.030014447330558 4.5945784470159197 0 4.5945784470159197 -103.42051852904842 0 0 0 0 -29.199050480902315 21.691276106888836 0 21.691276106888836 -172.94871902112936 0 0 0 0 -12.936419645361639 -9.3743369763324154 0 -9.3743369763324154 -109.04755764314905 0 0 0 0 70.982726082171212 -51.377364910447795 0 -51.377364910447795 -210.64667511197331 0 0 0 0 -327.46243218315067 -76.392391472261806 0 -76.392391472261806 242.94405875316079 0 0 0 0 -159.60290068535687 -142.76465676669613 0 -142.76465676669613 -581.07446669450292 0 0 0 0 -74.506401680088857 -252.62485559003835 0 -252.62485559003835 -1095.7771753943816 0 0 0 0 -328.51710116589857 -9.8255957490182482 0 -9.8255957490182482 -212.8844008835149 0 0 0 0 226.64354927072873 -306.23116402708547 0 -306.23116402708547 -1086.3149544993976 0 0 0 0 267.76513302546027 -67.458638139280083 0 -67.458638139280083 -1495.6524216876351 0 0 0 0 -796.6737029222877 430.5634937091163 0 430.5634937091163 -947.17359106794174 0 0 0 0 62.748296758180786 255.28633265363169 0 255.28633265363169 -1324.0657986425649 0 0 0 0 -1.0225244822291251 -5.3901568861714679 0 -5.3901568861714679 -10.220706620341502 0 0 0 0 236.82675722827798 -549.84564082757424 0 -549.84564082757424 -2301.6934550048609 0 0 0 0 -358.40052873726961 -845.65303070000664 0 -845.65303070000664 -932.63737668934482 0 0 0 0 -234.33470452837477 -29.478965250204055 0 -29.478965250204055 78.959332369486219 0 0 0 0 224.93637821018399 133.55741347277944 0 133.55741347277944 -150.27304788431866 0 0 0 0 -409.42762522957037 -66.448308965285833 0 -66.448308965285833 176.13141973846359 0 0 0 0 -37.368568636263717 11.989481055396027 0 11.989481055396027 192.31362351207645 0 0 0 0 41.850020494627643 1.4530691508480231 0 1.4530691508480231 -75.080442748119822 0 0 0 0 12.500653928151753 26.414006146308736 0 26.414006146308736 -28.551060050790227 0 0 0 0 -0.36722302700158593 -15.483376794843934 0 -15.483376794843934 67.95070196519373 0 0 0 0 1.8634115067883985 -1.6133309155233633 0 -1.6133309155233633 -24.472850137499506 0 0 0 0 240.31603277540106 7.661141054428299 0 7.661141054428299 -48.60398313740734 0 0 0 0 30.426090526345696 9.9144933028399294 0 9.9144933028399294 -52.417446525548129 0 0 0 0 13.114525430311915 -26.644022326683626 0 -26.644022326683626 -112.55611075853813 0 0 0 0 -144.69488656909891 125.94491706633016 0 125.94491706633016 174.90471573195828 0 0 0 0 -1.2497756357508294 -1.8050110681838305 0 -1.8050110681838305 -3.5970486823831891 0 0 0 0 1.9052474715974412 3.6759182027521149 0 3.6759182027521149 -7.9722420262345963 0 0 0 0 61.242689709463548 -11.364808624519355 0 -11.364808624519355 -105.36307962541468 0 0 0 0 28.322880047098806 -1.2812860982958227 0 -1.2812860982958227 -119.66550823691068 0 0 0 0 26.673780514487589 -1.3635617870168062 0 -1.3635617870168062 -52.464546459676058 0 0 0 0 72.485332121909323 16.4365953126362 0 16.4365953126362 -70.269520255038515 0 0 0 0 50.479240792392886 39.170521148729676 0 39.170521148729676 -92.022051438019844 0 0 0 0 32.16550251088961 32.757716152460489 0 32.757716152460489 -90.628386014403077 0 0 0 0 9.6955303583630723 15.172516194394898 0 15.172516194394898 -75.503822861986066 0 0 0 0 40.531104466947454 26.006101115941419 0 26.006101115941419 -120.91823165887763 0 0 0 0 -5.4264275157750035 74.452814357209718 0 74.452814357209718 -92.162377243876108 0 0 0 0 28.969711742205163 38.124385141098173 0 38.124385141098173 -61.098136673914269 0 0 0 0 -119.45466210803772 143.26194110038341 0 143.26194110038341 -144.35626147210132 0 0 0 0 -0.88926242215877149 -1.4562675717968148 0 -1.4562675717968148 -0.54265291333058485 0 0 0 0 -18.612678423779016 40.326992041194899 0 40.326992041194899 -39.932909915311029 0 0 0 0 9.2848670466309073 -3.2320293529094499 0 -3.2320293529094499 -10.488559699840195 0 0 0 0 99.121614960030229 32.102080695098266 0 32.102080695098266 -61.165151819208404 0 0 0 0 4.2675031244444828 3.7544665549194889 0 3.7544665549194889 -7.0369745623214612 0 0 0 0 2.6144941611378272 38.102664778634789 0 38.102664778634789 -44.053374165574496 0 0 0 0 19.597765831534375 23.48328031878421 0 23.48328031878421 -19.384055768056044 0 0 0 0 5.0431073613308399 28.972759782438516 0 28.972759782438516 -43.511238094517466 0 0 0 0 -11.045866265368659 46.221657760004746 0 46.221657760004746 -32.938004074821947 0 0 0 0 8.9544772336998903 59.150316707280581 0 59.150316707280581 52.916042307362659 0 0 0 0 279.3529436508752 146.14994684476551 0 146.14994684476551 -9.2129625833040336 0 0 0 0 2.8196127965709135 -10.548269095428495 0 -10.548269095428495 -50.61136038671799 0 0 0 0 -51.912639332043113 24.584886873904907 0 24.584886873904907 159.53450196186895 0 0 0 0 107.25345576257109 -136.72333145394441 0 -136.72333145394441 -249.46382101761992 0 0 0 0 -362.54303853412921 207.32803758291993 0 207.32803758291993 258.87421504413942 0 0 0 0 70.698592693087789 368.51291996382497 0 368.51291996382497 -1629.8993452447467 0 0 0 0 113.12126129921353 -785.02643787583656 0 -785.02643787583656 -1142.37503375284 0 0 0 0 -2.3635050374101119 -5.1517138963407731 0 -5.1517138963407731 -19.036205273042128 0 0 0 0 -598.76624122363683 887.08140467792691 0 887.08140467792691 -1694.9295788471063 0 0 0 0 -242.46810554987951 305.48435566953049 0 305.48435566953049 242.36220942944055 0 0 0 0 35.117631078077864 54.444357842170575 0 54.444357842170575 -587.18287770359893 0 0 0 0 230.82587370351132 -98.705795095273061 0 -98.705795095273061 -1652.8330449848727 0 0 0 0 118.70049936951295 137.41150582237606 0 137.41150582237606 -526.9647239068363 0 0 0 0 81.978611539238727 -115.9837667944812 0 -115.9837667944812 -384.87308675011445 0 0 0 0 -44.745575247178976 -40.886701624578563 0 -40.886701624578563 205.37054331574473 0 0 0 0 253.22556595610976 -94.683352058462333 0 -94.683352058462333 -545.84927040793627 0 0 0 0 -0.015951453797200685 -4.6918772228891612 0 -4.6918772228891612 296.33420264406595 0 0 0 0 229.46714653204009 3.3828249011712614 0 3.3828249011712614 -36.194173465191852 0 0 0 0 -189.42007529901181 125.29912628814054 0 125.29912628814054 -71.675479813260608 0 0 0 0 74.90258077807357 49.673064579576021 0 49.673064579576021 -114.83607524025138 0 0 0 0 8.4395960547300319 153.07410455627542 0 153.07410455627542 211.42532635643147 0 0 0 0 73.720870642514569 52.888020165424678 0 52.888020165424678 -5.8836759833357064 0 0 0 0 2.5982289683721307 -0.89481298526732189 0 -0.89481298526732189 0.44365077669212383 0 0 0 0 73.243752573302345 -91.570172391890083 0 -91.570172391890083 -22.216416068506078 0 0 0 0 93.881656008764708 -85.337065155945311 0 -85.337065155945311 -237.49915857329324 0 0 0 0 98.902694762437022 -6.0727371249668067 0 -6.0727371249668067 -58.829012536036316 0 0 0 0 0.12820364641459889 -15.606120653763355 0 -15.606120653763355 -408.28621662897058 0 0 0 0 -19.739893548408759 -177.96928373577248 0 -177.96928373577248 -200.03783331092563 0 0 0 0 0.18991322181206127 0.19190653008607228 0 0.19190653008607228 -2.8018228885441658 0 0 0 0 138.14162606816598 -48.613197150185442 0 -48.613197150185442 -407.07031803572318 0 0 0 0 16.654684171127784 73.60068658329692 0 73.60068658329692 8.0901578729972243 0 0 0 0 153.6915641314969 27.452540875237901 0 27.452540875237901 22.084838171067531 0 0 0 0 0.13131183802246543 1.4198798211532164 0 1.4198798211532164 -6.6300882143918898 0 0 0 0 257.2569232599518 213.03416175799794 0 213.03416175799794 129.48214531349367 0 0 0 0 126.45914812237697 228.86213947219221 0 228.86213947219221 231.63550422198023 0 0 0 0 0.2469738127873353 133.62658226833446 0 133.62658226833446 201.35505791925243 0 0 0 0 100.0527180571774 74.098699475296598 0 74.098699475296598 -57.731578776263632 0 0 0 0 10.454325896316391 0.82977920561825158 0 0.82977920561825158 31.934269391262205 0 0 0 0 0.3616101497444788 68.200947592384182 0 68.200947592384182 -164.88016631588107 0 0 0 0 -4.8778782446809146 49.925718578248052 0 49.925718578248052 8.0401343721023295 0 0 0 0 43.444355030746124 -89.47203108141548 0 -89.47203108141548 -91.570470798469614 0 0 0 0 50.148589120232714 -83.162909953218332 0 -83.162909953218332 -222.76247457723366 0 0 0 0 -27.303576736527475 -60.64285155799007 0 -60.64285155799007 -155.89615912231966 0 0 0 0 -102.74879564837966 1.9213885464487248 0 1.9213885464487248 -23.14840682267095 0 0 0 0 15.426806666153425 37.159458943788195 0 37.159458943788195 -265.06618806817278 0 0 0 0 46.850401964750745 38.617383960823645 0 38.617383960823645 -95.94679390109377 0 0 0 0 9.8885460450680398 31.060437020501922 0 31.060437020501922 -103.40629485234967 0 0 0 0 34.460332703886252 -0.11956113341148011 0 -0.11956113341148011 -127.80157622018305 0 0 0 0 33.570040534982581 -8.7308037591865286 0 -8.7308037591865286 -55.606845788002829 0 0 0 0 34.459433414607474 -12.578634675111971 0 -12.578634675111971 -38.713349712066702 0 0 0 0 19.997808285240176 6.6331690450402903 0 6.6331690450402903 -6.6690588805533366 0 0 0 0 20.462145485552355 -36.491397248966678 0 -36.491397248966678 -7.4104662066420133 0 0 0 0 -29.200298156615645 -34.811169233114924 0 -34.811169233114924 -44.781356844629045 0 0 0 0 -21.44217301814956 4.730594299184304 0 4.730594299184304 31.989647881549899 0 0 0 0 10.3766858430713 15.93413948037778 0 15.93413948037778 -38.628472546603007 0 0 0 0 17.760805310342079 4.4208562360826704 0 4.4208562360826704 -4.8967102005025822 0 0 0 0 10.865973708920137 1.9894935406991863 0 1.9894935406991863 31.748629565088777 0 0 0 0 45.6331051058296 485.64859077196775 0 485.64859077196775 -556.28902054690116 0 0 0 0 -190.0772377843532 507.29612351495598 0 507.29612351495598 -457.51814815379475 0 0 0 0 -268.0090795805192 108.95369810693319 0 108.95369810693319 -108.35555313159421 0 0 0 0 1054.4111307333715 413.72423649896518 0 413.72423649896518 144.53437393927015 0 0 0 0 371.24059914125075 19.326740320953832 0 19.326740320953832 466.69215093742241 0 0 0 0 0.79333024757279702 0.94427539619036338 0 0.94427539619036338 -1.6659996102341665 0 0 0 0 534.0490413154514 756.39035088616947 0 756.39035088616947 884.22044784025638 0 0 0 0 2206.7881060233799 582.03821483562933 0 582.03821483562933 -339.96143774487427 0 0 0 0 408.7107208538032 -10.160588588769315 0 -10.160588588769315 -25.733240327564999 0 0 0 0 250.00356650562514 546.35935108052217 0 546.35935108052217 149.57799023078769 0 0 0 0 281.65423513740268 433.22328314185143 0 433.22328314185143 492.52899330601213 0 0 0 0 745.39703570209383 623.51074054602941 0 623.51074054602941 306.75025653687771 0 0 0 0 0.4494922732619171 488.06123275914433 0 488.06123275914433 494.31327675981447 0 0 0 0 383.39787629119201 315.58109160274034 0 315.58109160274034 236.62908184685512 0 0 0 0 740.57091583566807 558.03021962969797 0 558.03021962969797 278.62813686695881 0 0 0 0 32.230077887382436 30.910158216509444 0 30.910158216509444 19.316136283410742 0 0 0 0 4.0085293414017444 0.71521933990902653 0 0.71521933990902653 -10.379489430969727 0 0 0 0 15.612201068383754 -63.615958411486645 0 -63.615958411486645 -89.727389153646072 0 0 0 0 7.4798757631748174 34.256982280669035 0 34.256982280669035 -99.302474516065558 0 0 0 0 -0.45088081100920074 1.0112090096677093 0 1.0112090096677093 -3.1754429245884239 0 0 0 0 107.36037765248555 -61.326844241295476 0 -61.326844241295476 26.866755201597698 0 0 0 0 0.15237430338732116 1.3222799074167142 0 1.3222799074167142 -1.9681572762176263 0 0 0 0 0.28953248253434882 -48.933913840468449 0 -48.933913840468449 69.025012413738295 0 0 0 0 37.066399692472118 -65.877295192680322 0 -65.877295192680322 69.538939252204727 0 0 0 0 45.449820801661936 -92.929640577189275 0 -92.929640577189275 94.261155065440107 0 0 0 0 -0.67558520518376408 -68.102993827924365 0 -68.102993827924365 -17.95145596950897 0 0 0 0 75.616310448953271 -64.441128109996498 0 -64.441128109996498 -160.26976909523364 0 0 0 0 70.034199744060146 -6.376926379482029 0 -6.376926379482029 -51.562858421530109 0 0 0 0 8.495488427570109 -58.650578547269106 0 -58.650578547269106 102.08765023092201 0 0 0 0 2.6739330089232851 -31.111464653396979 0 -31.111464653396979 73.782547637385505 0 0 0 0 54.673180684048901 -64.495053400081815 0 -64.495053400081815 95.215689885480742 0 0 0 0 59.811125659536202 -86.160862354881829 0 -86.160862354881829 -40.480691249875235 0 0 0 0 -1.8117554163760587 8.1495179472913151 0 8.1495179472913151 -22.004238841918323 0 0 0 0 4.6767902510353485 -2.6121175696746377 0 -2.6121175696746377 -11.453599156174903 0 0 0 0 -1.803603457958161 4.7343920574057847 0 4.7343920574057847 -22.408060192799894 0 0 0 0 -4.4861968657209559 6.2070729028600908 0 6.2070729028600908 -16.754337964142906 0 0 0 0 -608.26147507317705 317.50227384857135 0 317.50227384857135 -185.17061965633184 0 0 0 0 -914.5153703025851 103.6158162708889 0 103.6158162708889 118.21946025965735 0 0 0 0 -285.80241202473746 377.61774409002101 0 377.61774409002101 -395.21178124302241 0 0 0 0 115.31579404857871 34.481798057531705 0 34.481798057531705 -29.493822835502215 0 0 0 0 0.13424941362695286 1.9622138181898094 0 1.9622138181898094 0.42172233627377409 0 0 0 0 43.384229055760329 41.187224211666035 0 41.187224211666035 12.25310947613616 0 0 0 0 0.71878067831776926 -3.1699818423487187 0 -3.1699818423487187 -20.234301131653808 0 0 0 0 2.0855732217167491 5.4043639372580117 0 5.4043639372580117 -5.2343882221702023 0 0 0 0 75.573727326896687 86.873770381513168 0 86.873770381513168 -32.656063024522155 0 0 0 0 -3.3600481005535401 6.1944400240327866 0 6.1944400240327866 -0.91861558080067418 0 0 0 0 -91.00492723827341 -5.0216812860453501 0 -5.0216812860453501 69.621809658561688 0 0 0 0 -39.564346456922976 73.720872060774127 0 73.720872060774127 12.619415088935057 0 0 0 0 -11.834555023017742 -36.413799403360827 0 -36.413799403360827 -78.191816642618505 0 0 0 0 -79.384836686352401 -29.483199889553362 0 -29.483199889553362 -76.19224926631432 0 0 0 0 -126.51339147229623 -203.17593619691615 0 -203.17593619691615 -363.67860265955096 0 0 0 0 51.66603599572062 -153.16349675990205 0 -153.16349675990205 -755.59726917924127 0 0 0 0 23.330351429518657 -71.362019794352818 0 -71.362019794352818 -430.01756803572061 0 0 0 0 -0.66231732330850068 -1.2751818417497702 0 -1.2751818417497702 -7.0061362187462919 0 0 0 0 -409.50234003940068 830.59842368462705 0 830.59842368462705 -785.49637477705255 0 0 0 0 -139.36823396672537 -319.52316524460912 0 -319.52316524460912 -307.84316555358237 0 0 0 0 -343.18933851698466 365.26034177470137 0 365.26034177470137 -377.67723479492633 0 0 0 0 -124.03463139583606 4.2235479062944705 0 4.2235479062944705 50.312106717115967 0 0 0 0 -548.50868355892192 401.59038236207562 0 401.59038236207562 -373.76159136617207 0 0 0 0 -365.66560981036025 69.001021928546834 0 69.001021928546834 -1182.2589740282456 0 0 0 0 -523.86907460253838 676.03784091226407 0 676.03784091226407 -930.92334745929111 0 0 0 0 86.007612348304747 151.54851159198097 0 151.54851159198097 -722.95073431351921 0 0 0 0 102.79315948170631 243.41123374510789 0 243.41123374510789 -1276.8608890437645 0 0 0 0 47.710217340279172 -346.2685972899053 0 -346.2685972899053 -1086.8950642494019 0 0 0 0 76.072331336403124 98.92724877713772 0 98.92724877713772 -599.67426469494603 0 0 0 0 92.638752955596075 127.7737793819033 0 127.7737793819033 -678.20142732255044 0 0 0 0 81.110940314754458 24.956160904388526 0 24.956160904388526 -625.55263999747694 0 0 0 0 71.165825683239945 -36.57263412606153 0 -36.57263412606153 -506.92294261959614 0 0 0 0 62.736986881356053 0.95244850478775334 0 0.95244850478775334 -428.83853822539095 0 0 0 0 -38.505048397351281 -124.38070798091212 0 -124.38070798091212 -299.27113590491354 0 0 0 0 0.019569105125657894 -0.10848340755984509 0 -0.10848340755984509 -0.84846687266127674 0 0 0 0 25.350121160990671 84.806204758569947 0 84.806204758569947 -253.48174247253337 0 0 0 0 35.770682579207637 90.373813633050304 0 90.373813633050304 -540.82697407121304 0 0 0 0 64.01704245821314 -6.5708477845910238 0 -6.5708477845910238 -503.33560500598833 0 0 0 0 -0.052707492093344681 48.213319951044454 0 48.213319951044454 -540.92280592522002 0 0 0 0 56.469986507776156 97.015239300366375 0 97.015239300366375 -498.79933282561251 0 0 0 0 0.1482597044299899 83.772021176271664 0 83.772021176271664 -479.94657516985899 0 0 0 0 -65.41145894651973 129.28721970384595 0 129.28721970384595 -306.21199201951094 0 0 0 0 -74.229879610507865 168.7008032657759 0 168.7008032657759 -283.00484120118199 0 0 0 0 -0.259392697891141 39.352960616146447 0 39.352960616146447 -200.52908265917358 0 0 0 0 404.54112183213795 115.72397976496359 0 115.72397976496359 -2485.1391649441794 0 0 0 0 -1.7519791735622734 -3.3171579568113714 0 -3.3171579568113714 -6.3892540134275464 0 0 0 0 336.3778911819133 167.27081821869797 0 167.27081821869797 -1602.8593477422255 0 0 0 0 -0.25532490390622042 -286.01523630609881 0 -286.01523630609881 -1364.1632352071611 0 0 0 0 188.33210743213476 23.479732329025865 0 23.479732329025865 -3540.7670389946143 0 0 0 0 168.496885218442 8.8253671463244245 0 8.8253671463244245 -1474.7686269027363 0 0 0 0 298.49138801765253 182.53505102507916 0 182.53505102507916 -1249.0524182309309 0 0 0 0 -1394.3534760505813 -518.00454835473647 0 -518.00454835473647 -868.45330649227253 0 0 0 0 -402.61678699096024 -403.34584646685107 0 -403.34584646685107 -858.99438532522436 0 0 0 0 -174.52741104642359 221.50115808965347 0 221.50115808965347 -3131.8159033953561 0 0 0 0 -178.85646396371635 152.44304549449589 0 152.44304549449589 82.220770722444286 0 0 0 0 -66.655550461492794 -739.54125276607374 0 -739.54125276607374 -538.7404712797761 0 0 0 0 -6.1940917472053671 -7.6549542894444755 0 -7.6549542894444755 -8.2604174724864947 0 0 0 0 -158.19025542278411 322.83985216364817 0 322.83985216364817 -423.0722707802779 0 0 0 0 -219.54270247879651 464.65717638378555 0 464.65717638378555 -724.57215263372927 0 0 0 0 -403.8129758888403 -138.97127049581832 0 -138.97127049581832 -932.38186894153478 0 0 0 0 -581.16326479179725 -91.038946468950599 0 -91.038946468950599 378.14201565326221 0 0 0 0 -4.3020731033388051 -3.7702951470462267 0 -3.7702951470462267 -3.7028556337849636 0 0 0 0 -623.31353739525912 -209.58528079011739 0 -209.58528079011739 232.53318383457372 0 0 0 0 88.74402622170976 -499.48941933099559 0 -499.48941933099559 -171.06639655849722 0 0 0 0 530.43716045578572 -225.91802835717681 0 -225.91802835717681 -66.161800023153774 0 0 0 0 336.75395756954146 -424.48028324057668 0 -424.48028324057668 11.47509551253097 0 0 0 0 -1.5045953131598253 -130.46243962708832 0 -130.46243962708832 -288.3346911741537 0 0 0 0 1.3810597427805285 -2.0534752919932941 0 -2.0534752919932941 -6.4114829135810965 0 0 0 0 190.3230065341547 43.130380065769714 0 43.130380065769714 207.57248041349521 0 0 0 0 394.67392067119636 -972.44158610641898 0 -972.44158610641898 -644.67001009689557 0 0 0 0 -457.94768426225187 108.9770532574089 0 108.9770532574089 306.67580171223381 0 0 0 0 -175.70712204431098 562.92240677669542 0 562.92240677669542 -2454.2155007024121 0 0 0 0 -0.79623831409890355 -1.9407537531613599 0 -1.9407537531613599 -4.498946086898286 0 0 0 0 -135.58892624527698 166.92624644911848 0 166.92624644911848 -182.47564001116552 0 0 0 0 -176.82960652971462 906.66535157189355 0 906.66535157189355 -1474.4993821388052 0 0 0 0 282.2317227457479 103.59689657056879 0 103.59689657056879 -2206.8715417919884 0 0 0 0 -292.61479884155716 -77.605650560639333 0 -77.605650560639333 -1861.4263422332224 0 0 0 0 17.112158891917034 -916.41582460186328 0 -916.41582460186328 -2543.8006234742643 0 0 0 0 255.0772112986408 -355.74871932282986 0 -355.74871932282986 -3312.5658334089967 0 0 0 0 -326.46134430380471 -460.19944373075123 0 -460.19944373075123 -3030.3397337143833 0 0 0 0 247.95144717185735 -138.63362195540685 0 -138.63362195540685 -1744.7754209863633 0 0 0 0 267.21408231304031 -208.869941651712 0 -208.869941651712 -1774.69028304522 0 0 0 0 287.10843726803523 -112.9012405553367 0 -112.9012405553367 -1409.0711726721347 0 0 0 0 -45.617949177893024 373.96208372805268 0 373.96208372805268 -1036.4875449791871 0 0 0 0 -43.413707094730853 -342.54781586128229 0 -342.54781586128229 -910.02771724366175 0 0 0 0 -9.2242360786881363 -99.922880374641863 0 -99.922880374641863 -231.30618526376202 0 0 0 0 -1.3185028007519577 24.688290781086835 0 24.688290781086835 -30.53383585892152 0 0 0 0 -50.191889031743813 143.60670659341122 0 143.60670659341122 -278.5517211353872 0 0 0 0 -135.74183280594639 -61.02509479469154 0 -61.02509479469154 -352.11631744762417 0 0 0 0 -89.313476784737759 167.32489648937189 0 167.32489648937189 -34.247313052539539 0 0 0 0 -16.041699128048094 -9.8004883265384706 0 -9.8004883265384706 6.1504695874591562 0 0 0 0 6.9767272514681915 6.1981364469477853 0 6.1981364469477853 -5.581882194839352 0 0 0 0 356.0967585899993 106.10947816998669 0 106.10947816998669 -6.995507503481349 0 0 0 0 -63.858034611292169 64.132911309483461 0 64.132911309483461 21.416146448376821 0 0 0 0 15.254021803978503 123.67216710609136 0 123.67216710609136 -18.162123622518266 0 0 0 0 16.026392079975722 58.405346191768331 0 58.405346191768331 6.9244996059860568 0 0 0 0 48.473977806587641 4.3651787063408847 0 4.3651787063408847 -114.28361156824394 0 0 0 0 13.124114821417606 -0.26373516954481602 0 -0.26373516954481602 -33.960233127698302 0 0 0 0 15.82626196846013 50.628042694166652 0 50.628042694166652 -45.184981987200445 0 0 0 0 17.516474681209274 -4.291941186747863 0 -4.291941186747863 -110.81115863818559 0 0 0 0 20.23498994947742 0.71839073083422988 0 0.71839073083422988 -34.767209341697935 0 0 0 0 27.844823178864544 22.638956126866105 0 22.638956126866105 -128.28340107080294 0 0 0 0 6.5520792060319213 28.999631117552838 0 28.999631117552838 -4.6969037297531955 0 0 0 0 -0.13898973502636736 3.4086575491351141 0 3.4086575491351141 7.631096258706938 0 0 0 0 -1.2360386868167552 75.552340795635246 0 75.552340795635246 54.627495138993254 0 0 0 0 32.968534087746775 198.41292614332633 0 198.41292614332633 -80.595275893537291 0 0 0 0 123.40675722972401 -219.90347303919407 0 -219.90347303919407 -70.569533469346425 0 0 0 0 -23.471882277281338 270.6524095202094 0 270.6524095202094 337.55956101464108 0 0 0 0 361.94705635832565 131.06540291375131 0 131.06540291375131 -432.02295599490753 0 0 0 0 3.7617229422613292 5.0933684505426982 0 5.0933684505426982 -7.4929967378387232 0 0 0 0 226.9525072034121 -296.80941500997142 0 -296.80941500997142 436.09527911717305 0 0 0 0 78.00735131824672 -24.639128905328107 0 -24.639128905328107 59.189702444418799 0 0 0 0 568.92958636976812 -182.37018075786182 0 -182.37018075786182 -103.29814245508169 0 0 0 0 425.48206047099688 344.02502339874627 0 344.02502339874627 -515.07464272296056 0 0 0 0 -135.10913519845531 512.45368945418159 0 512.45368945418159 -332.03286341239982 0 0 0 0 -537.09303401103682 129.82201038263156 0 129.82201038263156 -515.06226721889107 0 0 0 0 -324.97945243008451 554.52313686166599 0 554.52313686166599 -550.36851280792325 0 0 0 0 -177.60621811095666 455.45438690499577 0 455.45438690499577 -501.63897245255066 0 0 0 0 -308.18551208264182 444.73824372229865 0 444.73824372229865 -480.37439498498861 0 0 0 0 -84.848595312749922 206.37927770176611 0 206.37927770176611 -276.69192944967654 0 0 0 0 -161.86550361271301 523.79284809234559 0 523.79284809234559 -371.54155878303573 0 0 0 0 63.309524829564452 509.75080363136658 0 509.75080363136658 -560.88868003117386 0 0 0 0 78.736883150220365 345.46861635296591 0 345.46861635296591 -1416.4210561006767 0 0 0 0 -28.271336969853337 359.98250199564791 0 359.98250199564791 -657.30565492515598 0 0 0 0 -4.5480206316114558 4.6083279914434172 0 4.6083279914434172 -3.3126238110730419 0 0 0 0 -75.816788778156877 353.05866756581236 0 353.05866756581236 -471.47733621866792 0 0 0 0 -246.44690822628854 299.84125157310336 0 299.84125157310336 -453.17106775820139 0 0 0 0 4.0109075482126038 0.34479070224949737 0 0.34479070224949737 -30.716112941340036 0 0 0 0 35.670342215519668 -14.801817688290612 0 -14.801817688290612 -3.8410815688696403 0 0 0 0 0.67854795886410646 -1.3345026432999418 0 -1.3345026432999418 -4.745044945569532 0 0 0 0 4.0555348181028741 0.77787469050582558 0 0.77787469050582558 -18.633117404425548 0 0 0 0 313.26754421952967 161.5840381447415 0 161.5840381447415 49.297474132238449 0 0 0 0 31.560339041584939 -14.067455523676472 0 -14.067455523676472 12.126586300903 0 0 0 0 -7.3639058624578979 12.248623648636567 0 12.248623648636567 -20.98338054715714 0 0 0 0 215.70479496895109 354.21569909694517 0 354.21569909694517 -330.38296466264001 0 0 0 0 -319.31946504074313 293.58950229815673 0 293.58950229815673 1051.8908978695981 0 0 0 0 -634.03237076748201 1039.5995852172346 0 1039.5995852172346 -280.19658582558623 0 0 0 0 -9.1431053278641272 5.5700988869560604 0 5.5700988869560604 -4.755715961565727 0 0 0 0 -718.12993593470537 260.29354489946854 0 260.29354489946854 242.64919875076885 0 0 0 0 82.81954315760936 76.307523337087332 0 76.307523337087332 -242.0760050122044 0 0 0 0 -206.52251658443129 596.57803498479188 0 596.57803498479188 -726.3160672051963 0 0 0 0 -338.83796326053334 24.009114706947003 0 24.009114706947003 -54.612241322392947 0 0 0 0 -1.9955108845518312 0.79368144996598744 0 0.79368144996598744 -0.1333061743674282 0 0 0 0 63.517227805941275 136.50325768996117 0 136.50325768996117 26.387033645980409 0 0 0 0 15.062414404595236 7.8316984191680206 0 7.8316984191680206 -18.025396594113744 0 0 0 0 43.311916126817778 -150.48937337186362 0 -150.48937337186362 -567.93585706964586 0 0 0 0 -197.54072085118878 -194.88589686518753 0 -194.88589686518753 -236.14115078601026 0 0 0 0 22.028241734192477 11.903017119969988 0 11.903017119969988 -22.729380241784554 0 0 0 0 103.89619507798079 150.06348732215884 0 150.06348732215884 9.7020714064128697 0 0 0 0 -120.45615362535682 -173.2884589106252 0 -173.2884589106252 -313.6704425944481 0 0 0 0 153.6442109924692 -48.515583174190397 0 -48.515583174190397 -131.52959990610543 0 0 0 0 112.61542056927055 86.479758395053068 0 86.479758395053068 -128.11767849160242 0 0 0 0 -77.055674565017625 -229.2553007248207 0 -229.2553007248207 -938.58955281696399 0 0 0 0 -99.453523066325459 -126.46014235501934 0 -126.46014235501934 -783.7853406762224 0 0 0 0 3.1096974405688034 4.3305123152830163 0 4.3305123152830163 -8.9635492197324425 0 0 0 0 -17.203245121966983 21.776241117382966 0 21.776241117382966 -15.389486789292079 0 0 0 0 -61.929111497379381 -262.9897464770329 0 -262.9897464770329 -874.35075296607101 0 0 0 0 -209.23614008204549 -278.72154289780883 0 -278.72154289780883 -644.39050697415951 0 0 0 0 -4.9475602116162918 -178.9762368001102 0 -178.9762368001102 -694.5806048992672 0 0 0 0 49.104756787833139 -4.3448034735338297 0 -4.3448034735338297 -602.37076137594704 0 0 0 0 71.737386668103682 -55.463117882245569 0 -55.463117882245569 -506.77185640975949 0 0 0 0 -102.84562335437977 -88.322978244661499 0 -88.322978244661499 -526.41537266690284 0 0 0 0 128.24810341474335 49.320285970319674 0 49.320285970319674 -430.75749777458259 0 0 0 0 174.34061505111458 38.257594802897074 0 38.257594802897074 -498.60746869310969 0 0 0 0 147.41882158570479 129.45493261834781 0 129.45493261834781 -487.25404220100609 0 0 0 0 -199.63266517516968 117.04702639493917 0 117.04702639493917 -297.04298307085264 0 0 0 0 122.67524716123944 -111.26284174421016 0 -111.26284174421016 -217.67939095319889 0 0 0 0 19.171364575578082 -119.82330164167797 0 -119.82330164167797 -419.93455525936952 0 0 0 0 72.274931979040957 -9.4135492048990272 0 -9.4135492048990272 -226.75369649715867 0 0 0 0 74.232021628868097 10.064753790007671 0 10.064753790007671 -89.171052651567152 0 0 0 0 24.424303304607747 35.502016805898165 0 35.502016805898165 -117.42338933795691 0 0 0 0 8.2749924841825617 10.533191568900946 0 10.533191568900946 -16.46526417049256 0 0 0 0 39.109667428489047 40.677167534071486 0 40.677167534071486 -97.697883970657131 0 0 0 0 34.113055611389427 28.968978801363846 0 28.968978801363846 -95.030859751445405 0 0 0 0 5.6141095741950267 38.62609876638453 0 38.62609876638453 -95.400341683242004 0 0 0 0 -81.028567161534738 18.394275941740489 0 18.394275941740489 -96.253793703448537 0 0 0 0 -71.717302613981701 -79.071594171575271 0 -79.071594171575271 67.136938886003918 0 0 0 0 123.17842934779128 -2.4164770644201781 0 -2.4164770644201781 -132.45996273115452 0 0 0 0 64.816889693433041 33.722344633686589 0 33.722344633686589 7.2139945453382097 0 0 0 0 0.62379615581741632 1.6373919125783232 0 1.6373919125783232 0.78831011241457816 0 0 0 0 17.134661272546509 44.712690287851728 0 44.712690287851728 -118.74510509388347 0 0 0 0 10.456203565989931 -11.873222699455795 0 -11.873222699455795 0.54279789905182074 0 0 0 0 -21.641083039619843 39.106375504605239 0 39.106375504605239 -95.175602404953679 0 0 0 0 11.093192729703333 -23.366966061461426 0 -23.366966061461426 -75.772195237426786 0 0 0 0 -12.181936208752632 -37.662190182505583 0 -37.662190182505583 -9.8243056258652359 0 0 0 0 3.3689400161514307 0.80485507534464773 0 0.80485507534464773 -2.0066302133393776 0 0 0 0 4.8480439389495587 -1.4464551697747083 0 -1.4464551697747083 -46.716147816077864 0 0 0 0 18.798254907249973 -8.5885366080102585 0 -8.5885366080102585 -8.5996848869636153 0 0 0 0 11.495203309674253 -11.356042454572162 0 -11.356042454572162 -90.817123839631677 0 0 0 0 50.986155097200026 -1.7832387457456207 0 -1.7832387457456207 -72.15276230085874 0 0 0 0 28.609042795063942 19.829074684836087 0 19.829074684836087 29.406788707819487 0 0 0 0 35.178608931051713 -20.272787878464442 0 -20.272787878464442 -91.303106322840904 0 0 0 0 58.000009624898667 -28.832953524251934 0 -28.832953524251934 -99.745124492386822 0 0 0 0 14.132568202685434 -56.992632028835942 0 -56.992632028835942 -110.63341735777794 0 0 0 0 89.181578006894597 14.75843865708157 0 14.75843865708157 -120.39336926877149 0 0 0 0 43.836546497252129 -29.884786375012482 0 -29.884786375012482 -48.309763994213426 0 0 0 0 3.2912843934492231 -0.013429457635297126 0 -0.013429457635297126 -2.5541214668170937 0 0 0 0 -51.270668099707564 -84.222181045581237 0 -84.222181045581237 -105.26177420661406 0 0 0 0 45.586949059103063 -39.315347421332262 0 -39.315347421332262 -184.00959460086597 0 0 0 0 -10.509781827487132 -33.953946161840577 0 -33.953946161840577 -80.594568724474811 0 0 0 0 -28.451601373163612 -43.026191547949566 0 -43.026191547949566 -75.470656121833599 0 0 0 0 -145.49397240079998 49.024815956341627 0 49.024815956341627 58.898856390762376 0 0 0 0 15.408802154009038 25.619207700519411 0 25.619207700519411 -12.616718837512389 0 0 0 0 129.70962913318544 93.323348823614651 0 93.323348823614651 -46.586621378475684 0 0 0 0 8.0576697824557275 9.3484128523040546 0 9.3484128523040546 -67.45408836926407 0 0 0 0 101.93833435084343 3.5914847297317465 0 3.5914847297317465 -123.58229612042487 0 0 0 0 36.223748454165616 -55.441185714509629 0 -55.441185714509629 -176.44660407189804 0 0 0 0 -46.675105886133679 -46.877227200646303 0 -46.877227200646303 -86.587911577757041 0 0 0 0 -46.368860977754593 252.70957873070438 0 252.70957873070438 -302.34697508603494 0 0 0 0 -0.71685863477679934 3.8285007931353281 0 3.8285007931353281 -48.210121182768603 0 0 0 0 315.89658177036654 32.614177848467079 0 32.614177848467079 -421.88590611776453 0 0 0 0 -196.79256624338996 690.72426767796424 0 690.72426767796424 -1105.8140414625232 0 0 0 0 -496.60690736801735 262.94291752967547 0 262.94291752967547 -66.301338741279324 0 0 0 0 -136.24937360540025 53.499596236797515 0 53.499596236797515 -888.25793239685299 0 0 0 0 -135.10633662070632 47.968520752849599 0 47.968520752849599 -2940.289195177058 0 0 0 0 -0.68749258540764258 0.71138150031497105 0 0.71138150031497105 -18.680305101365889 0 0 0 0 -121.53894279915039 -1001.1838805780717 0 -1001.1838805780717 -1973.4540502633754 0 0 0 0 -1212.9952241571791 1062.2917974810698 0 1062.2917974810698 -825.7119493559585 0 0 0 0 -52.987597458438358 554.54877130392924 0 554.54877130392924 -2700.1698031572887 0 0 0 0 -27.264499207059998 298.02360914190649 0 298.02360914190649 -699.35268219513091 0 0 0 0 69.166959621186834 244.27001755312085 0 244.27001755312085 -1313.2160613178712 0 0 0 0 65.277217222290801 221.93154149492693 0 221.93154149492693 -967.71103508150554 0 0 0 0 -126.03321067200977 511.32828664635235 0 511.32828664635235 -651.36178369051777 0 0 0 0 34.932719440746041 446.63998955207717 0 446.63998955207717 -818.96412561056786 0 0 0 0 58.062558990044636 494.75802818798547 0 494.75802818798547 -1047.3403872501294 0 0 0 0 -6.0219246167326901 400.45355184637219 0 400.45355184637219 -831.20463258185191 0 0 0 0 53.072159021148764 254.78221032190049 0 254.78221032190049 -628.03086508168053 0 0 0 0 -26.040039076058747 243.6745922229602 0 243.6745922229602 -401.0013657988311 0 0 0 0 -80.680281884361648 210.46386475412601 0 210.46386475412601 -417.69399442280701 0 0 0 0 -17.259838196248893 36.660043256830249 0 36.660043256830249 -158.0682006201223 0 0 0 0 30.066228755499878 183.41072025563335 0 183.41072025563335 -661.17136269687035 0 0 0 0 55.448193889249524 35.743252570915502 0 35.743252570915502 -888.86885469143454 0 0 0 0 -55.54193136565118 12.31041257900506 0 12.31041257900506 -330.44377924723085 0 0 0 0 -97.233040493490989 94.368710852068034 0 94.368710852068034 -828.26707635020284 0 0 0 0 -65.011550487419754 310.38483666169759 0 310.38483666169759 -1027.9964864877402 0 0 0 0 84.481061858099565 281.32782700951066 0 281.32782700951066 -1166.4016597198934 0 0 0 0 -58.919840086333352 565.03430080113321 0 565.03430080113321 -957.78132481694047 0 0 0 0 20.460212754333952 440.03578641538115 0 440.03578641538115 -779.50033136238926 0 0 0 0 -117.45462762046282 511.77850666009545 0 511.77850666009545 -830.94080334564205 0 0 0 0 -286.48799005304863 595.74148556742148 0 595.74148556742148 -743.93777582628536 0 0 0 0 -30.172163199792575 -40.569859905389976 0 -40.569859905389976 -38.258406251205884 0 0 0 0 -140.02159214696303 314.27193635898948 0 314.27193635898948 -411.22113153050304 0 0 0 0 -85.791075717365857 375.41241412804447 0 375.41241412804447 -799.77717919707356 0 0 0 0 -32.562945965304607 -21.449935237353202 0 -21.449935237353202 5.6390402642937261 0 0 0 0 -1.4029793136894568 7.5229812235728915 0 7.5229812235728915 -50.446172774013633 0 0 0 0 -22.140686588683366 14.793100440623675 0 14.793100440623675 -35.11863183825335 0 0 0 0 -16.509349713653407 -26.316864828976151 0 -26.316864828976151 -39.672651011383238 0 0 0 0 -387.31206525136815 -6.4561525804301709 0 -6.4561525804301709 -125.33871090463072 0 0 0 0 -1069.3551625791151 572.05571379853791 0 572.05571379853791 -326.75243527943894 0 0 0 0 94.150813511369051 116.11903824574256 0 116.11903824574256 -1810.3862000191148 0 0 0 0 -5.5572634759827686 -1.7837840997714096 0 -1.7837840997714096 -23.601242192496329 0 0 0 0 408.61516274337191 778.07381788946805 0 778.07381788946805 -2121.7941350416295 0 0 0 0 332.84493313856183 865.28995753452182 0 865.28995753452182 -2199.2446958105429 0 0 0 0 -307.72766022455653 947.92001627240097 0 947.92001627240097 -1713.4075108927937 0 0 0 0 -576.93670541231404 -306.59964693807706 0 -306.59964693807706 -1739.6690955811523 0 0 0 0 -553.12192131991105 356.38236002843769 0 356.38236002843769 -461.01900723560539 0 0 0 0 -1188.1926093414859 876.56124179065228 0 876.56124179065228 -1427.1594319475698 0 0 0 0 -730.83554047252255 -89.125474071814097 0 -89.125474071814097 -617.32360722895828 0 0 0 0 57.217062085535872 -45.685585493891267 0 -45.685585493891267 -814.83586903400283 0 0 0 0 581.50042731121084 588.65766216821066 0 588.65766216821066 -2124.2820071396854 0 0 0 0 145.90185060151953 62.551407315520919 0 62.551407315520919 75.917440662975423 0 0 0 0 131.48932587547688 149.14141771622781 0 149.14141771622781 -417.50403320704936 0 0 0 0 162.05921713196221 264.57935538156016 0 264.57935538156016 -292.71156600921131 0 0 0 0 62.154285961911228 74.850037060852628 0 74.850037060852628 -245.51612181845121 0 0 0 0 -257.40573454289103 26.963569637655439 0 26.963569637655439 -120.54463422874687 0 0 0 0 -260.4061937229053 240.62195062582759 0 240.62195062582759 -163.83634448777593 0 0 0 0 -130.96487968067777 231.10157333587267 0 231.10157333587267 -446.43886819061299 0 0 0 0 -446.02485312226054 -161.84746465891658 0 -161.84746465891658 322.50414082979523 0 0 0 0 -0.84339514423545126 1.9906335281582699 0 1.9906335281582699 -3.9286972202939729 0 0 0 0 1.6590442926289484 -1.1622158358680963 0 -1.1622158358680963 -4.7617887450053047 0 0 0 0 2.8780245568155962 -11.527859059344422 0 -11.527859059344422 -3.784522605435372 0 0 0 0 4.9903633885236403 12.280982236758433 0 12.280982236758433 -19.633230488794823 0 0 0 0 46.896782262807392 -93.306901685515186 0 -93.306901685515186 -24.897824666259112 0 0 0 0 115.05129750716515 -193.65400885920826 0 -193.65400885920826 -478.53859048195227 0 0 0 0 0.45706328893174941 401.92183195659891 0 401.92183195659891 -76.769073692645179 0 0 0 0 -284.14748008223978 -354.76145764514513 0 -354.76145764514513 -55.134612961803214 0 0 0 0 -122.02601805766244 -167.35622830289503 0 -167.35622830289503 -571.09222575739841 0 0 0 0 -479.24866486536303 476.79880056088587 0 476.79880056088587 -526.0662790738661 0 0 0 0 -1.4676731153291449 -2.3477449929096821 0 -2.3477449929096821 -5.3942005482939521 0 0 0 0 237.47252242623381 -425.21658159610888 0 -425.21658159610888 -44.241443427061313 0 0 0 0 -119.26747685659575 -302.55792047866998 0 -302.55792047866998 -73.054751802948886 0 0 0 0 279.77088582299803 19.770741046158946 0 19.770741046158946 74.888096616068651 0 0 0 0 3.781163459716069 -3.5982392117067405 0 -3.5982392117067405 -16.977822651942233 0 0 0 0 575.5013013151256 -223.5840346191253 0 -223.5840346191253 -400.01721808093134 0 0 0 0 -369.49435747756797 217.75444095667626 0 217.75444095667626 -117.68911864189431 0 0 0 0 -88.311391953593557 243.00862724619219 0 243.00862724619219 -237.38200804101143 0 0 0 0 29.641038022038629 219.17404569109931 0 219.17404569109931 -218.46488771922304 0 0 0 0 152.61605058934947 190.66575923818164 0 190.66575923818164 -248.32804718035914 0 0 0 0 -35.207828874372353 160.63007406973702 0 160.63007406973702 -195.42546656582272 0 0 0 0 92.015769156598253 155.27589407336927 0 155.27589407336927 -153.91873966043931 0 0 0 0 -70.859613893596361 242.52945578264189 0 242.52945578264189 -212.89380683483614 0 0 0 0 -115.53702191717639 149.2706270649287 0 149.2706270649287 -257.5980497799319 0 0 0 0 62.869365291609938 12.880237289915385 0 12.880237289915385 -30.659497539214499 0 0 0 0 12.145934491654003 24.686528206063713 0 24.686528206063713 9.2627405243620728 0 0 0 0 18.338557912076151 32.230961208844576 0 32.230961208844576 -18.717851443171128 0 0 0 0 2.410143812412251 5.6307271402808681 0 5.6307271402808681 8.0836515438257663 0 0 0 0 178.29908473272462 210.47276163688366 0 210.47276163688366 235.60089749627514 0 0 0 0 34.652309472316119 51.886429246253101 0 51.886429246253101 -18.641831015163916 0 0 0 0 35.829764289207915 84.09871852656353 0 84.09871852656353 12.588632573937844 0 0 0 0 5.9183937110353533 6.9400731527639437 0 6.9400731527639437 -4.5481491005836574 0 0 0 0 20.306957935787068 77.101147391029372 0 77.101147391029372 -328.07994292397052 0 0 0 0 -23.188992240799053 91.69239425462365 0 91.69239425462365 -142.46962666977197 0 0 0 0 -25.062477251418386 194.14023056785663 0 194.14023056785663 -118.96948800981045 0 0 0 0 95.468221826562512 219.14532750632497 0 219.14532750632497 -176.61312550334696 0 0 0 0 15.799409633593314 246.54048233479261 0 246.54048233479261 -104.77051561142434 0 0 0 0 -15.82271526688055 94.696513709401188 0 94.696513709401188 -57.798262909112964 0 0 0 0 -13.822758414433338 168.19892941354919 0 168.19892941354919 -22.469123014365323 0 0 0 0 -15.424886782792328 157.46264102309215 0 157.46264102309215 -55.831623553007375 0 0 0 0 -10.415872056966691 93.818261446467659 0 93.818261446467659 -101.82309617448482 0 0 0 0 6.7202994728254453 7.1784238460361536 0 7.1784238460361536 -33.694754787655654 0 0 0 0 299.86787520982944 240.29699161258759 0 240.29699161258759 123.80583901309728 0 0 0 0 288.78389769186379 341.2675734330478 0 341.2675734330478 -562.99413543533956 0 0 0 0 -116.97690246388629 153.71482902199205 0 153.71482902199205 240.49989504736004 0 0 0 0 -205.36199508204754 36.793905275173529 0 36.793905275173529 177.76878189154377 0 0 0 0 24.777116459580157 48.195290783776727 0 48.195290783776727 -9.7180074060452171 0 0 0 0 -43.660608222467772 10.636059345193644 0 10.636059345193644 144.84250058657926 0 0 0 0 25.557822560445857 31.057333487660799 0 31.057333487660799 -15.174033886123652 0 0 0 0 134.44094743479218 244.32693208423734 0 244.32693208423734 149.27504004418734 0 0 0 0 -0.22786436906920926 31.54329974531089 0 31.54329974531089 -38.401098841255191 0 0 0 0 19.586433227875844 28.669471577848356 0 28.669471577848356 -34.741101023829643 0 0 0 0 43.279595111886465 69.494701163586797 0 69.494701163586797 -6.6089896190533182 0 0 0 0 53.828581527806818 8.2284597158577526 0 8.2284597158577526 141.09827444294933 0 0 0 0 42.874120500579011 210.74634848398273 0 210.74634848398273 87.887035665218718 0 0 0 0 -0.21841667702951284 3.6130829599479313 0 3.6130829599479313 9.500566516306364 0 0 0 0 -11.305396547841156 142.82788997082389 0 142.82788997082389 96.48262498099939 0 0 0 0 41.630538933452044 119.63430899868399 0 119.63430899868399 44.367893384565832 0 0 0 0 125.75182121930993 148.63320851036042 0 148.63320851036042 -11.998451861392823 0 0 0 0 -40.43754174575588 74.267752279818524 0 74.267752279818524 -0.43240941858675797 0 0 0 0 39.726172325600601 125.17695103539154 0 125.17695103539154 20.411872846074402 0 0 0 0 -20.576540253890926 49.369528804432775 0 49.369528804432775 21.113011520617874 0 0 0 0 -26.818204409131795 35.912432582539623 0 35.912432582539623 7.6841319615014072 0 0 0 0 -75.913102152413558 1.1825125179966562 0 1.1825125179966562 -0.15712352694936271 0 0 0 0 -52.793831460958245 22.550788941320207 0 22.550788941320207 28.377283299865667 0 0 0 0 36.323146626767993 35.728442751438706 0 35.728442751438706 29.796707208646694 0 0 0 0 -73.483434585716168 62.468691709349514 0 62.468691709349514 71.772818733064923 0 0 0 0 5.7006902273013651 36.613972708542718 0 36.613972708542718 -24.255179103963769 0 0 0 0 40.302758427116714 106.5612042749126 0 106.5612042749126 86.546584167081164 0 0 0 0 0.23266314129636001 2.7510420941951992 0 2.7510420941951992 4.2719433266487101 0 0 0 0 -4.997655732129715 75.321759462465707 0 75.321759462465707 57.689015970470791 0 0 0 0 23.437100370103508 30.309912245327723 0 30.309912245327723 38.161545699491398 0 0 0 0 50.616918363135483 23.658725281085935 0 23.658725281085935 39.979326684173429 0 0 0 0 56.015553932011244 -14.718462896053097 0 -14.718462896053097 84.063436181982979 0 0 0 0 33.270628356403904 48.545744696981274 0 48.545744696981274 -17.641615548873233 0 0 0 0 4.2846682989529032 4.9810762500911281 0 4.9810762500911281 -4.2376048247200799 0 0 0 0 15.946467965616755 47.319953420624245 0 47.319953420624245 12.133159684841416 0 0 0 0 336.92927104979526 37.19382322319143 0 37.19382322319143 -136.13382473730599 0 0 0 0 20.924377166134491 -6.2934829597688804 0 -6.2934829597688804 22.937358572446101 0 0 0 0 2.6331435519080211 -6.1221057383392434 0 -6.1221057383392434 -49.199524034946251 0 0 0 0 11.259635459415247 12.72082897290565 0 12.72082897290565 -25.659758965395326 0 0 0 0 17.121144317454309 8.6890127773804124 0 8.6890127773804124 -15.026552406838164 0 0 0 0 4.2129460164633201 -17.267442232827307 0 -17.267442232827307 15.733845699156518 0 0 0 0 -79.124648405869266 -2.7486848781918525 0 -2.7486848781918525 7.2426031898721703 0 0 0 0 -15.308863085076155 -26.143702164670685 0 -26.143702164670685 14.730763485713396 0 0 0 0 49.220332982326454 -148.67355428413975 0 -148.67355428413975 -19.043685942393495 0 0 0 0 -36.678598770612552 23.292864901934081 0 23.292864901934081 -44.438115932935034 0 0 0 0 -117.71598060380529 -25.056668340330361 0 -25.056668340330361 -66.590362614060723 0 0 0 0 -210.52077021570767 109.7434694636213 0 109.7434694636213 -163.72728923294926 0 0 0 0 -96.655551589110473 -20.311468725922168 0 -20.311468725922168 -402.24770939465088 0 0 0 0 -69.684883387716127 27.321715422382113 0 27.321715422382113 -447.28321605501696 0 0 0 0 -102.71710745839869 48.265570892412143 0 48.265570892412143 -11.991537129084463 0 0 0 0 -81.229342532413284 -8.1979161346534966 0 -8.1979161346534966 -877.81464408237662 0 0 0 0 -266.10710300508617 -180.87775029999466 0 -180.87775029999466 -517.20941352632508 0 0 0 0 -377.04725482801496 -279.60000270011005 0 -279.60000270011005 -670.68850840694358 0 0 0 0 -224.04141793396388 57.278727462186907 0 57.278727462186907 -445.61233854095917 0 0 0 0 -48.245941983100693 -326.86117297633245 0 -326.86117297633245 -1366.1434165403989 0 0 0 0 -602.6603508055814 -927.84249635925516 0 -927.84249635925516 -1157.718584049353 0 0 0 0 -28.743308505428104 -77.586252761240758 0 -77.586252761240758 -341.04742012901988 0 0 0 0 -60.171663161224387 -111.96039511751587 0 -111.96039511751587 -361.52173852805572 0 0 0 0 -6.6225114513690642 -50.361787820213067 0 -50.361787820213067 -438.2933626418162 0 0 0 0 -192.39291510686144 18.235023609951895 0 18.235023609951895 -447.09422617192467 0 0 0 0 -53.746210104217425 -94.590424297006393 0 -94.590424297006393 -562.63319853514258 0 0 0 0 -65.938469708626144 -48.619126329711435 0 -48.619126329711435 -429.89787486825662 0 0 0 0 -10.178209523578062 49.324502305444184 0 49.324502305444184 -338.41063474079419 0 0 0 0 7.6360035083052935 32.547204793874698 0 32.547204793874698 -322.77721415404812 0 0 0 0 -2.8273705504175268 34.751680066739937 0 34.751680066739937 -228.19434619774984 0 0 0 0 58.196235755692669 124.31763198804038 0 124.31763198804038 -252.26841678775963 0 0 0 0 -20.387001359873466 104.03796965082438 0 104.03796965082438 -378.70681462180073 0 0 0 0 -147.14013858827002 82.203396240267466 0 82.203396240267466 -219.96998277572857 0 0 0 0 -31.983653306513588 52.599378499158775 0 52.599378499158775 -214.74083999051436 0 0 0 0 -129.7097289020947 104.7837757255636 0 104.7837757255636 -41.446302269498119 0 0 0 0 -28.587974652131379 69.213541783639812 0 69.213541783639812 -36.206773135942058 0 0 0 0 -68.344083289590344 73.571102438931121 0 73.571102438931121 21.248107572108211 0 0 0 0 -96.791320851127239 74.554794672629214 0 74.554794672629214 14.14508577151355 0 0 0 0 30.453245748882182 41.91793977132329 0 41.91793977132329 -42.563876702304697 0 0 0 0 -20.832401917863535 129.19739542977914 0 129.19739542977914 -145.16200477875827 0 0 0 0 0.45597813651693286 146.77023504948738 0 146.77023504948738 26.507581994927023 0 0 0 0 180.1884850852548 31.336620123074681 0 31.336620123074681 -158.78451063719695 0 0 0 0 189.6255240175542 187.27551841822424 0 187.27551841822424 -236.10745960191707 0 0 0 0 23.945121076216765 71.236022679810958 0 71.236022679810958 102.25779365721974 0 0 0 0 -337.27242399970964 -57.885737599921413 0 -57.885737599921413 64.295953871391248 0 0 0 0 260.3010450089796 417.94936987378605 0 417.94936987378605 -27.78258188640757 0 0 0 0 -7.1090853775114038 37.374585002548841 0 37.374585002548841 -47.670881662011368 0 0 0 0 -2.3821299256314852 2.2324606586092912 0 2.2324606586092912 -5.3297804679911849 0 0 0 0 133.57050446967332 57.945036099728895 0 57.945036099728895 -38.305056389741367 0 0 0 0 -409.39717184944789 549.13535491053108 0 549.13535491053108 285.51307906977308 0 0 0 0 459.41844345666323 -317.36203631015087 0 -317.36203631015087 -378.84701036437764 0 0 0 0 -374.61331681784668 7.6610102521080989 0 7.6610102521080989 -103.64400238936651 0 0 0 0 -39.366844889609638 254.01814361535071 0 254.01814361535071 -237.53438842617493 0 0 0 0 36.024581663064964 127.79462866931863 0 127.79462866931863 -196.60071029663595 0 0 0 0 75.598069905679949 139.52067924836592 0 139.52067924836592 -237.18817754687916 0 0 0 0 -21.889525662732012 39.079496735452267 0 39.079496735452267 -283.9707264478202 0 0 0 0 27.807473867849922 104.69583990968931 0 104.69583990968931 -214.98417554640037 0 0 0 0 92.980333045861698 -22.848813837277703 0 -22.848813837277703 -203.60759341395169 0 0 0 0 -29.609434309221797 -5.3481459835384157 0 -5.3481459835384157 -66.560112620994914 0 0 0 0 245.32383688362279 132.95634614409937 0 132.95634614409937 -67.926124576682923 0 0 0 0 142.23044127817047 1.7979127413709648 0 1.7979127413709648 -131.99518688533863 0 0 0 0 62.25503556546937 -53.046515212066879 0 -53.046515212066879 8.0500371064990759 0 0 0 0 61.071410073224797 -93.467153378911462 0 -93.467153378911462 -207.27992326383537 0 0 0 0 165.68591991253561 -98.261866628694406 0 -98.261866628694406 -333.90584716278028 0 0 0 0 7.5134980608290789 1.3422667943432316 0 1.3422667943432316 -253.95719813479809 0 0 0 0 39.148596095639732 -49.572152835717134 0 -49.572152835717134 -295.16486200702457 0 0 0 0 9.4330403952635606 -92.011199523090909 0 -92.011199523090909 -338.0503400207017 0 0 0 0 -499.84083722452033 577.31281209623558 0 577.31281209623558 1338.5572720787604 0 0 0 0 -3.9454238476228856 6.9429349631509609 0 6.9429349631509609 -10.960529442484216 0 0 0 0 307.69170395310118 32.715079110754687 0 32.715079110754687 -19.636959794064751 0 0 0 0 301.90010374128542 157.35826419828663 0 157.35826419828663 -34.520658179360908 0 0 0 0 -554.86770231298487 -182.29854625336884 0 -182.29854625336884 380.94680957484525 0 0 0 0 70.258607077475972 -228.56584046909484 0 -228.56584046909484 -378.82182388046931 0 0 0 0 216.98743489408844 -73.259409953381692 0 -73.259409953381692 -355.69103770467336 0 0 0 0 164.12444574442816 -77.902065017231507 0 -77.902065017231507 -347.82366609427845 0 0 0 0 77.860075787109963 -179.86356993911613 0 -179.86356993911613 -72.994302946783137 0 0 0 0 -56.783207333246082 188.77115687690093 0 188.77115687690093 30.001298041315749 0 0 0 0 81.765574118446239 45.911229777761037 0 45.911229777761037 183.46241699709208 0 0 0 0 200.36550577645176 204.16426736621361 0 204.16426736621361 93.117573162831832 0 0 0 0 14.903013805249429 271.31698880712793 0 271.31698880712793 8.5204491796030197 0 0 0 0 205.61354730118319 138.53119443777541 0 138.53119443777541 -28.24436178279575 0 0 0 0 157.32902089619893 -123.76429234594252 0 -123.76429234594252 -273.07489717757562 0 0 0 0 32.892592040805539 7.0760600218345644 0 7.0760600218345644 -20.375424735306296 0 0 0 0 165.9788588418636 87.592176971692425 0 87.592176971692425 -31.555724799341988 0 0 0 0 77.208911654869553 128.08915759479714 0 128.08915759479714 25.545387637976091 0 0 0 0 2.9619805758882407 5.1390950477946546 0 5.1390950477946546 -10.13416635125381 0 0 0 0 222.13050796570496 -16.990129531914135 0 -16.990129531914135 -53.974480828503147 0 0 0 0 -1.4928404191542839 5.6074000333586511 0 5.6074000333586511 -7.2002122743934933 0 0 0 0 29.020025534524393 -2.4960665915714344 0 -2.4960665915714344 -55.04421450249356 0 0 0 0 -248.68623494336498 92.233610546725686 0 92.233610546725686 15.031160798767814 0 0 0 0 -177.15499282096516 -31.267123215911852 0 -31.267123215911852 -98.894515590392984 0 0 0 0 -62.203238021392508 205.20209066250754 0 205.20209066250754 -4.5905172030325048 0 0 0 0 -81.035667115727847 132.98962993250461 0 132.98962993250461 -27.79600471525373 0 0 0 0 -198.45477234731879 62.273993264883757 0 62.273993264883757 -3.9783066696545575 0 0 0 0 703.64964046420755 149.65249439779291 0 149.65249439779291 -324.20868238144612 0 0 0 0 -56.993234393123437 184.80974501473838 0 184.80974501473838 1.3095494251465425 0 0 0 0 -8.8190844099936783 17.198381626290427 0 17.198381626290427 -36.846996586016616 0 0 0 0 -35.032330232555978 155.92390799411805 0 155.92390799411805 30.856986437225714 0 0 0 0 -32.781059215967616 179.09709720859246 0 179.09709720859246 -55.332813681146945 0 0 0 0 198.73145629024089 15.107412472611031 0 15.107412472611031 -21.463397009196342 0 0 0 0 237.95238236522073 29.780131062369037 0 29.780131062369037 -183.11024175084458 0 0 0 0 174.58015568950668 253.7257389066508 0 253.7257389066508 -392.09619734114676 0 0 0 0 -131.87878554190274 -259.45644607186114 0 -259.45644607186114 -105.62655157377594 0 0 0 0 236.12237578582051 -13.399381884088143 0 -13.399381884088143 -130.04364841990173 0 0 0 0 -234.26435694853808 245.98147842082835 0 245.98147842082835 -50.06763854388555 0 0 0 0 -31.4674194421641 174.49666855875694 0 174.49666855875694 -43.412950017664116 0 0 0 0 208.58620041122049 -446.99496019096114 0 -446.99496019096114 -262.73240700585302 0 0 0 0 660.46839681105484 -346.60138743338757 0 -346.60138743338757 -459.06232815832482 0 0 0 0 3.7833755829086169 6.8044018252469698 0 6.8044018252469698 -8.3535724043316861 0 0 0 0 11.958566190994134 110.07695129903732 0 110.07695129903732 343.00529348835698 0 0 0 0 -49.756464418962565 270.44238143637426 0 270.44238143637426 324.04148763835838 0 0 0 0 13.162670845101129 30.525680782228676 0 30.525680782228676 -28.410930549027341 0 0 0 0 -4.2614358552268641 29.620371307028108 0 29.620371307028108 228.37305903225206 0 0 0 0 125.49193817366552 278.50588780128783 0 278.50588780128783 262.35121926397551 0 0 0 0 -18.243051919340822 17.124895196639955 0 17.124895196639955 -6.960012553718343 0 0 0 0 -1020.8381247439493 222.19068826864532 0 222.19068826864532 203.02679090551828 0 0 0 0 64.348042907328363 54.104327806431684 0 54.104327806431684 164.89519525604555 0 0 0 0 -189.06895523705066 201.79176430396183 0 201.79176430396183 347.51002298922685 0 0 0 0 328.8575819916714 269.95562510149466 0 269.95562510149466 -84.179666018899297 0 0 0 0 32.938207152185882 26.097060612947928 0 26.097060612947928 -26.836920917322914 0 0 0 0 39.230202411328719 39.208829537841666 0 39.208829537841666 19.398580410517752 0 0 0 0 37.593573743040906 56.211872320476687 0 56.211872320476687 -12.017396057803126 0 0 0 0 29.121940000901304 59.639089182775933 0 59.639089182775933 33.777621405781247 0 0 0 0 150.67883263187105 30.654552847139712 0 30.654552847139712 5.2273432951478753 0 0 0 0 -2.1095043323753888 26.015285971302639 0 26.015285971302639 20.308164454434007 0 0 0 0 31.608310373403583 71.2942977672501 0 71.2942977672501 40.232875443994999 0 0 0 0 94.123225087409992 263.94485973892961 0 263.94485973892961 -34.019227965298342 0 0 0 0 20.058131534727302 58.89500659604937 0 58.89500659604937 -39.554020042828441 0 0 0 0 8.0988820539096196 104.20953371662472 0 104.20953371662472 71.188120988263108 0 0 0 0 -4.5229147332834954 22.200766787975979 0 22.200766787975979 5.8228029268090609 0 0 0 0 25.765605249102009 45.197064481195412 0 45.197064481195412 134.71792797371745 0 0 0 0 -14.02234547754415 87.802077413842198 0 87.802077413842198 95.175421630876372 0 0 0 0 60.18137142151636 181.49995108853 0 181.49995108853 116.64021709973167 0 0 0 0 -8.9049361677098204 82.359879599818669 0 82.359879599818669 95.422868282665149 0 0 0 0 10.33016539666005 92.319496579766565 0 92.319496579766565 68.7211952960497 0 0 0 0 -10.57286182973562 11.133357223991567 0 11.133357223991567 -11.652118139402774 0 0 0 0 2.35341377565328 64.631870185541629 0 64.631870185541629 45.99007221240754 0 0 0 0 -3.5940014918469387 71.622855973146216 0 71.622855973146216 40.37467900957472 0 0 0 0 251.03743739182846 407.48175059980713 0 407.48175059980713 73.419612515310291 0 0 0 0 111.53272284429386 266.96476882178104 0 266.96476882178104 122.66312351137458 0 0 0 0 19.139013639059158 48.931604032528412 0 48.931604032528412 7.9702002526173601 0 0 0 0 -137.82399933344595 -80.336666473416699 0 -80.336666473416699 31.978742235602112 0 0 0 0 221.82727444974626 70.540085796186759 0 70.540085796186759 -479.59726105121081 0 0 0 0 -2.7712286014772687 4.2239736213846015 0 4.2239736213846015 -5.4066704294599504 0 0 0 0 136.63380533325517 -48.418701074137061 0 -48.418701074137061 -196.52251393765619 0 0 0 0 248.12509647236607 -13.388499054297426 0 -13.388499054297426 -432.45121069281595 0 0 0 0 193.82769522256558 112.56258631616947 0 112.56258631616947 -491.2322792596824 0 0 0 0 1.4991240052481771 18.137158724479377 0 18.137158724479377 -308.14299215428764 0 0 0 0 -86.199732873948051 -78.502698868425796 0 -78.502698868425796 -551.10492103174329 0 0 0 0 -107.89295701695075 -147.74663227596466 0 -147.74663227596466 -696.40210329613183 0 0 0 0 7.6812276911689423 -32.913632799121842 0 -32.913632799121842 -793.18961263514939 0 0 0 0 45.224750754787237 41.711006100755185 0 41.711006100755185 -662.81657059291319 0 0 0 0 -35.634885923713682 40.677063734998228 0 40.677063734998228 -130.66964787890902 0 0 0 0 -145.60396402805657 286.42321878744406 0 286.42321878744406 -512.14598350161396 0 0 0 0 -158.04318496633195 103.47114563748733 0 103.47114563748733 -123.59756945513072 0 0 0 0 -158.88837795929132 251.61784437409995 0 251.61784437409995 5.9393911692895927 0 0 0 0 33.076057088312609 102.46935800354549 0 102.46935800354549 -23.128628434380516 0 0 0 0 71.407777847824491 171.78246439406939 0 171.78246439406939 -422.37661357142497 0 0 0 0 -192.15801153297457 -105.93566751114486 0 -105.93566751114486 295.57787369396829 0 0 0 0 -236.29501397260918 -286.67210645887099 0 -286.67210645887099 -243.88167639734456 0 0 0 0 -264.40182611797269 102.36487158591626 0 102.36487158591626 -508.32506420067511 0 0 0 0 -661.64501710723118 195.20724323343165 0 195.20724323343165 61.354562232969329 0 0 0 0 -340.65266546863376 172.4829298483528 0 172.4829298483528 -144.54147951446794 0 0 0 0 -797.59724131500457 678.15372034672328 0 678.15372034672328 -908.48803659731493 0 0 0 0 -131.05731507771367 -316.13006577547367 0 -316.13006577547367 -1862.5754114661686 0 0 0 0 163.68202464557339 -194.74484968770412 0 -194.74484968770412 -1398.8256399831807 0 0 0 0 -1253.667946680559 -208.21719915283757 0 -208.21719915283757 -148.34582517287345 0 0 0 0 772.13311570631265 -388.14544706965535 0 -388.14544706965535 -450.39377915915247 0 0 0 0 2.1618778203778954 -3.4809048977282657 0 -3.4809048977282657 -20.881355982479477 0 0 0 0 190.56886028645511 0.72392899074748129 0 0.72392899074748129 -43.007744833070319 0 0 0 0 51.720656257722965 -27.533411026684917 0 -27.533411026684917 -43.25046180265781 0 0 0 0 9.061037049831782 9.9692181940117734 0 9.9692181940117734 -30.117773842139286 0 0 0 0 0.09640209761849361 -0.019594074230610659 0 -0.019594074230610659 -1.7415704441000912 0 0 0 0 -44.914019696259629 45.632875607236201 0 45.632875607236201 5.78315252334869 0 0 0 0 20.678138838884706 0.33764916678774171 0 0.33764916678774171 112.16640604834538 0 0 0 0 0.99249404193333191 -3.8190881300090211 0 -3.8190881300090211 -18.252406835242482 0 0 0 0 203.48734220471238 -422.24728448572569 0 -422.24728448572569 130.46709791665489 0 0 0 0 42.2879534784729 -46.765203756474875 0 -46.765203756474875 -239.54045039234916 0 0 0 0 4.1587332825549765 44.507242177583976 0 44.507242177583976 34.765986120735761 0 0 0 0 3.6452153701799466 -4.8747786195968388 0 -4.8747786195968388 -12.60977751662665 0 0 0 0 1.9632285126137385 -79.182481106725334 0 -79.182481106725334 -99.341374040828669 0 0 0 0 5.5037082276414822 -0.82309628335497109 0 -0.82309628335497109 -41.24694420830474 0 0 0 0 -1.7500451218556918 30.883221219279221 0 30.883221219279221 -73.366417120065307 0 0 0 0 -19.16594448634396 21.008955989302194 0 21.008955989302194 -39.160841636214172 0 0 0 0 1.388013119801359 -1.8835194498749104 0 -1.8835194498749104 -15.320170071497728 0 0 0 0 -13.264041750725482 0.41634646138118114 0 0.41634646138118114 35.785074765477248 0 0 0 0 -0.4370355109849362 -2.3193011345883292 0 -2.3193011345883292 -11.70638885808745 0 0 0 0 -30.144927530826806 30.787050442682812 0 30.787050442682812 200.49798537531296 0 0 0 0 -162.96395651374627 -140.67891518872057 0 -140.67891518872057 217.34350003098371 0 0 0 0 -70.945115687954655 -1.3458442643459421 0 -1.3458442643459421 190.02009272488067 0 0 0 0 -257.00179343992181 50.260041284549516 0 50.260041284549516 283.36723899459685 0 0 0 0 -358.00210823123371 226.50591746020655 0 226.50591746020655 144.26940647787706 0 0 0 0 -274.77202062286545 -64.942736716475338 0 -64.942736716475338 179.9704865754029 0 0 0 0 -70.445698960933157 102.84897560738318 0 102.84897560738318 191.62751980707981 0 0 0 0 -107.62726469961672 31.122844550205627 0 31.122844550205627 270.78936102980515 0 0 0 0 -4.2203392954019758 4.0868840293197408 0 4.0868840293197408 1.2838817340729634 0 0 0 0 -67.140519105115203 22.74877708295935 0 22.74877708295935 271.70457537041511 0 0 0 0 -74.910005688992641 20.185695946849592 0 20.185695946849592 93.878308671875857 0 0 0 0 -101.20114469594114 41.738390508209704 0 41.738390508209704 283.81309808103651 0 0 0 0 -98.067051707133942 25.361999307657243 0 25.361999307657243 172.93046424729982 0 0 0 0 -100.91326751138763 40.220828251825878 0 40.220828251825878 275.18135869826438 0 0 0 0 0.875854865420024 16.030454142863164 0 16.030454142863164 187.2705029376084 0 0 0 0 0.9756067981270462 67.192912137426902 0 67.192912137426902 176.45973227685317 0 0 0 0 -148.220203284538 44.211524155194638 0 44.211524155194638 189.745860675117 0 0 0 0 -38.372143705646977 25.650207053840859 0 25.650207053840859 -122.75615023897262 0 0 0 0 68.176663729605934 40.89954822085565 0 40.89954822085565 55.502022993721766 0 0 0 0 -15.483339823029251 45.640409563126042 0 45.640409563126042 -59.278686227694266 0 0 0 0 2.0456426523496702 145.13729970832355 0 145.13729970832355 -46.239775396708865 0 0 0 0 643.55147468533835 232.89259662264908 0 232.89259662264908 -136.08084458808298 0 0 0 0 -16.99823468006872 9.9040874008973105 0 9.9040874008973105 20.446137309798019 0 0 0 0 -121.91577509339257 143.63765965505081 0 143.63765965505081 76.339887314417865 0 0 0 0 -46.81738448182 10.88412266180967 0 10.88412266180967 -66.095747556188144 0 0 0 0 -6.1642184799161086 13.467872903149015 0 13.467872903149015 -32.48344498597686 0 0 0 0 13.10619135080924 19.028279232501518 0 19.028279232501518 -10.117104849312454 0 0 0 0 42.692329832784026 61.939814962568562 0 61.939814962568562 -116.77910077024717 0 0 0 0 -7.5900293506694876 31.89622520063611 0 31.89622520063611 -47.103388301149266 0 0 0 0 -15.835322587837933 55.979772349345694 0 55.979772349345694 -79.824866698468782 0 0 0 0 75.931052485793771 51.38591171731241 0 51.38591171731241 -39.521367836860009 0 0 0 0 -51.515316517637984 -103.07081192395708 0 -103.07081192395708 -157.26738258135447 0 0 0 0 -13.940179525412532 53.002565101982327 0 53.002565101982327 -133.11726216750685 0 0 0 0 36.448874556070223 3.7391998537932523 0 3.7391998537932523 -89.572949992143549 0 0 0 0 -6.5841347310248324 11.59300423005152 0 11.59300423005152 -25.17347029375378 0 0 0 0 -16.678620746082743 19.578669361420907 0 19.578669361420907 -21.269887625589035 0 0 0 0 12.258482107060445 28.667633649391064 0 28.667633649391064 -70.205126892833505 0 0 0 0 -9.9200230092465542 10.58898486041565 0 10.58898486041565 -12.096229025254331 0 0 0 0 0.46243008636889016 10.391234277769271 0 10.391234277769271 -35.996091359235891 0 0 0 0 5.176122710364325 38.087557824677788 0 38.087557824677788 -80.839079355122522 0 0 0 0 -6.2981395306215404 4.9070595763696474 0 4.9070595763696474 -34.687903529353207 0 0 0 0 -28.415945947127057 42.636807355011115 0 42.636807355011115 -38.02730104123475 0 0 0 0 -3.157841955715659 10.313523585453211 0 10.313523585453211 -26.799714794423835 0 0 0 0 2.128897618082874 15.498532478803099 0 15.498532478803099 -31.157046243184595 0 0 0 0 -18.717374313736855 0.086090446879097726 0 0.086090446879097726 -30.814545428736892 0 0 0 0 -4.6231493343138963 10.933996176432117 0 10.933996176432117 -18.788890524629551 0 0 0 0 -12.210610686611302 14.327690267977999 0 14.327690267977999 -14.057366588891535 0 0 0 0 -25.426218282256059 4.7586786699830554 0 4.7586786699830554 -19.046503105928423 0 0 0 0 -5.1253376043714525 25.234803644008934 0 25.234803644008934 -70.495742175437044 0 0 0 0 9.1033441409381339 16.853520940814633 0 16.853520940814633 -20.56112091394607 0 0 0 0 -2.4004609271925617 13.021025321504965 0 13.021025321504965 -54.748810948559054 0 0 0 0 -12.386223195013423 32.760819681127288 0 32.760819681127288 -38.683818985561288 0 0 0 0 1.7443151176830725 17.80359661084367 0 17.80359661084367 -35.615964115480892 0 0 0 0 -6.6791961668802999 29.673118520190741 0 29.673118520190741 -31.831612833428835 0 0 0 0 -6.2369907233005506 11.3565250801621 0 11.3565250801621 -22.512377515133267 0 0 0 0 31.924350648649124 29.187230271141743 0 29.187230271141743 -199.6910082292743 0 0 0 0 0.2195612105278606 5.3562267918251507 0 5.3562267918251507 -19.328468481787947 0 0 0 0 -146.67115353467898 51.714776546035864 0 51.714776546035864 -81.445027896144893 0 0 0 0 -15.942274711698701 19.321521416160977 0 19.321521416160977 -88.803423347766511 0 0 0 0 3.0560468219255199 15.261569909445825 0 15.261569909445825 -15.669579706969671 0 0 0 0 -17.607639502275561 28.118150742520811 0 28.118150742520811 -42.200723370895503 0 0 0 0 -2.1625245310011465 13.66607108012073 0 13.66607108012073 -62.374806193067428 0 0 0 0 0.2801076118266792 10.987212292355252 0 10.987212292355252 -23.453326074755751 0 0 0 0 -10.694591576754014 12.82962318120903 0 12.82962318120903 -49.785233611295517 0 0 0 0 -3.0064201621938969 10.373116186839525 0 10.373116186839525 -23.897892591765185 0 0 0 0 6.6276331361914345 17.633746858220547 0 17.633746858220547 -35.610302431508899 0 0 0 0 9.9278605240615434 13.765398464078316 0 13.765398464078316 -35.668537946534343 0 0 0 0 5.5650661559848231 15.646588710602373 0 15.646588710602373 -36.474792095948942 0 0 0 0 -6.6355622071313984 5.2243506491692102 0 5.2243506491692102 -22.462120653778925 0 0 0 0 5.8077100273840188 15.312273376563098 0 15.312273376563098 -37.177191574126482 0 0 0 0 3.6509264418242342 14.382276536273224 0 14.382276536273224 -63.648763087588755 0 0 0 0 2.0020180531023595 3.6748706829088178 0 3.6748706829088178 -25.6937276575635 0 0 0 0 9.4989328972696967 13.22330853913445 0 13.22330853913445 -31.73600780390916 0 0 0 0 -12.94146180010533 24.291077185419255 0 24.291077185419255 -33.763676831583552 0 0 0 0 -1.5583479832910387 17.908778065629786 0 17.908778065629786 -27.349860498087764 0 0 0 0 -7.5087798379852151 18.715906160624229 0 18.715906160624229 -13.942093853415145 0 0 0 0 6.5455646034532968 9.7911517631401921 0 9.7911517631401921 -36.275303832345259 0 0 0 0 -16.433360633578559 25.318755794636672 0 25.318755794636672 -37.890476097323699 0 0 0 0 0.049473465611901801 13.705074704746252 0 13.705074704746252 -27.987444775525205 0 0 0 0 8.4630210329760303 13.020481869447394 0 13.020481869447394 -37.243843917909544 0 0 0 0 -5.1393650205843446 20.138037577209715 0 20.138037577209715 -22.509751085316907 0 0 0 0 -9.2872130082541844 27.04322882861743 0 27.04322882861743 -37.559353861719501 0 0 0 0 0.14841728669186338 4.7769079765960853 0 4.7769079765960853 -28.810695940542701 0 0 0 0 -2.8647621400423304 -0.75077998480264796 0 -0.75077998480264796 -47.436330887972872 0 0 0 0 -10.30264055827621 24.955081418646841 0 24.955081418646841 -38.349493986403104 0 0 0 0 3.7061384046510284 1.2916780327286688 0 1.2916780327286688 -94.003351624622155 0 0 0 0 2.7626278058153844 13.940007049554936 0 13.940007049554936 0.68810562602342884 0 0 0 0 -21.790163369430957 121.88325252323921 0 121.88325252323921 -50.192228930594865 0 0 0 0 -8.0858831536270372 24.152046166491346 0 24.152046166491346 -87.465402714442462 0 0 0 0 -2.1752643830548788 9.6729918444260612 0 9.6729918444260612 -40.609602302166593 0 0 0 0 21.368938149444148 10.427606925331929 0 10.427606925331929 -39.46501887264094 0 0 0 0 -0.78966038378531467 18.282778551529361 0 18.282778551529361 -57.289639372519844 0 0 0 0 1.1310726198003 -5.0814098638402356 0 -5.0814098638402356 -0.60188797544952877 0 0 0 0 -3.7927857776489873 -6.9558209055830957 0 -6.9558209055830957 -12.715227643850085 0 0 0 0 -7.7330317411833676 -47.022330529014653 0 -47.022330529014653 -36.728117680846481 0 0 0 0 -9.567012302619716 -39.709459863446682 0 -39.709459863446682 -61.275924595771357 0 0 0 0 1.7990232930379761 7.7763413594875601 0 7.7763413594875601 -86.813320438930532 0 0 0 0 -2.0510838290552535 11.75254805940888 0 11.75254805940888 -43.759573724659333 0 0 0 0 -5.6172752121849499 -4.2367764774244279 0 -4.2367764774244279 -40.904969618473842 0 0 0 0 -2.2183341082944557 -6.3202257679556624 0 -6.3202257679556624 -37.627841282175609 0 0 0 0 -0.22918089761495863 7.2676376461860457 0 7.2676376461860457 -22.041624844747332 0 0 0 0 1.4533654442229818 4.246079749224009 0 4.246079749224009 -48.157876180004678 0 0 0 0 -5.3070971207914681 -0.40099849771650042 0 -0.40099849771650042 -21.198437883431325 0 0 0 0 -1.149601173633755 -3.1213012387524941 0 -3.1213012387524941 -14.661265946677304 0 0 0 0 -3.375614521588254 -2.4666008856650592 0 -2.4666008856650592 -10.302283587125885 0 0 0 0 1.3385513932647779 0.98771492664593552 0 0.98771492664593552 -9.7184078899192059 0 0 0 0 -3.2652035759906823 2.7635459162040661 0 2.7635459162040661 -7.0136421504430473 0 0 0 0 -3.2717880949534965 2.491514603761857 0 2.491514603761857 -5.4723696977598593 0 0 0 0 -3.4182545952427357 2.8948540468836654 0 2.8948540468836654 -3.350666156494519 0 0 0 0 -2.0913005617977825 5.1848220290500819 0 5.1848220290500819 -11.629411670902414 0 0 0 0 -10.03731255657307 3.6759343177764094 0 3.6759343177764094 -23.117453973871307 0 0 0 0 -6.644043590004685 40.898012796224066 0 40.898012796224066 -78.92225679117837 0 0 0 0 -30.354473956030688 4.3194039003283251 0 4.3194039003283251 -48.378332571417559 0 0 0 0 -62.118061854630469 69.42636888162815 0 69.42636888162815 -52.924899270234164 0 0 0 0 -4.0177720653769287 2.0048740154408051 0 2.0048740154408051 5.140278702905448 0 0 0 0 6.0901272411667833 7.6385309232500731 0 7.6385309232500731 -99.438217915856512 0 0 0 0 -5.2129935023486951 35.417761667275045 0 35.417761667275045 -70.307935206248658 0 0 0 0 -6.5416385139028534 19.214144072553609 0 19.214144072553609 -23.386138118384679 0 0 0 0 -25.264657378946254 7.2099664098459471 0 7.2099664098459471 2.5115515987854451 0 0 0 0 -0.73312854331785715 -0.42798149264800145 0 -0.42798149264800145 -0.19652927861210401 0 0 0 0 1.230455629836797 -1.9750427604303695 0 -1.9750427604303695 -4.0786116943527304 0 0 0 0 -16.30881943566942 32.543487245027791 0 32.543487245027791 -66.642099424054322 0 0 0 0 -10.454619670543366 -1.6298939684784273 0 -1.6298939684784273 -3.9716692218353273 0 0 0 0 -12.403528191025202 -14.491756708091998 0 -14.491756708091998 -22.873008312206366 0 0 0 0 -0.3990888071192541 0.40684997470003736 0 0.40684997470003736 -0.36709553292973851 0 0 0 0 0.27763581691499439 -0.82457814012013841 0 -0.82457814012013841 -7.661502778324575 0 0 0 0 -0.41156887990096935 0.65416786631811874 0 0.65416786631811874 -1.8690024746159519 0 0 0 0 -2.5404817437129168 0.53871240012813359 0 0.53871240012813359 -3.0854102878947742 0 0 0 0 0.018422355139678395 0.60305747945063359 0 0.60305747945063359 -3.4691142436004156 0 0 0 0 0.44130953965066055 -0.63242904401431588 0 -0.63242904401431588 -2.7654047209653072 0 0 0 0 -0.62490394494959423 -0.43097583120555782 0 -0.43097583120555782 -6.6372757393256734 0 0 0 0 -16.363343473035684 7.7319492025853833 0 7.7319492025853833 -0.03762254017055966 0 0 0 0 -3.2238060650973352 2.1152282689278366 0 2.1152282689278366 -0.88623528934338225 0 0 0 0 5.4774384127213125 -7.3873200750676915 0 -7.3873200750676915 1.2000859926338308 0 0 0 0 -0.17655457095167115 0.37375328116780793 0 0.37375328116780793 -0.4959572392246514 0 0 0 0 -0.29762809796949341 1.3445113204652444 0 1.3445113204652444 -15.199541788868373 0 0 0 0 -0.52352030649507242 0.9494554394732404 0 0.9494554394732404 -11.500304599991068 0 0 0 0 -1.0684981484101854 -3.8344275678391568 0 -3.8344275678391568 -15.114766124602738 0 0 0 0 1.573273606245948 -1.7268363061593845 0 -1.7268363061593845 -13.573439726424112 0 0 0 0 1.7195113298197953 -0.84327288403437706 0 -0.84327288403437706 -11.321451328170951 0 0 0 0 0.071994885471157302 -0.97487236858977155 0 -0.97487236858977155 -5.8507766391990685 0 0 0 0 1.5501442009912836 -1.7368428801682967 0 -1.7368428801682967 -9.4674695221474394 0 0 0 0 -3.9251489718209314 -1.8573922810464865 0 -1.8573922810464865 4.9669673744792817 0 0 0 0 0.79168043986181003 -0.90156516958060706 0 -0.90156516958060706 -3.754317098384746 0 0 0 0 -0.17731605165792894 -1.1779264933799496 0 -1.1779264933799496 0.19988340469348032 0 0 0 0 -0.57759265109770885 -2.4412593293185978 0 -2.4412593293185978 -5.7764973805020645 0 0 0 0 1.356864943486471 -4.0029333188140299 0 -4.0029333188140299 -8.4928232817401295 0 0 0 0 1.5717628316901937 -2.3313214151421562 0 -2.3313214151421562 -9.4965169656406943 0 0 0 0 -0.65924562331855296 -3.9855411335493471 0 -3.9855411335493471 -3.6582413391364526 0 0 0 0 1.2486765568855922 -2.3210800819331894 0 -2.3210800819331894 -6.2148568678582592 0 0 0 0 7.5943198552793092 -3.7707460144883953 0 -3.7707460144883953 -1.5112448707222939 0 0 0 0 2.674467232907098 -0.96130802932924553 0 -0.96130802932924553 -10.822646446022986 0 0 0 0 2.0464472103843718 -2.7052132318349322 0 -2.7052132318349322 -10.441491418663645 0 0 0 0 -3.6630827130802572 -7.5781935528648319 0 -7.5781935528648319 -10.002041929285042 0 0 0 0 2.5008900789786743 -1.3308887560074254 0 -1.3308887560074254 -5.4509697568462911 0 0 0 0 -0.56628490176842661 -2.2531396337144542 0 -2.2531396337144542 -10.137257861497346 0 0 0 0 25.279927688321237 -25.599434648902388 0 -25.599434648902388 -0.84316748835044564 0 0 0 0 0.066967203558174759 3.9392308956812485 0 3.9392308956812485 -4.0749783556966577 0 0 0 0 24.582571735547035 -36.449558326836268 0 -36.449558326836268 23.320728865619458 0 0 0 0 90.728260255300484 -45.850579617181211 0 -45.850579617181211 -7.7945193488558289 0 0 0 0 53.082035165367643 -26.382146173418732 0 -26.382146173418732 9.663860011700308 0 0 0 0 0.1679940084561708 -0.26906535703491841 0 -0.26906535703491841 -1.5780445145384476 0 0 0 0 -2.5554715177729577 -3.5934817269298946 0 -3.5934817269298946 -10.853282889802358 0 0 0 0 5.7943335583852047 -0.96966000193788204 0 -0.96966000193788204 -16.35300880781142 0 0 0 0 0.043883734756561765 -0.84451915762178942 0 -0.84451915762178942 -5.1398384696589119 0 0 0 0 15.527700987837733 13.63683442180627 0 13.63683442180627 -60.932917929429095 0 0 0 0 -0.022933620776103905 -0.18652201667771351 0 -0.18652201667771351 -0.17428400972863756 0 0 0 0 -3.2436838779545951 13.224702130595688 0 13.224702130595688 -19.954089975100942 0 0 0 0 0.0081155825810612509 -37.585124203571468 0 -37.585124203571468 42.787361077367677 0 0 0 0 3.1746144466859789 0.28417184652062133 0 0.28417184652062133 45.299885483924299 0 0 0 0 0.0015291655930395132 -54.972428228851641 0 -54.972428228851641 -42.043744505477662 0 0 0 0 -0.25331847389348927 -1.4351106593645966 0 -1.4351106593645966 -1.4292073145571376 0 0 0 0 0.40124169191209447 -19.054533150849238 0 -19.054533150849238 -28.635987980931532 0 0 0 0 0.47790987280960978 0.56639779185323391 0 0.56639779185323391 -2.5503017605543334 0 0 0 0 0.26289434054619143 -1.0316164480173029 0 -1.0316164480173029 -9.6809518000954995 0 0 0 0 -0.036625613035264938 -0.39756490363501484 0 -0.39756490363501484 -1.1535439113849009 0 0 0 0 -0.26261945341298087 -1.0983463997836225 0 -1.0983463997836225 -4.7769216409797082 0 0 0 0 1.4617059782858632 -1.0884486565792031 0 -1.0884486565792031 -4.2749159277882427 0 0 0 0 -7.1859673461142961 -4.4039942105810042 0 -4.4039942105810042 11.545736004802166 0 0 0 0 -0.48353763563541591 -1.3228538840721171 0 -1.3228538840721171 -3.1972781738871845 0 0 0 0 -0.3501979006075544 -1.0213110654440243 0 -1.0213110654440243 -6.1854165730183013 0 0 0 0 -0.26703472535520234 -0.66585676577142294 0 -0.66585676577142294 -5.9271809558558743 0 0 0 0 0.44335166315228736 -0.57523431303101802 0 -0.57523431303101802 -5.2751636309112122 0 0 0 0 4.2161193025729489 -5.4922844045322563 0 -5.4922844045322563 -28.331795267062262 0 0 0 0 0.14134637303731559 -1.1743488205516357 0 -1.1743488205516357 -6.877988019261295 0 0 0 0 -5.0505121020171373 2.4453074935590848 0 2.4453074935590848 8.9552604599957704 0 0 0 0 -0.67815171785301331 -1.4064535748092908 0 -1.4064535748092908 -2.2402094340730514 0 0 0 0 0.88794909414012202 -1.1079140407819068 0 -1.1079140407819068 -8.0231674215610838 0 0 0 0 -0.0001491126189616858 -1.3284060986043187 0 -1.3284060986043187 -7.9306607188773341 0 0 0 0 0.39590067947160756 -1.9299642515252344 0 -1.9299642515252344 -8.6995762762526283 0 0 0 0 0.099175175383344083 -0.53073655579646584 0 -0.53073655579646584 -5.5217343761760276 0 0 0 0 0.0010327969316758835 -1.2303853307676036 0 -1.2303853307676036 -5.089206804659625 0 0 0 0 0.058056192252310131 -0.39009212378597624 0 -0.39009212378597624 -4.4245001544447859 0 0 0 0 0.73394596623757424 -0.081385770026827231 0 -0.081385770026827231 -3.2891725007502828 0 0 0 0 -30.314247495424787 55.248575323072146 0 55.248575323072146 -48.045914432324935 0 0 0 0 -15.803854402588115 48.281050308745762 0 48.281050308745762 -51.473064928160966 0 0 0 0 4.2137451904735599 -14.638947232560895 0 -14.638947232560895 -43.103865921846591 0 0 0 0 -23.467039040237324 35.413948678775341 0 35.413948678775341 -63.955428490124177 0 0 0 0 -7.3658726014880358 32.508874408711563 0 32.508874408711563 -68.280484698778309 0 0 0 0 -13.98621886808678 37.319482179089391 0 37.319482179089391 -65.982311453801231 0 0 0 0 -11.307539721500916 27.568892149349267 0 27.568892149349267 -37.749454955002875 0 0 0 0 -26.822937274766275 12.850975055596791 0 12.850975055596791 -50.783911596998223 0 0 0 0 25.074150486520125 -6.7381876731815282 0 -6.7381876731815282 -28.006040053900506 0 0 0 0 4.0360404321792283 -3.9764127860578924 0 -3.9764127860578924 -12.58114664533889 0 0 0 0 5.6898839797274405 0.32190318432731146 0 0.32190318432731146 -20.344830588423065 0 0 0 0 -4.8667184976342313 42.82247794086652 0 42.82247794086652 -21.072364655250567 0 0 0 0 -119.55387462419843 158.31413906745001 0 158.31413906745001 -157.23924907536843 0 0 0 0 0.00044778125886320823 -0.56005138652207131 0 -0.56005138652207131 -2.9322109323693439 0 0 0 0 0.010192972585121729 0.13174202022831594 0 0.13174202022831594 -1.6131500342731329 0 0 0 0 -14.186872438234833 25.479757179724402 0 25.479757179724402 -53.341703578393208 0 0 0 0 -49.54692756450811 -93.752275478705997 0 -93.752275478705997 393.53555685517495 0 0 0 0 5.5148071832537013 -6.1660574351820188 0 -6.1660574351820188 -14.744646221819579 0 0 0 0 -726.76329226498979 -389.41429685512412 0 -389.41429685512412 209.72991016566812 0 0 0 0 -561.81198663569035 845.44990757317282 0 845.44990757317282 -291.00290433945156 0 0 0 0 -543.60047985910774 728.86981184814431 0 728.86981184814431 -1503.1827252457879 0 0 0 0 -724.48797864200833 -420.89164478041243 0 -420.89164478041243 -1511.9737250718244 0 0 0 0 -636.16947157848472 49.813090660662056 0 49.813090660662056 187.32846050801891 0 0 0 0 -7.8816461898741519 -4.7490435829909785 0 -4.7490435829909785 -4.9172396108095597 0 0 0 0 652.38373705455842 -81.687427781713268 0 -81.687427781713268 -601.58154833668232 0 0 0 0 -102.58122037034627 660.44452999557689 0 660.44452999557689 -880.14406986955146 0 0 0 0 -20.740726979406723 -17.56717700029828 0 -17.56717700029828 -16.120636952737058 0 0 0 0 -71.287072432049968 -99.009560653921653 0 -99.009560653921653 -446.79087559537584 0 0 0 0 39.290236680290946 100.40419300399662 0 100.40419300399662 -164.53698520918624 0 0 0 0 39.373741377105489 -205.6584077739426 0 -205.6584077739426 214.49842141002591 0 0 0 0 3.9206850969734148 -19.879732137048194 0 -19.879732137048194 -54.521683911500787 0 0 0 0 -3.4869942849672952 1.9032772152859252 0 1.9032772152859252 57.010556015462498 0 0 0 0 0.067031341385521692 -4.2236797788672718 0 -4.2236797788672718 -1.0988485158561332 0 0 0 0 193.21603106620751 29.354581105275429 0 29.354581105275429 -228.53764867043355 0 0 0 0 18.850073211571441 85.109131453675218 0 85.109131453675218 -154.97974761429214 0 0 0 0 -8.9239515673632468 -269.2792482511577 0 -269.2792482511577 170.43706173753162 0 0 0 0 1.2105719311759628 -25.570134944674955 0 -25.570134944674955 -48.029241927823733 0 0 0 0 -140.77185612126505 -306.26588001921482 0 -306.26588001921482 87.990971399558475 0 0 0 0 -141.62325092370855 242.44825416062486 0 242.44825416062486 185.04513747085002 0 0 0 0 -358.52070969879901 -419.25314184819217 0 -419.25314184819217 -396.91879909814088 0 0 0 0 -674.69456789909236 218.78704069758533 0 218.78704069758533 -175.0423905782809 0 0 0 0 0.76900867672098894 12.75970972736836 0 12.75970972736836 -25.021962198537935 0 0 0 0 -50.960480459435843 16.296661585998663 0 16.296661585998663 -63.439160305169935 0 0 0 0 44.751099081624488 -5.5145970931043848 0 -5.5145970931043848 -52.053986922182958 0 0 0 0 36.415564778605585 -11.55446493159252 0 -11.55446493159252 -28.794066376278352 0 0 0 0 517.7163342863787 -179.20622114944854 0 -179.20622114944854 -183.04413748152729 0 0 0 0 15.268199582547712 14.515626341816358 0 14.515626341816358 -21.825015171679382 0 0 0 0 -7.8963686570309104 -0.95140946257603787 0 -0.95140946257603787 -13.358212560738735 0 0 0 0 42.068688495064634 104.11907818711916 0 104.11907818711916 -1948.8784686277322 0 0 0 0 55.36256261539279 -689.81015597564692 0 -689.81015597564692 -2056.4219650797459 0 0 0 0 161.65986821550632 -534.91921044596529 0 -534.91921044596529 -2236.1335486733915 0 0 0 0 -297.56345278985145 -1203.1792916532868 0 -1203.1792916532868 -2742.6822087601377 0 0 0 0 277.87692286125139 9.415753854362265 0 9.415753854362265 -2820.2231247019881 0 0 0 0 -50.430120174708009 201.44725601041864 0 201.44725601041864 -380.77704571840877 0 0 0 0 -5.9628317325556273 -5.0807996615290705 0 -5.0807996615290705 -5.0881481376497959 0 0 0 0 652.14069801464666 -502.2836621702595 0 -502.2836621702595 -431.42325039843126 0 0 0 0 602.16768956169312 -0.83406821847893298 0 -0.83406821847893298 -49.810333157693094 0 0 0 0 -9.9314401837075028 -10.698920758392383 0 -10.698920758392383 -18.770709775979626 0 0 0 0 -94.579482849358456 -417.6859464316326 0 -417.6859464316326 -62.409130165193346 0 0 0 0 -1094.4078070691296 -939.91006694599855 0 -939.91006694599855 387.21188912063008 0 0 0 0 -890.80497359550873 -1275.0640318227042 0 -1275.0640318227042 -1461.276708540172 0 0 0 0 -578.98773686773984 -615.36024373829059 0 -615.36024373829059 -2083.1588707508308 0 0 0 0 -1288.9804384063552 -923.99155626182983 0 -923.99155626182983 -1815.7526537653612 0 0 0 0 -898.58482949529207 -313.77364868830045 0 -313.77364868830045 -1735.305371205468 0 0 0 0 -435.14937419759008 -145.81904870996732 0 -145.81904870996732 -1461.20012339911 0 0 0 0 -617.37413186693902 -605.33020919039336 0 -605.33020919039336 -1503.2743402687579 0 0 0 0 -461.65892209323374 -300.40026374294393 0 -300.40026374294393 -1269.9070369637157 0 0 0 0 -155.67673142303647 -159.98343863239643 0 -159.98343863239643 -1363.9357935254648 0 0 0 0 -376.54433547853841 -368.60181246538923 0 -368.60181246538923 -1220.2606241383592 0 0 0 0 -252.90012573662716 -113.76914466863309 0 -113.76914466863309 -1157.1638983807643 0 0 0 0 -441.80488279307644 -359.77166958868929 0 -359.77166958868929 -1176.4036487188569 0 0 0 0 -1206.7242129745073 -875.09780817917454 0 -875.09780817917454 -618.29945060203318 0 0 0 0 -1282.7271631323722 -535.04024884233877 0 -535.04024884233877 -1085.1517288364867 0 0 0 0 17.588711704105663 -104.1938961044325 0 -104.1938961044325 -1168.8149942045939 0 0 0 0 50.02514028519272 -41.61192311969171 0 -41.61192311969171 -1063.3969594989321 0 0 0 0 -120.48178673578695 -176.47059281753536 0 -176.47059281753536 -1300.7988382703697 0 0 0 0 -47.589171113265365 -46.875839482883748 0 -46.875839482883748 -1114.1562059880234 0 0 0 0 -147.57948864284117 -83.451380220099963 0 -83.451380220099963 -1184.9631959253311 0 0 0 0 -73.374634897868418 -242.69220524695993 0 -242.69220524695993 -1150.0614361506878 0 0 0 0 -42.826667615656334 -145.06763679963296 0 -145.06763679963296 -840.96759568116977 0 0 0 0 55.265735891563509 -152.61839912602045 0 -152.61839912602045 -1075.8978130283576 0 0 0 0 52.962299431409519 -168.46661225599428 0 -168.46661225599428 -870.28112964869069 0 0 0 0 -284.09724316976008 -440.5618931426543 0 -440.5618931426543 -943.18376855715906 0 0 0 0 -240.12791145685424 -162.59477413380955 0 -162.59477413380955 -938.71118510262022 0 0 0 0 -215.37683453970658 -244.1493260543466 0 -244.1493260543466 -475.18769950344358 0 0 0 0 -220.02588346366429 -379.81989328936106 0 -379.81989328936106 -484.63235512193887 0 0 0 0 -475.00269989544358 -500.06683778494153 0 -500.06683778494153 -1142.5524977023642 0 0 0 0 -662.5184798928376 -90.727597336141116 0 -90.727597336141116 -1044.8719225859895 0 0 0 0 -483.69120384734447 -391.66303202888048 0 -391.66303202888048 -461.22077501155945 0 0 0 0 -843.09610009390258 -501.90966040883995 0 -501.90966040883995 -277.36425559729105 0 0 0 0 -489.70655921831985 -88.385889805338593 0 -88.385889805338593 12.020094886805964 0 0 0 0 -408.55386616066698 -359.00254585908988 0 -359.00254585908988 -449.01407315320284 0 0 0 0 -612.50370886602605 -350.9813600825255 0 -350.9813600825255 -180.09714417063515 0 0 0 0 -364.09401100374225 -200.41812568572459 0 -200.41812568572459 -107.39238698995177 0 0 0 0 -335.36199100531837 -175.44220440579011 0 -175.44220440579011 -179.65896437105766 0 0 0 0 -290.40508310099574 -46.904594683644063 0 -46.904594683644063 -99.36479230029363 0 0 0 0 -307.12818566109536 -105.4757752006135 0 -105.4757752006135 -138.15572526241158 0 0 0 0 -120.96078988850564 -262.36374834030823 0 -262.36374834030823 -347.26889869436854 0 0 0 0 -413.28331757495789 -346.02609635979388 0 -346.02609635979388 -254.9083303025036 0 0 0 0 -421.78702192537503 -326.88422861299659 0 -326.88422861299659 -216.46754662742387 0 0 0 0 -327.805299900102 -352.26343827024903 0 -352.26343827024903 -264.3974448602612 0 0 0 0 -329.13794299991241 -347.29875023425848 0 -347.29875023425848 -103.39398577222164 0 0 0 0 -227.16734458313294 -461.21978348102493 0 -461.21978348102493 -238.03471892857669 0 0 0 0 -247.87055538522782 -359.04937144772884 0 -359.04937144772884 -411.94825809762551 0 0 0 0 -261.7727893216329 -226.1687409313854 0 -226.1687409313854 -328.39581629987515 0 0 0 0 -230.6230637977169 -298.08639828570085 0 -298.08639828570085 -212.67673734875279 0 0 0 0 -108.76930573856771 -214.12348471673795 0 -214.12348471673795 -549.91863194200596 0 0 0 0 -88.235884237581558 -145.27100267803598 0 -145.27100267803598 -325.15142640939666 0 0 0 0 -98.772397778897243 -297.02514630347741 0 -297.02514630347741 -387.97897626714621 0 0 0 0 -168.91529218906612 -56.108921088405623 0 -56.108921088405623 -180.57482133522171 0 0 0 0 -239.29894802839499 -134.28616444203726 0 -134.28616444203726 -162.56942114309823 0 0 0 0 -152.01962853744573 -74.581680311897799 0 -74.581680311897799 -289.32497556429007 0 0 0 0 -190.84768072660648 -74.305338246040264 0 -74.305338246040264 -263.74184684285683 0 0 0 0 -144.08343026855664 51.078057723278107 0 51.078057723278107 -242.92825425308729 0 0 0 0 -197.05186569985844 -20.028554421587046 0 -20.028554421587046 -131.10508645013033 0 0 0 0 -150.56355676773592 30.678622066864591 0 30.678622066864591 -76.696146237165522 0 0 0 0 26.828510896484563 16.906509832109023 0 16.906509832109023 -82.336422762416476 0 0 0 0 -1.4975323832659342 23.961222852615265 0 23.961222852615265 -117.95302350485872 0 0 0 0 25.352496724226512 -25.466755472625664 0 -25.466755472625664 -145.37481706098697 0 0 0 0 -13.949519357936481 -27.749448106117825 0 -27.749448106117825 -182.96348947323713 0 0 0 0 -157.18116051379275 -4.5301774080126052 0 -4.5301774080126052 -110.74177089087243 0 0 0 0 -25.975532118988212 -31.40048258148272 0 -31.40048258148272 -171.70515140563293 0 0 0 0 -34.65918175217098 -47.069816982054817 0 -47.069816982054817 -80.664452499262552 0 0 0 0 -0.80329248570160416 -213.82915224482122 0 -213.82915224482122 54.642241714769625 0 0 0 0 71.978723903970604 0.16489586048191995 0 0.16489586048191995 -61.738696526888816 0 0 0 0 -241.61653978203526 49.351256880087931 0 49.351256880087931 -84.399245980697742 0 0 0 0 49.511320672928377 -92.028347212555673 0 -92.028347212555673 -181.33959231849803 0 0 0 0 -69.442161071425289 31.872574151799199 0 31.872574151799199 -772.73057175829308 0 0 0 0 -8.1540762285732171 241.56998070468762 0 241.56998070468762 -403.06078847887693 0 0 0 0 -29.740079487847769 -34.403935340733383 0 -34.403935340733383 -35.335418580786097 0 0 0 0 65.018004470936376 291.60345726315063 0 291.60345726315063 -683.89712993421381 0 0 0 0 30.284787473673077 -94.86911622090156 0 -94.86911622090156 -72.813921817134542 0 0 0 0 30.065340665839184 1.6367285367213995 0 1.6367285367213995 -68.977869507953699 0 0 0 0 17.095198200602681 -62.033508202744997 0 -62.033508202744997 -80.532134549960574 0 0 0 0 22.953046179566627 53.690694702788278 0 53.690694702788278 255.02010768161563 0 0 0 0 -310.85206561055656 287.38067470475653 0 287.38067470475653 -268.74794613497943 0 0 0 0 -4.1989673110850791 -5.0866983224623894 0 -5.0866983224623894 -8.1114699294358701 0 0 0 0 39.273123673709961 56.877569152283286 0 56.877569152283286 79.209730773764022 0 0 0 0 66.214609983836681 139.03610520068645 0 139.03610520068645 1.601822355602053 0 0 0 0 89.445990981203067 127.57428281102329 0 127.57428281102329 73.309334288197988 0 0 0 0 154.9928665704565 192.62233278081476 0 192.62233278081476 -8.6251696592662483 0 0 0 0 86.689284359626072 176.8503013933223 0 176.8503013933223 3.4755694160376152 0 0 0 0 97.731225256731705 137.71213483388419 0 137.71213483388419 -159.17565884775831 0 0 0 0 66.151530373643254 178.66497162832093 0 178.66497162832093 -4.9905986047015176 0 0 0 0 62.414978186247026 96.805577995175554 0 96.805577995175554 -15.009633651410695 0 0 0 0 62.059648450294844 182.19285288146057 0 182.19285288146057 -33.182313723402331 0 0 0 0 51.773529025933385 9.7596795724966796 0 9.7596795724966796 -185.34213191216259 0 0 0 0 244.86620468929868 207.88601234085581 0 207.88601234085581 -77.659085221312125 0 0 0 0 64.94273486129714 244.84889941974689 0 244.84889941974689 229.51788380114158 0 0 0 0 -25.153093121421534 -329.27638420940093 0 -329.27638420940093 -162.52117103995988 0 0 0 0 271.9087259023072 -160.58901601434627 0 -160.58901601434627 124.12945017532184 0 0 0 0 -513.74076664400627 152.54853347708195 0 152.54853347708195 -41.501819432924094 0 0 0 0 3.708801785780043 -11.068351258338154 0 -11.068351258338154 -45.370803467142565 0 0 0 0 -144.57963613945242 48.824347274657732 0 48.824347274657732 -136.60806397556735 0 0 0 0 255.16346049671665 49.270555091992719 0 49.270555091992719 -86.178241088988216 0 0 0 0 128.80913234255308 -51.358259345608531 0 -51.358259345608531 -104.06551286105241 0 0 0 0 96.51468132751279 141.55192234654533 0 141.55192234654533 -303.40449910781172 0 0 0 0 -27.003642128105639 174.65468169126689 0 174.65468169126689 -138.36376503707834 0 0 0 0 465.54796720346735 -178.36195734822195 0 -178.36195734822195 -69.32074422336882 0 0 0 0 444.46769291266173 -294.56808681148686 0 -294.56808681148686 18.737415082709049 0 0 0 0 311.04987503763186 -7.114286595286103 0 -7.114286595286103 -151.98596015630028 0 0 0 0 254.95627109086308 22.687536363278923 0 22.687536363278923 -114.55850267753704 0 0 0 0 118.31151049798791 11.2742376170645 0 11.2742376170645 -58.491094167227857 0 0 0 0 127.93694292202417 93.850737556145759 0 93.850737556145759 -164.60757372866647 0 0 0 0 81.911736766352988 26.276176284474786 0 26.276176284474786 -82.802649148216005 0 0 0 0 182.29629245536125 15.669910732758581 0 15.669910732758581 -126.48246345635562 0 0 0 0 122.17823894702997 6.5726364963084052 0 6.5726364963084052 -129.46385220803495 0 0 0 0 -95.557837820253553 82.506449295011407 0 82.506449295011407 -118.1001546910702 0 0 0 0 -114.4244571756517 158.66868908119432 0 158.66868908119432 -143.04716654221829 0 0 0 0 4.3448861319207275 -16.532337806809579 0 -16.532337806809579 -21.204292171050497 0 0 0 0 -30.912031327537989 96.460726016704939 0 96.460726016704939 -160.28852942700905 0 0 0 0 -35.381490492715329 89.908482690711025 0 89.908482690711025 -111.91109048960789 0 0 0 0 89.344576153709568 53.478527255276276 0 53.478527255276276 -111.76971687696641 0 0 0 0 42.019812542232103 107.47474386950489 0 107.47474386950489 -151.1679830344583 0 0 0 0 74.839296990982803 36.339255312002933 0 36.339255312002933 -129.91100914290291 0 0 0 0 35.000490706795972 85.219791666095261 0 85.219791666095261 -154.31344019723474 0 0 0 0 92.625801278220024 30.045482830479159 0 30.045482830479159 -131.37501375457578 0 0 0 0 146.57140931606955 -13.455384072363813 0 -13.455384072363813 -135.36463603901211 0 0 0 0 176.412954960364 1.8097130888927495 0 1.8097130888927495 -113.21755275233591 0 0 0 0 149.53629012747842 -10.398626068679732 0 -10.398626068679732 -115.76169246659992 0 0 0 0 173.37913202605432 -35.942170316870033 0 -35.942170316870033 -107.01020575710572 0 0 0 0 154.77701002678987 -45.247204188992328 0 -45.247204188992328 -28.364949460345088 0 0 0 0 126.45925221940342 -27.05645480104431 0 -27.05645480104431 -107.81938099490526 0 0 0 0 4.780084475882207 -18.862998715800124 0 -18.862998715800124 -56.496257716560649 0 0 0 0 94.261741315321046 -318.90426474497963 0 -318.90426474497963 -413.04161245738214 0 0 0 0 143.03149697995286 -3.360514292413427 0 -3.360514292413427 -201.37483046097623 0 0 0 0 3.5170425530554468 2.2327524273068491 0 2.2327524273068491 -10.579613356556195 0 0 0 0 66.382943897171572 -7.8776725274365162 0 -7.8776725274365162 83.046852606072207 0 0 0 0 -58.276553155998954 193.22310044500409 0 193.22310044500409 -236.96151621775425 0 0 0 0 10.806837539267185 3.5051856479797152 0 3.5051856479797152 -9.8683965136508078 0 0 0 0 26.94403251476615 679.30527978443934 0 679.30527978443934 -126.52745912724799 0 0 0 0 5.5584771769699763 -11.50592018068469 0 -11.50592018068469 -54.53409159841658 0 0 0 0 312.6732429794738 -187.31669828304439 0 -187.31669828304439 -16.337595321630943 0 0 0 0 299.68351546226404 -47.944242009769368 0 -47.944242009769368 -39.608126078761416 0 0 0 0 213.92813971694113 -84.893398866515781 0 -84.893398866515781 -47.117435571359238 0 0 0 0 211.87378395560154 -31.745807939951192 0 -31.745807939951192 -71.704176024737535 0 0 0 0 157.75099282327756 -30.763213293579611 0 -30.763213293579611 -53.077526345441584 0 0 0 0 145.59377331878568 -140.18705042001966 0 -140.18705042001966 78.509074380500351 0 0 0 0 252.2163572239624 -98.55138626290136 0 -98.55138626290136 -62.109905352932401 0 0 0 0 -19.963480064599004 -37.671792333720006 0 -37.671792333720006 -50.875510020978538 0 0 0 0 32.044405082502635 -13.052705876609252 0 -13.052705876609252 -106.31516327282998 0 0 0 0 11.565218928964896 -31.339298995466379 0 -31.339298995466379 -104.70418897330819 0 0 0 0 3.7737840682639217 -41.901246145862387 0 -41.901246145862387 -87.02018587308703 0 0 0 0 29.928250916376328 -24.066022048579725 0 -24.066022048579725 -139.82444237728487 0 0 0 0 18.710630227655201 98.10809184282698 0 98.10809184282698 -77.426162799223675 0 0 0 0 37.303289960476832 -13.46914469616604 0 -13.46914469616604 -125.62159926766253 0 0 0 0 -10.308476020607486 107.85856877766491 0 107.85856877766491 36.490042447971973 0 0 0 0 76.233473638945725 -17.156399212813994 0 -17.156399212813994 -188.80754184740363 0 0 0 0 10.467205739169003 -100.42484720690118 0 -100.42484720690118 -198.2333909342351 0 0 0 0 25.497828427120112 -61.508397307130508 0 -61.508397307130508 -107.58056699378358 0 0 0 0 -31.408188242319738 -112.59379853794235 0 -112.59379853794235 -43.518311916588573 0 0 0 0 -71.414620685981845 -139.43091048084352 0 -139.43091048084352 -27.414240679921932 0 0 0 0 -0.8616530104071316 -1.775033919933918 0 -1.775033919933918 -5.1676756471272824 0 0 0 0 -42.77710603939704 -175.33031581997784 0 -175.33031581997784 -229.62942237922107 0 0 0 0 -348.4359372821873 440.90589374503907 0 440.90589374503907 -520.0528041908583 0 0 0 0 69.981201685990527 -57.998162979840345 0 -57.998162979840345 -437.63498869382602 0 0 0 0 -1.8301238646386402 0.058818328366768924 0 0.058818328366768924 1.4175190478937338 0 0 0 0 -456.20743379169289 -384.95398692346498 0 -384.95398692346498 -0.72608362531173043 0 0 0 0 15.739686036029525 161.51779504185834 0 161.51779504185834 -271.69605353193765 0 0 0 0 -564.09053131582186 411.23864999139914 0 411.23864999139914 -220.69243046763586 0 0 0 0 49.602403669705382 -174.82908094409504 0 -174.82908094409504 -225.3592089736776 0 0 0 0 -117.22743452415671 151.24132742000074 0 151.24132742000074 -522.91782110129134 0 0 0 0 -533.55047662551442 -47.99954040590228 0 -47.99954040590228 -208.54283668138669 0 0 0 0 -132.85013648171662 159.48787678425288 0 159.48787678425288 -89.757865565527027 0 0 0 0 -449.46840912579319 276.14684676242905 0 276.14684676242905 -162.10204762533249 0 0 0 0 -254.21228013295695 73.786289687428507 0 73.786289687428507 -135.13219443819253 0 0 0 0 -2.236979744023003 -4.9200960202590096 0 -4.9200960202590096 -16.446657055588702 0 0 0 0 -45.083337455489527 139.91156939156281 0 139.91156939156281 -205.0957780060271 0 0 0 0 -291.42998206842094 214.76525857488014 0 214.76525857488014 -114.24408785449486 0 0 0 0 96.362322795016098 -85.958248317980178 0 -85.958248317980178 -5.5150386402092408 0 0 0 0 108.55125615577526 -44.849922965160658 0 -44.849922965160658 -53.168397916626418 0 0 0 0 -20.591035525158077 -43.823225001622632 0 -43.823225001622632 55.091511103375524 0 0 0 0 -195.05224172985254 406.79833971363405 0 406.79833971363405 -942.25969944250028 0 0 0 0 8.5804753124482573 -25.511140188834986 0 -25.511140188834986 -36.550411536114296 0 0 0 0 37.916092733225014 21.17132442525326 0 21.17132442525326 -46.769534114442649 0 0 0 0 -38.841385019515656 -17.796590480760642 0 -17.796590480760642 44.055359043199132 0 0 0 0 82.09155985627649 -28.578383182012658 0 -28.578383182012658 -39.18304835773597 0 0 0 0 -617.74261800608292 -230.40262547077145 0 -230.40262547077145 -575.27104823531772 0 0 0 0 -29.406485747296756 -68.89925063058763 0 -68.89925063058763 -47.167724127124075 0 0 0 0 -30.643094807309353 -66.844580538650916 0 -66.844580538650916 -33.719946733282995 0 0 0 0 -10.746523577934468 -39.023620705814409 0 -39.023620705814409 -44.386109089213818 0 0 0 0 55.13175941474401 1018.8858227083401 0 1018.8858227083401 -1481.3067136217869 0 0 0 0 -1473.498108616237 854.51576755876886 0 854.51576755876886 -965.82490258746839 0 0 0 0 1792.8384328432621 -757.37808865434272 0 -757.37808865434272 -725.05745394031692 0 0 0 0 2.3744087269438374 -0.54155355766515356 0 -0.54155355766515356 -25.728289383408594 0 0 0 0 -2568.6572695201867 2610.3106165778663 0 2610.3106165778663 -1563.7329796158156 0 0 0 0 -1497.8583050781817 1176.0722641457542 0 1176.0722641457542 -403.610834363717 0 0 0 0 890.52116175479387 828.88551519659813 0 828.88551519659813 -3624.4684945323315 0 0 0 0 -204.32355822112504 -549.99778852820418 0 -549.99778852820418 109.55547836191545 0 0 0 0 698.11499596203976 233.5039019366377 0 233.5039019366377 -297.50500856651342 0 0 0 0 291.68966166561131 366.90656990095704 0 366.90656990095704 -111.62460546260991 0 0 0 0 -546.02123632997973 775.05828334153193 0 775.05828334153193 -991.74724090314339 0 0 0 0 3.9500349120327414 -8.1694021052169887 0 -8.1694021052169887 -67.496449451989122 0 0 0 0 852.96490981741954 -203.56107317797068 0 -203.56107317797068 -211.96905680772034 0 0 0 0 -1149.6961958034763 875.41999843352824 0 875.41999843352824 -743.16632445338473 0 0 0 0 -538.55062557418569 468.60592236304365 0 468.60592236304365 -575.40043528762521 0 0 0 0 -280.10187415373548 689.99724130271352 0 689.99724130271352 -695.85229213518323 0 0 0 0 -373.05098114221255 670.26462086321408 0 670.26462086321408 -909.88766751408548 0 0 0 0 -337.67824538186323 786.00038444999882 0 786.00038444999882 -804.22834746442095 0 0 0 0 -549.56850972359155 688.64202774499449 0 688.64202774499449 -874.61037923707045 0 0 0 0 -353.48791483854075 708.70838625317992 0 708.70838625317992 -1024.0880469316435 0 0 0 0 -371.63073922793842 566.70809431882844 0 566.70809431882844 -655.52726722763327 0 0 0 0 -304.54166758997098 630.66496583843036 0 630.66496583843036 -907.13782606417954 0 0 0 0 31.083549756035552 -8.4659055408027939 0 -8.4659055408027939 -30.818903950463834 0 0 0 0 -422.9225732500945 782.45661247180396 0 782.45661247180396 -756.4537583647907 0 0 0 0 -341.84225028509536 771.18006743629667 0 771.18006743629667 -773.57766962279129 0 0 0 0 -266.35002291999626 880.05558502564963 0 880.05558502564963 -701.60311633275705 0 0 0 0 -429.69365674862911 814.19027280751561 0 814.19027280751561 -583.95758597624081 0 0 0 0 -338.10120575933615 867.25133707426721 0 867.25133707426721 -671.13387820257049 0 0 0 0 -311.89547411141393 955.99547022238767 0 955.99547022238767 -681.49490824266104 0 0 0 0 -67.627881599162606 913.4632092953043 0 913.4632092953043 -712.17747228388907 0 0 0 0 -213.42418782447373 992.64540277610547 0 992.64540277610547 -738.85820130519278 0 0 0 0 -217.92425441374689 813.78467266140797 0 813.78467266140797 -627.24414906644233 0 0 0 0 527.56633000561487 194.94524874941271 0 194.94524874941271 -666.77164123266266 0 0 0 0 476.89615334312475 606.63692680555687 0 606.63692680555687 -886.20521431951784 0 0 0 0 0.1842927471807343 898.07428376889584 0 898.07428376889584 -693.88185734461877 0 0 0 0 104.90154090780561 375.0401623295038 0 375.0401623295038 -301.43414121809838 0 0 0 0 49.596031215791754 157.23813989429073 0 157.23813989429073 -54.149113468782161 0 0 0 0 1421.4092620774063 -349.45676195799751 0 -349.45676195799751 -597.94715807992907 0 0 0 0 956.27448703647133 -109.8465643644704 0 -109.8465643644704 -399.32909500945243 0 0 0 0 14.726846829430251 32.888813496449167 0 32.888813496449167 9.2111638895337933 0 0 0 0 775.52613109249069 77.645707196817966 0 77.645707196817966 533.92116916773375 0 0 0 0 14.265997978575925 -1.1730604973966194 0 -1.1730604973966194 -18.943643612284149 0 0 0 0 -359.31067679674743 117.71147180920525 0 117.71147180920525 -418.02037983224727 0 0 0 0 42.580444784514839 406.28494666502229 0 406.28494666502229 -611.09668362900265 0 0 0 0 -41.421020627396501 513.02535783356871 0 513.02535783356871 -416.29634319464094 0 0 0 0 160.5610605568545 680.4805017724575 0 680.4805017724575 -693.2558029947395 0 0 0 0 392.1458379455471 520.59356765451957 0 520.59356765451957 -620.51904304794152 0 0 0 0 -133.28418543595399 731.43948223885673 0 731.43948223885673 -697.6072287420975 0 0 0 0 -105.63038595030662 663.79866421975748 0 663.79866421975748 -638.02695059721009 0 0 0 0 -165.2616349038326 364.29766479360114 0 364.29766479360114 -578.50875828152994 0 0 0 0 246.33993084735812 50.926001063868171 0 50.926001063868171 -283.0290855303756 0 0 0 0 263.18275263412943 11.743002458792034 0 11.743002458792034 -288.51982813132054 0 0 0 0 10.839725064827977 -13.86273484856757 0 -13.86273484856757 -108.63819077983939 0 0 0 0 177.72428588504408 -20.388813392273732 0 -20.388813392273732 -287.91512735542165 0 0 0 0 29.795083157227438 46.404262277397947 0 46.404262277397947 -115.53832693358135 0 0 0 0 135.7581701615527 25.696455964913184 0 25.696455964913184 -209.8991954842204 0 0 0 0 218.42572454641777 44.167348388917162 0 44.167348388917162 -279.49328673271521 0 0 0 0 75.19046817722483 118.27908164006658 0 118.27908164006658 -213.13431665116514 0 0 0 0 208.52805435446135 115.91955477975716 0 115.91955477975716 -235.00883486117527 0 0 0 0 142.17797149005128 164.18725755061132 0 164.18725755061132 -269.99761465479969 0 0 0 0 298.18870976679682 21.72133248236787 0 21.72133248236787 -293.54788722685771 0 0 0 0 328.65164984767762 180.67764053873543 0 180.67764053873543 -284.82540060183237 0 0 0 0 153.92172873608081 173.65489825423265 0 173.65489825423265 -211.61611614321009 0 0 0 0 63.215003500405146 25.71444958961365 0 25.71444958961365 -158.44649565835425 0 0 0 0 34.754079914771864 70.708472694946977 0 70.708472694946977 -159.93976479544199 0 0 0 0 10.666964836938405 -129.99821926907498 0 -129.99821926907498 -58.191894207178848 0 0 0 0 46.625848384804442 -6.9376611882505586 0 -6.9376611882505586 -26.283382336864747 0 0 0 0 92.138109539668221 -4.8959573444735724 0 -4.8959573444735724 -123.02382055437556 0 0 0 0 54.047720156684591 16.751699112166534 0 16.751699112166534 -109.3011615148971 0 0 0 0 50.760150453374763 -1.4912472332416655 0 -1.4912472332416655 -58.003361278984812 0 0 0 0 137.67320776683169 -27.693345448236073 0 -27.693345448236073 -125.03811405904707 0 0 0 0 136.89285736961028 -111.46457836102127 0 -111.46457836102127 -31.313048237840121 0 0 0 0 131.77306411656355 -29.996740830152703 0 -29.996740830152703 -120.87297827008297 0 0 0 0 68.391313019848894 42.57175892221494 0 42.57175892221494 -136.67916761769447 0 0 0 0 82.358342377814552 -5.7185396310524084 0 -5.7185396310524084 -102.39301978786534 0 0 0 0 60.395555084892294 38.502294213927598 0 38.502294213927598 -149.32744435929635 0 0 0 0 66.641678166446582 14.189502037406783 0 14.189502037406783 -131.65759451844497 0 0 0 0 91.455345271797341 12.679212221570197 0 12.679212221570197 -143.04767352373165 0 0 0 0 35.538472817098963 -12.000825093231597 0 -12.000825093231597 -35.542256146653585 0 0 0 0 87.304131626480739 23.765413378394442 0 23.765413378394442 -136.5301167028374 0 0 0 0 -19.480128079296264 107.40394788169942 0 107.40394788169942 -178.54534788096498 0 0 0 0 9.2133306332143547 66.800384858928737 0 66.800384858928737 -147.08865105353107 0 0 0 0 16.93469301474488 69.994933160493019 0 69.994933160493019 -182.21620332502789 0 0 0 0 -15.305760958442079 49.223946900958254 0 49.223946900958254 -157.59253166582494 0 0 0 0 -10.883916210535972 39.229797882398998 0 39.229797882398998 -141.97626359653805 0 0 0 0 -635.21408515283292 658.79255720470974 0 658.79255720470974 -686.50808839363162 0 0 0 0 14.752106416651305 -4.2839532786025671 0 -4.2839532786025671 -7.0739457996086514 0 0 0 0 -628.63615001207404 612.48858507802288 0 612.48858507802288 -415.00801371832495 0 0 0 0 -948.86854848020994 735.87074291009048 0 735.87074291009048 -391.34134706362966 0 0 0 0 -671.96837546475058 884.34521246315853 0 884.34521246315853 -470.52797362138517 0 0 0 0 -660.63062465694566 912.09343926298607 0 912.09343926298607 -622.13972555124201 0 0 0 0 57.708394861342981 -30.426217168547737 0 -30.426217168547737 64.500240811830736 0 0 0 0 83.282218605650087 -3.4606538192747394 0 -3.4606538192747394 -1.7164204674336361 0 0 0 0 -87.384661862335633 -80.517155079483928 0 -80.517155079483928 -36.456399091352068 0 0 0 0 4.9077306203885742 3.8715043883541114 0 3.8715043883541114 -8.2598576662079779 0 0 0 0 -1060.4552511543473 536.59378941675459 0 536.59378941675459 -256.71167595490988 0 0 0 0 -1167.7724706183897 767.29904435011122 0 767.29904435011122 -325.86174114060123 0 0 0 0 -1381.1588642567108 595.86783658742206 0 595.86783658742206 -144.38696716348932 0 0 0 0 -638.56457724516258 1137.9680108103639 0 1137.9680108103639 -701.34306841554644 0 0 0 0 -979.81904691403906 964.53784097384778 0 964.53784097384778 -479.02211340843132 0 0 0 0 -976.6369824279609 904.17105373569211 0 904.17105373569211 -260.030194241961 0 0 0 0 -1625.1042469597646 1083.7524826406079 0 1083.7524826406079 -306.53044343158399 0 0 0 0 -1466.4011685708147 1696.1796699188344 0 1696.1796699188344 -991.26210073565744 0 0 0 0 -89.379735235412227 302.83673528604777 0 302.83673528604777 -2202.0076804995479 0 0 0 0 -726.06802012806338 1334.0998094383831 0 1334.0998094383831 -856.7079348731495 0 0 0 0 -1183.4973156703682 -5.0056046761565085 0 -5.0056046761565085 336.64425707185001 0 0 0 0 -21.283996179917146 7.5655354354104247 0 7.5655354354104247 -4.2895427684981797 0 0 0 0 -2080.3789719450742 857.52266165369656 0 857.52266165369656 -236.13150133900126 0 0 0 0 -28.60049723480688 -555.56276814566081 0 -555.56276814566081 -1387.7255543807623 0 0 0 0 -241.9775391492758 177.62103399125044 0 177.62103399125044 -3112.6159243128604 0 0 0 0 -46.671544902841106 -255.85254502278167 0 -255.85254502278167 -245.21483556710882 0 0 0 0 348.61646419635144 -33.463661830275669 0 -33.463661830275669 -440.82651752822858 0 0 0 0 189.89667881263449 -51.377045522633125 0 -51.377045522633125 -68.500945523046539 0 0 0 0 43.62281021538729 5.7130167217910639 0 5.7130167217910639 -99.236870804372302 0 0 0 0 321.6777147058109 262.85830935625222 0 262.85830935625222 -42.747828677463986 0 0 0 0 53.65562290121602 5.52005910339183 0 5.52005910339183 -30.740397800404381 0 0 0 0 82.364457419525024 74.794288877234067 0 74.794288877234067 -69.400013072765432 0 0 0 0 -45.78070930439722 28.319984090199711 0 28.319984090199711 -18.545052248538568 0 0 0 0 -224.10927355058993 179.0880585986306 0 179.0880585986306 -863.79988372658408 0 0 0 0 17.376818864162374 -121.28396709371009 0 -121.28396709371009 -1923.7291122601819 0 0 0 0 -466.07823882481171 -240.24470689165537 0 -240.24470689165537 -1370.2003302350422 0 0 0 0 -882.71138074425107 170.51894513987645 0 170.51894513987645 -1673.416118207424 0 0 0 0 -930.72350736051351 217.16091295935348 0 217.16091295935348 -1096.7347485335631 0 0 0 0 -1999.2128678003178 1358.1405526060807 0 1358.1405526060807 -2018.0339337322075 0 0 0 0 -1922.8467592925317 -156.96665807831596 0 -156.96665807831596 -725.06156519374781 0 0 0 0 -338.60258041396725 -244.83934750576935 0 -244.83934750576935 -1055.033100981178 0 0 0 0 -973.81260690759882 -714.6289787742171 0 -714.6289787742171 -119.39904313957959 0 0 0 0 -1179.2195828989456 -11.423026466603915 0 -11.423026466603915 -1272.0242455241059 0 0 0 0 -2.9526999593132004 1.0425038507373756 0 1.0425038507373756 -2.4469799543961983 0 0 0 0 -938.50426880182749 -671.97901009687303 0 -671.97901009687303 -468.94282828166615 0 0 0 0 -1162.784477096382 -149.74676290267234 0 -149.74676290267234 -213.0910451021773 0 0 0 0 -397.88534632486153 -457.02840962994742 0 -457.02840962994742 -606.95185954457702 0 0 0 0 -1.9000342083308936 3.1433197052705424 0 3.1433197052705424 -8.1852839555100161 0 0 0 0 -419.3316232070074 -29.390924704264762 0 -29.390924704264762 -219.21748186745026 0 0 0 0 -442.43096826103101 -506.4441537744824 0 -506.4441537744824 -806.08169614956569 0 0 0 0 -384.62920058761119 -459.15778809169205 0 -459.15778809169205 -894.08385859082773 0 0 0 0 -628.04675643880114 -416.82532416531285 0 -416.82532416531285 -893.30726776182564 0 0 0 0 -866.90052762794198 -117.240074058549 0 -117.240074058549 -1251.0279101972774 0 0 0 0 140.45009338412092 117.801558819403 0 117.801558819403 -84.20839151731343 0 0 0 0 206.86536556478768 54.655296266006189 0 54.655296266006189 -68.920971219315106 0 0 0 0 152.79527255114499 98.110123443548218 0 98.110123443548218 -85.346487012056969 0 0 0 0 183.43069037255191 361.50890001305379 0 361.50890001305379 -88.174684530240484 0 0 0 0 33.688730495511891 46.995064162443853 0 46.995064162443853 -104.88632597044477 0 0 0 0 177.52809488939465 128.17125630913506 0 128.17125630913506 -143.94883456570096 0 0 0 0 110.15017900735165 126.7954857833829 0 126.7954857833829 -85.844709358862019 0 0 0 0 -0.027269976020761533 257.3580559463735 0 257.3580559463735 -219.6966596719285 0 0 0 0 -30.292352340652542 220.77604325843276 0 220.77604325843276 183.46996053974726 0 0 0 0 129.32824308561976 23.253968942219217 0 23.253968942219217 -58.940091541182483 0 0 0 0 112.33979931429349 93.046479851873301 0 93.046479851873301 -44.281315056046878 0 0 0 0 28.871455517186405 177.09346656787238 0 177.09346656787238 -20.366569062127382 0 0 0 0 37.837986344069577 132.86380523735716 0 132.86380523735716 3.1579809202085016 0 0 0 0 27.401862265581258 159.57695408513609 0 159.57695408513609 -63.006212601976586 0 0 0 0 10.09528045909974 105.27687607721236 0 105.27687607721236 -55.474751458110404 0 0 0 0 20.20569154226564 190.23623232227874 0 190.23623232227874 -120.01851860397437 0 0 0 0 47.918870582842828 139.55644782311356 0 139.55644782311356 -70.956091109925183 0 0 0 0 110.07479082637929 127.27314509011194 0 127.27314509011194 -80.230062965012621 0 0 0 0 33.965081450322032 229.09921284183656 0 229.09921284183656 -13.387820450591789 0 0 0 0 -89.786153112111151 194.61135051294877 0 194.61135051294877 -17.316516718470666 0 0 0 0 -249.97856903853244 155.18865834395183 0 155.18865834395183 6.8284591183328303 0 0 0 0 2.6741001215137619 2.946134917320876 0 2.946134917320876 8.8281469540816886 0 0 0 0 -25.649042947074122 117.44198433263227 0 117.44198433263227 -64.245887479293742 0 0 0 0 1319.481474406266 371.53694332545911 0 371.53694332545911 -732.58601233032823 0 0 0 0 1630.0134299371875 -849.39465019192721 0 -849.39465019192721 216.30349432033108 0 0 0 0 -125.42237672265128 589.63861529555652 0 589.63861529555652 6.923032058388344 0 0 0 0 1325.4364844706197 196.9563146370383 0 196.9563146370383 -1263.1007882007179 0 0 0 0 -338.73814228354604 7.9124092426228572 0 7.9124092426228572 410.05865579168312 0 0 0 0 130.44114388229445 -1029.6309199983953 0 -1029.6309199983953 -9.4434057884645881 0 0 0 0 -350.49422076214501 -201.07674234097249 0 -201.07674234097249 -454.17635378194973 0 0 0 0 -553.31887504671431 -1065.3088590079096 0 -1065.3088590079096 -709.49535975624713 0 0 0 0 105.87103420551125 120.21738105274198 0 120.21738105274198 -455.28317047430028 0 0 0 0 -148.41459439910977 -265.39025224426587 0 -265.39025224426587 -496.42528132366715 0 0 0 0 737.92986083748542 107.8284908245987 0 107.8284908245987 -381.63266370815836 0 0 0 0 98.659333880891836 118.54772740158842 0 118.54772740158842 -68.294710883928929 0 0 0 0 75.935707168766385 56.08891319479153 0 56.08891319479153 -182.06556311641725 0 0 0 0 170.77017191357209 141.54186952320015 0 141.54186952320015 -94.712805398110504 0 0 0 0 520.06800743476697 -219.61987727423912 0 -219.61987727423912 -274.86019633762044 0 0 0 0 262.64028863043313 132.9749459411978 0 132.9749459411978 -121.23963751792326 0 0 0 0 173.24757374766568 65.171631061286462 0 65.171631061286462 -108.53416316177754 0 0 0 0 -1.5676442478924342 -4.7010110837326735 0 -4.7010110837326735 -12.277457310692625 0 0 0 0 162.9852207345657 -5.4401576374057186 0 -5.4401576374057186 -691.14909953700408 0 0 0 0 -407.69127243190133 -779.31273283602786 0 -779.31273283602786 -444.27606015493802 0 0 0 0 -4.7485930854012679 -12.902901959786313 0 -12.902901959786313 -29.847752555407453 0 0 0 0 -104.46375991390869 -62.243132802515902 0 -62.243132802515902 293.21094848074426 0 0 0 0 -89.950359130989852 -217.88739504641626 0 -217.88739504641626 -772.08534748552484 0 0 0 0 1.132465314775331 5.704969002696572 0 5.704969002696572 -16.772630168096441 0 0 0 0 -393.5381180398881 -572.71719388056226 0 -572.71719388056226 -1020.4388307426561 0 0 0 0 -102.46611241229311 -859.38079286784341 0 -859.38079286784341 -510.67614140574005 0 0 0 0 535.78300331541686 -2091.0021348814626 0 -2091.0021348814626 -411.65986148372758 0 0 0 0 -244.85908550135946 -689.18054774033772 0 -689.18054774033772 -1185.9078658964718 0 0 0 0 -248.94766565168629 -710.62454844372769 0 -710.62454844372769 -1160.3053224789619 0 0 0 0 1.6160295268668641 4.1394602755192551 0 4.1394602755192551 -12.995402133030439 0 0 0 0 -372.49814326816977 -659.6882731028054 0 -659.6882731028054 -923.69625229919984 0 0 0 0 -462.6682920391404 -348.04757786725168 0 -348.04757786725168 -234.83345221993841 0 0 0 0 -94.69576166265233 -183.36467312798777 0 -183.36467312798777 -716.18278375444788 0 0 0 0 -304.00916765746388 -406.13150263265925 0 -406.13150263265925 -1288.9830943595807 0 0 0 0 -321.339768652977 -588.64097098081766 0 -588.64097098081766 -833.68999310808431 0 0 0 0 -127.4040864674289 -611.07822905851208 0 -611.07822905851208 -1425.7899393218395 0 0 0 0 -139.0175049511754 -599.35820112875808 0 -599.35820112875808 -1345.4019821321563 0 0 0 0 -116.87302964115224 -654.76914791746822 0 -654.76914791746822 -1344.1818166774415 0 0 0 0 -170.29139849483272 -618.61638163504176 0 -618.61638163504176 -1274.1949197393988 0 0 0 0 -121.96420336141 -611.1530859921877 0 -611.1530859921877 -1273.058405800577 0 0 0 0 -211.33305941551589 -670.2499139404099 0 -670.2499139404099 -1155.8700688715253 0 0 0 0 -166.79203299719666 -580.88104193627078 0 -580.88104193627078 -1066.4506308470009 0 0 0 0 -152.0747620755792 -558.10244062631682 0 -558.10244062631682 -1092.9874251473084 0 0 0 0 -109.97761644548291 -598.54488803599634 0 -598.54488803599634 -1242.6948303375975 0 0 0 0 -95.67102999857525 -547.18099961026746 0 -547.18099961026746 -1177.7992017381184 0 0 0 0 -141.8815807416031 -623.68391992317629 0 -623.68391992317629 -1213.9196998916304 0 0 0 0 -115.73438934425394 -640.64451674361044 0 -640.64451674361044 -1311.7780557490478 0 0 0 0 -97.49470609916898 -623.26253751894546 0 -623.26253751894546 -1314.07251385579 0 0 0 0 -109.39244395725655 -649.51144819126785 0 -649.51144819126785 -1350.9113955582725 0 0 0 0 -148.79948239166697 -643.51679020274605 0 -643.51679020274605 -1323.0008131302384 0 0 0 0 -96.875332222080033 -610.21263579522201 0 -610.21263579522201 -1344.4322725988459 0 0 0 0 -121.6976121363914 -577.3965932426363 0 -577.3965932426363 -1227.2966583061934 0 0 0 0 -110.98680244276875 -597.12247068102442 0 -597.12247068102442 -1243.5468652045238 0 0 0 0 -136.71822396174684 -634.94708124183671 0 -634.94708124183671 -1321.8037952173036 0 0 0 0 -102.66312514427773 -506.93751864405931 0 -506.93751864405931 -1142.1581246528804 0 0 0 0 -222.92253455397895 -613.31170390331681 0 -613.31170390331681 -1324.9001417541585 0 0 0 0 -126.0669001956885 -581.48773231367522 0 -581.48773231367522 -1388.0788046838006 0 0 0 0 -134.39234499232771 -539.46502923846128 0 -539.46502923846128 -1272.2393931461411 0 0 0 0 -199.9367871918148 -657.68249512997863 0 -657.68249512997863 -1375.7016189885908 0 0 0 0 -227.1037883644949 -672.74911511607206 0 -672.74911511607206 -1370.1596437811095 0 0 0 0 -141.75294656568076 -609.7043378855742 0 -609.7043378855742 -1371.7394444943639 0 0 0 0 -164.57718985257088 -689.12425309504033 0 -689.12425309504033 -1397.5561050237447 0 0 0 0 -206.5472453396053 -729.55519399521745 0 -729.55519399521745 -1387.5453874630621 0 0 0 0 -202.48603441924934 -689.17828229277075 0 -689.17828229277075 -1304.7992977306567 0 0 0 0 -159.31055152121917 -609.96977024778244 0 -609.96977024778244 -1212.808477181592 0 0 0 0 -389.29820755421497 -765.20165295419429 0 -765.20165295419429 -1207.8077884312952 0 0 0 0 -724.15666244269232 -715.54409748167382 0 -715.54409748167382 -993.23479217182467 0 0 0 0 -1118.5140210478899 -1224.5702669531784 0 -1224.5702669531784 -1377.1061680955609 0 0 0 0 -884.64335359931192 -837.16241490827815 0 -837.16241490827815 -1084.6759084237856 0 0 0 0 -451.03032935593728 -760.82394093324547 0 -760.82394093324547 -1473.8630749279091 0 0 0 0 -592.99893333341606 -955.78385196837917 0 -955.78385196837917 -1461.422658085241 0 0 0 0 -389.16710029817295 -768.02283723721484 0 -768.02283723721484 -1290.6904172773793 0 0 0 0 -327.30064379769829 -753.71752437503892 0 -753.71752437503892 -1421.2778504936432 0 0 0 0 -316.89776241501386 -780.31330490093387 0 -780.31330490093387 -1549.4292367705493 0 0 0 0 -209.22672148061611 -628.0591772361222 0 -628.0591772361222 -1453.7945141403834 0 0 0 0 -338.14005658659516 -693.48033018247224 0 -693.48033018247224 -1428.085975333408 0 0 0 0 -206.66353245674327 -593.44419356538856 0 -593.44419356538856 -1456.6578913525118 0 0 0 0 -365.73035940733462 -666.45992841731641 0 -666.45992841731641 -1422.2013354810333 0 0 0 0 -408.46225652272187 -631.57268309791107 0 -631.57268309791107 -1450.0462539098371 0 0 0 0 -496.28026041677731 -1014.367134695065 0 -1014.367134695065 -1839.2327572337235 0 0 0 0 -304.04244436455156 -664.81355115873157 0 -664.81355115873157 -1608.0266147091752 0 0 0 0 -566.49964875866135 -830.16769147203013 0 -830.16769147203013 -1477.0424565799476 0 0 0 0 -446.95367939253811 -848.34724185069354 0 -848.34724185069354 -1555.0912142591551 0 0 0 0 -354.48418017244876 -800.06072205016244 0 -800.06072205016244 -1801.5761569687602 0 0 0 0 -584.56922648770342 -844.69384942731267 0 -844.69384942731267 -1646.5870211888687 0 0 0 0 -371.64265584998429 -992.49236433233455 0 -992.49236433233455 -2394.1787383525298 0 0 0 0 -818.28618116845064 -1534.5287036999071 0 -1534.5287036999071 -2041.5996747513127 0 0 0 0 -107.67279600357853 -231.25393717280872 0 -231.25393717280872 -758.07675546224345 0 0 0 0 -1590.8829451964048 425.99239158479031 0 425.99239158479031 -547.99435716751032 0 0 0 0 -1.75378942833194 2.7412462033781537 0 2.7412462033781537 -8.8755867213324962 0 0 0 0 -1503.2542774953235 -823.72444475167867 0 -823.72444475167867 -614.25655483694572 0 0 0 0 -1466.9173345471008 -598.18168169803539 0 -598.18168169803539 752.77845983117732 0 0 0 0 -6.3832183299209504 -6.0337100703564062 0 -6.0337100703564062 -3.9584640358525718 0 0 0 0 18.319275724948398 -442.90228107957455 0 -442.90228107957455 -1517.848288383786 0 0 0 0 -119.7035205617982 70.94620451933406 0 70.94620451933406 -188.51402657007566 0 0 0 0 -1060.3847598912457 -981.66725643807149 0 -981.66725643807149 -977.75359302389552 0 0 0 0 -1408.4456446228023 -545.82724547100224 0 -545.82724547100224 -483.23422745942662 0 0 0 0 -932.51792918362344 -200.07522323384001 0 -200.07522323384001 -900.10976777005271 0 0 0 0 -295.64516346312666 -567.22566263628323 0 -567.22566263628323 -894.51088525044906 0 0 0 0 -428.47834031233469 -552.37604084800842 0 -552.37604084800842 -1146.3257546521963 0 0 0 0 -628.99260978169059 -374.1555389477835 0 -374.1555389477835 -997.03162423177127 0 0 0 0 -960.97754648514274 -779.77650108444868 0 -779.77650108444868 -1150.9707201788206 0 0 0 0 -954.51456040622179 -103.67932604568341 0 -103.67932604568341 -1487.2725980578834 0 0 0 0 -1058.5742459318885 111.62733257920263 0 111.62733257920263 -1538.2472973601543 0 0 0 0 -1523.0179327065025 -154.84224996471312 0 -154.84224996471312 -414.24241019928013 0 0 0 0 -346.87523741130826 -791.59357012763212 0 -791.59357012763212 -1741.2675036668334 0 0 0 0 -206.64856210495964 -672.83107215441851 0 -672.83107215441851 -1354.6534203992123 0 0 0 0 -251.85588118906071 -595.54314780016284 0 -595.54314780016284 -1337.7252323521825 0 0 0 0 -459.03273926363181 -782.12766878932598 0 -782.12766878932598 -1212.6390835662241 0 0 0 0 -559.40920858429809 -516.32731545655406 0 -516.32731545655406 -862.29543005820597 0 0 0 0 -419.34864821453084 -428.33932005004317 0 -428.33932005004317 -836.50485065040266 0 0 0 0 -470.86583028116729 -565.01021136819327 0 -565.01021136819327 -850.50227601191727 0 0 0 0 -256.94764214004317 -580.17298862290045 0 -580.17298862290045 -1037.6424262567452 0 0 0 0 -273.46169379349158 -602.05925219481651 0 -602.05925219481651 -1024.4950762029039 0 0 0 0 -815.53396091409013 -909.23120333157567 0 -909.23120333157567 -2679.5894454725603 0 0 0 0 -800.90468495533787 -756.11179758024446 0 -756.11179758024446 -1098.5864758128737 0 0 0 0 -404.82243618593475 25.552558394378138 0 25.552558394378138 16.071979819505941 0 0 0 0 -0.27850266674798974 1.8031308948223099 0 1.8031308948223099 -10.31168427708019 0 0 0 0 -12.846663296333361 5.0677611040133002 0 5.0677611040133002 -1.4916070201595062 0 0 0 0 -107.21015585596069 711.03875030645577 0 711.03875030645577 -1966.2872189308946 0 0 0 0 -1074.9920778084579 -299.08230324504984 0 -299.08230324504984 -925.84164388215868 0 0 0 0 -845.10534177088266 1080.7899590389643 0 1080.7899590389643 -1598.896028735835 0 0 0 0 -280.36054736595361 667.36630632806191 0 667.36630632806191 5.9358289139927365 0 0 0 0 603.05757538282614 -727.63036605939851 0 -727.63036605939851 -360.24058744354988 0 0 0 0 138.67418097640984 -3.900948086004064 0 -3.900948086004064 -364.08144929095579 0 0 0 0 -796.47547657074642 -426.1906316312361 0 -426.1906316312361 -485.37217177746061 0 0 0 0 -372.16329934225178 908.29318528348085 0 908.29318528348085 -1409.488619929034 0 0 0 0 -0.2867488584433886 114.73480260006181 0 114.73480260006181 9.4838540665878099 0 0 0 0 391.62459664186554 -212.46520206866262 0 -212.46520206866262 278.16589407035644 0 0 0 0 587.71571795334603 -267.83328712673392 0 -267.83328712673392 -611.38206479985638 0 0 0 0 657.5825445198243 77.181643307980266 0 77.181643307980266 -578.04131878637963 0 0 0 0 605.7801395557608 59.904776012837829 0 59.904776012837829 -259.57871067573433 0 0 0 0 761.83664145440343 145.38746259649633 0 145.38746259649633 -309.19574774974171 0 0 0 0 -107.17553371399481 74.529348084884987 0 74.529348084884987 -34.911743082368048 0 0 0 0 1.7122562226886657 24.793569015770117 0 24.793569015770117 -12.292723291571747 0 0 0 0 10.411546775860252 1.2697315890595249 0 1.2697315890595249 -8.3993833312300978 0 0 0 0 -14.775314536551564 24.482618404705335 0 24.482618404705335 -31.13889256869021 0 0 0 0 673.75415800997507 237.29000590631767 0 237.29000590631767 -127.58166617825918 0 0 0 0 72.890378243810119 -110.87414139344764 0 -110.87414139344764 -380.67407343379455 0 0 0 0 545.40939020076166 161.34676225940348 0 161.34676225940348 -6.1298325564275729 0 0 0 0 658.84553857732681 104.67680728509004 0 104.67680728509004 -224.72111739835236 0 0 0 0 418.60963897695547 -69.281636261817766 0 -69.281636261817766 -162.11922409245017 0 0 0 0 291.76173378096428 21.43308658193564 0 21.43308658193564 25.197681235047639 0 0 0 0 510.00103449873245 74.379907015310891 0 74.379907015310891 36.59031008319289 0 0 0 0 -15.965376501188635 14.692334006821625 0 14.692334006821625 -13.616660714688869 0 0 0 0 -11.016711796977688 16.890770549754961 0 16.890770549754961 -36.816783567872335 0 0 0 0 6.8518762013824563 -1.9134454098264086 0 -1.9134454098264086 -27.031495864207912 0 0 0 0 350.93002521874587 -546.94305147984414 0 -546.94305147984414 774.79715793248033 0 0 0 0 191.40642301965272 -843.31037056284185 0 -843.31037056284185 450.74899913663103 0 0 0 0 -8.4272060218606786 -9.8359444121865351 0 -9.8359444121865351 -13.215916317205242 0 0 0 0 1.352019299029628 0.15706655481793064 0 0.15706655481793064 -4.6513336791662425 0 0 0 0 10.934272109914218 -437.70425361336493 0 -437.70425361336493 -30.167668417765526 0 0 0 0 322.98958469066929 -81.042238768088282 0 -81.042238768088282 293.33377862299676 0 0 0 0 574.61808705372459 -179.38523106393404 0 -179.38523106393404 -190.63369826565031 0 0 0 0 -43.057309489577165 -693.62250451962609 0 -693.62250451962609 292.11665161274141 0 0 0 0 649.03971741316127 -297.72507618766394 0 -297.72507618766394 -170.24293124344513 0 0 0 0 -49.812947271770099 79.987721654906636 0 79.987721654906636 -117.22178738881257 0 0 0 0 -7.1778623039826925 148.15467990295701 0 148.15467990295701 26.558846651889326 0 0 0 0 -9.043617990841085 -75.093251565785067 0 -75.093251565785067 -83.990910037056892 0 0 0 0 -21.100404112919932 -27.67071161426793 0 -27.67071161426793 -159.69574872175144 0 0 0 0 81.96130576703581 8.9851895438769134 0 8.9851895438769134 -184.28417575763569 0 0 0 0 -37.870694818993798 36.832870414178615 0 36.832870414178615 -118.61720836071618 0 0 0 0 12.55134783664657 -6.4037165140726557 0 -6.4037165140726557 -10.282919953093227 0 0 0 0 -28.545353474095464 103.32388609013287 0 103.32388609013287 -190.89465365752403 0 0 0 0 57.958089593448157 9.0753715162771869 0 9.0753715162771869 -43.090478247789825 0 0 0 0 49.215856978673401 -15.569147822858213 0 -15.569147822858213 -22.52004713072165 0 0 0 0 16.36155894863623 10.189956370726577 0 10.189956370726577 -15.924290489660052 0 0 0 0 0.59982971321505829 -100.55214608294318 0 -100.55214608294318 -250.72143733609118 0 0 0 0 13.715755125918619 22.91805209237414 0 22.91805209237414 -39.742778593141381 0 0 0 0 80.769682447676132 -56.517895322116601 0 -56.517895322116601 -146.88716249654681 0 0 0 0 -2.8683401468078955 69.467444951829748 0 69.467444951829748 -49.589877415222873 0 0 0 0 -13.89788503642194 19.950321495518438 0 19.950321495518438 -27.975883771490771 0 0 0 0 -15.700293556741407 29.476097544605349 0 29.476097544605349 -39.118103262694007 0 0 0 0 189.71023219462222 253.75333466461598 0 253.75333466461598 -27.199458042250626 0 0 0 0 -17.803046064152653 26.404217829921851 0 26.404217829921851 -25.314972379992291 0 0 0 0 340.31890565422509 -360.87127697276264 0 -360.87127697276264 -363.0454019427998 0 0 0 0 424.20727570589224 37.960351226662169 0 37.960351226662169 -240.31213083534385 0 0 0 0 -147.72408082913444 65.91739500660151 0 65.91739500660151 196.5449800260576 0 0 0 0 23.591635893426428 318.61771985606174 0 318.61771985606174 -101.69821543420039 0 0 0 0 127.82556162517221 262.72371943111648 0 262.72371943111648 -40.915611634787638 0 0 0 0 -32.319423239837107 25.198830855840701 0 25.198830855840701 -19.923290877345991 0 0 0 0 -27.240928413010764 26.493292762889673 0 26.493292762889673 -22.407263805068546 0 0 0 0 -23.153759456872649 33.267633103896515 0 33.267633103896515 -10.151008363260189 0 0 0 0 15.015960720894327 43.403981394960283 0 43.403981394960283 -302.10354024116532 0 0 0 0 -134.71789608772542 102.48329067447412 0 102.48329067447412 190.59232777540456 0 0 0 0 -246.64315095352003 -207.6028432730418 0 -207.6028432730418 -404.76659234751787 0 0 0 0 -95.134648740061493 -10.826796712901341 0 -10.826796712901341 -608.18117825765512 0 0 0 0 26.764266035377659 -7.6190880090725841 0 -7.6190880090725841 -221.42910073074745 0 0 0 0 -168.2305537765933 -177.63352914257121 0 -177.63352914257121 -295.09937220493885 0 0 0 0 -323.26494811281555 78.905455981963314 0 78.905455981963314 -129.96853578562514 0 0 0 0 -134.13124592945951 223.69904992489319 0 223.69904992489319 -261.69624861996272 0 0 0 0 -85.559931949224847 56.379429997832631 0 56.379429997832631 -133.89295651177963 0 0 0 0 38.612399954904504 -41.36506392283809 0 -41.36506392283809 -148.8133524513687 0 0 0 0 -123.91513302560179 -214.64857430395932 0 -214.64857430395932 15.555532445912831 0 0 0 0 -152.89543776342634 -74.849708604349871 0 -74.849708604349871 -144.09876328653991 0 0 0 0 -93.384075127176402 -143.07406089945289 0 -143.07406089945289 -135.10211714127945 0 0 0 0 -102.88677704113525 122.89592224154694 0 122.89592224154694 191.9381140518708 0 0 0 0 -250.34184731274627 -175.62447152824097 0 -175.62447152824097 -565.40125398427517 0 0 0 0 4.5755493757251315 -86.065334494098352 0 -86.065334494098352 -623.414162038418 0 0 0 0 -17.423943111537483 -83.307282881047286 0 -83.307282881047286 -746.8040694362644 0 0 0 0 -287.54592591366372 -518.63120403896392 0 -518.63120403896392 -893.53111951376832 0 0 0 0 -324.71851087893197 -457.20860254535 0 -457.20860254535 -1329.3819327736419 0 0 0 0 -358.31995773284461 -295.10299704398858 0 -295.10299704398858 -1090.3752348943817 0 0 0 0 -388.61247942399746 -387.65302732534474 0 -387.65302732534474 -908.19492848742811 0 0 0 0 -92.495473512528406 -220.74146791733074 0 -220.74146791733074 -874.81095867289696 0 0 0 0 -219.24853981138858 -190.80251932386091 0 -190.80251932386091 -751.22883616752006 0 0 0 0 -170.45578327567148 -14.929808021382087 0 -14.929808021382087 -562.83520677717752 0 0 0 0 -151.74675973146623 -169.58355053408741 0 -169.58355053408741 -756.22123662782178 0 0 0 0 -297.02327072877688 -105.34716735687834 0 -105.34716735687834 -784.4070470816223 0 0 0 0 -224.85168712202994 -212.13978179527021 0 -212.13978179527021 -1024.8734294216483 0 0 0 0 -300.87812685268682 -146.62511490878751 0 -146.62511490878751 -772.3470289844081 0 0 0 0 -181.71622374716139 -319.30091459284085 0 -319.30091459284085 -1146.3963599635026 0 0 0 0 -443.92294136982082 -385.5337591440184 0 -385.5337591440184 -1091.0251591918714 0 0 0 0 -333.40690773148594 -264.20901918633899 0 -264.20901918633899 -1285.0972676717502 0 0 0 0 -421.00287825963233 -469.74331934607835 0 -469.74331934607835 -1457.8950868735483 0 0 0 0 -271.73736272808401 -219.88792005678988 0 -219.88792005678988 -1195.4774380013987 0 0 0 0 -447.41695027155129 -295.03488183097943 0 -295.03488183097943 -1030.6379856598383 0 0 0 0 -524.97925146914667 -260.78451255904656 0 -260.78451255904656 -1179.9255693275627 0 0 0 0 -360.73113521894265 -256.4481536479143 0 -256.4481536479143 -1390.6723267338748 0 0 0 0 -546.01576108744632 -634.36997189823251 0 -634.36997189823251 -1821.9810326992374 0 0 0 0 -704.52862212816069 -244.31992536959842 0 -244.31992536959842 -1375.4435609717621 0 0 0 0 -432.21991845479351 -413.37588392131511 0 -413.37588392131511 -1497.2325100716771 0 0 0 0 -324.10782855239131 -507.04662272195856 0 -507.04662272195856 -2185.6557475933369 0 0 0 0 -429.61377475587165 -394.27522388701072 0 -394.27522388701072 -1547.3288108244815 0 0 0 0 -339.76117141725945 -529.36776563785315 0 -529.36776563785315 -1773.872892409865 0 0 0 0 -83.005923183493451 -453.37576891910066 0 -453.37576891910066 -1962.3480649611158 0 0 0 0 -466.04216529667781 -294.27327755018609 0 -294.27327755018609 -1441.3601235574388 0 0 0 0 -291.90913297591806 -438.98523311786448 0 -438.98523311786448 -1532.9432786887337 0 0 0 0 46.21277801893757 -13.6861353326276 0 -13.6861353326276 -1127.6249398156942 0 0 0 0 -63.002573021387889 -3.7767037234684722 0 -3.7767037234684722 -979.09898519952549 0 0 0 0 14.155351053646882 -2.617513071414578 0 -2.617513071414578 -1017.0085490380752 0 0 0 0 59.218933190752068 -2.627007854045587 0 -2.627007854045587 -1132.4152503923106 0 0 0 0 66.751005135405649 -28.411919779875461 0 -28.411919779875461 -1148.0636164363532 0 0 0 0 72.517361588927997 -26.909930169906147 0 -26.909930169906147 -1149.9297788660697 0 0 0 0 50.899327497945706 -0.1705172787696938 0 -0.1705172787696938 -1197.8999743432505 0 0 0 0 6.1616757293968476 -61.305806827502238 0 -61.305806827502238 -1175.3460635309602 0 0 0 0 -8.9496934760900331 -32.228739803027565 0 -32.228739803027565 -1231.2955806855171 0 0 0 0 -51.745755925205231 -28.229217980842805 0 -28.229217980842805 -1118.8334006019577 0 0 0 0 -69.853483676346514 1.4902449684013845 0 1.4902449684013845 -1166.0121401548749 0 0 0 0 -231.91987378477916 -85.185144022005261 0 -85.185144022005261 -1221.7743230634296 0 0 0 0 -97.851181978074237 -113.75260460508434 0 -113.75260460508434 -1258.1782505074952 0 0 0 0 -277.30557684367955 -255.87505850675461 0 -255.87505850675461 -1403.5707859383911 0 0 0 0 -549.05332982013078 -448.25816377871888 0 -448.25816377871888 -1713.5717695251733 0 0 0 0 -250.6419542611593 -35.049364486549166 0 -35.049364486549166 -1276.068830858454 0 0 0 0 -434.59298537311997 -188.87294020425179 0 -188.87294020425179 -1154.6892181610165 0 0 0 0 -241.93200813017074 -79.157673783753125 0 -79.157673783753125 -950.37302235026436 0 0 0 0 -192.5388307307694 -84.727474632753001 0 -84.727474632753001 -1145.7668328431046 0 0 0 0 -351.11570922621468 -164.65190472986978 0 -164.65190472986978 -989.11259959971358 0 0 0 0 -137.8455438741712 -1.9071876652669744 0 -1.9071876652669744 -1139.7604621975333 0 0 0 0 -197.2586492398068 -126.73971250540853 0 -126.73971250540853 -1128.7290761924232 0 0 0 0 -86.112774985842407 -54.545146208220103 0 -54.545146208220103 -1122.2617323369714 0 0 0 0 -49.288630341515955 -54.454922803982299 0 -54.454922803982299 -1110.6444586487632 0 0 0 0 -112.08332961856104 14.279126305504178 0 14.279126305504178 -974.07292659972154 0 0 0 0 -38.175780900326572 -55.040346764952119 0 -55.040346764952119 -934.72800046324483 0 0 0 0 -124.57731320000448 -81.82125521407761 0 -81.82125521407761 -743.65568713776884 0 0 0 0 -67.058057051760443 46.667226033474435 0 46.667226033474435 -804.23612971708644 0 0 0 0 -14.255515327080502 -22.925176741366158 0 -22.925176741366158 -764.10721929759893 0 0 0 0 -164.34957820840646 -110.27219463914662 0 -110.27219463914662 -994.82743138822207 0 0 0 0 -92.817470495056114 -18.447992827917915 0 -18.447992827917915 -950.97637584569645 0 0 0 0 -219.66921568508587 -113.00144000896762 0 -113.00144000896762 -791.14370537585637 0 0 0 0 -154.80461913595218 -31.914319197014265 0 -31.914319197014265 -534.32577974453307 0 0 0 0 109.52111414202773 69.025545513657562 0 69.025545513657562 -525.37386775481855 0 0 0 0 -177.64103275147318 -125.12609952866478 0 -125.12609952866478 -406.63312042620237 0 0 0 0 -82.030522857794494 4.342441411667096 0 4.342441411667096 -755.27913605124922 0 0 0 0 22.745802302995799 41.330346290356829 0 41.330346290356829 -449.44133815300302 0 0 0 0 -104.10377842645994 41.245523727957334 0 41.245523727957334 -448.98616085460526 0 0 0 0 -9.577893858596326 86.091398220174597 0 86.091398220174597 -593.15476151865732 0 0 0 0 15.033201654836375 -35.020583942619851 0 -35.020583942619851 -743.96776559295915 0 0 0 0 -136.59103256618255 68.874259379750583 0 68.874259379750583 -275.67895107169079 0 0 0 0 -30.727436527270129 18.105521099221733 0 18.105521099221733 -713.65952070371713 0 0 0 0 -50.996738079935312 -51.11622539570817 0 -51.11622539570817 -440.66248472410371 0 0 0 0 -69.996377196430331 -18.628612627551774 0 -18.628612627551774 -562.44300825498794 0 0 0 0 -12.653868215453258 -58.105737388916168 0 -58.105737388916168 -758.38475480052148 0 0 0 0 -1.9112760150765098 36.822269069307367 0 36.822269069307367 -976.01971020836436 0 0 0 0 22.907853309272468 -21.553212845275993 0 -21.553212845275993 -940.58941702327866 0 0 0 0 14.573005122568702 7.9740936110756593 0 7.9740936110756593 -891.14219261598191 0 0 0 0 36.847609560298224 -59.590437420098169 0 -59.590437420098169 -993.43193063823855 0 0 0 0 10.004120786186832 -85.858481628914888 0 -85.858481628914888 -772.93550144061737 0 0 0 0 -17.487854982882709 -29.133917555423977 0 -29.133917555423977 -776.0574011044373 0 0 0 0 -20.316903448606354 -95.78044379464518 0 -95.78044379464518 -891.63775513053406 0 0 0 0 0.019934002752052038 -139.93149797552178 0 -139.93149797552178 -708.38867419504459 0 0 0 0 -105.36278173054779 -153.5065793232061 0 -153.5065793232061 -327.69055736684822 0 0 0 0 -13.905757975528104 -186.70969464456721 0 -186.70969464456721 -488.0406297641166 0 0 0 0 -15.345139678054693 -32.949115755705861 0 -32.949115755705861 -722.36921586262179 0 0 0 0 -2.5151990728377314 53.893537473588481 0 53.893537473588481 -6.8007740920365904 0 0 0 0 153.4743776955911 -111.68131536295186 0 -111.68131536295186 -272.72659153843051 0 0 0 0 -17.601371396691007 9.6074679125907458 0 9.6074679125907458 -2.0744581393498578 0 0 0 0 6.5499783705296863 3.6034829693833146 0 3.6034829693833146 -2.8205022493954637 0 0 0 0 -6.4873147725666058 -125.07018899047034 0 -125.07018899047034 49.596639838999181 0 0 0 0 -47.839585816764966 35.202311225315853 0 35.202311225315853 -20.950201084774079 0 0 0 0 -11.448698144979062 111.58700447892534 0 111.58700447892534 -41.923332957234379 0 0 0 0 -15.040365593590323 15.001599833634664 0 15.001599833634664 -14.448814841534308 0 0 0 0 1.7623112359269726 98.608500846716197 0 98.608500846716197 203.73931519460893 0 0 0 0 27.749095132377988 80.706965691493679 0 80.706965691493679 195.50829882825019 0 0 0 0 -11.539157965948647 6.5557292858003358 0 6.5557292858003358 -0.63023051036787336 0 0 0 0 495.5863544392414 113.25251750310417 0 113.25251750310417 -42.502142753599401 0 0 0 0 15.129070271350429 71.757561120261926 0 71.757561120261926 253.24686485927668 0 0 0 0 24.690561386487389 169.31864828128164 0 169.31864828128164 221.75641053631352 0 0 0 0 9.7355998200364411 74.53650921692315 0 74.53650921692315 279.04341779534298 0 0 0 0 -1.0905701347708341 -0.69773527491447851 0 -0.69773527491447851 -0.54756223430672435 0 0 0 0 36.334980277411887 158.96917062285502 0 158.96917062285502 -444.61749458954728 0 0 0 0 -165.87016781466286 199.94319150881893 0 199.94319150881893 228.01867705830955 0 0 0 0 -97.159989277697605 -10.648638836828468 0 -10.648638836828468 55.142491745507868 0 0 0 0 37.375397877181967 -66.281387079456181 0 -66.281387079456181 -234.16321128683921 0 0 0 0 -118.7816867384563 -42.990894243830553 0 -42.990894243830553 -135.97229756671732 0 0 0 0 -197.16854540170607 263.08625336038676 0 263.08625336038676 505.19699597862564 0 0 0 0 2.1956198546317864 171.38692107465226 0 171.38692107465226 -87.159727074351395 0 0 0 0 -69.127821223718513 45.787278611238946 0 45.787278611238946 -24.95253216577494 0 0 0 0 -8.3503791894616413 12.322237463228035 0 12.322237463228035 -16.396036002578114 0 0 0 0 -7.2355886762565547 1.9029519599275879 0 1.9029519599275879 0.26680454576375467 0 0 0 0 -2499.349721824532 -456.23229738805094 0 -456.23229738805094 428.26177461667976 0 0 0 0 -814.8446012520144 311.33714306455295 0 311.33714306455295 410.02354470572209 0 0 0 0 482.30797319191674 -142.32558257408618 0 -142.32558257408618 -437.26350367878331 0 0 0 0 771.85051647866203 -223.67530282528605 0 -223.67530282528605 -884.37118005988305 0 0 0 0 -127.92767873548473 307.68319924691968 0 307.68319924691968 227.50980173055723 0 0 0 0 -71.010023812687052 50.214332675700319 0 50.214332675700319 -28.228119150799458 0 0 0 0 -13.268423429499165 6.7554698191018048 0 6.7554698191018048 -3.6148684182224002 0 0 0 0 -547.01962150518375 180.56297902309962 0 180.56297902309962 295.6420021184822 0 0 0 0 -703.17901210477521 227.22694678418975 0 227.22694678418975 -1.3042058205901412 0 0 0 0 -595.41560417632718 -402.64519461370946 0 -402.64519461370946 8.7273667085828492 0 0 0 0 -189.6837388704007 -57.766897364148463 0 -57.766897364148463 -70.304927739751292 0 0 0 0 4.9866322469388251 -572.97181378211098 0 -572.97181378211098 -224.24575968769204 0 0 0 0 -312.74404791772395 350.03368430419141 0 350.03368430419141 -135.37279613170176 0 0 0 0 -111.97399401459552 311.91313872984392 0 311.91313872984392 -169.58049838931038 0 0 0 0 -25.561774951478583 218.43958359764656 0 218.43958359764656 -131.49777720036218 0 0 0 0 119.02665060244544 89.471422439293747 0 89.471422439293747 -82.473096884859842 0 0 0 0 -11.247585840279498 246.2199029660278 0 246.2199029660278 -30.590551213252184 0 0 0 0 -40.070887554429646 207.17199284149319 0 207.17199284149319 -79.430432867095078 0 0 0 0 -8.5908455759126809 258.82285014107583 0 258.82285014107583 -88.504872077159234 0 0 0 0 -0.96097567480319412 124.02996874462224 0 124.02996874462224 -93.069335663509264 0 0 0 0 -287.07190490086214 116.6575464534144 0 116.6575464534144 6.7386122523857921 0 0 0 0 -167.76802632704494 108.79592052307635 0 108.79592052307635 -34.45873796221349 0 0 0 0 -121.25420876274438 -7.2471186495022266 0 -7.2471186495022266 -115.41805846177886 0 0 0 0 50.30496195820524 159.13797205563242 0 159.13797205563242 164.63450060235118 0 0 0 0 65.021518939207454 243.08185076178052 0 243.08185076178052 135.42723118941467 0 0 0 0 41.551609695419756 219.12102912209048 0 219.12102912209048 42.629636351828481 0 0 0 0 40.161980724096793 125.61755130455458 0 125.61755130455458 47.706101299980219 0 0 0 0 71.22167101058767 220.97474093864548 0 220.97474093864548 -91.22716693757684 0 0 0 0 -2.5934325730559067 216.13634621473284 0 216.13634621473284 -77.675690144125838 0 0 0 0 67.317652732959687 193.65748940489812 0 193.65748940489812 -19.579221125459298 0 0 0 0 90.056696596053371 267.57447245548065 0 267.57447245548065 -93.235852911364418 0 0 0 0 59.494524319265111 228.58567368000695 0 228.58567368000695 -119.6192872150823 0 0 0 0 78.665259766377858 222.64862704280586 0 222.64862704280586 -246.18771952842144 0 0 0 0 62.706257211075354 226.57979518781849 0 226.57979518781849 -97.958196237119409 0 0 0 0 110.49026385381512 219.33630380238719 0 219.33630380238719 -246.21623764035496 0 0 0 0 104.30087304798872 200.07263286587022 0 200.07263286587022 -305.89525920806273 0 0 0 0 46.468253807925066 278.09418332157475 0 278.09418332157475 -94.813897149520926 0 0 0 0 -49.364020798406273 247.59370642430167 0 247.59370642430167 -53.02753908667728 0 0 0 0 -48.203822412833688 110.48125659534162 0 110.48125659534162 -3.3827351170853035 0 0 0 0 19.142548753476149 130.03168983875821 0 130.03168983875821 -274.11420728035591 0 0 0 0 33.639220050130461 284.69087078053008 0 284.69087078053008 -546.20692351765683 0 0 0 0 18.137659870302429 6.8163805483908178 0 6.8163805483908178 3.5924926078073263 0 0 0 0 -22.313647779811618 95.715974733418193 0 95.715974733418193 -380.06219185377086 0 0 0 0 -141.38608132694208 213.43434010318924 0 213.43434010318924 -71.759590258203389 0 0 0 0 6.553012297959782 2.8845536990448153 0 2.8845536990448153 0.14872860012443212 0 0 0 0 -133.9183447728692 207.32641855672864 0 207.32641855672864 -206.48460584495297 0 0 0 0 -70.748007636109833 309.58272791547824 0 309.58272791547824 -443.39203588229975 0 0 0 0 98.219539621341028 262.72752864302311 0 262.72752864302311 -361.47979102070894 0 0 0 0 34.63089873464196 260.67491103609518 0 260.67491103609518 -361.34104217558161 0 0 0 0 310.75155279344472 195.1561631717459 0 195.1561631717459 -504.52460085526764 0 0 0 0 268.69681719295204 417.3178130468724 0 417.3178130468724 -278.3454221465181 0 0 0 0 -85.285844093534251 288.66723948217441 0 288.66723948217441 -68.428893095593594 0 0 0 0 -210.1375831984551 -55.261359540865669 0 -55.261359540865669 -255.75475406291389 0 0 0 0 -72.879825098059882 -119.62645901452379 0 -119.62645901452379 -758.7764899223348 0 0 0 0 -52.288901736379216 153.2228364507715 0 153.2228364507715 -730.5229459772454 0 0 0 0 -53.237664438045044 130.79147723273047 0 130.79147723273047 -528.63851783456084 0 0 0 0 -3.9374301091986581 0.67026465926549506 0 0.67026465926549506 -1.2263384865288796 0 0 0 0 -12.672400856892637 25.469162639504248 0 25.469162639504248 -347.61534800281061 0 0 0 0 431.54736435411542 121.02321201947052 0 121.02321201947052 -1227.8959621102968 0 0 0 0 -40.935645104196738 351.4182091028124 0 351.4182091028124 -165.3629725052233 0 0 0 0 -62.644676128198626 285.96426926315326 0 285.96426926315326 -355.62176620182254 0 0 0 0 -160.79855686428346 262.16295089718915 0 262.16295089718915 -189.83009107650059 0 0 0 0 -158.64626833903458 259.9495513620559 0 259.9495513620559 -198.914920787749 0 0 0 0 -104.99629289106815 37.624667147175387 0 37.624667147175387 -129.57702619259362 0 0 0 0 -13.111876896879778 3.786985091455259 0 3.786985091455259 -2.1133389456730143 0 0 0 0 -53.107569690286255 101.80566826762151 0 101.80566826762151 -541.13151708178702 0 0 0 0 107.37493146720226 -128.40991144462714 0 -128.40991144462714 -516.83985502880932 0 0 0 0 -17.874399224543595 -35.385552613715845 0 -35.385552613715845 -570.31636638939199 0 0 0 0 136.05584811062545 -22.745572904966593 0 -22.745572904966593 -569.55240623781174 0 0 0 0 174.28255816726596 10.388285612150867 0 10.388285612150867 -923.20120495817901 0 0 0 0 86.561355865804217 26.447406970329212 0 26.447406970329212 -607.09462517638894 0 0 0 0 -764.48458365113584 983.10326724513288 0 983.10326724513288 -865.99207501558158 0 0 0 0 922.62607153853241 545.93445257511576 0 545.93445257511576 -1903.035648963767 0 0 0 0 414.85212443242926 -242.13031292937922 0 -242.13031292937922 -687.6067266587379 0 0 0 0 -68.524049073697824 360.47540064138047 0 360.47540064138047 -757.30727791363279 0 0 0 0 -179.70269652277784 74.942896306246439 0 74.942896306246439 -157.87388526173254 0 0 0 0 -217.33322646952365 257.2108304284302 0 257.2108304284302 -325.82771896516533 0 0 0 0 16.517438035867599 117.02150097595359 0 117.02150097595359 -425.36630672631145 0 0 0 0 16.994183478356717 -24.831183723087634 0 -24.831183723087634 -224.44481928911046 0 0 0 0 2.0225272883326397 158.32347703966298 0 158.32347703966298 -476.93403569633483 0 0 0 0 38.162164164681599 16.23890784455125 0 16.23890784455125 -467.6412125114814 0 0 0 0 -28.463412890539246 55.048333405983954 0 55.048333405983954 -46.417577043988778 0 0 0 0 -42.694138056675001 28.600925828367053 0 28.600925828367053 -323.76802962954525 0 0 0 0 12.850913357149693 79.025105964487011 0 79.025105964487011 94.882981669485162 0 0 0 0 -21.693484981734443 58.783396397993329 0 58.783396397993329 -47.972241583185763 0 0 0 0 -107.80755406536628 -132.85471680488331 0 -132.85471680488331 -567.01950882907113 0 0 0 0 -107.63944052301758 -135.90822039586499 0 -135.90822039586499 -562.77479598126956 0 0 0 0 -110.50731556570008 -70.522231172555507 0 -70.522231172555507 -657.01921610862337 0 0 0 0 -110.27294804026315 -77.240580131601746 0 -77.240580131601746 -496.15422631163528 0 0 0 0 -109.2870179888705 -111.81313326526288 0 -111.81313326526288 -461.35686909606011 0 0 0 0 -65.555667735461611 15.582092997499785 0 15.582092997499785 -485.22097399286235 0 0 0 0 -79.629086975081009 -24.406526729568213 0 -24.406526729568213 -653.26019004995396 0 0 0 0 -67.968358041798638 -2.8846479059720878 0 -2.8846479059720878 -617.59705081450193 0 0 0 0 -142.50340369636251 26.133408045026954 0 26.133408045026954 -620.0920739507319 0 0 0 0 28.835814882550039 -20.721865846195215 0 -20.721865846195215 -563.30899966053948 0 0 0 0 64.682932450945373 36.649520427907191 0 36.649520427907191 -475.16067419279398 0 0 0 0 -100.57864750967065 661.69065685277383 0 661.69065685277383 -379.98988777193881 0 0 0 0 52.358669411274604 -169.72975523512287 0 -169.72975523512287 -580.47500825191855 0 0 0 0 -240.15904838683127 -80.042179217109151 0 -80.042179217109151 -438.55941910090405 0 0 0 0 -23.001216103319166 -208.87675380829387 0 -208.87675380829387 -485.79770187713348 0 0 0 0 -109.57645386755576 170.48222711436074 0 170.48222711436074 -1005.6759424372867 0 0 0 0 62.800765134532412 -169.18123209333862 0 -169.18123209333862 -567.64859237136716 0 0 0 0 67.922634945440223 -195.99787593883957 0 -195.99787593883957 -586.26224959239607 0 0 0 0 90.3405328695153 -451.10395010000684 0 -451.10395010000684 -1402.0350465302909 0 0 0 0 -704.2670746027361 277.70781855459336 0 277.70781855459336 552.54423796810443 0 0 0 0 -767.53975101270044 402.00847203134163 0 402.00847203134163 545.62980277034694 0 0 0 0 517.67443726081547 -901.35832744859817 0 -901.35832744859817 -456.19206532720182 0 0 0 0 -160.30189836682257 -438.14353380976354 0 -438.14353380976354 -522.10463468425587 0 0 0 0 -1.8480220560152514 -4.1198425173541509 0 -4.1198425173541509 -15.984019391090271 0 0 0 0 -577.00086611871666 616.56518771130141 0 616.56518771130141 1087.0352160761831 0 0 0 0 -1764.213180047831 33.755738936893977 0 33.755738936893977 -269.33312692395339 0 0 0 0 0.94788852791887734 -1.6967022486009142 0 -1.6967022486009142 -9.3805196586871915 0 0 0 0 470.35885121901083 -555.6789963783167 0 -555.6789963783167 -2671.0636539347815 0 0 0 0 -621.41747711570497 -762.30104455504534 0 -762.30104455504534 -349.51912889191226 0 0 0 0 -6.4896450702739372 4.9862589671227191 0 4.9862589671227191 -2.6415995940536874 0 0 0 0 151.02147073357628 80.237509641492579 0 80.237509641492579 -243.38554485119494 0 0 0 0 263.61798268040366 261.57990118497946 0 261.57990118497946 -1028.5510748227116 0 0 0 0 519.51636274646444 205.04979519472545 0 205.04979519472545 -1645.991076008771 0 0 0 0 -197.09420645201681 -105.02413579193762 0 -105.02413579193762 104.79142102878905 0 0 0 0 299.11930536275031 159.43016848495972 0 159.43016848495972 109.17067896389273 0 0 0 0 -25.363162855195696 190.74665166437444 0 190.74665166437444 354.57399705490388 0 0 0 0 -22.70525220278796 -88.217102733742649 0 -88.217102733742649 49.124863202127017 0 0 0 0 -16.509701288633323 6.227448598019901 0 6.227448598019901 -2.6553570521783527 0 0 0 0 80.286892085452564 -142.2251939425696 0 -142.2251939425696 -229.29104925234242 0 0 0 0 -100.17536306304828 50.051769887610135 0 50.051769887610135 -99.996204703473268 0 0 0 0 69.337314987878926 371.24019674032206 0 371.24019674032206 -214.11300328903963 0 0 0 0 -143.98788480530493 191.48648909789426 0 191.48648909789426 120.38969373380678 0 0 0 0 35.007234780769068 94.780530290527167 0 94.780530290527167 -185.74964450080552 0 0 0 0 -114.05518713986748 158.32012760492489 0 158.32012760492489 588.43441677336887 0 0 0 0 2.4625780900439338 1.4970259498697871 0 1.4970259498697871 0.65903747958227399 0 0 0 0 -36.149390783561103 41.652434895941042 0 41.652434895941042 -99.108262940677378 0 0 0 0 -24.530323353952554 64.764175493131916 0 64.764175493131916 -1.1818550177895304 0 0 0 0 -0.084246521004516239 17.397562529807971 0 17.397562529807971 -19.323599639223502 0 0 0 0 26.357102585956454 133.7114212984161 0 133.7114212984161 -52.499585553245197 0 0 0 0 -352.05444788227032 310.84738610389968 0 310.84738610389968 525.26378651786945 0 0 0 0 58.72476356196421 -106.75976431170238 0 -106.75976431170238 137.09300534716749 0 0 0 0 19.601750859485037 89.009518521828795 0 89.009518521828795 -136.88140677877527 0 0 0 0 2.4601435405135845 7.8361770558691255 0 7.8361770558691255 -7.5905870259984045 0 0 0 0 -494.78418456494546 255.96005419158246 0 255.96005419158246 637.62935069606101 0 0 0 0 -4.8062548949847113 2.1372203745175078 0 2.1372203745175078 4.7762510044417965 0 0 0 0 398.61556118241242 120.69400414239499 0 120.69400414239499 37.057401490665143 0 0 0 0 -19.080550376324027 55.389859531604088 0 55.389859531604088 -85.165748350642389 0 0 0 0 -23.293008572325004 43.088213019891711 0 43.088213019891711 -55.190325536872578 0 0 0 0 -24.674753937695641 46.642414856343748 0 46.642414856343748 -79.53007169569355 0 0 0 0 85.810152745939376 273.50195491956401 0 273.50195491956401 -76.040910472693213 0 0 0 0 -116.0877613937846 76.985270662911716 0 76.985270662911716 392.34951750752953 0 0 0 0 -50.888052582489763 92.734643883217359 0 92.734643883217359 -103.64687047092229 0 0 0 0 1.0810723288442929 12.294017011109844 0 12.294017011109844 -15.320878113302491 0 0 0 0 -115.36824492588494 188.0762745915672 0 188.0762745915672 -199.03013452792948 0 0 0 0 -23.493736441885982 45.353377860597234 0 45.353377860597234 -70.682566854050805 0 0 0 0 -44.147708741631504 153.38392731223666 0 153.38392731223666 -392.75363836515317 0 0 0 0 420.19717320434938 497.73729793420353 0 497.73729793420353 -605.35377464586054 0 0 0 0 -19.019956213562605 45.776645782450842 0 45.776645782450842 -74.318096793488451 0 0 0 0 -202.92290874259925 243.02615924934616 0 243.02615924934616 -404.66417983833549 0 0 0 0 348.17878487000689 627.82475347377476 0 627.82475347377476 -452.06897691537597 0 0 0 0 -46.228444244734419 383.73595448691049 0 383.73595448691049 -88.723033694842343 0 0 0 0 -414.13981636861172 434.24481867496615 0 434.24481867496615 -236.31243143381289 0 0 0 0 -405.07720202579549 405.73458601107268 0 405.73458601107268 123.52117081207325 0 0 0 0 -21.875601840896707 412.0907813883714 0 412.0907813883714 -235.1729518711436 0 0 0 0 -150.69248232592145 239.12548982069438 0 239.12548982069438 -267.33056960758313 0 0 0 0 -11.166076545183387 210.35685006589392 0 210.35685006589392 -532.88222562176452 0 0 0 0 -68.033615195548919 179.92083520047345 0 179.92083520047345 -256.06706042334918 0 0 0 0 -113.68357184052002 183.86674042790219 0 183.86674042790219 -254.27679565255494 0 0 0 0 -16.368550639683235 329.00996142355507 0 329.00996142355507 -512.34966339448147 0 0 0 0 -81.837041711001802 374.27566534855941 0 374.27566534855941 -624.61158167367012 0 0 0 0 19.443185401323433 19.785513303400108 0 19.785513303400108 -10.188058402448664 0 0 0 0 -161.87109181024061 188.54604876341 0 188.54604876341 -308.63384109523213 0 0 0 0 -99.86039243826599 223.0117363184836 0 223.0117363184836 -180.34136698014481 0 0 0 0 20.110617701808224 121.85111347295788 0 121.85111347295788 -307.85305020886733 0 0 0 0 -37.357624778525505 55.282483392042984 0 55.282483392042984 -59.616768335996767 0 0 0 0 264.59811800887655 479.63353659242784 0 479.63353659242784 -396.9426901852712 0 0 0 0 -23.304375752515625 178.5146407220509 0 178.5146407220509 -443.91015211090235 0 0 0 0 -22.415207437707338 49.495698957264125 0 49.495698957264125 -62.844443201349861 0 0 0 0 184.47850904100233 157.44082189086112 0 157.44082189086112 -191.32204422269206 0 0 0 0 249.8806815186108 323.63906639926427 0 323.63906639926427 -197.47241084042616 0 0 0 0 171.81599929488948 61.902291364385746 0 61.902291364385746 -291.01508724465384 0 0 0 0 157.97237960405846 80.374875609768424 0 80.374875609768424 -315.10967236595752 0 0 0 0 -0.54449186113717474 5.3763328611382661 0 5.3763328611382661 -8.7280425864094369 0 0 0 0 27.365414442869223 71.315194679483284 0 71.315194679483284 -151.33323266525622 0 0 0 0 -71.578772331136861 5.314278162924893 0 5.314278162924893 7.7285922723822296 0 0 0 0 -965.12260101337415 1102.0711779759113 0 1102.0711779759113 -1022.3194427927483 0 0 0 0 109.32623724924269 232.92660952769802 0 232.92660952769802 -902.73256764369262 0 0 0 0 47.449966750449676 354.33026941402568 0 354.33026941402568 -1097.7276718053181 0 0 0 0 38.299183792339136 201.04681213471486 0 201.04681213471486 -2006.1227502997208 0 0 0 0 96.55479907085828 621.62319140614272 0 621.62319140614272 -336.4191272942262 0 0 0 0 69.733267165867801 748.87064186599673 0 748.87064186599673 -875.96281097881729 0 0 0 0 381.20693592232783 727.33905559741106 0 727.33905559741106 -58.193241973385739 0 0 0 0 508.17991896321155 402.74909309663417 0 402.74909309663417 -727.73365669338091 0 0 0 0 -11.165524677143878 16.246404827906744 0 16.246404827906744 -10.865419878337178 0 0 0 0 252.13252772724081 288.81479726904217 0 288.81479726904217 -590.73090392741142 0 0 0 0 266.44139997789534 312.41086959479435 0 312.41086959479435 -960.96409541174944 0 0 0 0 -4.3821640188543824 -176.13443191847909 0 -176.13443191847909 -507.89251287425577 0 0 0 0 155.34247910136764 64.83794917355408 0 64.83794917355408 -786.8262187108121 0 0 0 0 196.77271325336017 66.823329087632374 0 66.823329087632374 -803.16157203650801 0 0 0 0 280.62400800051182 228.96116500723292 0 228.96116500723292 -686.60748483237694 0 0 0 0 195.13978631202463 96.001429294936543 0 96.001429294936543 -464.10811411494797 0 0 0 0 136.55260894048843 -39.881480608994025 0 -39.881480608994025 -493.65699340833271 0 0 0 0 79.381946716923267 -34.71566266019363 0 -34.71566266019363 -423.07677539270662 0 0 0 0 -264.87063876127831 -596.62367216005077 0 -596.62367216005077 -471.4634064874117 0 0 0 0 -10.385159156565479 8.5808817314105497 0 8.5808817314105497 -7.8509406511230821 0 0 0 0 -142.43020765131132 -531.2252371021259 0 -531.2252371021259 -1609.858241085778 0 0 0 0 -941.71553748757651 1036.8574054926394 0 1036.8574054926394 165.59564600312251 0 0 0 0 -114.19939039788005 -456.89300733834534 0 -456.89300733834534 -1114.7007191364537 0 0 0 0 184.84102049575085 91.966856831490077 0 91.966856831490077 -1370.4838126926479 0 0 0 0 -1208.6118792146808 1097.7439729175476 0 1097.7439729175476 -66.612742707551661 0 0 0 0 -997.86338128886837 1237.9118915926374 0 1237.9118915926374 -347.88250703475933 0 0 0 0 -1141.0233964561212 -257.76927102658374 0 -257.76927102658374 -124.1902173422277 0 0 0 0 -80.353532232313228 -222.10096175484432 0 -222.10096175484432 -1131.1393530734567 0 0 0 0 -63.218815962607664 23.586466785411858 0 23.586466785411858 -252.9434666299494 0 0 0 0 204.69975120165691 -79.898957875862834 0 -79.898957875862834 -340.46893010000531 0 0 0 0 505.87082554923836 364.44785315849731 0 364.44785315849731 -513.53195917303674 0 0 0 0 -738.47413528587913 351.57512473446513 0 351.57512473446513 839.35482576523646 0 0 0 0 -23.724808301833448 15.248789567001992 0 15.248789567001992 -14.075076784912255 0 0 0 0 224.744033283725 494.74219278652163 0 494.74219278652163 304.14105750901217 0 0 0 0 -40.460781775775104 25.972421795584523 0 25.972421795584523 -31.990834913318395 0 0 0 0 -11.344928409189698 11.749878310670098 0 11.749878310670098 -17.059107496673107 0 0 0 0 202.00371750302293 169.54979835290578 0 169.54979835290578 236.4666581676247 0 0 0 0 379.83725798999512 491.20011163783056 0 491.20011163783056 112.4961975524493 0 0 0 0 -244.12703214514113 -478.08149346668506 0 -478.08149346668506 -699.20702557923505 0 0 0 0 -250.2729403675221 -549.57494116317685 0 -549.57494116317685 -890.05979555239901 0 0 0 0 -211.52490931039893 -511.92806748228577 0 -511.92806748228577 -937.69259695761139 0 0 0 0 -297.28161748234379 -515.47169883966853 0 -515.47169883966853 -647.3604324569169 0 0 0 0 -470.58777769111111 -495.70400035933562 0 -495.70400035933562 -750.21891397060972 0 0 0 0 -454.92648909345189 -417.58367389736668 0 -417.58367389736668 -455.95677292242181 0 0 0 0 -250.39489202712502 -484.93127679781173 0 -484.93127679781173 -822.38427555718954 0 0 0 0 5.9704878029515385 22.203312812504009 0 22.203312812504009 0.30827465133188525 0 0 0 0 -9.9374282949703669 18.980548787218439 0 18.980548787218439 -30.904194499508748 0 0 0 0 -184.94071697227628 -76.911103857273702 0 -76.911103857273702 -124.35575294570299 0 0 0 0 -280.2572340689876 -332.10004944568209 0 -332.10004944568209 -500.27939374033303 0 0 0 0 -272.46100720878167 -378.46602277664351 0 -378.46602277664351 -592.10920951860317 0 0 0 0 -176.86649732162095 -423.30096633228413 0 -423.30096633228413 -571.34395319139003 0 0 0 0 -232.12871154838649 -433.93753156584353 0 -433.93753156584353 -710.66942515256233 0 0 0 0 -9.0223909058721805 16.520254296060152 0 16.520254296060152 -24.058887539221502 0 0 0 0 -5.4938993787141044 15.562132469754943 0 15.562132469754943 -33.075703932510805 0 0 0 0 -17.612042943834346 16.319728674238888 0 16.319728674238888 -6.4214196791366192 0 0 0 0 -17.580483866923508 20.969681322510951 0 20.969681322510951 -19.191243002802935 0 0 0 0 206.718213636359 95.708428405694576 0 95.708428405694576 -44.42054947730503 0 0 0 0 228.62651757718413 81.113369238024461 0 81.113369238024461 -43.5965830291359 0 0 0 0 -2.8167643698414544 9.7347172878134849 0 9.7347172878134849 -27.234356901149226 0 0 0 0 318.74382883380167 192.02360743037571 0 192.02360743037571 -222.05328415153781 0 0 0 0 271.6105586118465 122.6971203820176 0 122.6971203820176 -136.28058249598689 0 0 0 0 245.56845621835237 -12.688914781723724 0 -12.688914781723724 -256.47515758377995 0 0 0 0 166.03064836474732 -136.87451585586314 0 -136.87451585586314 -88.088273290009965 0 0 0 0 113.88173234798523 -62.432354930462452 0 -62.432354930462452 16.634293128321588 0 0 0 0 10.898163643658336 24.192781833395202 0 24.192781833395202 -17.53095719293924 0 0 0 0 154.98423224306316 22.148740482771245 0 22.148740482771245 -74.552983227273216 0 0 0 0 122.97513693101064 -10.825700402154325 0 -10.825700402154325 -45.546699448699655 0 0 0 0 60.63226008347101 -21.603385650603741 0 -21.603385650603741 -29.606744895136217 0 0 0 0 1.34301839578157 4.4388844025221061 0 4.4388844025221061 -15.035624492682338 0 0 0 0 -1.5771307622730326 13.572419797029616 0 13.572419797029616 -40.162418996177621 0 0 0 0 -0.84021319297607988 15.972803380105688 0 15.972803380105688 -40.06999422761146 0 0 0 0 140.6714004907335 -35.065179713103134 0 -35.065179713103134 -33.174442632833234 0 0 0 0 159.20081520255917 9.0054280235890474 0 9.0054280235890474 -49.796899957789719 0 0 0 0 7.5149205852030718 -4.5389867811572913 0 -4.5389867811572913 -2.2264628100747359 0 0 0 0 -111.68399044465696 61.752839432025212 0 61.752839432025212 34.367939765135816 0 0 0 0 -88.962319674799801 161.12068024493783 0 161.12068024493783 -176.80863753846643 0 0 0 0 3.4485376077993664 -1.5902597793379982 0 -1.5902597793379982 0.087119343119333337 0 0 0 0 -177.41284144297015 -358.95459143500966 0 -358.95459143500966 430.95986496664409 0 0 0 0 -231.31949301828172 114.80908718799401 0 114.80908718799401 28.163352389006832 0 0 0 0 145.30260998095582 -217.09534072775568 0 -217.09534072775568 -383.02091795757042 0 0 0 0 -177.91419466107436 -406.5846260626422 0 -406.5846260626422 -1106.3868409868519 0 0 0 0 -188.64455703521497 -462.24793965225399 0 -462.24793965225399 -1017.3953637607192 0 0 0 0 -200.10263860691884 -211.15699101422069 0 -211.15699101422069 -688.33537852455629 0 0 0 0 -615.60987578367258 -555.98754486627513 0 -555.98754486627513 -1793.8224939116262 0 0 0 0 -272.06029239346054 -670.27984346782159 0 -670.27984346782159 -1426.848449225683 0 0 0 0 -576.21710729416736 -746.33691238210486 0 -746.33691238210486 -1362.4066191020247 0 0 0 0 -447.77412240414014 -475.69937378531904 0 -475.69937378531904 -1584.8776549668983 0 0 0 0 -275.09556213925651 -364.83592998814078 0 -364.83592998814078 -1199.9463869189203 0 0 0 0 -365.9949608262632 -633.0867347693129 0 -633.0867347693129 -1343.4123294926903 0 0 0 0 -285.80875797945055 -422.50844093877095 0 -422.50844093877095 -1214.7700153304031 0 0 0 0 -206.25859432396646 -567.2321097985332 0 -567.2321097985332 -1441.6104821177396 0 0 0 0 -161.80942012984815 -425.15085053782968 0 -425.15085053782968 -1218.7812096583511 0 0 0 0 -234.18061491738263 -406.87422996072928 0 -406.87422996072928 -938.14134962501703 0 0 0 0 -189.22693056526623 -409.69917604669172 0 -409.69917604669172 -916.92081077884359 0 0 0 0 -120.04320098190874 -268.74254777044553 0 -268.74254777044553 -950.89551750879036 0 0 0 0 -262.63179436012797 -325.7332199776647 0 -325.7332199776647 -1000.876599467083 0 0 0 0 -264.46241853531865 -464.16890934178809 0 -464.16890934178809 -996.98896854890336 0 0 0 0 -159.96419165952511 -243.50170668163628 0 -243.50170668163628 -800.08530923377839 0 0 0 0 -177.83589599699735 -366.17976906515833 0 -366.17976906515833 -990.80200146708012 0 0 0 0 -12.998214767905665 -116.91929244883067 0 -116.91929244883067 -711.57427029828978 0 0 0 0 -52.025525969322189 -349.09174182567949 0 -349.09174182567949 -704.4239611588273 0 0 0 0 -156.48387503581398 -114.70628090012178 0 -114.70628090012178 -537.09125834899169 0 0 0 0 1.1108076650825609 -0.70249624216850748 0 -0.70249624216850748 -2.7393904668084872 0 0 0 0 -144.98633201013581 -152.22306768580165 0 -152.22306768580165 -573.90735398409015 0 0 0 0 -123.41617216837403 -234.27065452208626 0 -234.27065452208626 -790.74144123609585 0 0 0 0 -216.55598650672619 -254.43830267238081 0 -254.43830267238081 -466.46041388189769 0 0 0 0 -110.39592997539876 -370.80582983404747 0 -370.80582983404747 -914.09080304992676 0 0 0 0 -188.80965220290818 -306.69721260192455 0 -306.69721260192455 -624.02630710313679 0 0 0 0 -118.44577558989113 -404.02852432554937 0 -404.02852432554937 -467.3748174723296 0 0 0 0 -146.59789197880673 -352.92336059630907 0 -352.92336059630907 -516.72549941856414 0 0 0 0 -150.77438467634056 -301.38437659710326 0 -301.38437659710326 -717.17659075203119 0 0 0 0 -139.31683252533912 -379.35738774613128 0 -379.35738774613128 -708.08689189467623 0 0 0 0 -177.16951399554455 -306.0012006158795 0 -306.0012006158795 -749.75336858665105 0 0 0 0 -155.34986486810703 -237.29428590618772 0 -237.29428590618772 -763.6321933355066 0 0 0 0 -164.12148746912862 -399.05508834055217 0 -399.05508834055217 -886.36865644226782 0 0 0 0 -115.17536154299705 -382.07437829184346 0 -382.07437829184346 -1101.5980539999146 0 0 0 0 -157.77278602530578 -437.78487418726036 0 -437.78487418726036 -1294.996268479008 0 0 0 0 -178.7307546240736 -505.61303902037616 0 -505.61303902037616 -1085.4215491677132 0 0 0 0 -114.81804211460803 -433.34478998304257 0 -433.34478998304257 -1156.6541659193172 0 0 0 0 -131.40523459021279 -494.29883501445875 0 -494.29883501445875 -1023.6045340705605 0 0 0 0 -105.09123969398479 -435.26848460980909 0 -435.26848460980909 -1014.2024252627743 0 0 0 0 -83.401670580089558 -395.20278448019235 0 -395.20278448019235 -1015.7245268207971 0 0 0 0 -120.76708588299516 -427.20264116518956 0 -427.20264116518956 -872.36182193903369 0 0 0 0 -78.193054297877097 -364.39856549374235 0 -364.39856549374235 -854.64639646961587 0 0 0 0 -103.44487402460436 -407.11522170278477 0 -407.11522170278477 -826.91467401321279 0 0 0 0 -91.747973814181023 -322.01419576372427 0 -322.01419576372427 -783.10276809293282 0 0 0 0 -166.05999598468043 -434.0394038597733 0 -434.0394038597733 -846.66266921901843 0 0 0 0 -132.09780328937632 -462.46492710761959 0 -462.46492710761959 -939.67170578347577 0 0 0 0 -98.952708916004667 -378.27073252776972 0 -378.27073252776972 -890.37081013032002 0 0 0 0 -105.64572720189244 -418.01596449716453 0 -418.01596449716453 -953.12313608237309 0 0 0 0 -143.87522933479613 -493.76980106521296 0 -493.76980106521296 -968.85552642965922 0 0 0 0 -109.15720057297222 -529.33618803875288 0 -529.33618803875288 -1119.8544563670584 0 0 0 0 -226.82677946599688 -567.75054623027609 0 -567.75054623027609 -956.10316046088701 0 0 0 0 -121.76100862275962 -490.06535715528298 0 -490.06535715528298 -1029.4417511355132 0 0 0 0 -199.95335275071375 -508.16592085372395 0 -508.16592085372395 -871.81853427036549 0 0 0 0 -181.31966803455725 -485.79120941444125 0 -485.79120941444125 -906.11267183272867 0 0 0 0 -209.60552471999836 -408.19254203190212 0 -408.19254203190212 -734.9631013184553 0 0 0 0 -229.59590393160033 -363.83748063526582 0 -363.83748063526582 -593.11134052355192 0 0 0 0 -148.81834560922653 -389.69551176215464 0 -389.69551176215464 -806.61434385322355 0 0 0 0 -137.54043940393603 -304.03974796687544 0 -304.03974796687544 -704.08764535903902 0 0 0 0 -153.80466898659597 -333.02679527634609 0 -333.02679527634609 -704.09525417338591 0 0 0 0 -190.11474753725633 -277.98816319604521 0 -277.98816319604521 -626.64873259991873 0 0 0 0 -1.2865727434964356 16.996656219627766 0 16.996656219627766 -33.250580155262469 0 0 0 0 -11.817701270631723 16.965088527542164 0 16.965088527542164 -21.886452225398173 0 0 0 0 -181.23015250889512 -219.25151893560542 0 -219.25151893560542 -563.31899150650133 0 0 0 0 -58.646896106016356 -241.84754946824978 0 -241.84754946824978 -682.67887311583036 0 0 0 0 -88.367459996768957 -316.301570016396 0 -316.301570016396 -672.29450337094022 0 0 0 0 -17.926239332802652 -366.11760839112685 0 -366.11760839112685 -733.0518746660382 0 0 0 0 -110.57183448376418 -335.41985047904018 0 -335.41985047904018 -742.30087997662486 0 0 0 0 65.861209090631746 -351.01265102528851 0 -351.01265102528851 -666.78130083689757 0 0 0 0 -86.286559023057634 -314.45793236786267 0 -314.45793236786267 -659.94551906717243 0 0 0 0 11.582028121392796 -423.41124142365879 0 -423.41124142365879 -560.23104404835613 0 0 0 0 -93.785274264628242 -289.84545434016036 0 -289.84545434016036 -534.29495542217046 0 0 0 0 -5.5893256249692058 -258.51187587500317 0 -258.51187587500317 -678.49625517934328 0 0 0 0 9.0317632678612227 1.9920413327159707 0 1.9920413327159707 -17.19211507579891 0 0 0 0 -15.606116919227134 5.0568555962527171 0 5.0568555962527171 0.51459358488500584 0 0 0 0 3.5590995204775027 15.443621467851699 0 15.443621467851699 -65.117469618242467 0 0 0 0 -8.4338071048168786 11.63290779702038 0 11.63290779702038 -25.33276717820263 0 0 0 0 -3.9622763911031456 10.739737358384257 0 10.739737358384257 -29.709025527567462 0 0 0 0 -2.9541094870583038 7.89657554338919 0 7.89657554338919 -24.102563867869321 0 0 0 0 -4.5358862332647654 12.702699433097056 0 12.702699433097056 -29.835191610734057 0 0 0 0 8.9049959651213157 18.473678842597565 0 18.473678842597565 -43.743032705082442 0 0 0 0 9.6874757397381472 6.7415277444524691 0 6.7415277444524691 -32.530837806414638 0 0 0 0 3.8000183271797141 22.270767259025888 0 22.270767259025888 -46.497220978111727 0 0 0 0 2.5841119149472718 10.886502081111558 0 10.886502081111558 -33.89964849197699 0 0 0 0 -1.7889907423668774 12.15882015383977 0 12.15882015383977 -62.017930372565388 0 0 0 0 -10.252488067853847 23.775850314341369 0 23.775850314341369 -61.077315623842878 0 0 0 0 5.027171474910574 21.215969029086409 0 21.215969029086409 -79.787750840332592 0 0 0 0 -1.0721576802617747 4.3097515157459156 0 4.3097515157459156 -17.171184739494358 0 0 0 0 -19.091062034713104 35.112921445543179 0 35.112921445543179 -48.010683106316719 0 0 0 0 -27.807129121748918 19.193652097019079 0 19.193652097019079 -36.291601799199412 0 0 0 0 2.9433801718842005 16.843348555354169 0 16.843348555354169 -78.104167526515084 0 0 0 0 -4.7156826832258538 4.8112804769647042 0 4.8112804769647042 -30.264143025948215 0 0 0 0 1.9367401575882468 4.5784504487419326 0 4.5784504487419326 -15.80324489204213 0 0 0 0 -10.588547287769259 9.8975837854257378 0 9.8975837854257378 -27.479303019480682 0 0 0 0 -9.0080604260836523 25.183643066525178 0 25.183643066525178 -51.579592639275077 0 0 0 0 -34.401633198924173 63.744915397073783 0 63.744915397073783 -74.162710924822022 0 0 0 0 -28.538413672114757 26.428095625045444 0 26.428095625045444 -65.263834411889547 0 0 0 0 -20.686990805917212 2.0918216237189569 0 2.0918216237189569 -13.095352045816796 0 0 0 0 -12.752814065333951 6.0940099693179945 0 6.0940099693179945 -54.027706983797543 0 0 0 0 -21.894963025417383 -5.9161662379192421 0 -5.9161662379192421 -44.184064499801025 0 0 0 0 -23.389143668466204 6.5718139553864603 0 6.5718139553864603 -34.617516059923219 0 0 0 0 -3.7121481988653002 4.1793772519493189 0 4.1793772519493189 -9.0705729763483305 0 0 0 0 22.989751501265346 8.3649643901917443 0 8.3649643901917443 -140.91150424927764 0 0 0 0 -28.732153828490482 43.148762028824422 0 43.148762028824422 51.241790856758598 0 0 0 0 -4.7636991960698651 5.4934215205939836 0 5.4934215205939836 -48.034671098779654 0 0 0 0 1.5498825913309702 131.44336438459868 0 131.44336438459868 -72.507152161517297 0 0 0 0 45.837645167714072 108.30389655023464 0 108.30389655023464 -117.65734042113036 0 0 0 0 -0.45526958823010588 -0.55415991166159984 0 -0.55415991166159984 -0.039507904806811212 0 0 0 0 -13.479757840195816 -1.4889955133257899 0 -1.4889955133257899 -51.130822702951264 0 0 0 0 -155.57912078223035 -228.52463122845802 0 -228.52463122845802 -681.56978388575953 0 0 0 0 32.987395526741238 168.94250053285214 0 168.94250053285214 -99.396547492995523 0 0 0 0 -0.50977395149675431 -29.955890250261291 0 -29.955890250261291 -428.81035779300146 0 0 0 0 -18.28416960037292 -2.9984173053249208 0 -2.9984173053249208 -4.9418556531129099 0 0 0 0 -14.101854705178994 -0.65564075984366355 0 -0.65564075984366355 -38.783903621719219 0 0 0 0 91.327336108337477 -81.635630844430125 0 -81.635630844430125 -9.1774298523960169 0 0 0 0 -61.655322552099506 -20.232872914752988 0 -20.232872914752988 -29.564311258116504 0 0 0 0 -9.7172530082575896 -13.58526826738337 0 -13.58526826738337 -21.886312328993313 0 0 0 0 123.91745874147455 -322.1220331795048 0 -322.1220331795048 292.24351510303313 0 0 0 0 75.468450321841374 -110.4045622129488 0 -110.4045622129488 171.5906634855055 0 0 0 0 75.297369553776662 -69.947956147210789 0 -69.947956147210789 -75.227331638598116 0 0 0 0 224.30017633750322 -178.9779441345745 0 -178.9779441345745 -58.819006584191811 0 0 0 0 -23.081038920939935 -16.875109600088024 0 -16.875109600088024 -11.334106791886796 0 0 0 0 -45.385847413518604 53.496615071253473 0 53.496615071253473 -407.57465878682706 0 0 0 0 -10.13342516668056 -0.73658821214773695 0 -0.73658821214773695 8.613331081430573 0 0 0 0 -115.80193935722377 -324.10093437231262 0 -324.10093437231262 -944.60485935378529 0 0 0 0 15.002532806821364 175.01780669405889 0 175.01780669405889 -355.57153518302948 0 0 0 0 -41.045925925327538 215.53945347952686 0 215.53945347952686 -323.12112092370808 0 0 0 0 -46.126796257102797 82.50563786947896 0 82.50563786947896 -193.12624331811094 0 0 0 0 24.645610287751424 37.123976128451432 0 37.123976128451432 -98.023408843306242 0 0 0 0 107.36969465725997 87.233015159232309 0 87.233015159232309 -210.66381699309568 0 0 0 0 37.407006222253585 106.89309470889111 0 106.89309470889111 -309.10731392723392 0 0 0 0 -48.729965233957046 56.90049638664641 0 56.90049638664641 -206.34762415994919 0 0 0 0 35.107512629881967 -39.339352286566282 0 -39.339352286566282 -112.90425292341388 0 0 0 0 96.347617341189107 0.32447325607790845 0 0.32447325607790845 -214.84664369077655 0 0 0 0 145.80122448543989 -89.152754655988247 0 -89.152754655988247 -127.76863704330754 0 0 0 0 131.33076367235117 -71.532657794727129 0 -71.532657794727129 -127.49644540947338 0 0 0 0 101.70752774217544 -105.44476214627502 0 -105.44476214627502 -16.618424908694578 0 0 0 0 67.296066394623267 10.837950043118326 0 10.837950043118326 -71.197366403139313 0 0 0 0 1.0613297703360871 -0.28917191350575422 0 -0.28917191350575422 -13.319387118789857 0 0 0 0 126.86596114260101 -57.51628184504807 0 -57.51628184504807 -78.691973415203393 0 0 0 0 21.106762467443332 -33.079046665043279 0 -33.079046665043279 -23.086520043027122 0 0 0 0 125.88277191773659 -75.457369640807428 0 -75.457369640807428 -172.64203027414624 0 0 0 0 21.081398141439422 -11.742228187758883 0 -11.742228187758883 -201.48774415455409 0 0 0 0 3.4544113327632298 -2.3171732951812505 0 -2.3171732951812505 -84.365759062334945 0 0 0 0 75.835688230066808 9.7957577842244064 0 9.7957577842244064 -117.47695117566263 0 0 0 0 65.525760849350263 -32.813809386650973 0 -32.813809386650973 -191.48972744286584 0 0 0 0 7.2116899060836488 -2.9722434716079214 0 -2.9722434716079214 -62.42017028775706 0 0 0 0 15.44781660848821 -5.0306119989836589 0 -5.0306119989836589 -37.877128636842826 0 0 0 0 10.500973471833277 -80.010247440863168 0 -80.010247440863168 -108.53609456296181 0 0 0 0 2.0415258445367925 -8.863399674057689 0 -8.863399674057689 -62.018444346372604 0 0 0 0 3.2329387690341562 -8.1727943808674368 0 -8.1727943808674368 -11.320407371016302 0 0 0 0 -53.091972956848622 -101.19342041772325 0 -101.19342041772325 -76.174875217140652 0 0 0 0 -25.232928591918608 -24.220212323023588 0 -24.220212323023588 -27.239134978386573 0 0 0 0 -2.0960116068202641 6.488469611694061 0 6.488469611694061 -39.565550960284327 0 0 0 0 10.956680300543667 -21.898727471678285 0 -21.898727471678285 -39.524767631315626 0 0 0 0 -4.510242848189904 -0.23724777525040963 0 -0.23724777525040963 -27.69707965457431 0 0 0 0 -12.178724537932794 -3.7214861593893147 0 -3.7214861593893147 -45.628586358878238 0 0 0 0 -4.0445683636025933 -0.2228378830186557 0 -0.2228378830186557 -35.510870078840526 0 0 0 0 9.5676032848714385 2.2300937934778631 0 2.2300937934778631 -25.767406371243851 0 0 0 0 3.6426146574962246 -9.4169860956901061 0 -9.4169860956901061 -59.969628950345353 0 0 0 0 -4.3174508718314115 5.954786423040261 0 5.954786423040261 -37.546871646343732 0 0 0 0 6.8702734436984727 -2.7040696736952157 0 -2.7040696736952157 -43.031722933053231 0 0 0 0 -5.3962031984138221 -10.680663423500988 0 -10.680663423500988 -30.95675845136924 0 0 0 0 -11.669395575881936 -11.626650656762649 0 -11.626650656762649 -33.50013094162523 0 0 0 0 0.13755566976033151 -2.3943521507899277 0 -2.3943521507899277 -37.244274409429636 0 0 0 0 6.139741170784724 2.8449877785571545 0 2.8449877785571545 -73.704470642479691 0 0 0 0 4.7223567821383767 22.411426395578019 0 22.411426395578019 -70.750101404686575 0 0 0 0 -3.9622167257548426 17.187033752930802 0 17.187033752930802 -66.647515875753015 0 0 0 0 9.9009303620332503 35.506791931042244 0 35.506791931042244 -75.915336425776331 0 0 0 0 4.6095142089379806 18.409847283346608 0 18.409847283346608 -79.154417657657177 0 0 0 0 3.8439178305783521 28.410637314210817 0 28.410637314210817 -53.785706364500541 0 0 0 0 -2.4949352679323056 22.533340441033943 0 22.533340441033943 -50.721374115708386 0 0 0 0 10.143748263389014 2.0759705947357645 0 2.0759705947357645 -46.093748399801768 0 0 0 0 32.109359452415447 15.566312053486399 0 15.566312053486399 -90.850773624464637 0 0 0 0 9.3275607920552375 9.9727521237009569 0 9.9727521237009569 -86.749820662786078 0 0 0 0 17.637376955418766 6.2838507933059873 0 6.2838507933059873 -69.02490020502411 0 0 0 0 13.140922978723999 4.3193906710543084 0 4.3193906710543084 -90.97764500339008 0 0 0 0 7.326357739808234 9.4363971733648668 0 9.4363971733648668 -19.24721203083476 0 0 0 0 180.19653833816847 32.497734359163587 0 32.497734359163587 -126.58684140683181 0 0 0 0 5.1144569421150265 -5.9396634256865752 0 -5.9396634256865752 -100.00191771851915 0 0 0 0 18.425712957840915 -12.178647379227186 0 -12.178647379227186 -114.64359515955948 0 0 0 0 129.16981498057294 69.220902810672669 0 69.220902810672669 -144.63402624353694 0 0 0 0 14.174955093115248 -9.8813871474349639 0 -9.8813871474349639 -72.464724278549966 0 0 0 0 -4.7267063129088234 3.0800397272979776 0 3.0800397272979776 -78.571789542564574 0 0 0 0 0.26668352483241975 1.4941642620167244 0 1.4941642620167244 -99.131033633440609 0 0 0 0 22.352665973987314 -18.000310864357743 0 -18.000310864357743 -107.51225094222173 0 0 0 0 33.549904225837963 14.511951992244576 0 14.511951992244576 -107.98495907596225 0 0 0 0 18.723931397389606 74.078338049928789 0 74.078338049928789 -102.76737944982597 0 0 0 0 28.684137068938071 -37.485926696375827 0 -37.485926696375827 -119.45555256829539 0 0 0 0 17.94749786097691 54.999758614187158 0 54.999758614187158 -180.05731013753393 0 0 0 0 -9.0111888243518479 -5.254221944087476 0 -5.254221944087476 -159.01993498198863 0 0 0 0 0.32239739838746573 -4.7110750148767693 0 -4.7110750148767693 -138.85615488226176 0 0 0 0 -26.706236230089416 -67.21831843527616 0 -67.21831843527616 -175.72531753865405 0 0 0 0 -27.881036645947461 66.651505435555009 0 66.651505435555009 -114.40429196523473 0 0 0 0 -14.858535100077304 -13.30403087788568 0 -13.30403087788568 -31.670231193986695 0 0 0 0 5.1442362075764336 0.6926343782062645 0 0.6926343782062645 -24.126296348487216 0 0 0 0 2.5183231862615685 19.947763009152368 0 19.947763009152368 -13.841823386173928 0 0 0 0 64.619327404550859 -18.195240477434709 0 -18.195240477434709 -122.30026509953314 0 0 0 0 30.325047879225167 -79.648648061280255 0 -79.648648061280255 57.42733745505393 0 0 0 0 -97.789845284723697 229.30889882630618 0 229.30889882630618 -42.890276611607987 0 0 0 0 -1.3901389981677283 -8.0931067303048678 0 -8.0931067303048678 -8.3549987241455028 0 0 0 0 -9.1903960744334228 -10.569899428876568 0 -10.569899428876568 -8.9453304543656884 0 0 0 0 106.60094729395496 -104.52718701488629 0 -104.52718701488629 25.230003296252107 0 0 0 0 -138.78698773181895 145.26064873526047 0 145.26064873526047 -208.92100476394626 0 0 0 0 13.59869840211104 93.513009835585763 0 93.513009835585763 -132.86641405022783 0 0 0 0 13.113437810920821 34.68909264747569 0 34.68909264747569 4.6991982106411054 0 0 0 0 18.71094402815288 80.994367239653684 0 80.994367239653684 -170.25852962381759 0 0 0 0 -21.338691351216383 35.659098073774906 0 35.659098073774906 -3.9645035691514803 0 0 0 0 -121.30566950791399 67.02077762251065 0 67.02077762251065 6.6025109694988942 0 0 0 0 -64.417524687565674 42.713977413943212 0 42.713977413943212 -55.226924946895451 0 0 0 0 -50.356482797586068 45.78300817024865 0 45.78300817024865 -49.404258055464652 0 0 0 0 -1.1288351889998012 33.180417289830075 0 33.180417289830075 -61.605146133428207 0 0 0 0 -12.146899041841607 11.956635359227221 0 11.956635359227221 -88.683261236448743 0 0 0 0 85.047011930844747 -99.87023890148339 0 -99.87023890148339 29.316928543985341 0 0 0 0 33.576558166896575 84.599671332700382 0 84.599671332700382 -18.565171208989341 0 0 0 0 36.227300022015697 165.53806091569277 0 165.53806091569277 -40.361595866848802 0 0 0 0 58.309877678948396 100.43650344016714 0 100.43650344016714 -149.44671099587868 0 0 0 0 2.7854256689170143 37.474002812066828 0 37.474002812066828 -55.790197568661824 0 0 0 0 -16.476424358726945 56.348840385227959 0 56.348840385227959 47.919669277602225 0 0 0 0 46.724415934933461 37.073080886568903 0 37.073080886568903 -18.661900951935248 0 0 0 0 90.418435071858767 39.002764894505162 0 39.002764894505162 -164.97205581707055 0 0 0 0 82.070941077318366 42.889948552312489 0 42.889948552312489 -141.53155690119456 0 0 0 0 24.597197454059824 74.010295379441231 0 74.010295379441231 -131.74838304246077 0 0 0 0 18.878187150203303 72.812572499331509 0 72.812572499331509 -105.26152299674379 0 0 0 0 60.268518000690165 50.954751342876989 0 50.954751342876989 -127.89263723541444 0 0 0 0 29.780486614767142 81.710950754066289 0 81.710950754066289 -150.99596610759909 0 0 0 0 120.79681211060233 79.388114336298713 0 79.388114336298713 -147.98663617651255 0 0 0 0 202.25584670135959 -36.244186327878197 0 -36.244186327878197 -102.41121497672793 0 0 0 0 58.983967958003632 53.659602302217536 0 53.659602302217536 -112.81050685073933 0 0 0 0 146.23233872572382 -0.32862642031977884 0 -0.32862642031977884 -169.99809674307107 0 0 0 0 173.94364766134231 47.774916425021729 0 47.774916425021729 -162.09923627557146 0 0 0 0 -0.175771580896253 57.229635345993302 0 57.229635345993302 -170.87703527979465 0 0 0 0 62.955963990323653 31.849858464194767 0 31.849858464194767 -171.00744361606485 0 0 0 0 -17.736524506037313 -5.1769806407282886 0 -5.1769806407282886 -207.66741977207539 0 0 0 0 74.650714686861647 -19.03997664359531 0 -19.03997664359531 -324.02159316359757 0 0 0 0 22.631042193333997 72.34390611337767 0 72.34390611337767 -192.78574606408802 0 0 0 0 15.797647279739977 54.965187845707987 0 54.965187845707987 -156.13027347571551 0 0 0 0 10.345236001890953 64.4401934318239 0 64.4401934318239 -171.30789503194319 0 0 0 0 203.18449035982121 67.012999365389987 0 67.012999365389987 -332.77598226809641 0 0 0 0 39.347174380480283 -106.50877686118474 0 -106.50877686118474 -447.73695192186642 0 0 0 0 17.556070640728649 -160.31774539712023 0 -160.31774539712023 -394.46021989118526 0 0 0 0 -9.2184288599528372 -199.91238250684728 0 -199.91238250684728 -451.41858383374711 0 0 0 0 31.652191426272111 30.831995615371852 0 30.831995615371852 -540.92212073714472 0 0 0 0 -6.5894080788382183 -1.820046857569757 0 -1.820046857569757 2.9412075941801135 0 0 0 0 -148.94831565208005 -150.63393605690362 0 -150.63393605690362 -289.83852689618288 0 0 0 0 -92.306919772559922 14.339329212747998 0 14.339329212747998 -254.12681237720608 0 0 0 0 65.710897248522087 -10.026734962990304 0 -10.026734962990304 -266.81488678662754 0 0 0 0 61.566750027716012 13.32912078629488 0 13.32912078629488 -146.67651286257023 0 0 0 0 153.84314436956174 -7.7357336828754342 0 -7.7357336828754342 -146.15896425876417 0 0 0 0 130.8814803630512 25.470216538080422 0 25.470216538080422 -194.13472916474711 0 0 0 0 137.24620703391156 -63.285305973731738 0 -63.285305973731738 -208.50638676364906 0 0 0 0 73.335733405572682 -81.694162599240371 0 -81.694162599240371 -158.54314751003767 0 0 0 0 124.3789175342763 -232.41574485566889 0 -232.41574485566889 -304.71157255682374 0 0 0 0 -8.1815415455039329 -250.14784884439541 0 -250.14784884439541 -342.21120308081572 0 0 0 0 72.579029756758246 -107.92048294025881 0 -107.92048294025881 -432.39226384828726 0 0 0 0 48.93161494672313 -187.98650920496584 0 -187.98650920496584 -297.44100130652077 0 0 0 0 -113.07827851975344 17.709252433105576 0 17.709252433105576 -155.37937065727237 0 0 0 0 26.80836594651737 -43.127191109411797 0 -43.127191109411797 -129.17319363124625 0 0 0 0 -18.68706490582008 5.3275707980101288 0 5.3275707980101288 -13.5477427258229 0 0 0 0 58.920955307283293 16.889635706749687 0 16.889635706749687 -111.15985817291767 0 0 0 0 42.558948453769489 1.3230717344398855 0 1.3230717344398855 -12.697648413914393 0 0 0 0 80.798071323701151 -31.256115740055975 0 -31.256115740055975 -45.040131466259481 0 0 0 0 38.094812172730599 2.4545713253464783 0 2.4545713253464783 -109.27922955226131 0 0 0 0 -0.77591899412367127 -4.9277367586332446 0 -4.9277367586332446 -6.001988659256412 0 0 0 0 -66.825472632900983 -160.66968701765563 0 -160.66968701765563 39.6000179902112 0 0 0 0 -13.698992209548123 -46.539458608751374 0 -46.539458608751374 -230.27533061068971 0 0 0 0 -53.13749252025309 56.10874166987378 0 56.10874166987378 -223.2035620497918 0 0 0 0 72.006950067296202 10.000543358946743 0 10.000543358946743 -210.48064956726739 0 0 0 0 -8.1281773094997334 14.245050803525373 0 14.245050803525373 -130.97392576382845 0 0 0 0 -3.6834196773677377 -39.40701395108772 0 -39.40701395108772 -163.0126165815891 0 0 0 0 -12.728445172411739 -17.470044964458793 0 -17.470044964458793 -170.81702366304671 0 0 0 0 17.432027769707929 -4.6083248679569806 0 -4.6083248679569806 -228.31555565651797 0 0 0 0 21.395548160639009 -15.695742780822911 0 -15.695742780822911 -283.64495864995115 0 0 0 0 6.5038048738078897 -9.3846308628267217 0 -9.3846308628267217 -106.93522091715417 0 0 0 0 72.016661355321958 91.621063723981933 0 91.621063723981933 -305.75797119596973 0 0 0 0 15.498326599034044 1.176448221107421 0 1.176448221107421 -106.40396182891709 0 0 0 0 9.5521759707220326 -4.5506907813214639 0 -4.5506907813214639 -104.54051978764619 0 0 0 0 9.9763933544243066 -2.3602505928466684 0 -2.3602505928466684 -67.539334981797651 0 0 0 0 3.3206159851094568 0.8275081791051111 0 0.8275081791051111 -89.658777002767437 0 0 0 0 184.72291517398378 23.697555375591037 0 23.697555375591037 -100.12073931036139 0 0 0 0 247.51462361533595 73.449674840674561 0 73.449674840674561 -150.78874483454274 0 0 0 0 14.714983450387013 -1.0427751417618936 0 -1.0427751417618936 -27.748919770992472 0 0 0 0 284.17520968961617 -38.576739113297663 0 -38.576739113297663 -102.83454233204247 0 0 0 0 167.69623007655264 12.907256819424219 0 12.907256819424219 -122.00192153571697 0 0 0 0 143.21840358001816 -32.856447455440502 0 -32.856447455440502 -90.893411311080854 0 0 0 0 207.95986515318782 -9.7882665947690839 0 -9.7882665947690839 -139.58351903016592 0 0 0 0 172.72726102174011 4.0509918038587784 0 4.0509918038587784 -58.771001677039749 0 0 0 0 3.3291905091983129 -16.603817148998949 0 -16.603817148998949 -108.44887632072925 0 0 0 0 124.71696969405599 -194.89166595987263 0 -194.89166595987263 -30.857553324673063 0 0 0 0 -0.69961180196922612 3.7400504940268888 0 3.7400504940268888 -13.657732248291111 0 0 0 0 -10.011354192334068 -154.44239964771532 0 -154.44239964771532 -303.04540224535958 0 0 0 0 43.715006104052463 222.15271368959293 0 222.15271368959293 -448.9317967534007 0 0 0 0 79.801753736470971 -17.477678593095334 0 -17.477678593095334 -152.65757957418828 0 0 0 0 7.8120848592571779 -15.196054113827094 0 -15.196054113827094 -100.58271114975594 0 0 0 0 -124.45963125310664 -122.44848834026197 0 -122.44848834026197 8.295083958102623 0 0 0 0 -92.050950978957189 -62.594242580140417 0 -62.594242580140417 91.147788495414716 0 0 0 0 -153.69746915763835 26.686684640706517 0 26.686684640706517 -99.434957628960547 0 0 0 0 99.251119783312788 -91.612664063864941 0 -91.612664063864941 -341.67614717349352 0 0 0 0 18.771497787955013 78.097489126157598 0 78.097489126157598 -216.44855512790673 0 0 0 0 -96.1119203981998 10.336904079191299 0 10.336904079191299 -60.100049713335466 0 0 0 0 162.82409007736169 37.201496020079503 0 37.201496020079503 -128.05553347343812 0 0 0 0 7.1575988093661032 -9.7547465231400174 0 -9.7547465231400174 -103.51071249661646 0 0 0 0 14.609406335814128 -71.960829606890911 0 -71.960829606890911 -80.642213514569448 0 0 0 0 -69.116476237678398 57.45977929145738 0 57.45977929145738 22.130703640708816 0 0 0 0 1.2748821332872389 -0.55264248738734523 0 -0.55264248738734523 -3.0699295588792097 0 0 0 0 40.37364040609009 137.75016803488506 0 137.75016803488506 -70.915072888659779 0 0 0 0 -7.5160591050907897 -61.957982880710915 0 -61.957982880710915 -171.38877347323432 0 0 0 0 59.192024953974396 -102.24242621253507 0 -102.24242621253507 -560.11042916835868 0 0 0 0 -100.25176337380981 -70.034459280846932 0 -70.034459280846932 -40.289110905585403 0 0 0 0 7.3899042788529261 -12.613902407749197 0 -12.613902407749197 -97.891558001701782 0 0 0 0 68.226554376057265 -25.341823630446925 0 -25.341823630446925 -121.17413210248924 0 0 0 0 -102.7009397570946 -92.838218994409544 0 -92.838218994409544 86.549283882020973 0 0 0 0 27.017085837600007 2.3802210405574442 0 2.3802210405574442 -1.0697880410589278 0 0 0 0 1.4376872139762824 -2.1113966498448384 0 -2.1113966498448384 -5.7458284700182389 0 0 0 0 -2.0690861484206167 -9.1153000577372012 0 -9.1153000577372012 -26.972269269614173 0 0 0 0 -96.287477597865291 -72.755275759984215 0 -72.755275759984215 -117.73229680186341 0 0 0 0 8.5259320591371761 -38.217169038476641 0 -38.217169038476641 -72.200563994148979 0 0 0 0 12.104215775390065 -11.969610876199686 0 -11.969610876199686 -91.346977103407283 0 0 0 0 115.38588735955 74.023293753689359 0 74.023293753689359 -387.34345285674499 0 0 0 0 -177.54260516865997 -157.35194242674697 0 -157.35194242674697 30.103656880251947 0 0 0 0 -18.201939316883454 -67.604257477243664 0 -67.604257477243664 -101.3888153227872 0 0 0 0 2.2820785496392713 9.742879087776501 0 9.742879087776501 -30.208012744529668 0 0 0 0 -30.204944774814521 -52.426526915802242 0 -52.426526915802242 -150.82130368026628 0 0 0 0 -82.576226178960724 -61.460911942402163 0 -61.460911942402163 -152.02559203914461 0 0 0 0 -33.949533222002856 -92.81126271418907 0 -92.81126271418907 -142.34609484222892 0 0 0 0 -100.27664617762025 -118.64864302182104 0 -118.64864302182104 -128.93570838158485 0 0 0 0 -94.936775992178809 -117.58612811166677 0 -117.58612811166677 -149.26153264211098 0 0 0 0 -146.11564531733202 -56.942938257831884 0 -56.942938257831884 -84.217522389830265 0 0 0 0 -62.367777818163802 -35.898469373041735 0 -35.898469373041735 -119.76052983331829 0 0 0 0 3.3166350635419493 9.859439374331858 0 9.859439374331858 -84.889960324650104 0 0 0 0 -4.0135587759268674 -0.51588487457047449 0 -0.51588487457047449 -35.602574977579934 0 0 0 0 92.805142678035736 -4.6949568824538801 0 -4.6949568824538801 -116.30049011704978 0 0 0 0 25.416303330599018 -9.043759425219946 0 -9.043759425219946 -50.145853047738626 0 0 0 0 -55.343476277966147 -7.6224575099113281 0 -7.6224575099113281 -131.46921355451923 0 0 0 0 8.5198857230793976 -13.580314318332849 0 -13.580314318332849 -80.832745268053998 0 0 0 0 -18.038838125794307 -38.924985046036028 0 -38.924985046036028 -79.596772058637455 0 0 0 0 6.2025704564524222 -8.2544621642268012 0 -8.2544621642268012 -62.019527207206693 0 0 0 0 19.216833308323771 -64.338746427127262 0 -64.338746427127262 -84.065730678405089 0 0 0 0 5.0843218407863144 1.0364797726640038 0 1.0364797726640038 -68.516237297561815 0 0 0 0 9.8176577307017396 -42.51747278703624 0 -42.51747278703624 -181.26297144780983 0 0 0 0 -6.3778878653931059 -13.164441487671269 0 -13.164441487671269 -9.560031566582694 0 0 0 0 0.75054671802507755 -1.4632598826172796 0 -1.4632598826172796 -22.512904613324906 0 0 0 0 -16.476688345829189 -58.461388710456049 0 -58.461388710456049 -114.84956202814647 0 0 0 0 -40.168429175751953 -22.439330265828175 0 -22.439330265828175 -116.32608094042007 0 0 0 0 80.322694715697253 -20.941995659348322 0 -20.941995659348322 -202.21398761244882 0 0 0 0 98.192704958293689 3.5078178574922276 0 3.5078178574922276 -222.27854643524915 0 0 0 0 67.414086688438147 9.3367781595279666 0 9.3367781595279666 -217.49737107595138 0 0 0 0 51.417273227638361 -3.2528531024363474 0 -3.2528531024363474 -115.37168814703909 0 0 0 0 28.464447651849301 5.9234742523153656 0 5.9234742523153656 -9.349433547258208 0 0 0 0 41.114272049208012 -35.363697984757891 0 -35.363697984757891 -202.79654802831487 0 0 0 0 40.514336862028813 -38.46383547919686 0 -38.46383547919686 -189.61290466580249 0 0 0 0 16.061845774744128 11.129025914272589 0 11.129025914272589 -9.4794047729246103 0 0 0 0 -52.184903078115894 -1.371254355846304 0 -1.371254355846304 -11.173026537864644 0 0 0 0 3.9606652353222671 -79.019487453027978 0 -79.019487453027978 -200.83124358558962 0 0 0 0 -33.635177689390474 -76.714762695413356 0 -76.714762695413356 -178.47181713829195 0 0 0 0 -2.6917490706941862 -57.590156521462632 0 -57.590156521462632 -194.57422714059066 0 0 0 0 49.524200042536904 -63.014889720030624 0 -63.014889720030624 -223.17193151957326 0 0 0 0 -23.553423817740168 -91.623875197714369 0 -91.623875197714369 -176.07532145705727 0 0 0 0 -14.599574818506426 -141.76443607185138 0 -141.76443607185138 -201.7036546755262 0 0 0 0 -23.608029108321148 -151.51255501450396 0 -151.51255501450396 -179.98144255760417 0 0 0 0 33.051361817924771 -124.83331466867457 0 -124.83331466867457 -195.72891870512831 0 0 0 0 48.217524021303234 -98.759748251246492 0 -98.759748251246492 -233.94792122968647 0 0 0 0 165.6825898122861 -41.311778127488651 0 -41.311778127488651 -263.0446110099474 0 0 0 0 175.21260408419585 -104.61780468341021 0 -104.61780468341021 -243.64078124121443 0 0 0 0 101.94362796516253 -33.324304831683548 0 -33.324304831683548 -251.89721184543305 0 0 0 0 106.14897653730895 -69.401416147684358 0 -69.401416147684358 -222.87632442976974 0 0 0 0 88.658373150434272 -14.650150918509098 0 -14.650150918509098 -236.05454269428446 0 0 0 0 146.16639696023094 17.337984368894467 0 17.337984368894467 -278.75375074351177 0 0 0 0 155.68167880536294 -44.030038250330108 0 -44.030038250330108 -262.64545212242228 0 0 0 0 77.729561899459441 9.453381363684457 0 9.453381363684457 -245.68740315414743 0 0 0 0 -45.942918762806585 36.743622386493371 0 36.743622386493371 -264.10128822806564 0 0 0 0 62.044603969742866 51.558229750047758 0 51.558229750047758 -311.62267294415506 0 0 0 0 -7.0552641027388745 0.30108991871838953 0 0.30108991871838953 -291.9178028701499 0 0 0 0 28.987790357768972 57.783300238512311 0 57.783300238512311 -273.95760484755738 0 0 0 0 67.343112547786404 20.796100484387352 0 20.796100484387352 -252.40216653749667 0 0 0 0 74.040466770177773 31.686646510246646 0 31.686646510246646 -255.15091902448148 0 0 0 0 18.822022144438961 42.802505465777358 0 42.802505465777358 -223.79261430949191 0 0 0 0 61.358729879770181 19.186948433241923 0 19.186948433241923 -211.59465519830701 0 0 0 0 2.4957982443957007 62.267198309473315 0 62.267198309473315 -258.95512347410113 0 0 0 0 10.71691988306975 28.851095720778176 0 28.851095720778176 -207.97042096707446 0 0 0 0 -27.539060217775841 44.127700257897231 0 44.127700257897231 -152.21856320518054 0 0 0 0 -22.318272850023277 41.351272498890467 0 41.351272498890467 -195.2835196403903 0 0 0 0 -9.6647255253847106 59.255171084754693 0 59.255171084754693 -166.49971981152157 0 0 0 0 6.9395933719947607 22.398966372096766 0 22.398966372096766 -184.32470411105896 0 0 0 0 51.117498481262373 -23.177764311498322 0 -23.177764311498322 -157.4994073388516 0 0 0 0 13.620697455982736 -2.8856499979447108 0 -2.8856499979447108 -59.445011239316955 0 0 0 0 14.750929825646381 -26.913728461000574 0 -26.913728461000574 17.214986162543937 0 0 0 0 0.059221564274956506 -3.0416773041600749 0 -3.0416773041600749 4.925524796744071 0 0 0 0 19.369947147730777 -7.1614916006082439 0 -7.1614916006082439 -14.238435079735005 0 0 0 0 -18.798058101812785 41.347502104552404 0 41.347502104552404 -84.208148156008974 0 0 0 0 36.193144794204272 -28.877818865134032 0 -28.877818865134032 -17.988052345688629 0 0 0 0 58.391150043222297 15.519375294821657 0 15.519375294821657 -162.89197301721288 0 0 0 0 99.318672967510793 20.231130578169541 0 20.231130578169541 -130.72007145076805 0 0 0 0 58.671591876056482 43.758379946033529 0 43.758379946033529 -133.24455172553462 0 0 0 0 9.4335876794393698 31.126141833075053 0 31.126141833075053 -169.83998666369007 0 0 0 0 56.657250437529001 12.64526167553413 0 12.64526167553413 -162.72985388442612 0 0 0 0 88.422747111977515 -3.4571542670410054 0 -3.4571542670410054 -69.142495722935109 0 0 0 0 22.749373500588185 5.7126524664988487 0 5.7126524664988487 -54.203047557684705 0 0 0 0 15.736693183545821 -2.7081640990841542 0 -2.7081640990841542 -51.752656328422077 0 0 0 0 61.908736167739953 15.885692959122753 0 15.885692959122753 -28.115550815367293 0 0 0 0 26.744716085935131 -14.760880838353117 0 -14.760880838353117 -33.375681030785572 0 0 0 0 44.379772552871145 -6.9199194288121362 0 -6.9199194288121362 -48.842692053663995 0 0 0 0 10.971630173995436 -55.923561593939667 0 -55.923561593939667 -77.53577761080669 0 0 0 0 21.791412926062343 -13.163935566021083 0 -13.163935566021083 -108.94732436114478 0 0 0 0 -44.97242177809494 44.241118246118276 0 44.241118246118276 -170.22010385063186 0 0 0 0 216.84705821682246 137.8825915656771 0 137.8825915656771 -194.69582502245248 0 0 0 0 -12.306934843891213 -4.4025983863612055 0 -4.4025983863612055 -104.01636424145909 0 0 0 0 16.13664531385939 91.265491070800408 0 91.265491070800408 -126.28668749139615 0 0 0 0 71.448336097247193 2.1812814786426316 0 2.1812814786426316 15.91167287163762 0 0 0 0 -48.056430208652728 199.97241155956681 0 199.97241155956681 -174.76802333003161 0 0 0 0 -111.62209021548074 -80.654161558151259 0 -80.654161558151259 -326.95695659068406 0 0 0 0 -32.734385642052075 -123.1897986991371 0 -123.1897986991371 -315.97750136234436 0 0 0 0 13.029239904394935 -11.964387309785419 0 -11.964387309785419 -112.42721673449429 0 0 0 0 199.81636811149019 -158.98079739014929 0 -158.98079739014929 -809.12559390223805 0 0 0 0 -70.881266001129916 -2.3103186513071705 0 -2.3103186513071705 -259.64381945884088 0 0 0 0 -5.7930186581737715 -8.8944385854313346 0 -8.8944385854313346 -25.040439720764397 0 0 0 0 34.698604798539463 515.80399168813096 0 515.80399168813096 380.33374738107523 0 0 0 0 244.03383956725645 113.38379171902581 0 113.38379171902581 167.31387395704223 0 0 0 0 126.11278762686743 303.40398388043741 0 303.40398388043741 -75.879232439355746 0 0 0 0 -9.5567594137260485 16.980696437949252 0 16.980696437949252 -28.00195909477948 0 0 0 0 260.45116390249814 465.96982885576017 0 465.96982885576017 51.337226930824272 0 0 0 0 90.259182115534713 133.76397643043947 0 133.76397643043947 180.83455632593359 0 0 0 0 -89.737029994882022 -233.95609095796399 0 -233.95609095796399 -544.41551342403613 0 0 0 0 -123.36822105834563 -225.32406121686904 0 -225.32406121686904 -320.85373765243264 0 0 0 0 4.1510018466512033 18.619821506983861 0 18.619821506983861 -60.502002576802639 0 0 0 0 364.19302251555973 89.342365820326904 0 89.342365820326904 -210.69280691032873 0 0 0 0 310.23973956068164 179.33993309610037 0 179.33993309610037 -115.22145746438036 0 0 0 0 56.235866501735472 -16.31231670201305 0 -16.31231670201305 -224.93910568448609 0 0 0 0 180.01954353613382 -2.9695761111952379 0 -2.9695761111952379 -172.82130773544077 0 0 0 0 104.67269913551263 -153.12461584778976 0 -153.12461584778976 -295.15548158940828 0 0 0 0 83.711501970409245 239.61745728242568 0 239.61745728242568 -120.80271446286133 0 0 0 0 307.3169806358319 -28.411567221051882 0 -28.411567221051882 -143.10300210507921 0 0 0 0 305.3268727661507 57.656491114055825 0 57.656491114055825 -446.29234969439949 0 0 0 0 147.74201835353597 41.368720252328785 0 41.368720252328785 -490.40047362023324 0 0 0 0 115.04226954545811 -10.845819958697575 0 -10.845819958697575 -450.61671364643553 0 0 0 0 111.84777626922369 -55.477626804949978 0 -55.477626804949978 -712.0814888808236 0 0 0 0 160.63308353693901 0.12294937391015992 0 0.12294937391015992 -822.00771137376432 0 0 0 0 130.23932876464823 38.215666526084533 0 38.215666526084533 -861.48723632153269 0 0 0 0 25.988291041085176 59.263255717727588 0 59.263255717727588 -117.19742397582922 0 0 0 0 10.116982745153798 12.367274390112375 0 12.367274390112375 -112.77465825958281 0 0 0 0 118.41226724069566 -18.389840955735053 0 -18.389840955735053 -214.12425812074798 0 0 0 0 115.35788041517117 2.1780943176290748 0 2.1780943176290748 -336.23953269193589 0 0 0 0 56.833863868756453 84.79381947840011 0 84.79381947840011 -120.37484423624119 0 0 0 0 3.16247627120174 91.921256351437478 0 91.921256351437478 -125.83325043192235 0 0 0 0 46.87930646750101 180.13135194532879 0 180.13135194532879 -241.91287632611056 0 0 0 0 40.741211343038955 7.5059868217282002 0 7.5059868217282002 -21.678205498575046 0 0 0 0 -13.187873113165551 144.06053505477394 0 144.06053505477394 -209.53359247073968 0 0 0 0 13.512171222035249 21.923633546553901 0 21.923633546553901 -59.77471943096316 0 0 0 0 -3.5986732636301895 12.013758187904386 0 12.013758187904386 -25.015118815383175 0 0 0 0 -173.75105945127871 150.40914188691568 0 150.40914188691568 -47.744592817194643 0 0 0 0 -45.921634691182589 -67.967112054752533 0 -67.967112054752533 9.3202458684245357 0 0 0 0 -53.51880407774388 92.432847300090771 0 92.432847300090771 -100.73883891080914 0 0 0 0 -249.95645762211279 -4.9256654213058937 0 -4.9256654213058937 61.685056100250222 0 0 0 0 -17.216877456259681 84.67277229737374 0 84.67277229737374 -109.6151987470621 0 0 0 0 15.79786151011983 25.735748815234999 0 25.735748815234999 -41.154706006766034 0 0 0 0 42.012267519661691 -9.8037929419442662 0 -9.8037929419442662 -186.37465619625436 0 0 0 0 30.2477208613127 20.977060292239912 0 20.977060292239912 -39.837329393209075 0 0 0 0 68.615809529313992 14.331048871714302 0 14.331048871714302 -71.778088118589949 0 0 0 0 52.491889733863779 21.014329300112841 0 21.014329300112841 -101.13202670302145 0 0 0 0 29.022397248707456 24.27648317334766 0 24.27648317334766 -87.96479052017105 0 0 0 0 74.405161131289788 31.508601298071881 0 31.508601298071881 -11.04014946686948 0 0 0 0 81.118224325633491 18.441441997876609 0 18.441441997876609 -4.2578693667019252 0 0 0 0 44.13023925534489 13.07066767371262 0 13.07066767371262 -36.631721763249871 0 0 0 0 31.979402024457968 47.762026572985121 0 47.762026572985121 -47.700821582853862 0 0 0 0 66.185734625425539 -16.915699993936869 0 -16.915699993936869 -37.31651389153194 0 0 0 0 43.422627548738092 20.670912869030872 0 20.670912869030872 -64.886526902540936 0 0 0 0 24.87936108365102 1.9513338458582439 0 1.9513338458582439 -82.358730312815169 0 0 0 0 21.259288216388086 -8.4997536407990992 0 -8.4997536407990992 -25.667019243803225 0 0 0 0 13.884687976809801 9.2442224019359855 0 9.2442224019359855 -68.338461451574403 0 0 0 0 0.41708416390314085 9.2099353614946295 0 9.2099353614946295 2.633421734616384 0 0 0 0 37.956986753619276 70.262334656050371 0 70.262334656050371 -20.903289229645452 0 0 0 0 -64.992757891159272 -50.195892517280299 0 -50.195892517280299 377.81190041726222 0 0 0 0 -6.0381731180241331 38.834276301273349 0 38.834276301273349 -102.29755698757072 0 0 0 0 14.297469879471464 25.499958477186738 0 25.499958477186738 -104.75938357481209 0 0 0 0 53.561980510424291 -8.5728609690575013 0 -8.5728609690575013 -90.968934003911272 0 0 0 0 -35.97531460437267 -110.57844157529951 0 -110.57844157529951 -91.063448892833549 0 0 0 0 14.706667318480974 -2.8386638612460846 0 -2.8386638612460846 -2.8097455158180971 0 0 0 0 26.896139402586414 -34.834595176303083 0 -34.834595176303083 -0.08245737751985871 0 0 0 0 75.896061130727247 -0.83651957089911377 0 -0.83651957089911377 -21.861055044341114 0 0 0 0 92.886463876891867 -53.340342519790738 0 -53.340342519790738 -168.71533342644216 0 0 0 0 209.38673809599459 -28.745036752308806 0 -28.745036752308806 -166.5312605979434 0 0 0 0 165.13269317449726 8.766457200230434 0 8.766457200230434 -150.8199477662447 0 0 0 0 46.871566037563753 28.831887041828395 0 28.831887041828395 -71.418439270394856 0 0 0 0 90.724601688840266 27.451658898819005 0 27.451658898819005 -153.86973897923235 0 0 0 0 210.72791966664863 33.179260008803112 0 33.179260008803112 -160.21761607606277 0 0 0 0 69.738953491934808 64.539345315475657 0 64.539345315475657 -60.181135689908388 0 0 0 0 70.27468984182542 -1.9729894382981001 0 -1.9729894382981001 -59.550998842401896 0 0 0 0 59.03627634212237 19.572258522765697 0 19.572258522765697 -92.186650271220458 0 0 0 0 44.036840861749972 34.775015248212803 0 34.775015248212803 -82.112944251516467 0 0 0 0 16.792774028785061 30.340194003103534 0 30.340194003103534 -46.045252779360453 0 0 0 0 45.579445659199564 40.716297924734221 0 40.716297924734221 -71.011145124525314 0 0 0 0 44.116538472347138 27.466202836186177 0 27.466202836186177 -64.030628574904625 0 0 0 0 62.698668111426933 10.970564928380165 0 10.970564928380165 -37.438126186702874 0 0 0 0 57.089090047888021 15.263451421681339 0 15.263451421681339 -54.648207937550978 0 0 0 0 32.200719527403812 24.199391263556894 0 24.199391263556894 -50.925463393834498 0 0 0 0 123.43096216248159 -5.0484566894292584 0 -5.0484566894292584 -55.880165746435523 0 0 0 0 65.790218585167167 30.975836523662565 0 30.975836523662565 -70.491613980317197 0 0 0 0 88.166513119349474 15.735460410262476 0 15.735460410262476 -63.691131630649579 0 0 0 0 68.417121035457967 12.996959675852963 0 12.996959675852963 -57.457489540465758 0 0 0 0 75.781968479172065 41.665121918683326 0 41.665121918683326 -66.830285323230783 0 0 0 0 66.977854952863709 14.311815073552225 0 14.311815073552225 -54.812052835748602 0 0 0 0 17.207842292800031 22.844783049406132 0 22.844783049406132 -56.525304094917345 0 0 0 0 132.73224394169665 -7.3475378650900893 0 -7.3475378650900893 -86.463473455205531 0 0 0 0 44.962951894791331 -0.07021480062030605 0 -0.07021480062030605 -46.834283853382658 0 0 0 0 52.230000167088292 60.917298058817323 0 60.917298058817323 -73.952001726342132 0 0 0 0 74.994252002146823 31.097705249910177 0 31.097705249910177 -92.639539094870997 0 0 0 0 38.86203338237101 37.52695053649586 0 37.52695053649586 -112.98209064261027 0 0 0 0 72.966875471454841 2.715219592192966 0 2.715219592192966 -76.940713239956494 0 0 0 0 61.228067426329289 16.672030854601644 0 16.672030854601644 -59.290607521264292 0 0 0 0 20.36323281323007 24.490900906233634 0 24.490900906233634 -64.531604603449594 0 0 0 0 22.506664726286544 26.441180230176542 0 26.441180230176542 -175.93950534211035 0 0 0 0 -8.2545525763707701 45.934866609495657 0 45.934866609495657 -173.26477443608019 0 0 0 0 -22.100784724809728 31.654011779801976 0 31.654011779801976 -141.34164216910722 0 0 0 0 -20.722570405967417 47.016593314856436 0 47.016593314856436 -158.93972553101048 0 0 0 0 -23.295985127133918 11.170843429406432 0 11.170843429406432 -180.50237366175861 0 0 0 0 101.87311028111435 -0.35533585669327294 0 -0.35533585669327294 -227.75480616667483 0 0 0 0 208.68960744738433 952.38024283552613 0 952.38024283552613 -507.02480007190024 0 0 0 0 -20.1492021961094 -85.78499204257605 0 -85.78499204257605 -286.38220401512081 0 0 0 0 -138.38875779011869 -13.10173648723503 0 -13.10173648723503 -126.53217541563208 0 0 0 0 -70.430717105715303 10.507400644637528 0 10.507400644637528 -150.59096408096593 0 0 0 0 -31.865582439175341 57.000438496812421 0 57.000438496812421 -139.97593925080582 0 0 0 0 -107.17815743807296 36.496773371538438 0 36.496773371538438 -112.46935644846235 0 0 0 0 -39.66367091840948 56.531569453298289 0 56.531569453298289 -109.64756617827516 0 0 0 0 1.0055226938857231 45.467079868722067 0 45.467079868722067 -130.09063417134894 0 0 0 0 -19.990933398177731 29.314058020096127 0 29.314058020096127 -98.028174940758618 0 0 0 0 -26.558082332834601 46.185657154423097 0 46.185657154423097 -121.37476072149002 0 0 0 0 -5.8039406324969605 61.574867279610771 0 61.574867279610771 -137.51938686595531 0 0 0 0 -24.197144792909967 60.87011369112588 0 60.87011369112588 -129.39496087819862 0 0 0 0 -9.7885354732134147 70.555232043374417 0 70.555232043374417 -150.04623374381481 0 0 0 0 -11.498517916479614 68.923056203158922 0 68.923056203158922 -107.05453992132971 0 0 0 0 2.1666723824200744 42.99334608252957 0 42.99334608252957 -114.88252802578791 0 0 0 0 1.0220937062951236 38.102998908168175 0 38.102998908168175 -83.658513461312396 0 0 0 0 24.984888118815434 53.398979215651707 0 53.398979215651707 -117.23923249465952 0 0 0 0 29.989120785830892 17.634439724328331 0 17.634439724328331 -73.372806372799459 0 0 0 0 58.803276136658496 50.74635229207388 0 50.74635229207388 -102.92016540270561 0 0 0 0 -0.39001917962741572 91.226376851376699 0 91.226376851376699 -111.09125363764178 0 0 0 0 -2.7084604323608801 54.928465822304133 0 54.928465822304133 -84.363670795934013 0 0 0 0 -2.0804987828232697 80.126721491129501 0 80.126721491129501 -141.03673446390167 0 0 0 0 -6.1044618596206419 117.45434248413585 0 117.45434248413585 -194.09861950357299 0 0 0 0 -24.327613865039893 102.63617077561139 0 102.63617077561139 -133.58184359726147 0 0 0 0 11.711774657418573 68.638571149677773 0 68.638571149677773 -129.16066968977975 0 0 0 0 -7.2699515878266538 88.165195727315222 0 88.165195727315222 -128.79154269688297 0 0 0 0 -5.1582127768633654 80.882191331238573 0 80.882191331238573 -145.6559950578212 0 0 0 0 -1.8709096515813144 84.648969353820576 0 84.648969353820576 -159.16742320979392 0 0 0 0 -1.8496264590794453 99.503110359637503 0 99.503110359637503 -160.1449531589833 0 0 0 0 10.112657647914602 92.655312385093566 0 92.655312385093566 -181.88018100484624 0 0 0 0 0.66915849467477528 108.73954496797705 0 108.73954496797705 -204.12728464163956 0 0 0 0 -2.9837040663514927 81.793315643337337 0 81.793315643337337 -182.43275774667563 0 0 0 0 16.449441731107072 67.591596485879563 0 67.591596485879563 -173.63070068698175 0 0 0 0 19.505876267601707 111.54655738526435 0 111.54655738526435 -243.48517093434202 0 0 0 0 10.376323489967035 110.33959400463209 0 110.33959400463209 -204.01940241268539 0 0 0 0 18.850299272469783 111.78474224770525 0 111.78474224770525 -231.60630940811097 0 0 0 0 15.870201874349732 115.25747806651088 0 115.25747806651088 -229.14279663326306 0 0 0 0 -0.84471204668807331 114.96982723200199 0 114.96982723200199 -194.90640248443833 0 0 0 0 2.4820910249545705 125.73438390949013 0 125.73438390949013 -225.73160961163376 0 0 0 0 17.931337634989177 93.294581383157492 0 93.294581383157492 -291.6020587771709 0 0 0 0 18.292098371341126 99.324598423183488 0 99.324598423183488 -224.079358633433 0 0 0 0 -9.2788346686320438 110.21151734783143 0 110.21151734783143 -301.62974742519873 0 0 0 0 10.39201276525273 101.73187601558675 0 101.73187601558675 -524.9808562275357 0 0 0 0 -28.230539562516242 110.21971963990813 0 110.21971963990813 -208.80074917745515 0 0 0 0 -23.401963974574755 156.32750498495443 0 156.32750498495443 -250.03869064324317 0 0 0 0 -48.96391573055007 133.64853482079343 0 133.64853482079343 -162.37313323273156 0 0 0 0 -12.564966451929649 92.40613466456125 0 92.40613466456125 -179.79516392030928 0 0 0 0 -78.24679175431811 137.23197327087655 0 137.23197327087655 -176.9280417082482 0 0 0 0 -23.797655616392149 159.53408189022593 0 159.53408189022593 -317.63209145728797 0 0 0 0 48.39467097146553 274.01033716446545 0 274.01033716446545 -741.75085890064292 0 0 0 0 -35.074804866846534 167.74399216217353 0 167.74399216217353 -316.29069605257246 0 0 0 0 -3.7585792708939181 1.0075367124036632 0 1.0075367124036632 -0.96472711448063464 0 0 0 0 95.491497122086002 -28.706348573728974 0 -28.706348573728974 -794.69886601973849 0 0 0 0 -40.878200335326255 87.915935149838333 0 87.915935149838333 112.43034003168577 0 0 0 0 85.036811191705056 -67.989181596225535 0 -67.989181596225535 91.829376124953342 0 0 0 0 -35.884611798886908 -77.445422544068606 0 -77.445422544068606 -331.35693816762068 0 0 0 0 -23.253111206620815 -99.240076192931156 0 -99.240076192931156 -463.53895840894256 0 0 0 0 10.885017976033851 56.780060402770687 0 56.780060402770687 -154.74918958868147 0 0 0 0 -27.232497208293353 54.650691412780361 0 54.650691412780361 -92.526507985826356 0 0 0 0 -5.6399458738495269 10.050468672633237 0 10.050468672633237 -0.97064629426229487 0 0 0 0 -20.906014974214486 -5.4814450582125573 0 -5.4814450582125573 -124.55357402282789 0 0 0 0 15.206540518483962 24.478992217203995 0 24.478992217203995 -245.79549891639181 0 0 0 0 35.771956896325946 10.130635614486149 0 10.130635614486149 -48.855255890141478 0 0 0 0 114.11362364625529 45.2957071922674 0 45.2957071922674 -275.07150758029684 0 0 0 0 -74.434987763412209 174.29191141039701 0 174.29191141039701 221.25816874893644 0 0 0 0 46.189477836727747 -88.229429511769013 0 -88.229429511769013 -425.45732855693404 0 0 0 0 25.911073830487574 14.166226713708681 0 14.166226713708681 -118.59305300187739 0 0 0 0 142.17675297268943 -239.52984647993253 0 -239.52984647993253 -323.37599358014268 0 0 0 0 7.4648401244492959 5.7066052041416402 0 5.7066052041416402 -12.494256435951673 0 0 0 0 199.21697310925447 117.14503933324886 0 117.14503933324886 -256.95150843457668 0 0 0 0 -62.263231820426881 -186.04815253427296 0 -186.04815253427296 -263.76005974936743 0 0 0 0 10.957676299369751 6.0064810927636572 0 6.0064810927636572 -27.024626151889571 0 0 0 0 27.157327393899322 93.596763284693225 0 93.596763284693225 -27.137681235793934 0 0 0 0 21.681295048867469 129.50295415565779 0 129.50295415565779 -170.90834355082188 0 0 0 0 -25.829054457062739 88.120015043052263 0 88.120015043052263 -90.753401946822123 0 0 0 0 -399.1246310233837 -59.293546354954742 0 -59.293546354954742 -276.38073349776732 0 0 0 0 -15.907651689863997 75.851752528953512 0 75.851752528953512 -233.14162095620122 0 0 0 0 -137.94638552826655 461.60565956406208 0 461.60565956406208 -292.21007326765084 0 0 0 0 -30.316166825446999 -142.79406555369496 0 -142.79406555369496 -302.01973948565137 0 0 0 0 -27.18036820846946 50.968400846470438 0 50.968400846470438 -48.836793317934109 0 0 0 0 -142.7374062599265 292.23267542454414 0 292.23267542454414 -398.44770283770049 0 0 0 0 -108.0985719939963 127.29249038525586 0 127.29249038525586 -75.939225823123252 0 0 0 0 -19.278880115693028 70.641343805361885 0 70.641343805361885 -174.46140763827134 0 0 0 0 -3.0054545469459306 13.26541573785191 0 13.26541573785191 -24.57224180801591 0 0 0 0 798.57196794230913 -136.46131266150951 0 -136.46131266150951 -884.98087483883864 0 0 0 0 133.82608263978182 462.57507312707094 0 462.57507312707094 596.78405497791027 0 0 0 0 63.625463662105176 -40.707567983596164 0 -40.707567983596164 -527.94385299577152 0 0 0 0 -45.201612655007921 341.86966381054026 0 341.86966381054026 -404.17667029894801 0 0 0 0 135.62992962126009 774.08147377805471 0 774.08147377805471 295.40749261770543 0 0 0 0 184.86955725390908 185.49812529029077 0 185.49812529029077 21.761390497660614 0 0 0 0 -125.23098955101705 26.679494723543257 0 26.679494723543257 -36.109488521709864 0 0 0 0 5.7461979965541374 -1.4575776111761414 0 -1.4575776111761414 -48.62762114741124 0 0 0 0 283.49276552940501 47.486555439441872 0 47.486555439441872 -121.62022513453121 0 0 0 0 5.3116386589339655 -1.2890128590745462 0 -1.2890128590745462 -7.6751554631467513 0 0 0 0 175.006272189421 -21.354217941414845 0 -21.354217941414845 -57.579252186624217 0 0 0 0 126.9618489067725 33.632533773445175 0 33.632533773445175 -51.43778446946817 0 0 0 0 65.487546885386109 3.437794313467748 0 3.437794313467748 -21.319234000926372 0 0 0 0 -37.16765617254714 6.5298634341343131 0 6.5298634341343131 -35.325704783508627 0 0 0 0 -11.393424018919177 -7.6018578582406917 0 -7.6018578582406917 -82.940549546852708 0 0 0 0 24.637199361917737 57.212186155007657 0 57.212186155007657 -37.916221979336115 0 0 0 0 155.12706298054582 71.602251335796154 0 71.602251335796154 -66.817507353873225 0 0 0 0 15.668962720812488 -12.638894510643695 0 -12.638894510643695 -157.8635072836114 0 0 0 0 -19.861396127686021 16.086817624280229 0 16.086817624280229 -48.817490160651687 0 0 0 0 -114.99672899314464 -331.07913637962338 0 -331.07913637962338 -528.84896888584353 0 0 0 0 -168.29109262800193 -131.02871145537938 0 -131.02871145537938 124.50376667347882 0 0 0 0 -89.281579923310346 -184.17432550969534 0 -184.17432550969534 -144.20622653668397 0 0 0 0 -91.975368415303819 -119.14675391007404 0 -119.14675391007404 -220.66575053840279 0 0 0 0 -126.50032211476537 -107.10258728487588 0 -107.10258728487588 -224.7652609877041 0 0 0 0 -69.013199700209952 -120.72395495151795 0 -120.72395495151795 -540.57549280425337 0 0 0 0 -0.32773046932379657 -137.53205687099535 0 -137.53205687099535 -324.36189849500443 0 0 0 0 5.4258950804760389 -87.867190333498002 0 -87.867190333498002 -343.13157573942863 0 0 0 0 -4.32539800577797 10.152445221535345 0 10.152445221535345 -103.47042971873452 0 0 0 0 -47.702361502182612 -17.744329004905012 0 -17.744329004905012 -83.09323872936875 0 0 0 0 5.1561906298447866 11.414905479436129 0 11.414905479436129 -128.40910271119355 0 0 0 0 31.002456578459714 -20.939973407027082 0 -20.939973407027082 -87.967198074606131 0 0 0 0 -15.339849208350643 39.225773611460681 0 39.225773611460681 12.672619280838262 0 0 0 0 29.541406543823541 -33.526412328452352 0 -33.526412328452352 -86.610917990849885 0 0 0 0 17.615187974453875 5.052571742417058 0 5.052571742417058 -70.108813011756865 0 0 0 0 41.575240428723191 42.698122584515659 0 42.698122584515659 -32.683290229455451 0 0 0 0 -1.2219867502070123 3.24545568735779 0 3.24545568735779 -4.5262885996022817 0 0 0 0 27.745986700393271 -9.9802541224389145 0 -9.9802541224389145 -26.202592095753928 0 0 0 0 42.843416231131414 -26.825638157315552 0 -26.825638157315552 -42.551511819576262 0 0 0 0 28.231893866295351 15.010565162410401 0 15.010565162410401 -19.204206283802101 0 0 0 0 19.059968151857902 -14.003332138268888 0 -14.003332138268888 -79.09821513098359 0 0 0 0 13.412136436507353 -12.458782392208377 0 -12.458782392208377 -53.500744617347664 0 0 0 0 21.061743170690534 6.6126419283264113 0 6.6126419283264113 -48.665793713771563 0 0 0 0 71.764507655138004 11.630147460615262 0 11.630147460615262 -59.339886861038394 0 0 0 0 30.553655458874346 8.5000395735705752 0 8.5000395735705752 -45.556064622505801 0 0 0 0 72.755080429729787 -2.5808419458348908 0 -2.5808419458348908 -48.817958385501697 0 0 0 0 127.54475464822281 9.6013823476914695 0 9.6013823476914695 -46.110077796037785 0 0 0 0 13.900930325814477 14.538192148083795 0 14.538192148083795 -57.440449602515642 0 0 0 0 128.49868614498519 13.33807366532892 0 13.33807366532892 -31.634203272435116 0 0 0 0 14.65550548010938 -3.3122960974548903 0 -3.3122960974548903 -38.540616461861731 0 0 0 0 65.336394710211607 16.37784062351966 0 16.37784062351966 -21.436336945233052 0 0 0 0 33.389691615589811 26.062003838939731 0 26.062003838939731 -28.398972110262463 0 0 0 0 37.645754492360034 -1.2529853584444481 0 -1.2529853584444481 -56.582288767458564 0 0 0 0 51.324935272865645 -17.466072702117565 0 -17.466072702117565 -104.74532410520197 0 0 0 0 49.41365104390934 -14.148234041953401 0 -14.148234041953401 -71.406115879330173 0 0 0 0 55.68264972367615 52.17441269551955 0 52.17441269551955 -56.680845222967037 0 0 0 0 35.206037228091468 5.7924162877385967 0 5.7924162877385967 -27.613344872589174 0 0 0 0 48.166504241919029 49.810794155375334 0 49.810794155375334 -37.362028616440512 0 0 0 0 -24.685214320931088 -39.640102216973901 0 -39.640102216973901 -75.881739300617483 0 0 0 0 2.0034891428469872 4.061050474752335 0 4.061050474752335 -11.912339035457535 0 0 0 0 -28.119397813792496 -45.074503606461803 0 -45.074503606461803 -72.406953759113094 0 0 0 0 -24.164432885884061 -36.764774429713725 0 -36.764774429713725 -67.367236908903578 0 0 0 0 -27.573662634112665 -42.528773642305168 0 -42.528773642305168 -65.876033264674334 0 0 0 0 0.81165096611313847 -0.2665802440249081 0 -0.2665802440249081 -6.4425758216725058 0 0 0 0 -0.046693940424317945 -16.418234218457656 0 -16.418234218457656 -41.934564720118942 0 0 0 0 -269.95788570861311 -657.31211166198045 0 -657.31211166198045 -1183.0841942441475 0 0 0 0 -120.18157584862149 -417.25303704616817 0 -417.25303704616817 -1151.7964801966191 0 0 0 0 39.551041388163256 -392.28018088849785 0 -392.28018088849785 -1116.2079058375602 0 0 0 0 25.39104811292146 -421.02832756330463 0 -421.02832756330463 -1118.4899759973341 0 0 0 0 -24.892969288375355 -11.759635253751185 0 -11.759635253751185 -868.01410516422038 0 0 0 0 -197.90600647628932 -473.85123456938891 0 -473.85123456938891 -719.85161250294186 0 0 0 0 -42.428690285811612 -59.970616581549592 0 -59.970616581549592 -30.249742293448676 0 0 0 0 -7.8379344820754655 -6.8330642427032444 0 -6.8330642427032444 -33.51248475284001 0 0 0 0 -68.020502820789943 -106.94099570249091 0 -106.94099570249091 -582.24546703470332 0 0 0 0 -46.778513175279983 -53.554921418224694 0 -53.554921418224694 -112.27382938256778 0 0 0 0 -57.997887989016959 -45.435300114081087 0 -45.435300114081087 -21.14764979783979 0 0 0 0 -156.53487102218443 -203.76160636102941 0 -203.76160636102941 -487.2061683547654 0 0 0 0 286.28830173157621 -507.55136669497733 0 -507.55136669497733 260.71081394041539 0 0 0 0 525.85721603450293 18.44525221126969 0 18.44525221126969 -81.598946792582865 0 0 0 0 -7.6878185179716638 -16.071163999370242 0 -16.071163999370242 -11.824617375861862 0 0 0 0 -75.302422839358769 -100.0341531621707 0 -100.0341531621707 -325.74628942878917 0 0 0 0 -103.47045356562376 -94.082143860847282 0 -94.082143860847282 -74.279654230471351 0 0 0 0 -71.173245983278321 -257.53329078377283 0 -257.53329078377283 -456.70179791258124 0 0 0 0 -49.057858545264025 -133.66725173161103 0 -133.66725173161103 -391.85050430658157 0 0 0 0 -32.277128503297746 -58.760175716541823 0 -58.760175716541823 -39.752055234414968 0 0 0 0 15.367686791020773 -48.581314771377947 0 -48.581314771377947 -186.44769546707539 0 0 0 0 32.790795471337859 38.103736090464821 0 38.103736090464821 -43.478663315366163 0 0 0 0 -7.522278219380496 -117.53312522716806 0 -117.53312522716806 -301.52475163637428 0 0 0 0 -18.544197513616481 -43.759426183707546 0 -43.759426183707546 -103.96824282400485 0 0 0 0 -46.886912078695005 -52.812889603947042 0 -52.812889603947042 -86.849209352163598 0 0 0 0 -31.720269107318856 -38.191325333711575 0 -38.191325333711575 -74.132805843626556 0 0 0 0 -0.024312285757017264 -39.716070264883456 0 -39.716070264883456 -86.966092142174602 0 0 0 0 -15.2276818160103 -53.473729830373486 0 -53.473729830373486 -95.276558941972326 0 0 0 0 2.06012378220034 -0.25425378270881538 0 -0.25425378270881538 -31.755582785391397 0 0 0 0 -0.033699103746264746 -31.206143172603333 0 -31.206143172603333 -95.358234968560282 0 0 0 0 -2.8014359054762297 -9.3541501280963644 0 -9.3541501280963644 -29.884373860396465 0 0 0 0 -23.937558219805339 -42.52512376071536 0 -42.52512376071536 -85.582530881030834 0 0 0 0 16.212538229547519 -21.599348558287602 0 -21.599348558287602 -297.63924574945122 0 0 0 0 -23.833675655526548 -50.278307486121776 0 -50.278307486121776 -70.8359674786916 0 0 0 0 0.018025807077697742 -65.579582850899897 0 -65.579582850899897 -159.50098289290327 0 0 0 0 16.029150165766964 -24.176996840265929 0 -24.176996840265929 -173.23039351747866 0 0 0 0 -0.061932208451008552 -0.78010087641240489 0 -0.78010087641240489 -0.49316256971737715 0 0 0 0 20.654362187414719 -53.961107003051438 0 -53.961107003051438 -262.60678360122256 0 0 0 0 -0.00089198228032156656 -64.970243428826606 0 -64.970243428826606 -247.74339915570454 0 0 0 0 -0.0023127861608120415 -0.48717933273121616 0 -0.48717933273121616 -0.49413794871344408 0 0 0 0 46.77720025561905 -20.094803176922142 0 -20.094803176922142 -372.33680412292779 0 0 0 0 28.710916828991159 15.725333396760107 0 15.725333396760107 -151.88167098295526 0 0 0 0 28.5744109731273 -43.86958339564444 0 -43.86958339564444 -235.49223150634498 0 0 0 0 72.469663134823293 -36.943648216547444 0 -36.943648216547444 -257.02119413776381 0 0 0 0 49.141887505643865 36.32729021202249 0 36.32729021202249 -107.69801596028265 0 0 0 0 -2.1385924562436553 -40.564209171212497 0 -40.564209171212497 -9.5874294409295544 0 0 0 0 45.742992628563229 -13.699613346339902 0 -13.699613346339902 -114.71793511190117 0 0 0 0 19.894848783407504 23.429191598890611 0 23.429191598890611 10.824739261879586 0 0 0 0 41.663725789488296 -68.916674984327983 0 -68.916674984327983 5.1984331171843223 0 0 0 0 8.6108739750027325 -23.785148762079189 0 -23.785148762079189 16.291889770232956 0 0 0 0 0.0057780275006065508 -49.294203649493284 0 -49.294203649493284 -90.967465609021019 0 0 0 0 -4.0961462685097416 -11.184597266532364 0 -11.184597266532364 4.9272287478743237 0 0 0 0 -11.019490830658015 -22.425415775360307 0 -22.425415775360307 -38.929807054752018 0 0 0 0 -34.678249968688078 -141.93310205283342 0 -141.93310205283342 -199.34420396448695 0 0 0 0 -24.004560688384004 -85.669668988950434 0 -85.669668988950434 -259.7672494645667 0 0 0 0 -95.102261485947565 -136.07712115424511 0 -136.07712115424511 -191.03478566590638 0 0 0 0 -1.2294605598218438 0.17719404120217064 0 0.17719404120217064 0.074866966583897465 0 0 0 0 -177.77352042610414 -117.60970429782174 0 -117.60970429782174 -41.828246092860354 0 0 0 0 -2.9325258420983573 -4.4083609009103384 0 -4.4083609009103384 -0.29872798238648102 0 0 0 0 -3.3197401003779556 -5.5651605773515769 0 -5.5651605773515769 1.0085375336373374 0 0 0 0 -0.69110606255847706 -0.44860952432222234 0 -0.44860952432222234 0.17061453949719407 0 0 0 0 -79.929670960452768 6.8409225891809911 0 6.8409225891809911 19.443146122328471 0 0 0 0 0.16825518491587399 -1.19199489603659 0 -1.19199489603659 -1.5550881806338452 0 0 0 0 9.5674628608654473 -37.710667256116722 0 -37.710667256116722 20.298490825720364 0 0 0 0 -3.0715684643449421 -2.0275679251381007 0 -2.0275679251381007 1.9950215200078674 0 0 0 0 10.786296239136391 4.3705745661573019 0 4.3705745661573019 -11.177136578582576 0 0 0 0 -133.94696863582044 -48.096502492786385 0 -48.096502492786385 -8.5730155364144593 0 0 0 0 4.1037891768611416 76.685821470127848 0 76.685821470127848 -140.05366597149259 0 0 0 0 36.132133589686973 -57.379081762777787 0 -57.379081762777787 3.8406072928919457 0 0 0 0 -46.808798458906494 -0.86375702681834809 0 -0.86375702681834809 6.2330982374842279 0 0 0 0 -176.82918458036738 -161.95318061146827 0 -161.95318061146827 -126.81512117706006 0 0 0 0 -0.30039986845391964 -0.69238247790160301 0 -0.69238247790160301 -2.202303123777881 0 0 0 0 69.024092383988375 -3.9000312440166454 0 -3.9000312440166454 -331.12821815788629 0 0 0 0 42.8672480238464 -95.487444734870223 0 -95.487444734870223 -358.68381786836835 0 0 0 0 30.67745563556673 -88.287038788286736 0 -88.287038788286736 -451.74386760711786 0 0 0 0 -50.638797823158029 -224.9273388236179 0 -224.9273388236179 -329.40491447056411 0 0 0 0 -35.755995456924666 -141.64962066651788 0 -141.64962066651788 -199.40981612213363 0 0 0 0 -36.144945505216683 -137.95568708141764 0 -137.95568708141764 -234.03958342946135 0 0 0 0 22.25457251176789 -74.87218280009256 0 -74.87218280009256 -278.29464624961838 0 0 0 0 13.995954071288907 -67.298962268047035 0 -67.298962268047035 -248.80422168856603 0 0 0 0 -90.278432021412016 -43.84405881910061 0 -43.84405881910061 -23.385754120376077 0 0 0 0 -7.6683429779909886 3.2812456043138809 0 3.2812456043138809 -153.39237309418968 0 0 0 0 34.791346724193318 -0.00084698591672349721 0 -0.00084698591672349721 -264.81050878828319 0 0 0 0 -6.7692588518682442 19.112939868529793 0 19.112939868529793 -356.43128174990125 0 0 0 0 47.827351656202495 -35.453626563583384 0 -35.453626563583384 -169.97519709830522 0 0 0 0 -32.394239710257409 -67.324808743593167 0 -67.324808743593167 -194.83649961435003 0 0 0 0 -182.95031894927195 -84.567703509004787 0 -84.567703509004787 -210.78613580550882 0 0 0 0 50.610538240822166 -2.2173063517402625 0 -2.2173063517402625 -188.54045541195956 0 0 0 0 46.04327013285954 38.002067505469284 0 38.002067505469284 -33.228543159282893 0 0 0 0 17.620766642976207 -31.222087014532008 0 -31.222087014532008 -197.56033239525277 0 0 0 0 -33.236729283252004 17.572919334576 0 17.572919334576 -186.50957755379204 0 0 0 0 162.17304727309534 -47.378684437833726 0 -47.378684437833726 -323.80803157477203 0 0 0 0 -0.057729458066656969 -0.2972282289411794 0 -0.2972282289411794 -0.28815267920253973 0 0 0 0 -206.14848207021714 -360.28510476443626 0 -360.28510476443626 -16.440807569597382 0 0 0 0 485.73444168602691 464.17978952307749 0 464.17978952307749 -250.52652299014153 0 0 0 0 54.737417438307645 36.222428804148677 0 36.222428804148677 -32.107116211211945 0 0 0 0 -55.324218331207561 12.541579851604183 0 12.541579851604183 -147.46919429150876 0 0 0 0 94.314962196280248 131.09109167775023 0 131.09109167775023 -384.26120200985679 0 0 0 0 36.677517772499414 26.953439362288918 0 26.953439362288918 -51.116015645763582 0 0 0 0 93.265138272017793 31.541145677576424 0 31.541145677576424 6.0644356112752575 0 0 0 0 51.462390978723306 56.768655231138837 0 56.768655231138837 -1.8680564802489243 0 0 0 0 43.355751783952826 2.9612866479728837 0 2.9612866479728837 -190.10259021747333 0 0 0 0 59.798231066820641 31.354997589920316 0 31.354997589920316 -47.544599898867631 0 0 0 0 63.184757499963212 1.591661672169721 0 1.591661672169721 -191.92378751930664 0 0 0 0 38.801101033105624 -0.64503866746963467 0 -0.64503866746963467 -146.00424421181378 0 0 0 0 55.351342742506809 2.6047271773768443 0 2.6047271773768443 -176.07746984966798 0 0 0 0 70.599393233463957 -9.5191185798612423 0 -9.5191185798612423 -186.70297157825553 0 0 0 0 52.387037949547619 5.6801405373698799 0 5.6801405373698799 -194.81753597418719 0 0 0 0 56.265972135863024 1.1296773139038123 0 1.1296773139038123 -228.22869260955486 0 0 0 0 30.251594695984025 3.0524240010417998 0 3.0524240010417998 -176.01708313197014 0 0 0 0 7.965587490767934 -29.944231624389431 0 -29.944231624389431 -216.6667450775858 0 0 0 0 -78.902278937863201 -37.649588609341663 0 -37.649588609341663 -182.83610328455688 0 0 0 0 45.605184023606455 -9.987770327978069 0 -9.987770327978069 -212.92519229150639 0 0 0 0 45.89194043297951 -15.187468461711887 0 -15.187468461711887 -203.80976256114081 0 0 0 0 71.537240604067676 -3.2053582363732858 0 -3.2053582363732858 -211.04399184815702 0 0 0 0 45.676957932039528 0.62591382446407806 0 0.62591382446407806 -177.7635902595066 0 0 0 0 57.586664700727098 -28.282324190395229 0 -28.282324190395229 -124.52725719817681 0 0 0 0 70.658914567621338 -10.523007799004517 0 -10.523007799004517 -183.49951721334946 0 0 0 0 61.077353045304577 -3.0993574127642205 0 -3.0993574127642205 -194.20401978661539 0 0 0 0 20.094858572813479 -57.875274155019724 0 -57.875274155019724 -88.784877436832176 0 0 0 0 -1.5591313674303819 9.8781290121623897 0 9.8781290121623897 -87.531208608186716 0 0 0 0 53.28617632453718 -69.125598111597355 0 -69.125598111597355 -95.205608626332833 0 0 0 0 6.8379405995377427 -20.13394175193622 0 -20.13394175193622 -66.834628817182988 0 0 0 0 8.8099107862776744 -11.659703307178773 0 -11.659703307178773 -19.10272040122112 0 0 0 0 105.16236781079223 -22.909343203398748 0 -22.909343203398748 -63.166639529566964 0 0 0 0 26.235578358030523 -112.14916167288175 0 -112.14916167288175 -111.02366751452792 0 0 0 0 -61.717618770037916 -48.298781215969939 0 -48.298781215969939 -27.006724656952429 0 0 0 0 31.476156158295112 -41.987459199794102 0 -41.987459199794102 -244.57530390261672 0 0 0 0 26.504022288593404 -23.592481503001181 0 -23.592481503001181 -109.85170563866268 0 0 0 0 78.42361577469822 -62.817100484826369 0 -62.817100484826369 -166.56833221478882 0 0 0 0 91.98290102451972 82.963432710341294 0 82.963432710341294 -190.41200908977771 0 0 0 0 1.8664828541744978 10.90309439370094 0 10.90309439370094 -99.890951500697412 0 0 0 0 65.309779386972878 -29.719181216445577 0 -29.719181216445577 -229.2809329823358 0 0 0 0 -174.48486823721578 202.69423179042496 0 202.69423179042496 -173.59001098925364 0 0 0 0 151.13534624465774 8.1864609869371634 0 8.1864609869371634 -120.17455706728651 0 0 0 0 0.29247055043633008 14.096589017411407 0 14.096589017411407 -2.142479013194361 0 0 0 0 12.879326776055677 -4.4897933697502594 0 -4.4897933697502594 -90.408246928098379 0 0 0 0 46.018771985484349 -7.0451743545663703 0 -7.0451743545663703 -180.12389597995207 0 0 0 0 11.161796670596603 -10.738361797890633 0 -10.738361797890633 -89.065218462536279 0 0 0 0 26.834818029813505 -6.9784923750703456 0 -6.9784923750703456 -177.10149798575731 0 0 0 0 24.046298648702479 1.2166138707832914 0 1.2166138707832914 -84.778285656911606 0 0 0 0 86.320855776270037 -94.560577913100133 0 -94.560577913100133 -147.89121450879611 0 0 0 0 168.01909116546267 47.022805532455095 0 47.022805532455095 -222.05657518887892 0 0 0 0 6.8647443257099336 -13.351322113126287 0 -13.351322113126287 -34.336186382995294 0 0 0 0 9.4932452068196653 18.956649153980834 0 18.956649153980834 -59.735101670055883 0 0 0 0 29.633641232613687 10.609528789769023 0 10.609528789769023 -107.61690989436704 0 0 0 0 23.472507057628334 11.978123583348719 0 11.978123583348719 -55.730385555234562 0 0 0 0 44.876615086075617 18.082437957236834 0 18.082437957236834 -76.523788318649167 0 0 0 0 -3.5029881896402184 23.792930627793623 0 23.792930627793623 -16.349297113934369 0 0 0 0 10.576059268742938 27.639435625966144 0 27.639435625966144 -31.776311239111237 0 0 0 0 5.8392495967310047 17.745387153311498 0 17.745387153311498 -15.703692165437189 0 0 0 0 -321.28385120300982 351.88860686855332 0 351.88860686855332 76.086044222291093 0 0 0 0 -3.8194201518065132 17.616419982249653 0 17.616419982249653 -18.693258249702239 0 0 0 0 11.548684897498276 13.054254378217593 0 13.054254378217593 -52.465878239352605 0 0 0 0 -719.87000414180068 142.50867313095659 0 142.50867313095659 8.3758584652241552 0 0 0 0 286.01081502730995 119.91351933789701 0 119.91351933789701 -1320.6116911904974 0 0 0 0 412.45538834882245 -158.51443069369998 0 -158.51443069369998 -1354.3356831875863 0 0 0 0 -517.74079524229876 -327.15164889617012 0 -327.15164889617012 -621.09669202580699 0 0 0 0 32.753625502042269 503.90684190406319 0 503.90684190406319 228.92935344430589 0 0 0 0 974.35799342645623 466.63260127656395 0 466.63260127656395 -974.77735402831968 0 0 0 0 859.44693940685102 250.99735492910986 0 250.99735492910986 -2145.2451649241848 0 0 0 0 332.62096587200722 194.63584103168978 0 194.63584103168978 -882.54276330498396 0 0 0 0 221.29087706835116 161.51549865721245 0 161.51549865721245 -568.40230312758649 0 0 0 0 -345.19296793631656 -1029.906423874716 0 -1029.906423874716 -1785.5694196850236 0 0 0 0 412.66616782706296 -121.06795129492821 0 -121.06795129492821 -1317.4260267209465 0 0 0 0 165.89402369662821 -346.14669510381646 0 -346.14669510381646 -906.0536128769163 0 0 0 0 -43.181716723083809 144.31833627246669 0 144.31833627246669 113.4678568476229 0 0 0 0 -51.798308275202544 270.25965220639227 0 270.25965220639227 -1431.136683841949 0 0 0 0 -5.1735007132771926 5.869742363787708 0 5.869742363787708 -7.0008188005417367 0 0 0 0 -0.058812437969042008 1.3087908923144909 0 1.3087908923144909 -8.9513956039488676 0 0 0 0 402.82941056016716 -433.89087760711845 0 -433.89087760711845 -1712.701794843706 0 0 0 0 -73.396144959689991 311.23717321480217 0 311.23717321480217 -162.07697665184605 0 0 0 0 552.60839745564317 54.192553664663137 0 54.192553664663137 -923.39542526879814 0 0 0 0 -93.580698335288616 250.58427849154396 0 250.58427849154396 -58.482091485157525 0 0 0 0 405.18067100249027 -662.90910687691212 0 -662.90910687691212 -414.02238362806384 0 0 0 0 37.321360734061273 488.00944526073181 0 488.00944526073181 204.17510580693488 0 0 0 0 -743.20268478127218 -1209.0481058604855 0 -1209.0481058604855 1669.2150673075084 0 0 0 0 -54.788684339889393 -36.531608063016307 0 -36.531608063016307 -14.417620368160797 0 0 0 0 -1553.0181372484367 -111.08918697838089 0 -111.08918697838089 -345.11825090021011 0 0 0 0 999.26936325996576 -1230.0752732162364 0 -1230.0752732162364 -155.93879431598543 0 0 0 0 -54.965745650542516 -206.36736855297931 0 -206.36736855297931 -1456.8789184708148 0 0 0 0 -209.95255428840807 -101.79881556917098 0 -101.79881556917098 -1524.9694477020876 0 0 0 0 32.151418509781308 -39.589295918412972 0 -39.589295918412972 -1225.615519148123 0 0 0 0 -139.37183954846432 -553.38903222281806 0 -553.38903222281806 -1196.3425094786871 0 0 0 0 92.392441459863363 -439.46097745446605 0 -439.46097745446605 -1461.1976311829058 0 0 0 0 -435.06231962348255 -645.77455166274012 0 -645.77455166274012 -1058.2960946210806 0 0 0 0 -187.08161284273677 -743.86799871433323 0 -743.86799871433323 -1689.2572923505031 0 0 0 0 -836.64144454439702 -1434.1263693779256 0 -1434.1263693779256 -2358.4121956921736 0 0 0 0 -511.10431017512383 -314.44057671865448 0 -314.44057671865448 -1008.5989351605094 0 0 0 0 -1495.1297192339073 -834.68436326066512 0 -834.68436326066512 -757.68902890283789 0 0 0 0 -3420.63392427074 -2894.3261421111238 0 -2894.3261421111238 -2220.125395966912 0 0 0 0 -1547.7598878209328 -2221.3288000971502 0 -2221.3288000971502 1693.7777408852708 0 0 0 0 -191.96813014243435 -0.89854404768266249 0 -0.89854404768266249 -2927.5215265746665 0 0 0 0 -25.628712555008274 -11.714963647795116 0 -11.714963647795116 -5.7709701011687429 0 0 0 0 211.18785158075175 -801.76012273479864 0 -801.76012273479864 -5339.4951198599665 0 0 0 0 -2.7517842183858718 0.62703567015964268 0 0.62703567015964268 0.04290817417522419 0 0 0 0 -326.11138792057318 -173.80490160374757 0 -173.80490160374757 -469.39219235494238 0 0 0 0 -644.09796570480398 593.34370298982321 0 593.34370298982321 1561.5135293892818 0 0 0 0 -55.024604108320091 366.31814837861748 0 366.31814837861748 -377.10473158853711 0 0 0 0 -1523.8164747950873 -2945.8710515927287 0 -2945.8710515927287 -1708.5960902809311 0 0 0 0 -1270.1962660426534 331.07603361287329 0 331.07603361287329 448.15268035296322 0 0 0 0 -297.41537224731633 118.20966673208386 0 118.20966673208386 -1801.6181566251034 0 0 0 0 -3.3491367848249389 -11.72677207727628 0 -11.72677207727628 -34.820337331727387 0 0 0 0 -366.29707025783136 -653.39833782963979 0 -653.39833782963979 -245.6133198155585 0 0 0 0 2182.5953463298183 438.79062648210675 0 438.79062648210675 -907.31930909909715 0 0 0 0 152.06695682754889 -158.97470237054222 0 -158.97470237054222 -115.73423302306765 0 0 0 0 -1.4549582872028948 -16.02919598233472 0 -16.02919598233472 -79.707416635499101 0 0 0 0 -91.077971720959795 -37.66217053024593 0 -37.66217053024593 -31.097452018970216 0 0 0 0 -171.08815103541201 32.863867841362662 0 32.863867841362662 -152.02802274713758 0 0 0 0 -97.038623847583949 66.829779651692661 0 66.829779651692661 -103.35332245875543 0 0 0 0 -4.5597142275264595 1.1279773307315679 0 1.1279773307315679 0.92185021753238061 0 0 0 0 -74.517698138473861 111.60655491989019 0 111.60655491989019 -297.88554632243176 0 0 0 0 78.192184025429697 -67.671945895514 0 -67.671945895514 -1390.7997133907484 0 0 0 0 -113.17460983456704 -726.55256019276203 0 -726.55256019276203 -1229.633474788483 0 0 0 0 -87.369695700229386 -65.735531520200311 0 -65.735531520200311 -864.8556616158894 0 0 0 0 -373.60936598144008 -641.21449683769242 0 -641.21449683769242 -552.18738312221831 0 0 0 0 -361.21177105760307 -1090.2454969004757 0 -1090.2454969004757 -1444.0014930048146 0 0 0 0 -155.36630573261186 -851.12480123337446 0 -851.12480123337446 -1459.6077764361107 0 0 0 0 117.18183726964071 -911.23519178175775 0 -911.23519178175775 -2269.8487455514769 0 0 0 0 -717.63981358383626 -1650.1402762913567 0 -1650.1402762913567 -1616.1922995256245 0 0 0 0 -859.88444102468839 -1121.4209203141509 0 -1121.4209203141509 -1064.8802206765613 0 0 0 0 86.522896166914961 572.74672545177964 0 572.74672545177964 -2582.5537226307933 0 0 0 0 -191.33698658882213 -1577.3282450827683 0 -1577.3282450827683 -3672.398876382882 0 0 0 0 -1104.6909534235201 -2673.6479812434045 0 -2673.6479812434045 -1632.082979316503 0 0 0 0 -513.52708278529872 -612.98535849499149 0 -612.98535849499149 -4078.1598263311607 0 0 0 0 -2321.6884043435748 -64.317516578390496 0 -64.317516578390496 -973.23643357468245 0 0 0 0 -2108.783397432805 -2230.0852557274484 0 -2230.0852557274484 -1914.3196778646088 0 0 0 0 -272.12131326441488 -182.97060834079457 0 -182.97060834079457 -1007.9430925510605 0 0 0 0 -363.08892513370938 -479.05895101890928 0 -479.05895101890928 -650.4628844098188 0 0 0 0 -549.16737621559605 164.7101351544552 0 164.7101351544552 -273.13270233699586 0 0 0 0 187.37717299929545 -553.06738024133665 0 -553.06738024133665 269.47564331293688 0 0 0 0 -875.14473400125053 -1382.8472887904045 0 -1382.8472887904045 -798.94404564559227 0 0 0 0 -5.2949479433297348 1.7811506410770619 0 1.7811506410770619 4.4760646317444355 0 0 0 0 -650.82600772517708 -573.04476426269684 0 -573.04476426269684 -358.32295474102284 0 0 0 0 -349.41607137566871 -894.52556166727663 0 -894.52556166727663 -1343.7038508062542 0 0 0 0 -362.47663971519523 -1133.3447640661325 0 -1133.3447640661325 -1062.3021012210957 0 0 0 0 5.2623858006072624 -28.541930537219741 0 -28.541930537219741 -68.08879337595863 0 0 0 0 -3.8535721996701229 -10.134588705406713 0 -10.134588705406713 1.2894353678040886 0 0 0 0 -21.710710690049837 -34.860296780570934 0 -34.860296780570934 -68.32271739377029 0 0 0 0 3.4711408052853585 -19.211515095179493 0 -19.211515095179493 -63.043396471251981 0 0 0 0 0.24512079709535328 -23.030463467453956 0 -23.030463467453956 -63.927665776078356 0 0 0 0 2.4855910867065631 -26.477094838861376 0 -26.477094838861376 -69.466991250810679 0 0 0 0 11.198496124059602 -20.814310407600715 0 -20.814310407600715 -69.728792951041214 0 0 0 0 23.030255639197687 -6.1404661137159309 0 -6.1404661137159309 -9.1866608345198841 0 0 0 0 -24.80535648952673 -12.192446592685883 0 -12.192446592685883 -116.92029523651581 0 0 0 0 -150.44670742932431 -239.49765786977514 0 -239.49765786977514 -235.85752369149122 0 0 0 0 36.395884180868961 6.959774989161815 0 6.959774989161815 84.92655319836922 0 0 0 0 13.578269767001412 -4.1712014742251711 0 -4.1712014742251711 2.327866848244696 0 0 0 0 -11.91027995364766 -47.01944030924642 0 -47.01944030924642 -79.224242157542903 0 0 0 0 9.988907107960614 -36.37880401306802 0 -36.37880401306802 -75.118835806773859 0 0 0 0 69.182735954848795 17.057060368868406 0 17.057060368868406 -232.38786289929703 0 0 0 0 39.996649775044943 -11.773915202890748 0 -11.773915202890748 -88.028442933311453 0 0 0 0 209.4102079873137 131.09881384613982 0 131.09881384613982 -270.63402213397785 0 0 0 0 107.13471212252034 160.73404732429026 0 160.73404732429026 -253.6180677782977 0 0 0 0 157.7800140768868 6.1497894760905183 0 6.1497894760905183 -288.20135588280391 0 0 0 0 157.69442513345257 30.883674291355419 0 30.883674291355419 -462.67022898118012 0 0 0 0 333.67011125307272 112.88008640494809 0 112.88008640494809 -719.81735797398142 0 0 0 0 232.4051346261208 -113.15160379335612 0 -113.15160379335612 -690.95640305078996 0 0 0 0 91.000884180477442 -1169.4572399948665 0 -1169.4572399948665 -1809.024506361573 0 0 0 0 -203.8568442783544 311.00121740830946 0 311.00121740830946 -306.75402364708134 0 0 0 0 1.2558916691688253 1.1841031278788421 0 1.1841031278788421 0.76801245207838065 0 0 0 0 -5.1278763987302227 141.42452143633272 0 141.42452143633272 -517.71958106730017 0 0 0 0 411.72670413228479 361.10509373081732 0 361.10509373081732 -356.08269270219898 0 0 0 0 115.44771567035423 218.815276191468 0 218.815276191468 90.699536975224419 0 0 0 0 9.6819207212370202 -122.33897091941617 0 -122.33897091941617 -377.9510175145042 0 0 0 0 6.388135195869264 -1.5743390465681131 0 -1.5743390465681131 -0.64391292360471653 0 0 0 0 -28.72556620396972 -94.371502395079006 0 -94.371502395079006 -133.48094810598923 0 0 0 0 61.932004385376786 -8.3495690885029035 0 -8.3495690885029035 -240.4130018362157 0 0 0 0 -3.4379908442151645 -130.37473168919678 0 -130.37473168919678 -320.54798907406985 0 0 0 0 17.186021796103887 -34.487533775338306 0 -34.487533775338306 -245.94682497018948 0 0 0 0 92.597577881088 -59.626150165364379 0 -59.626150165364379 -333.76649577857643 0 0 0 0 -19.100698803996693 -48.643926903638203 0 -48.643926903638203 -65.798849996528588 0 0 0 0 10.24049020907205 -33.538892936128832 0 -33.538892936128832 -109.6965648482801 0 0 0 0 -510.50308505583962 -746.41615732386344 0 -746.41615732386344 -1636.8797887904657 0 0 0 0 -4.2753295484999665 -7.3720673121018763 0 -7.3720673121018763 4.2314406678133878 0 0 0 0 -17.353392161368902 -42.310560034688024 0 -42.310560034688024 -63.96801823698479 0 0 0 0 -375.18752704838244 -959.72674727848062 0 -959.72674727848062 -1582.5859524998668 0 0 0 0 -309.50135064141432 -871.84238136463682 0 -871.84238136463682 -1500.4233009348391 0 0 0 0 -356.84563369333137 -1092.2376852346933 0 -1092.2376852346933 -1445.9972221789212 0 0 0 0 -205.47950636967016 -943.75890718177106 0 -943.75890718177106 -1677.6409234023668 0 0 0 0 -334.90364395029246 231.37062137281464 0 231.37062137281464 -1539.8938010020429 0 0 0 0 -447.50097224802812 -639.51878912770189 0 -639.51878912770189 -1891.5634086628852 0 0 0 0 -6.3590753928148409 -4.5113592630886785 0 -4.5113592630886785 -3.9988957511436354 0 0 0 0 -756.87239666312416 -1163.4337448723163 0 -1163.4337448723163 -2320.418242349966 0 0 0 0 -926.92922018713762 -1159.2320687124375 0 -1159.2320687124375 -1440.5999948531753 0 0 0 0 -843.94827760500345 -1645.051099245572 0 -1645.051099245572 -1982.8576333932142 0 0 0 0 -879.8936488728632 -1142.6366675621939 0 -1142.6366675621939 -2032.1797166938486 0 0 0 0 -0.90140633148542548 -2.1032677956458485 0 -2.1032677956458485 -0.86165368840269707 0 0 0 0 -61.353157923307663 -10.724065022128343 0 -10.724065022128343 -6.0243173915077932 0 0 0 0 -105.66477827618837 -74.560722443522536 0 -74.560722443522536 -33.816842144646216 0 0 0 0 -730.71114697936537 -1246.7945108466301 0 -1246.7945108466301 -2108.4118286518824 0 0 0 0 -527.58367292837193 -804.89135513430301 0 -804.89135513430301 -1292.5025075458543 0 0 0 0 -1473.093826104332 -823.3459599906746 0 -823.3459599906746 -1095.9532100691795 0 0 0 0 -602.51036758724513 -377.97701185636834 0 -377.97701185636834 -829.42458833967976 0 0 0 0 -782.58606109108223 -441.19480082841983 0 -441.19480082841983 -446.64507211055025 0 0 0 0 -648.42664157570562 -871.86044403561391 0 -871.86044403561391 -708.54445324659173 0 0 0 0 0.81379073849967298 -0.59515598310920836 0 -0.59515598310920836 -0.79396834314204057 0 0 0 0 -539.36299576252077 -975.2572767211168 0 -975.2572767211168 -1408.821474281358 0 0 0 0 -611.72127337757524 -858.31724745528425 0 -858.31724745528425 -1307.4752692541078 0 0 0 0 -541.74488438005483 -911.28358984423539 0 -911.28358984423539 -1381.1735527765122 0 0 0 0 -473.5662409192355 -960.16140585145331 0 -960.16140585145331 -1347.4079170808254 0 0 0 0 -859.0060311426746 -1572.1466632462943 0 -1572.1466632462943 -2071.1040568547614 0 0 0 0 -190.65932442472331 -807.83352799612112 0 -807.83352799612112 -1916.8031645607844 0 0 0 0 81.550530447053461 -127.44503279316268 0 -127.44503279316268 -1245.0789648157661 0 0 0 0 -302.67470559189496 -189.04866221642442 0 -189.04866221642442 -489.56406800786499 0 0 0 0 -33.931727357285126 -632.95835610360882 0 -632.95835610360882 -3288.2375062401989 0 0 0 0 -10.168188464156859 -7.262599518391454 0 -7.262599518391454 -4.1656789156376988 0 0 0 0 -798.46251587339873 -1114.217214537171 0 -1114.217214537171 610.57044098836195 0 0 0 0 -36.970635687292088 141.44229181262199 0 141.44229181262199 -51.538597508504608 0 0 0 0 -416.02145980370392 -242.34113225037845 0 -242.34113225037845 -386.51937200501561 0 0 0 0 55.659054047238897 176.31309545405384 0 176.31309545405384 -273.43968075246448 0 0 0 0 83.037294166686479 152.30069786700915 0 152.30069786700915 -425.16366436568205 0 0 0 0 26.127508987356123 297.38572492616368 0 297.38572492616368 -795.03408583700366 0 0 0 0 -186.6644116256648 498.28754418369499 0 498.28754418369499 -551.94421919077286 0 0 0 0 400.89258341439199 -320.80005623323086 0 -320.80005623323086 -10.175162090206868 0 0 0 0 423.4141217309425 -15.519405525410548 0 -15.519405525410548 -317.5932609642332 0 0 0 0 198.14338752787035 135.28516577996743 0 135.28516577996743 -333.41821910170256 0 0 0 0 171.77405452883613 -52.294305020172033 0 -52.294305020172033 -170.01202131374157 0 0 0 0 139.20087572769989 -38.998302333318861 0 -38.998302333318861 -147.96603997265629 0 0 0 0 -15.569166860019322 57.972243419615552 0 57.972243419615552 -195.95831540565632 0 0 0 0 162.96348315507203 -14.105683883404708 0 -14.105683883404708 -210.54208198428387 0 0 0 0 -1.6824816901935264 199.62556475805468 0 199.62556475805468 -256.38983143857331 0 0 0 0 -39.125115280336104 232.09010211178247 0 232.09010211178247 -280.13514841295546 0 0 0 0 -59.84480634467036 247.62874404530157 0 247.62874404530157 -244.36314090074302 0 0 0 0 -123.57568347017514 190.79771711789363 0 190.79771711789363 -245.02209398528794 0 0 0 0 -164.65748468895799 274.91417134858057 0 274.91417134858057 -250.07994443399366 0 0 0 0 40.27394981560974 100.12442292583364 0 100.12442292583364 -240.63415710040135 0 0 0 0 -166.11248690616776 145.67448254609189 0 145.67448254609189 -235.35651145246266 0 0 0 0 -31.411796880922338 47.467081429989776 0 47.467081429989776 -356.95139227535401 0 0 0 0 -240.83651305092644 64.434303554357029 0 64.434303554357029 -280.58131061255199 0 0 0 0 -106.56095878976339 -166.01263097331685 0 -166.01263097331685 -339.15608408793923 0 0 0 0 -30.923450623109602 65.331131969564012 0 65.331131969564012 -280.58057239901973 0 0 0 0 -245.7244299504855 254.51861165219452 0 254.51861165219452 -232.01610770815751 0 0 0 0 -302.69217730937817 165.54546909869532 0 165.54546909869532 -235.54277623149392 0 0 0 0 278.20162195585362 -397.31226061703637 0 -397.31226061703637 118.69356836543011 0 0 0 0 -2.9842399793448138 -3.0565187078632619 0 -3.0565187078632619 -3.1953789800069501 0 0 0 0 -102.00159411125131 367.94097638002819 0 367.94097638002819 118.02410198104917 0 0 0 0 170.70380624198515 -97.921705682601896 0 -97.921705682601896 -46.954985734206275 0 0 0 0 241.67580655249913 -211.58514361343987 0 -211.58514361343987 17.479883718420751 0 0 0 0 93.320083184087707 -125.79472946205351 0 -125.79472946205351 304.31808744142472 0 0 0 0 446.6102135029505 -319.94895418830856 0 -319.94895418830856 -214.92376957560191 0 0 0 0 -149.78444539791963 323.14827019971563 0 323.14827019971563 -255.96782721765339 0 0 0 0 352.59657520637847 -440.88584280837676 0 -440.88584280837676 -889.2010786718165 0 0 0 0 -6.733509381839319 -9.5351531738245399 0 -9.5351531738245399 -11.253250433577648 0 0 0 0 -152.65877293749509 314.29742261138745 0 314.29742261138745 -269.56056463479763 0 0 0 0 -86.036436790767766 319.71640538150677 0 319.71640538150677 -272.88951663523039 0 0 0 0 -77.771911053600888 315.83706747156975 0 315.83706747156975 -301.19564025223372 0 0 0 0 -35.492568727770049 346.52610394342628 0 346.52610394342628 -411.91928065632237 0 0 0 0 27.817819150550349 276.61877007059229 0 276.61877007059229 -340.85229700020864 0 0 0 0 -187.95796572421386 352.21707686448644 0 352.21707686448644 -233.65683586502564 0 0 0 0 -258.63900495393682 423.6732814002753 0 423.6732814002753 -283.1720065632544 0 0 0 0 -136.54784508369994 373.94061680174491 0 373.94061680174491 -329.10528110759333 0 0 0 0 -108.70329991701328 399.93819500766404 0 399.93819500766404 -478.59362450649496 0 0 0 0 -85.751520066420198 341.15013706835452 0 341.15013706835452 -341.90575321520009 0 0 0 0 -283.98905457962974 481.53281071374658 0 481.53281071374658 -412.97191096859751 0 0 0 0 -379.68457042801856 -316.65998671545094 0 -316.65998671545094 678.5519875332393 0 0 0 0 532.5482239572666 337.04090830250061 0 337.04090830250061 -248.8161862664856 0 0 0 0 875.15098202922672 351.00819625634176 0 351.00819625634176 -1244.2845756059396 0 0 0 0 -620.69207355231356 -737.97702099305025 0 -737.97702099305025 -49.206345388942282 0 0 0 0 -480.12247808479879 -1095.1517139972784 0 -1095.1517139972784 -1276.4589368158922 0 0 0 0 -22.981338636926012 108.01666389954335 0 108.01666389954335 -418.39235646837187 0 0 0 0 -251.97453237561967 -20.787336153931392 0 -20.787336153931392 -205.98111367730598 0 0 0 0 66.687405490793935 -57.826917655493162 0 -57.826917655493162 -179.16597576298227 0 0 0 0 431.33816238731379 -206.16587962325139 0 -206.16587962325139 -485.36137813683308 0 0 0 0 306.31619572289492 -168.05207806859107 0 -168.05207806859107 -206.38523429413908 0 0 0 0 242.91707992133161 56.047747895703651 0 56.047747895703651 -329.64008001500406 0 0 0 0 292.8062218227642 -144.43905915224605 0 -144.43905915224605 -227.81946339530987 0 0 0 0 119.37937258076636 -28.959883165036445 0 -28.959883165036445 -75.961383459944045 0 0 0 0 138.4277632355836 33.148711748465757 0 33.148711748465757 -306.47619782452239 0 0 0 0 -50.260333326094951 101.37585212648264 0 101.37585212648264 -311.83751110038793 0 0 0 0 -66.336623941495418 112.32182251053382 0 112.32182251053382 -166.97466046737463 0 0 0 0 -47.228768492866948 188.53684964712011 0 188.53684964712011 -232.1747683922913 0 0 0 0 48.341232440223393 79.403634690599574 0 79.403634690599574 -196.42719756535371 0 0 0 0 -2.4867657205491156 1.4300187285381298 0 1.4300187285381298 0.95847568515007708 0 0 0 0 156.12098013310242 2.0997355891013285 0 2.0997355891013285 -151.71641660698879 0 0 0 0 38.060429023806137 11.329813762116828 0 11.329813762116828 -147.92907856831152 0 0 0 0 53.667910260300232 22.263461315355016 0 22.263461315355016 -90.668755793347373 0 0 0 0 106.26345560001573 -44.138392998414929 0 -44.138392998414929 -82.530824931656753 0 0 0 0 113.98790546409055 -3.75304172624692 0 -3.75304172624692 -34.457498877716716 0 0 0 0 141.08009969235718 -66.102473942970391 0 -66.102473942970391 0.89213652673061006 0 0 0 0 119.28022262092827 -78.991652425937446 0 -78.991652425937446 -22.758788457955234 0 0 0 0 183.89324739211202 -51.607867356337465 0 -51.607867356337465 -11.15613230568124 0 0 0 0 177.95917322491368 17.891559080569095 0 17.891559080569095 113.44890481079347 0 0 0 0 181.85709213975133 -181.38227263813314 0 -181.38227263813314 31.757515013334341 0 0 0 0 145.70276902780461 27.094337514354265 0 27.094337514354265 65.061846446267737 0 0 0 0 99.208640128615116 -42.054864829606231 0 -42.054864829606231 -29.990310236695223 0 0 0 0 55.363063306378535 99.291952585197578 0 99.291952585197578 -154.10451877667219 0 0 0 0 173.10837779565554 -87.865913337736856 0 -87.865913337736856 -28.448961939284345 0 0 0 0 12.536161289581287 67.617944891051593 0 67.617944891051593 -214.62909068265435 0 0 0 0 48.923073627098347 34.087886437737325 0 34.087886437737325 -317.13384097546805 0 0 0 0 48.937995147558468 31.221165712217044 0 31.221165712217044 -178.29817374321283 0 0 0 0 66.934972090966767 -10.464358718658332 0 -10.464358718658332 -144.7709208577653 0 0 0 0 85.099269316796835 62.747357309189283 0 62.747357309189283 -230.55068603048858 0 0 0 0 -14.920580670153868 32.484968126795138 0 32.484968126795138 -121.18706523522633 0 0 0 0 -29.483394136738752 21.414377168892315 0 21.414377168892315 -98.451632977317786 0 0 0 0 -8.1497809318277632 -1.6507567244143502 0 -1.6507567244143502 -86.649006127365283 0 0 0 0 0.69241639796291565 20.013207593539846 0 20.013207593539846 -112.25854406356666 0 0 0 0 -10.758967602655048 8.5760440795802424 0 8.5760440795802424 -123.12380074965768 0 0 0 0 6.1583793745521689 -37.168092001229525 0 -37.168092001229525 -95.580183929407212 0 0 0 0 -24.920817283158158 -13.514699568259857 0 -13.514699568259857 -74.183903400888084 0 0 0 0 -24.401529523126101 -17.896142888248505 0 -17.896142888248505 -43.81716206065903 0 0 0 0 -1.6827547581965518 -5.0851859416848129 0 -5.0851859416848129 -34.977261944157362 0 0 0 0 82.69825138143824 12.302695492107887 0 12.302695492107887 -46.778656430222327 0 0 0 0 23.36111284769504 -84.082659045583569 0 -84.082659045583569 -247.30520341943702 0 0 0 0 21.256975447851801 -76.168453295933432 0 -76.168453295933432 -146.56746583309723 0 0 0 0 99.194244923609403 27.55659771585124 0 27.55659771585124 -85.685995265652309 0 0 0 0 1.5226319268591588 -0.27964158968051578 0 -0.27964158968051578 -4.8326889510302635 0 0 0 0 -6.1411465218170633 -17.694255844813597 0 -17.694255844813597 16.145186181820463 0 0 0 0 77.420614518329785 92.84762391851109 0 92.84762391851109 -46.498667418796686 0 0 0 0 1.3932595355144812 -0.71862420292328721 0 -0.71862420292328721 -2.9666991546403096 0 0 0 0 -21.603703811595551 -65.659655860741623 0 -65.659655860741623 -37.038135412876727 0 0 0 0 -12.83574787964335 -86.385141171351279 0 -86.385141171351279 -176.67178879698622 0 0 0 0 -17.139918194023721 -85.361844225267305 0 -85.361844225267305 -120.66548479217454 0 0 0 0 4.3006430485002056 69.197484338525101 0 69.197484338525101 -194.06889303056414 0 0 0 0 -0.20898830727828965 8.3621264585318045 0 8.3621264585318045 -6.2438609349443936 0 0 0 0 23.606274677838655 -107.07308038676274 0 -107.07308038676274 -119.0457352308149 0 0 0 0 -48.050982765569643 -19.879725745355245 0 -19.879725745355245 -140.10245655666222 0 0 0 0 -10.247467713485321 -3.4063658150938068 0 -3.4063658150938068 6.1112230011993915 0 0 0 0 31.034659293651202 -183.07300506690808 0 -183.07300506690808 -103.41399349795392 0 0 0 0 -48.747967229508504 -15.849659030085604 0 -15.849659030085604 -125.9172281318024 0 0 0 0 -11.884527043260277 -32.6625526411799 0 -32.6625526411799 -68.409798125459929 0 0 0 0 -55.14306583985308 23.688520995128783 0 23.688520995128783 52.520032726533827 0 0 0 0 -17.960124592924799 -1.1916407235605391 0 -1.1916407235605391 3.9642440939836661 0 0 0 0 -27.763343961348255 -79.118595162637575 0 -79.118595162637575 -102.07298088393873 0 0 0 0 -43.27588783527608 -28.12143369478872 0 -28.12143369478872 -129.51325223693857 0 0 0 0 -32.93189475179679 50.641230876113696 0 50.641230876113696 -65.701856049185153 0 0 0 0 -4.215157528997004 9.5292338008565025 0 9.5292338008565025 -9.0185508335571285 0 0 0 0 42.282556650439801 -3.4051615542557556 0 -3.4051615542557556 -215.67224388946488 0 0 0 0 43.819458855591392 -13.496946731869684 0 -13.496946731869684 -180.99224805171252 0 0 0 0 -10.651464545014278 19.311317418920225 0 19.311317418920225 -167.80080736943637 0 0 0 0 -0.41950563590296497 1.0108188305184171 0 1.0108188305184171 0.038323381113116284 0 0 0 0 -57.220301550655677 37.52657536498009 0 37.52657536498009 -65.19562711812614 0 0 0 0 34.721823521495025 5.2657160512244445 0 5.2657160512244445 -192.79774860657926 0 0 0 0 34.054084051773316 10.407869581998966 0 10.407869581998966 -199.75001457236795 0 0 0 0 -13.495918349388376 5.9402610712859314 0 5.9402610712859314 -50.435411074646254 0 0 0 0 -27.948203126408771 -4.0606338038760441 0 -4.0606338038760441 -54.116161804136937 0 0 0 0 -35.161345348710938 12.398853402024542 0 12.398853402024542 -72.507596902330988 0 0 0 0 -9.2810452768717369 1.5743110145049286 0 1.5743110145049286 -81.080898223110125 0 0 0 0 -11.552252517309171 0.26571061156573705 0 0.26571061156573705 -77.511112624502857 0 0 0 0 -11.606910739917112 10.272266355255852 0 10.272266355255852 -92.406842179218074 0 0 0 0 -6.996691199405177 0.34519206501136068 0 0.34519206501136068 -85.391875480017916 0 0 0 0 -0.78008756639740895 2.0293826693389292 0 2.0293826693389292 -15.319464931029614 0 0 0 0 -1.6613079055409798 2.6280943363599363 0 2.6280943363599363 -90.165434804017423 0 0 0 0 7.5670849444222767 -6.5064079016083269 0 -6.5064079016083269 -87.981828014650091 0 0 0 0 0.77234401272603836 -4.9292831015325476 0 -4.9292831015325476 -77.842822045935065 0 0 0 0 63.222911115316947 41.562900440738304 0 41.562900440738304 -85.667446462117368 0 0 0 0 -24.784535240732112 7.3244402125055785 0 7.3244402125055785 -27.596863095837762 0 0 0 0 -19.070921761059253 -12.671117688856611 0 -12.671117688856611 -12.030516426006216 0 0 0 0 -16.670945106938234 -10.289203013911902 0 -10.289203013911902 -64.563552501418599 0 0 0 0 2.3612727555355377 3.1704819581500487 0 3.1704819581500487 -14.406946769988281 0 0 0 0 35.021381839808782 32.334773811831838 0 32.334773811831838 -86.124374728948169 0 0 0 0 -4.9454877184775405 24.818529945913639 0 24.818529945913639 -22.628745503303051 0 0 0 0 8.1992634893322247 46.387912071528262 0 46.387912071528262 -67.819502442551311 0 0 0 0 11.431013941180026 59.596945774241249 0 59.596945774241249 -39.995954696874833 0 0 0 0 36.602783640843427 55.863846432650462 0 55.863846432650462 -67.26924378547119 0 0 0 0 36.400929949950296 52.598287651613646 0 52.598287651613646 -65.533905629534274 0 0 0 0 219.75450259855461 86.938944818990421 0 86.938944818990421 -99.372188758228731 0 0 0 0 -0.28914531503977869 -9.231303347431421 0 -9.231303347431421 -81.413922395508166 0 0 0 0 42.118952363794733 87.346156524863545 0 87.346156524863545 -88.505904588339035 0 0 0 0 398.81518269952159 90.584816418659102 0 90.584816418659102 -141.74822153637069 0 0 0 0 14.782675767333785 99.759495714162767 0 99.759495714162767 -82.089232200221886 0 0 0 0 -68.331660639177699 76.614366029971279 0 76.614366029971279 -28.773896381339 0 0 0 0 -0.35484461016821811 -10.212146310956122 0 -10.212146310956122 -85.729918697000016 0 0 0 0 -22.105593273067825 -10.45787332706459 0 -10.45787332706459 -74.795496926853957 0 0 0 0 -22.899349132852876 -3.3574844425093033 0 -3.3574844425093033 -81.573708365373022 0 0 0 0 -16.952540554908637 -10.275277712809839 0 -10.275277712809839 -76.468750158921466 0 0 0 0 -23.125342477299455 -1.3655668227584101 0 -1.3655668227584101 -61.294256389548536 0 0 0 0 -25.23050970658187 -4.7417191005879431 0 -4.7417191005879431 -79.702288135231356 0 0 0 0 -42.257222849118989 -1.8871362567297183 0 -1.8871362567297183 -77.483347759030949 0 0 0 0 -26.615943723358441 11.805113358464951 0 11.805113358464951 -66.576174283647561 0 0 0 0 -4.1269238696900175 0.48930829826713307 0 0.48930829826713307 -50.448700473993085 0 0 0 0 -239.57525129282385 204.33754786069767 0 204.33754786069767 272.85749749670504 0 0 0 0 950.04096079876069 70.988172611627306 0 70.988172611627306 -233.85420205962146 0 0 0 0 -0.60991440377498307 -12.746108982619717 0 -12.746108982619717 -87.429058485258452 0 0 0 0 -1.9428572519809677 -41.255672205497831 0 -41.255672205497831 -50.46276089483581 0 0 0 0 -710.66071098661359 -377.13308186036011 0 -377.13308186036011 -133.54705373072647 0 0 0 0 -418.54928790014355 -381.04027017813496 0 -381.04027017813496 -458.81633352089557 0 0 0 0 -519.9389720141412 -241.50241355743492 0 -241.50241355743492 -650.6470896877363 0 0 0 0 -828.16995874380166 -237.62126200415878 0 -237.62126200415878 -292.13521769377985 0 0 0 0 -302.67345872018439 -316.62647931666652 0 -316.62647931666652 -615.92557408956054 0 0 0 0 -196.11268264964531 -509.49404427133413 0 -509.49404427133413 -917.85596560042177 0 0 0 0 -591.59374500589615 -653.14757518031001 0 -653.14757518031001 -1007.4656049258047 0 0 0 0 -16.808423898614336 -427.38046755389223 0 -427.38046755389223 -1106.2814738203524 0 0 0 0 -0.17226106452529066 0.91421631147593985 0 0.91421631147593985 -2.890067592647938 0 0 0 0 -368.03081783815878 -188.21039125683455 0 -188.21039125683455 -164.89978759953374 0 0 0 0 -123.880334876779 -122.3962603676373 0 -122.3962603676373 -163.6728681527311 0 0 0 0 -100.12239235346556 -71.024843169871019 0 -71.024843169871019 -116.13413177996699 0 0 0 0 -46.831933757770003 87.62670886869455 0 87.62670886869455 -106.48760394129204 0 0 0 0 -359.55177086255839 92.217112632602607 0 92.217112632602607 -81.28051809851604 0 0 0 0 -51.561836675430641 54.496959049472935 0 54.496959049472935 -306.80676711642445 0 0 0 0 -212.7129708190156 -19.297002941377286 0 -19.297002941377286 -73.797962224911316 0 0 0 0 -36.107143479883689 62.71329103296739 0 62.71329103296739 -54.178781645023264 0 0 0 0 -33.771289510227462 39.192296163651918 0 39.192296163651918 -67.281815901442314 0 0 0 0 -48.334029435692855 43.689147265115025 0 43.689147265115025 -39.285077917127637 0 0 0 0 -23.45872714503912 86.404131142044207 0 86.404131142044207 -60.182739493931876 0 0 0 0 6.4657618268179249 52.570175072040001 0 52.570175072040001 -38.871181618580522 0 0 0 0 -25.031806615281312 59.48445739690942 0 59.48445739690942 50.971142059832346 0 0 0 0 -8.9625213610943 27.552591703956011 0 27.552591703956011 -11.995252625353487 0 0 0 0 -9.0830759695031702 73.113856271855184 0 73.113856271855184 -6.855195861964603 0 0 0 0 5.7957161665394779 34.905438874317042 0 34.905438874317042 -29.269202364310331 0 0 0 0 -38.850797527732084 50.549748492187064 0 50.549748492187064 -32.313155886760796 0 0 0 0 -33.420695588831521 -21.78203688230542 0 -21.78203688230542 -67.31922332807153 0 0 0 0 -56.279328661714885 -66.294648385248365 0 -66.294648385248365 -156.02331904676976 0 0 0 0 -88.777794429518735 -4.5524482527107466 0 -4.5524482527107466 -62.711915051400865 0 0 0 0 -77.534391414455285 -77.755596922579571 0 -77.755596922579571 -139.90790894789097 0 0 0 0 -0.69769766241701481 2.1288987506018771 0 2.1288987506018771 -3.8213829850019465 0 0 0 0 -101.84851436930607 -144.58954743822324 0 -144.58954743822324 -225.11797283409396 0 0 0 0 -74.494609207779746 -70.269732878026844 0 -70.269732878026844 -203.86250200719951 0 0 0 0 -42.526380007684985 -67.118299267312977 0 -67.118299267312977 -217.89160980336601 0 0 0 0 -27.863551481606692 4.3662320184885175 0 4.3662320184885175 -106.59687022130674 0 0 0 0 -31.607098141403469 54.475132622908859 0 54.475132622908859 -76.448592553941126 0 0 0 0 0.22193645877515275 -1.1909667916701174 0 -1.1909667916701174 -0.60211898385034601 0 0 0 0 -28.323862296757056 -14.121152338491811 0 -14.121152338491811 1.4160725992114749 0 0 0 0 -16.827688537711197 53.102608656990924 0 53.102608656990924 -14.569566828336974 0 0 0 0 -26.85325314177463 5.6213374523285893 0 5.6213374523285893 -195.2075627901504 0 0 0 0 -46.623973268244058 -55.618139050995524 0 -55.618139050995524 -77.758272340695839 0 0 0 0 -50.313545271821582 9.7085591705836123 0 9.7085591705836123 65.324668197834399 0 0 0 0 -12.508482176228469 4.5514476843745797 0 4.5514476843745797 -148.11189951800407 0 0 0 0 20.809432097894458 -46.189704053438618 0 -46.189704053438618 -296.29421571738203 0 0 0 0 -65.645547510596572 -284.75408188044094 0 -284.75408188044094 -440.77551515456594 0 0 0 0 -42.915136523025083 -121.3058128618286 0 -121.3058128618286 -129.78302322427953 0 0 0 0 45.55535181322162 -105.30956337494536 0 -105.30956337494536 -185.76929346143152 0 0 0 0 20.979219159456658 -69.694047984659846 0 -69.694047984659846 -444.52970139001263 0 0 0 0 -0.044294801591725434 -137.80191627658095 0 -137.80191627658095 -417.65147403953597 0 0 0 0 44.578680890786664 -26.506935688976228 0 -26.506935688976228 -176.86078615307633 0 0 0 0 -0.16108775474973819 -51.752592005206679 0 -51.752592005206679 -144.38910297849361 0 0 0 0 -0.21575034670841695 0.63883436350704415 0 0.63883436350704415 -1.7633753563299024 0 0 0 0 -164.09947089476486 -138.59719124024559 0 -138.59719124024559 -233.89574857446132 0 0 0 0 -25.962668752653471 -41.350464256596752 0 -41.350464256596752 -252.01753144046234 0 0 0 0 -108.78773667858438 -243.80990982789081 0 -243.80990982789081 -360.08409766219847 0 0 0 0 0.29481594253599219 -105.84621093770693 0 -105.84621093770693 -452.43700364085089 0 0 0 0 -27.751416385821472 -301.05415926787828 0 -301.05415926787828 -865.87866551475599 0 0 0 0 -108.6642132667461 -182.29077149110526 0 -182.29077149110526 -385.48148082690022 0 0 0 0 -170.26840333059747 -187.42604544106143 0 -187.42604544106143 -302.6074168853811 0 0 0 0 -70.065155460407965 -326.64526492451114 0 -326.64526492451114 -803.25969637757225 0 0 0 0 -0.99062974176186303 2.399893568164714 0 2.399893568164714 -4.4125863449408484 0 0 0 0 -60.899108171233934 -257.61593662263476 0 -257.61593662263476 -856.75647870978719 0 0 0 0 -99.258770784367812 -482.83623136922688 0 -482.83623136922688 -1165.76824734416 0 0 0 0 -7.0325418602102552 -471.16079422828443 0 -471.16079422828443 -1215.4203965254128 0 0 0 0 -402.55900381775632 -610.82580105693341 0 -610.82580105693341 -1190.4442223837395 0 0 0 0 -367.70044197915348 -1133.5880613538975 0 -1133.5880613538975 -2506.2954966012767 0 0 0 0 -2.0193588357536707 -288.88980434480436 0 -288.88980434480436 -1241.8546572710911 0 0 0 0 -242.17412594391817 -279.74709920854366 0 -279.74709920854366 -861.00183521620602 0 0 0 0 -9.612386911716456 -321.84636143389253 0 -321.84636143389253 -1399.6330064665817 0 0 0 0 -464.74037807278989 83.992770918433962 0 83.992770918433962 -1756.630305517916 0 0 0 0 -278.357825803151 227.8953093592645 0 227.8953093592645 -1659.3031227346946 0 0 0 0 -0.56256614073824485 243.20362412338 0 243.20362412338 -1883.9956949236075 0 0 0 0 -196.56690068823173 331.7081754184328 0 331.7081754184328 -1660.9594154731058 0 0 0 0 -0.17680198580527129 458.03836331332423 0 458.03836331332423 -1603.39871478024 0 0 0 0 -290.31636309739997 555.5635193557755 0 555.5635193557755 -1453.0411099270132 0 0 0 0 -405.10709408283947 476.02196057135734 0 476.02196057135734 -1490.4373048583111 0 0 0 0 -420.66677462142161 521.0871259976484 0 521.0871259976484 -1161.8109516919212 0 0 0 0 -294.53627955624415 221.99608633187745 0 221.99608633187745 -1309.198422542293 0 0 0 0 -403.87172194264269 407.4684334958929 0 407.4684334958929 -1386.0414679270179 0 0 0 0 -567.21239978488893 352.65490171234705 0 352.65490171234705 -1424.4722527064223 0 0 0 0 -318.14797220074291 146.27182338006605 0 146.27182338006605 -1688.7794497468858 0 0 0 0 -355.27285158723839 374.90825851538102 0 374.90825851538102 -1685.8462493179395 0 0 0 0 -247.63387798671192 226.17954795611877 0 226.17954795611877 -1412.0528812011034 0 0 0 0 101.13732311876174 -73.201358414873539 0 -73.201358414873539 -1544.6810047528852 0 0 0 0 -160.0520376357581 230.60930188591738 0 230.60930188591738 -1897.3818976979819 0 0 0 0 238.96402578300695 -308.40760633880564 0 -308.40760633880564 -1938.4376107802154 0 0 0 0 112.59559626252349 -268.95275275639142 0 -268.95275275639142 -1485.2162512465438 0 0 0 0 -678.93117986283073 504.00374821583682 0 504.00374821583682 -2043.394635133016 0 0 0 0 35.960863847360542 67.750489525038574 0 67.750489525038574 -2633.0131796293936 0 0 0 0 -841.07066893209867 -257.92919944378718 0 -257.92919944378718 -2059.4725831945543 0 0 0 0 -162.28144903099692 121.23199755632959 0 121.23199755632959 -1959.8573360939408 0 0 0 0 0.65266760875512531 -150.72701452710317 0 -150.72701452710317 -2502.9131810039253 0 0 0 0 86.756444883150692 577.51606504119263 0 577.51606504119263 -1944.7703035946543 0 0 0 0 -527.16476607366315 594.97238624808233 0 594.97238624808233 -230.49736987944925 0 0 0 0 -0.75564631373799873 -0.73866194946797492 0 -0.73866194946797492 -17.12934613961329 0 0 0 0 -20.516095405458486 -265.28370129441464 0 -265.28370129441464 -354.34676084533203 0 0 0 0 -0.53543157345248993 -85.558321947268269 0 -85.558321947268269 -408.18706460289832 0 0 0 0 -7.2694689803180736 13.246305968597881 0 13.246305968597881 58.731843362249492 0 0 0 0 -182.79541790253788 111.68670377718809 0 111.68670377718809 247.15071646403521 0 0 0 0 0.49433260177947858 -0.83717707107027195 0 -0.83717707107027195 0.52040841501504076 0 0 0 0 2.2632359103617667 5.1106074471164185 0 5.1106074471164185 -41.790093470702857 0 0 0 0 -9.729339313506344 44.524529665380669 0 44.524529665380669 34.057697461248608 0 0 0 0 102.74417653858529 -54.837202717222681 0 -54.837202717222681 -7.1320647094107699 0 0 0 0 3.8376620308218103 -1.059478348347227 0 -1.059478348347227 -7.2318460351886529 0 0 0 0 68.416356278986342 50.550060806992406 0 50.550060806992406 -22.042909633928502 0 0 0 0 -0.07055158170770931 33.708946163115577 0 33.708946163115577 -8.6407558681385126 0 0 0 0 -0.33823287121826728 3.1053818026453115 0 3.1053818026453115 0.81648199577733749 0 0 0 0 -15.880052679374131 14.528074429763365 0 14.528074429763365 36.029539782161009 0 0 0 0 29.529616525424416 -141.55506177745428 0 -141.55506177745428 -411.31268676048785 0 0 0 0 -0.95550616018625822 25.586713912249905 0 25.586713912249905 -18.161707207583319 0 0 0 0 -114.56053835108651 64.749773753348563 0 64.749773753348563 -50.326882310600922 0 0 0 0 92.471286128871952 -154.58063850597318 0 -154.58063850597318 -427.13978686011978 0 0 0 0 -176.29344770324531 -549.84402449085337 0 -549.84402449085337 -1011.4649659621937 0 0 0 0 -170.58103964136671 -135.79804369444901 0 -135.79804369444901 -377.65365931915585 0 0 0 0 -607.79795502003503 -1237.3471069162597 0 -1237.3471069162597 -1703.3551908669324 0 0 0 0 207.87787892525648 -345.8749847599538 0 -345.8749847599538 -1512.5587302616477 0 0 0 0 257.62071090221252 -298.24057420529425 0 -298.24057420529425 -1472.8520681731316 0 0 0 0 212.91832287674515 -401.3284120557073 0 -401.3284120557073 -1380.5448445830843 0 0 0 0 273.29891059734837 -344.05355964059709 0 -344.05355964059709 -1442.8515105633851 0 0 0 0 280.65066122973167 -368.91127936269186 0 -368.91127936269186 -1493.4651722915587 0 0 0 0 276.0089412834559 -251.69944966750336 0 -251.69944966750336 -1478.1405515311635 0 0 0 0 119.80736189251684 -145.50286385697109 0 -145.50286385697109 -738.13045317289652 0 0 0 0 257.13674113818161 -163.33777100635052 0 -163.33777100635052 -1267.229267265473 0 0 0 0 224.94025771447559 -1.3131627669499721 0 -1.3131627669499721 -1286.6664961881761 0 0 0 0 152.68556625561905 -201.55102625040308 0 -201.55102625040308 -1099.4257449229335 0 0 0 0 215.53932106255002 -233.6237396441029 0 -233.6237396441029 -1089.6338651466649 0 0 0 0 -23.935254727494794 -85.219719615633949 0 -85.219719615633949 -461.64688931764977 0 0 0 0 12.646147001726604 162.39483948409907 0 162.39483948409907 -489.37549608289555 0 0 0 0 153.29093280683901 -32.678083668128238 0 -32.678083668128238 -350.38737185459468 0 0 0 0 -8.1316985987540455 28.506090348544461 0 28.506090348544461 -13.120627989646039 0 0 0 0 -43.555204653127021 37.442983123430167 0 37.442983123430167 90.167287337622838 0 0 0 0 -75.42021475632373 133.82080761114048 0 133.82080761114048 -6.3113580808130791 0 0 0 0 15.020176657649017 -31.280580488713895 0 -31.280580488713895 -139.6845755421964 0 0 0 0 -80.636236100140195 -85.446811139798228 0 -85.446811139798228 32.126008171559079 0 0 0 0 -10.864953678206678 28.5907436797348 0 28.5907436797348 -13.774961071407802 0 0 0 0 -84.197309729242306 215.28197110776637 0 215.28197110776637 -134.73023411474423 0 0 0 0 -166.28099511274559 76.665006213850575 0 76.665006213850575 235.1966292876532 0 0 0 0 37.705766267453328 -51.678244475551764 0 -51.678244475551764 -408.73621289833682 0 0 0 0 -61.059853827746338 277.19905517534062 0 277.19905517534062 -799.84070828669064 0 0 0 0 -18.103026933110414 148.57696774179931 0 148.57696774179931 -703.6276198066771 0 0 0 0 -234.21242773985614 449.05876003447338 0 449.05876003447338 -342.61549993969675 0 0 0 0 -285.42035425787344 203.01966362517123 0 203.01966362517123 -234.8910709348711 0 0 0 0 -97.936795147012162 64.344218681791972 0 64.344218681791972 -13.977369889908005 0 0 0 0 -84.963554120402478 45.924709676139173 0 45.924709676139173 -211.80710254792939 0 0 0 0 -99.500552280702323 563.19511253616656 0 563.19511253616656 -1682.0850396276219 0 0 0 0 -51.7754965059612 214.40762400167296 0 214.40762400167296 -1541.3423152001487 0 0 0 0 17.129566523749418 64.85767387760643 0 64.85767387760643 -2504.7683037100942 0 0 0 0 162.72905193879342 169.65192459337413 0 169.65192459337413 -2052.5377964143117 0 0 0 0 -235.23316458994304 -281.86590260481171 0 -281.86590260481171 -1825.3120466839464 0 0 0 0 -93.911165550627629 351.0834822326724 0 351.0834822326724 -3187.4512305784738 0 0 0 0 -937.8019478797396 671.28644478079514 0 671.28644478079514 -2504.4104522414127 0 0 0 0 -1447.5584163946187 -347.47927061890368 0 -347.47927061890368 -2057.2640035760705 0 0 0 0 173.80720511521758 -59.037951173610054 0 -59.037951173610054 -1090.0522619186813 0 0 0 0 -137.58554437446946 468.5512512717396 0 468.5512512717396 -1022.8115520878928 0 0 0 0 165.00905142511147 54.326737802199204 0 54.326737802199204 -1644.7916669741826 0 0 0 0 173.35822415825919 108.15030213703358 0 108.15030213703358 -1366.3776114732609 0 0 0 0 275.15494886407032 -187.61375491564104 0 -187.61375491564104 -1710.4046221451863 0 0 0 0 149.19210499209959 -189.16900643046915 0 -189.16900643046915 -1855.812520022504 0 0 0 0 150.62807375523516 -250.99599790244247 0 -250.99599790244247 -1582.280542836379 0 0 0 0 144.63024459202643 -305.18468127465167 0 -305.18468127465167 -1584.016829615226 0 0 0 0 271.87217332195178 -318.96463477474754 0 -318.96463477474754 -1525.7890170165338 0 0 0 0 251.02831686329046 -369.7437019473582 0 -369.7437019473582 -1642.7012413980556 0 0 0 0 -772.3374686864554 167.03445878945058 0 167.03445878945058 -1893.9273068739276 0 0 0 0 -20.256267914743148 -101.14974226908816 0 -101.14974226908816 -1855.9614141954808 0 0 0 0 -244.96084751221133 106.60482402823982 0 106.60482402823982 -2238.667909093565 0 0 0 0 -135.26947326292429 -144.81358911379357 0 -144.81358911379357 -2222.4878439144231 0 0 0 0 99.053629580270353 -402.1547420634015 0 -402.1547420634015 -1757.3102461756498 0 0 0 0 -297.94827470412929 -156.05972780077718 0 -156.05972780077718 -1586.825290549692 0 0 0 0 65.177684144082377 -267.34003493007913 0 -267.34003493007913 -1408.9065986558271 0 0 0 0 20.115521716393232 -281.33318270303425 0 -281.33318270303425 -1422.9902287876175 0 0 0 0 161.62515600354891 -217.65055963525083 0 -217.65055963525083 -1588.7054791944779 0 0 0 0 166.92910242821745 -132.81207300393726 0 -132.81207300393726 -1299.169184669925 0 0 0 0 299.51690167871766 -298.65649394735374 0 -298.65649394735374 -1422.6063321390247 0 0 0 0 306.53599026755523 -267.70119535868798 0 -267.70119535868798 -1198.8407266873983 0 0 0 0 411.0780744492713 -26.422061653254787 0 -26.422061653254787 -969.83753244486434 0 0 0 0 370.11899794589954 -347.05332579830429 0 -347.05332579830429 -1078.568042040366 0 0 0 0 291.06763031864921 -226.02424253921345 0 -226.02424253921345 -1211.4623786772281 0 0 0 0 179.41622244951941 -406.71529449759691 0 -406.71529449759691 -1331.7399574180745 0 0 0 0 166.94668512110002 -414.82815036093234 0 -414.82815036093234 -1554.5330559459471 0 0 0 0 285.0062555833083 -386.39748767558194 0 -386.39748767558194 -1522.6685507225729 0 0 0 0 213.30658426343416 -322.19826922168431 0 -322.19826922168431 -1408.1652222164848 0 0 0 0 285.67041809184957 -375.09330979917286 0 -375.09330979917286 -1487.4566450362036 0 0 0 0 218.75516110483204 -269.19585631437076 0 -269.19585631437076 -1438.2106631589049 0 0 0 0 90.994761264938916 -101.98316882475774 0 -101.98316882475774 -1609.8345030657292 0 0 0 0 195.68769071004635 -346.85312056383555 0 -346.85312056383555 -1508.9060052180721 0 0 0 0 157.00035939448617 -267.50751881674296 0 -267.50751881674296 -1256.5097686077352 0 0 0 0 189.78121292364676 -212.87854788419645 0 -212.87854788419645 -1316.217331373773 0 0 0 0 211.44110816753073 -138.74321618978138 0 -138.74321618978138 -1082.2628409884128 0 0 0 0 234.18409890787757 -361.93950648851751 0 -361.93950648851751 -1260.8222755568277 0 0 0 0 -139.94247745339044 -29.219090577702445 0 -29.219090577702445 -922.28878888518375 0 0 0 0 -389.30341365851274 273.28389511341538 0 273.28389511341538 -970.42367170017678 0 0 0 0 -105.40481338269956 94.692368125914072 0 94.692368125914072 -1291.2791519651073 0 0 0 0 -372.43398732703326 377.89262081705965 0 377.89262081705965 -1085.0623628516769 0 0 0 0 -467.17951599949356 203.83213229641842 0 203.83213229641842 -641.22394361328043 0 0 0 0 65.119624382192342 -158.02818286937691 0 -158.02818286937691 -499.47113627110957 0 0 0 0 -100.13303163641649 32.031624654642656 0 32.031624654642656 -766.4087288830633 0 0 0 0 5.40104631666145 33.012828867940698 0 33.012828867940698 -996.95512722468993 0 0 0 0 203.10470393908781 345.4850970266998 0 345.4850970266998 -500.57954813940944 0 0 0 0 303.22847677143636 47.819942662397807 0 47.819942662397807 118.65132633248868 0 0 0 0 1165.9221144914532 1236.7285751569943 0 1236.7285751569943 347.70304657594897 0 0 0 0 662.65090463908837 39.467604733174085 0 39.467604733174085 -516.89765026205896 0 0 0 0 231.04754038319697 -96.155010924958333 0 -96.155010924958333 -502.83673113297846 0 0 0 0 626.15452954517332 8.4373859038460068 0 8.4373859038460068 -842.7959062337759 0 0 0 0 171.84993963815396 -202.98204277236073 0 -202.98204277236073 -755.93060899205739 0 0 0 0 147.75307780989897 -157.35197248442273 0 -157.35197248442273 -188.2408689497679 0 0 0 0 451.13188004443236 515.20724468696426 0 515.20724468696426 137.71362962689091 0 0 0 0 11.47730681087317 8.2028105805647158 0 8.2028105805647158 -16.642837554412438 0 0 0 0 80.649534288595532 -117.89571798058751 0 -117.89571798058751 -857.53169854804582 0 0 0 0 21.416517621677031 -95.135212917415629 0 -95.135212917415629 -553.47337190399412 0 0 0 0 67.448220599924753 54.472575535270153 0 54.472575535270153 -548.49182171896973 0 0 0 0 23.242667455706396 -51.965816779051238 0 -51.965816779051238 -341.25564424387994 0 0 0 0 13.924459625420132 20.909393260342323 0 20.909393260342323 -101.15703439180231 0 0 0 0 359.53095706527529 -306.35165773899644 0 -306.35165773899644 -525.57921243878172 0 0 0 0 -2.3448972807391657 29.375765072965322 0 29.375765072965322 -72.422780183341104 0 0 0 0 740.62648885158728 0.7151483998486583 0 0.7151483998486583 -467.38663393339084 0 0 0 0 42.335901767992254 52.147873367124703 0 52.147873367124703 -269.64100247588067 0 0 0 0 18.299552372645174 7.8376571723750885 0 7.8376571723750885 -27.6687359702305 0 0 0 0 -116.50672545647831 104.34330998115911 0 104.34330998115911 -299.646931652067 0 0 0 0 270.25164816810502 10.352000427148596 0 10.352000427148596 -929.32155032939045 0 0 0 0 -456.11922739951115 -1043.0858891677635 0 -1043.0858891677635 -769.57653569066315 0 0 0 0 175.28074577760526 -350.95742270569872 0 -350.95742270569872 -1101.5983278160274 0 0 0 0 -18.494786203398476 36.273318421712361 0 36.273318421712361 -43.00267822773003 0 0 0 0 -33.346488412892199 -149.95364570954416 0 -149.95364570954416 -2185.4860715746036 0 0 0 0 826.7590946939672 671.88834808954562 0 671.88834808954562 170.1691733493717 0 0 0 0 -1.7772457120014025 13.59467628323479 0 13.59467628323479 -3.8725482439868983 0 0 0 0 -254.15003694952247 -509.41794441033562 0 -509.41794441033562 -2108.9770475184196 0 0 0 0 -257.28221319378554 -436.32518298169452 0 -436.32518298169452 -2266.9806625067431 0 0 0 0 86.23274617161951 -292.99031985551119 0 -292.99031985551119 -2223.9538825540221 0 0 0 0 379.7355494105941 15.952165391980088 0 15.952165391980088 -1875.8290443277001 0 0 0 0 171.68059775423899 -281.57693470074446 0 -281.57693470074446 -2175.283142978602 0 0 0 0 -89.421927349821999 -19.894618445516244 0 -19.894618445516244 -1967.2110230622638 0 0 0 0 319.71104855236263 -17.253680271620397 0 -17.253680271620397 -2228.6079213243356 0 0 0 0 334.29052800741556 67.473219584178878 0 67.473219584178878 -1832.4987277137116 0 0 0 0 434.18461700302555 171.50662622124491 0 171.50662622124491 -2050.1855643937306 0 0 0 0 435.46827095472736 150.64881354130421 0 150.64881354130421 -1895.115826915775 0 0 0 0 371.3638112601875 38.901998691158951 0 38.901998691158951 -1633.4946483695821 0 0 0 0 348.67052653680366 189.01729678806441 0 189.01729678806441 -1777.9556720302789 0 0 0 0 377.7146696466807 -90.067668036310351 0 -90.067668036310351 -1455.4982201744861 0 0 0 0 314.92078003687539 -197.77481242973045 0 -197.77481242973045 -728.84918404367636 0 0 0 0 358.41963343993484 92.484673236715025 0 92.484673236715025 -1198.6108088173787 0 0 0 0 423.03580063894788 -163.89241062968358 0 -163.89241062968358 -973.74003889763844 0 0 0 0 374.62425877777787 108.91888436654699 0 108.91888436654699 -729.97185182236717 0 0 0 0 382.44076810130628 -104.04888838274201 0 -104.04888838274201 -1225.0026074377529 0 0 0 0 261.13526301507 40.152602117236711 0 40.152602117236711 -1155.7699254417676 0 0 0 0 281.41000540842469 -127.36904038522334 0 -127.36904038522334 -1354.813526759739 0 0 0 0 265.24051244458678 135.13102761811751 0 135.13102761811751 -1417.6722283784038 0 0 0 0 85.918034999256349 92.949128289812052 0 92.949128289812052 -1544.0195254388673 0 0 0 0 -201.80286395382063 239.51733932766365 0 239.51733932766365 -1821.2186966574809 0 0 0 0 193.61305978198652 -11.696608544851188 0 -11.696608544851188 -1691.2453342180088 0 0 0 0 160.97389431193665 260.40356328955659 0 260.40356328955659 -1800.3162156307371 0 0 0 0 172.02313794989095 270.50881294536521 0 270.50881294536521 -2095.6029751723399 0 0 0 0 181.15256689651869 210.40441899069992 0 210.40441899069992 -1924.6453599020606 0 0 0 0 128.06699856703926 96.88516843636171 0 96.88516843636171 -2087.6820541987272 0 0 0 0 -42.382532011411968 134.06247464497574 0 134.06247464497574 -2099.9554457457634 0 0 0 0 109.74779292019184 111.61960796507265 0 111.61960796507265 -2096.6615706809389 0 0 0 0 -106.3985454767726 347.69185405886674 0 347.69185405886674 -2502.5240489092539 0 0 0 0 388.57428508338853 250.79134546246496 0 250.79134546246496 -1930.6003354252389 0 0 0 0 426.45499048391503 272.93055430066306 0 272.93055430066306 -1981.5991134949145 0 0 0 0 375.95942822198231 275.7358910343537 0 275.7358910343537 -1978.0672609593312 0 0 0 0 296.88716338534869 179.3215003515943 0 179.3215003515943 -1916.2991503280064 0 0 0 0 315.03970576682696 234.0852448726946 0 234.0852448726946 -1960.3395945943776 0 0 0 0 311.34722218656316 264.42756314358849 0 264.42756314358849 -2073.3097379774845 0 0 0 0 396.1658525322091 288.4178418758238 0 288.4178418758238 -1938.4311417370336 0 0 0 0 416.4515843639183 273.16019420924567 0 273.16019420924567 -1981.6043301858299 0 0 0 0 349.9035419803804 225.94640921767859 0 225.94640921767859 -1697.7302266951592 0 0 0 0 316.0518816050535 124.52867079537828 0 124.52867079537828 -1823.7151023713959 0 0 0 0 162.38059400417114 -88.957031099154847 0 -88.957031099154847 -1875.2672329484631 0 0 0 0 294.03497113682351 186.14146799461741 0 186.14146799461741 -1991.461875385372 0 0 0 0 200.25018732897297 126.06812089253799 0 126.06812089253799 -1983.6988272627932 0 0 0 0 116.14555384286996 -198.30172969131672 0 -198.30172969131672 -2258.3326538216788 0 0 0 0 130.78578794402983 -98.547635331851779 0 -98.547635331851779 -1793.0205092791584 0 0 0 0 -207.2464856226361 -742.51632710812555 0 -742.51632710812555 -1835.4295350936154 0 0 0 0 -300.99322345813198 -680.66138386266539 0 -680.66138386266539 -1149.8046547331614 0 0 0 0 90.524614298337838 -268.04260419806815 0 -268.04260419806815 -1895.7640439826646 0 0 0 0 -159.73768851820205 -456.09874223201768 0 -456.09874223201768 -940.77830406706198 0 0 0 0 74.539546724856336 -288.95806174240715 0 -288.95806174240715 -1401.2708930716617 0 0 0 0 197.06083154725638 -7.8022856168099679 0 -7.8022856168099679 -1758.8823088824283 0 0 0 0 196.65150371811205 -3.263751355779732 0 -3.263751355779732 -1318.0254370469484 0 0 0 0 118.3353316117682 -109.84904892247869 0 -109.84904892247869 -1337.9453635038808 0 0 0 0 80.503611189997173 -142.48561927553965 0 -142.48561927553965 -1118.72283454024 0 0 0 0 55.443489032376419 130.28175384190763 0 130.28175384190763 -679.56097223621327 0 0 0 0 42.561707856708381 60.222762454999611 0 60.222762454999611 -913.06154845724814 0 0 0 0 145.93017872163546 -427.46738175587961 0 -427.46738175587961 -2996.0977787200536 0 0 0 0 -78.301452109688853 615.04110490962194 0 615.04110490962194 -871.92757680036448 0 0 0 0 -332.56338433705241 -96.710527663992252 0 -96.710527663992252 226.70971095137065 0 0 0 0 -5.6225837121704103 8.5904071631528893 0 8.5904071631528893 -9.8046904234891485 0 0 0 0 135.38500701597513 46.045185767878138 0 46.045185767878138 -2661.8528470220626 0 0 0 0 35.918732573318266 -16.277909634925891 0 -16.277909634925891 -2504.6867681361036 0 0 0 0 130.63511344233848 183.98116616952757 0 183.98116616952757 -2418.0777250560932 0 0 0 0 120.29933143144444 -87.296063005749602 0 -87.296063005749602 -2371.0529993788405 0 0 0 0 222.85730375256935 137.05955470347544 0 137.05955470347544 -2215.6908967533964 0 0 0 0 173.55992645666993 -185.81625884809182 0 -185.81625884809182 -2456.077113808482 0 0 0 0 117.69470199045463 -21.414654675929341 0 -21.414654675929341 -2239.6623690578854 0 0 0 0 52.749506704698433 -40.691577104793396 0 -40.691577104793396 -2055.8296207317035 0 0 0 0 29.130122155238496 -695.71505286045431 0 -695.71505286045431 -2508.1475076317438 0 0 0 0 -0.76502776592917954 0.4097074769499045 0 0.4097074769499045 0.36314425432868802 0 0 0 0 -110.08690381545694 201.13238754597114 0 201.13238754597114 30.600624128259369 0 0 0 0 -18.417067088790645 -25.846518433943857 0 -25.846518433943857 77.772577022260521 0 0 0 0 -33.265858283768466 -6.5575026048754808 0 -6.5575026048754808 63.581482868350577 0 0 0 0 17.624772112396386 -28.775460796867264 0 -28.775460796867264 -48.959097711376671 0 0 0 0 35.572010918704109 -58.409980744821951 0 -58.409980744821951 -4.3720652055562823 0 0 0 0 57.867402063928239 -70.836380830893177 0 -70.836380830893177 43.644092433241894 0 0 0 0 17.193405375568545 -19.445563224086072 0 -19.445563224086072 -14.457931908225873 0 0 0 0 -1.1203374177167476 4.2261126426009525 0 4.2261126426009525 -8.0863975524445948 0 0 0 0 237.00435426757849 132.16585490323996 0 132.16585490323996 -328.27051728506194 0 0 0 0 49.655985823712399 9.5284553672390757 0 9.5284553672390757 -24.7938979150058 0 0 0 0 -406.43031480655191 -397.6479409475578 0 -397.6479409475578 -228.35371841239976 0 0 0 0 -275.8803575733109 -509.9101947259478 0 -509.9101947259478 -439.81256682286039 0 0 0 0 -365.78262411306787 -95.10757542567444 0 -95.10757542567444 -98.252964589672047 0 0 0 0 -114.21282695616537 119.77738658961607 0 119.77738658961607 -434.340000551907 0 0 0 0 -71.568042202870856 133.21178519900423 0 133.21178519900423 -670.59585691342363 0 0 0 0 -171.97160830405483 -137.12675660953391 0 -137.12675660953391 -482.23858671099879 0 0 0 0 -169.29766237695003 -123.16125041089254 0 -123.16125041089254 -536.70745081704808 0 0 0 0 102.29246054156374 -47.602917467906082 0 -47.602917467906082 -15.51296586060198 0 0 0 0 11.414382738971653 24.723031684674424 0 24.723031684674424 -24.111200061815907 0 0 0 0 41.349368328940727 -24.497075846193184 0 -24.497075846193184 -18.737862934154691 0 0 0 0 -17.035790378325146 -9.1040474445762811 0 -9.1040474445762811 -20.893554084090283 0 0 0 0 -20.713698551758171 -0.42441450840851758 0 -0.42441450840851758 101.19474670255295 0 0 0 0 62.82766876972164 -29.278962971118744 0 -29.278962971118744 -24.006461750119342 0 0 0 0 -174.19774395423701 269.43061261273033 0 269.43061261273033 626.12318941548438 0 0 0 0 -22.75528928887752 2.6054208076311625 0 2.6054208076311625 -17.010020165587775 0 0 0 0 -25.70654060619745 11.803662153251935 0 11.803662153251935 -8.9741369737475907 0 0 0 0 458.40368800172291 365.9919791695429 0 365.9919791695429 166.75905915448675 0 0 0 0 -24.557112193019208 16.309009666093317 0 16.309009666093317 -20.019480003052422 0 0 0 0 -4.3607742333330828 3.6081368242820275 0 3.6081368242820275 -23.37631583126489 0 0 0 0 -21.824427260027733 21.031805286307645 0 21.031805286307645 -16.881582677699043 0 0 0 0 -153.20947875713682 178.06802367739147 0 178.06802367739147 -178.94576566282194 0 0 0 0 -12.222363391664222 9.4913166088981882 0 9.4913166088981882 -0.54069426170440238 0 0 0 0 753.6563328712582 363.14158888321253 0 363.14158888321253 112.86515712394612 0 0 0 0 -20.871350727824407 18.761511268334971 0 18.761511268334971 -14.397699979196432 0 0 0 0 50.628531743330313 47.83522741415436 0 47.83522741415436 574.34629284293624 0 0 0 0 66.828444593633321 171.23540148473694 0 171.23540148473694 -324.46203689300455 0 0 0 0 -70.211765369451314 243.87336234626127 0 243.87336234626127 -304.89264364010887 0 0 0 0 893.19434803760305 393.06578883345355 0 393.06578883345355 -697.29641038400587 0 0 0 0 231.823568800879 374.36644047184382 0 374.36644047184382 -687.32444304752426 0 0 0 0 82.192036381176877 99.734209011185158 0 99.734209011185158 449.29912203122512 0 0 0 0 545.49708954981179 511.66612282974529 0 511.66612282974529 149.60592625031131 0 0 0 0 337.59650930404678 547.99695108483866 0 547.99695108483866 197.81316827764385 0 0 0 0 57.480043639730866 408.9151545947534 0 408.9151545947534 -441.62702125872602 0 0 0 0 -188.87441731656691 1.6834619358196505 0 1.6834619358196505 169.24654957218445 0 0 0 0 -93.484732562512363 495.9882129370817 0 495.9882129370817 -1316.9234826195461 0 0 0 0 387.91779034306637 503.21167028378841 0 503.21167028378841 -1177.867423359392 0 0 0 0 56.129900067739072 113.60552035737783 0 113.60552035737783 -566.24848855209711 0 0 0 0 179.59895797181525 421.0933770997508 0 421.0933770997508 -1498.7298177005869 0 0 0 0 341.41663533348037 254.57720509673527 0 254.57720509673527 -1400.9507344013546 0 0 0 0 178.73264284571633 565.24872904603399 0 565.24872904603399 -2059.5930440742231 0 0 0 0 -63.055415799462935 240.74554864713718 0 240.74554864713718 -1507.8307332015247 0 0 0 0 199.73921259655617 175.81565447148751 0 175.81565447148751 -1203.7424513228179 0 0 0 0 334.37759678364455 356.34609345703211 0 356.34609345703211 -1266.5949933270676 0 0 0 0 248.65252932666772 493.72248229739489 0 493.72248229739489 -627.15632434212603 0 0 0 0 276.56344108180929 443.8435118975176 0 443.8435118975176 -1106.2129001851808 0 0 0 0 366.46537573475143 359.42633594737708 0 359.42633594737708 -1097.0536877405248 0 0 0 0 389.53141377263455 368.55940050397476 0 368.55940050397476 -1685.3570541899826 0 0 0 0 374.33744787801334 289.31914061115822 0 289.31914061115822 -1647.7608423325582 0 0 0 0 361.21280077494612 180.89091781335992 0 180.89091781335992 -1710.4773072471144 0 0 0 0 417.31626734209567 340.33559056834201 0 340.33559056834201 -1739.9256689685171 0 0 0 0 457.61670356280956 340.81345637666527 0 340.81345637666527 -2033.7064467199962 0 0 0 0 436.25601142072628 335.01079070332344 0 335.01079070332344 -2084.7086394109065 0 0 0 0 295.48480007465696 356.14013003882428 0 356.14013003882428 -2062.9090997690801 0 0 0 0 457.89164887459992 187.1922817837476 0 187.1922817837476 -2265.4798440387531 0 0 0 0 228.59584625227944 95.843273925333051 0 95.843273925333051 -2108.031008121543 0 0 0 0 411.79798453813419 221.87338500967599 0 221.87338500967599 -2039.1739389234599 0 0 0 0 449.02613292872593 261.82167519830546 0 261.82167519830546 -2015.5123774505919 0 0 0 0 -338.83286799006237 772.56276658063871 0 772.56276658063871 -2375.662773811011 0 0 0 0 320.4644368027075 184.41196484757529 0 184.41196484757529 -2247.5052503459883 0 0 0 0 222.08825384907686 274.25515432239627 0 274.25515432239627 -2324.1701148059801 0 0 0 0 250.98723759628638 -130.53025150894246 0 -130.53025150894246 -2629.5104830517084 0 0 0 0 250.41703840265291 272.6537761701893 0 272.6537761701893 -3375.190708183276 0 0 0 0 24.728689081118318 -534.23133263979616 0 -534.23133263979616 -3125.6396854724444 0 0 0 0 -815.98315336024098 1523.4611925630161 0 1523.4611925630161 -4076.9188035464467 0 0 0 0 -578.79890666183201 304.50228638695262 0 304.50228638695262 -1763.3948774750315 0 0 0 0 -189.59757815352714 669.56729984660342 0 669.56729984660342 -3913.6150063364767 0 0 0 0 -2027.7949440695302 690.69815485282743 0 690.69815485282743 -993.11443118735042 0 0 0 0 -635.54475160433503 -205.33704881457379 0 -205.33704881457379 -1214.9405762541173 0 0 0 0 -584.47692665195791 66.275816858884355 0 66.275816858884355 -612.48183019226417 0 0 0 0 -572.27874628839345 603.84071422510897 0 603.84071422510897 -1581.1472263908508 0 0 0 0 -1247.651132522109 165.28215276788978 0 165.28215276788978 -496.75069402437657 0 0 0 0 -410.38432401485443 136.57846851274007 0 136.57846851274007 -681.04991241858806 0 0 0 0 -375.07313824111407 397.97557831378072 0 397.97557831378072 -546.97993571067491 0 0 0 0 -651.56810008126104 -1.5830479585638386 0 -1.5830479585638386 69.529962834640173 0 0 0 0 -524.24920674384703 125.341972313101 0 125.341972313101 -509.66990119184084 0 0 0 0 -203.46878520104292 -224.28767833087477 0 -224.28767833087477 77.326034304176574 0 0 0 0 -703.74820688201044 -348.6729745012326 0 -348.6729745012326 50.539483968168497 0 0 0 0 -164.28499597757764 -51.206352026543755 0 -51.206352026543755 409.35780599297141 0 0 0 0 -302.79913114020019 -291.48387277196161 0 -291.48387277196161 254.60575088925543 0 0 0 0 -9.7495636204206662 8.6554477098733855 0 8.6554477098733855 -8.0946356263922894 0 0 0 0 -18.97510542750215 3.8257050435526878 0 3.8257050435526878 -0.75042475255634145 0 0 0 0 -33.136262685802649 -58.755228769849055 0 -58.755228769849055 -99.21571577101713 0 0 0 0 18.051395480208157 133.5186404342021 0 133.5186404342021 48.845140391011228 0 0 0 0 -267.12096173419559 457.89026488420495 0 457.89026488420495 347.6324073901269 0 0 0 0 311.96442453333293 -175.77919997241406 0 -175.77919997241406 -69.652107490412163 0 0 0 0 57.413283629328362 -320.98208079949109 0 -320.98208079949109 -81.993871726066573 0 0 0 0 18.903653659692282 -166.22989150016656 0 -166.22989150016656 -68.229541545646498 0 0 0 0 -27.128408173564821 -314.47640892480558 0 -314.47640892480558 55.98670876516735 0 0 0 0 -106.99870208319408 -191.75231131782493 0 -191.75231131782493 62.140908218672848 0 0 0 0 32.339099128672387 -173.85965940196184 0 -173.85965940196184 -99.486574100930738 0 0 0 0 -251.96022579045894 -432.91444794471317 0 -432.91444794471317 26.878608761660871 0 0 0 0 49.235991456305783 -449.13426661519043 0 -449.13426661519043 -183.16247815566021 0 0 0 0 203.56647775514284 -180.92001202161191 0 -180.92001202161191 -165.71367209144773 0 0 0 0 839.25627263238857 -66.082173183822306 0 -66.082173183822306 -134.26886095727968 0 0 0 0 342.82930664883315 -228.36334663271555 0 -228.36334663271555 -75.004894075798802 0 0 0 0 368.15372939432928 -238.7749416911538 0 -238.7749416911538 -94.784627106462722 0 0 0 0 416.38735896955723 113.27361765496607 0 113.27361765496607 139.83696179278195 0 0 0 0 171.57126271339439 -63.035835496368236 0 -63.035835496368236 26.096077041060198 0 0 0 0 656.85236811448158 242.0559831670289 0 242.0559831670289 50.488601773133269 0 0 0 0 1355.0513975549229 153.49384269155235 0 153.49384269155235 -322.46834871152532 0 0 0 0 1271.9139237524378 -527.47113371621526 0 -527.47113371621526 -324.97200179024367 0 0 0 0 0.52951416800997819 13.533506887143279 0 13.533506887143279 -53.323733858230185 0 0 0 0 -151.83253077490008 16.036220321901055 0 16.036220321901055 214.49333961075172 0 0 0 0 319.36108290451011 -367.03639719714556 0 -367.03639719714556 -87.987675936179585 0 0 0 0 345.30962661271951 -610.52317233634858 0 -610.52317233634858 449.62474815183668 0 0 0 0 -470.59026396451418 -567.16199483222408 0 -567.16199483222408 -128.76168776425766 0 0 0 0 255.28392116790928 -194.39966567089141 0 -194.39966567089141 -1059.2571655188221 0 0 0 0 268.33447688916749 1624.5066709209495 0 1624.5066709209495 -852.19234807535395 0 0 0 0 -142.66349483757585 1161.6090748879287 0 1161.6090748879287 -969.67444994789548 0 0 0 0 -158.1106518276647 1141.5023725524807 0 1141.5023725524807 -994.22932216589379 0 0 0 0 -60.562280823279252 709.91459749150818 0 709.91459749150818 563.8766508376284 0 0 0 0 -474.99838492832168 -118.77408721198299 0 -118.77408721198299 175.71361433059792 0 0 0 0 -1.8543151245244189 6.4935434497331954 0 6.4935434497331954 -22.538339291874365 0 0 0 0 -588.90991894917306 -791.89394329077186 0 -791.89394329077186 -1737.3328772862296 0 0 0 0 604.47712260631033 -70.191962225038878 0 -70.191962225038878 -2036.4192659502005 0 0 0 0 415.52421250743828 -583.08735609291034 0 -583.08735609291034 -3244.1267283779307 0 0 0 0 6.8417645738206172 -13.452855168183726 0 -13.452855168183726 -108.42605063162205 0 0 0 0 -530.66914903987708 786.58749441951659 0 786.58749441951659 -1667.3757604441525 0 0 0 0 -1778.2459841387645 1786.4016930452344 0 1786.4016930452344 -2293.8029742544022 0 0 0 0 -477.16415323419278 623.6440680743508 0 623.6440680743508 -3584.7819111068238 0 0 0 0 321.02151786888953 1617.6241752725273 0 1617.6241752725273 -2712.9465321366151 0 0 0 0 -331.03655401282595 1972.7174110764972 0 1972.7174110764972 -2280.5303617204263 0 0 0 0 -208.17641917541187 -726.56179300909571 0 -726.56179300909571 -2428.2830677110614 0 0 0 0 -10.550455191400076 12.046931323043054 0 12.046931323043054 -14.679024289094343 0 0 0 0 -311.77508745266459 1616.1667334340309 0 1616.1667334340309 1111.3981033392411 0 0 0 0 -203.02731360616235 -1390.4023126194443 0 -1390.4023126194443 -5897.0371006860369 0 0 0 0 776.05202134983847 123.97352789489378 0 123.97352789489378 -551.89179307235463 0 0 0 0 -412.07227125285317 1218.30411231576 0 1218.30411231576 -747.37310879510187 0 0 0 0 116.43387339878518 414.94123468728594 0 414.94123468728594 -565.56056062401331 0 0 0 0 79.871899746533018 225.35313058392785 0 225.35313058392785 -1515.18934197001 0 0 0 0 684.65462259774722 -162.62062067344959 0 -162.62062067344959 -1005.9396245379503 0 0 0 0 725.63071830517947 16.159312256408157 0 16.159312256408157 -483.27256498282077 0 0 0 0 689.04517067999404 -122.26139362056711 0 -122.26139362056711 -746.16755488752096 0 0 0 0 4.3294980513164774 -102.26736094287844 0 -102.26736094287844 -674.94928182425065 0 0 0 0 -308.87131147025138 182.99012406288239 0 182.99012406288239 -1661.9048212837952 0 0 0 0 -589.15636952665227 -512.21186137778568 0 -512.21186137778568 -746.92951582436945 0 0 0 0 -458.54436945147916 573.54803079371413 0 573.54803079371413 -1240.0546011759143 0 0 0 0 12.309673124331468 -10.266094154743618 0 -10.266094154743618 -107.44784689265407 0 0 0 0 -790.54016992809193 159.87395538955752 0 159.87395538955752 -952.55719640849566 0 0 0 0 -860.40814611968744 675.49740228736482 0 675.49740228736482 -1483.2840566985833 0 0 0 0 -57.313128695279374 -317.47863109540776 0 -317.47863109540776 -1262.9785346256685 0 0 0 0 61.17074352155953 -20.45202583003811 0 -20.45202583003811 -133.15333312933217 0 0 0 0 37.089464983311245 6.2431316114634683 0 6.2431316114634683 -89.503193423472112 0 0 0 0 229.62811076964556 81.067021929378825 0 81.067021929378825 -274.09900790020765 0 0 0 0 5.3713700262506201 6.3766232017789752 0 6.3766232017789752 -80.818946115523289 0 0 0 0 -3.546365506952613 -7.703646418158641 0 -7.703646418158641 -20.266931464326831 0 0 0 0 -447.21279725911882 -315.69401127556193 0 -315.69401127556193 -508.2644323983186 0 0 0 0 40.42199500622727 -2.1918032731114465 0 -2.1918032731114465 -41.765537353780104 0 0 0 0 -419.08764515259281 -461.36569688788586 0 -461.36569688788586 8.9820863275817828 0 0 0 0 99.529865739390516 211.57903449549485 0 211.57903449549485 -143.481086116386 0 0 0 0 13.987552018888024 6.4777762066424884 0 6.4777762066424884 -28.303797230603436 0 0 0 0 474.74156098194271 -394.01416176609746 0 -394.01416176609746 -489.26641165067122 0 0 0 0 264.43007881873564 215.4817698209954 0 215.4817698209954 -332.18760193834896 0 0 0 0 204.55210230502416 26.836339640743972 0 26.836339640743972 -785.74775559731643 0 0 0 0 55.223920345776406 1.9627755084730723 0 1.9627755084730723 -15.496987603364289 0 0 0 0 513.71622459252467 -613.48156447813744 0 -613.48156447813744 -996.41593120826292 0 0 0 0 94.17783205511671 -124.46148723416445 0 -124.46148723416445 -154.67390448997321 0 0 0 0 193.34936566826354 -160.31316338117176 0 -160.31316338117176 -218.5455650625081 0 0 0 0 70.671622686532984 -1.347572712194534 0 -1.347572712194534 -39.799888718159124 0 0 0 0 189.51335445375517 20.279489176852621 0 20.279489176852621 -634.09077884766157 0 0 0 0 -115.74165508094848 -104.34100576443598 0 -104.34100576443598 25.893042683092062 0 0 0 0 -516.79388555056528 365.36265468091733 0 365.36265468091733 -303.08122483201441 0 0 0 0 48.50516122200861 -60.084449552407023 0 -60.084449552407023 -105.38483913278469 0 0 0 0 163.20231090411107 127.16379636534657 0 127.16379636534657 -10.350853526339051 0 0 0 0 3.2989712825956747 -4.5681818419433 0 -4.5681818419433 -23.729430376563272 0 0 0 0 304.29058835009027 61.103784675833595 0 61.103784675833595 -397.88820101365854 0 0 0 0 7.8442666399033563 3.9634199783671349 0 3.9634199783671349 -96.823117245881406 0 0 0 0 79.451785413823927 26.141522371850442 0 26.141522371850442 -114.7956530782285 0 0 0 0 93.727040491769799 -69.833157860693063 0 -69.833157860693063 -110.70819919924543 0 0 0 0 -30.713472103845106 -131.10102190648831 0 -131.10102190648831 -136.42507333995854 0 0 0 0 22.475891278244262 11.599182410011053 0 11.599182410011053 -52.158082902911701 0 0 0 0 29.53075483281939 -9.958756771522431 0 -9.958756771522431 -20.608574650744856 0 0 0 0 -3.2083638784853292 -72.690934581250076 0 -72.690934581250076 -73.671879121524398 0 0 0 0 -8.4859474245049569 -59.603990801436339 0 -59.603990801436339 -69.370563878735993 0 0 0 0 95.059897603372519 3.1736733473881031 0 3.1736733473881031 -167.10584039150854 0 0 0 0 16.84109257883415 -51.471086733616175 0 -51.471086733616175 -92.660453521559248 0 0 0 0 13.280433374206268 -13.451948361721353 0 -13.451948361721353 -90.863928471693896 0 0 0 0 19.546967220605438 -42.351433374475164 0 -42.351433374475164 -99.078249940917885 0 0 0 0 10.314584119141022 -14.20743082919418 0 -14.20743082919418 -79.296901822207985 0 0 0 0 55.862304101532573 1.256257584429477 0 1.256257584429477 -96.364486506674439 0 0 0 0 -22.67321847185849 -60.679514767238288 0 -60.679514767238288 -69.1006135720163 0 0 0 0 2.1758434909986413 -9.5501859863800291 0 -9.5501859863800291 -17.837905026287899 0 0 0 0 4.375319855341937 0.99299623692631656 0 0.99299623692631656 -2.7388509833312753 0 0 0 0 -15.245531063471731 -73.959882473109246 0 -73.959882473109246 -73.20526116930705 0 0 0 0 80.264268818165874 41.071906086079252 0 41.071906086079252 -119.21748857564671 0 0 0 0 -329.68782105297214 -128.32064959219861 0 -128.32064959219861 -181.88650250831415 0 0 0 0 -251.86184969289536 -1412.6677089845889 0 -1412.6677089845889 -2996.0416633925779 0 0 0 0 -367.70735846323191 66.028168934994028 0 66.028168934994028 77.315180095407413 0 0 0 0 -9.7116740454062853 0.44998270391603512 0 0.44998270391603512 -1.6406550435780378 0 0 0 0 418.03675047921496 -432.54482558696327 0 -432.54482558696327 -2113.5478488731605 0 0 0 0 -1341.9841620583277 -385.49950970968348 0 -385.49950970968348 -17.161602393536668 0 0 0 0 -38.268381815607427 -22.053982773795724 0 -22.053982773795724 -54.336076182546094 0 0 0 0 20.579021264006315 -121.95641765115397 0 -121.95641765115397 -63.85165806661098 0 0 0 0 -155.37312506482712 -18.309726562980359 0 -18.309726562980359 -41.137724175014228 0 0 0 0 -22.778305980301575 -5.0021490076173905 0 -5.0021490076173905 -14.319303387423414 0 0 0 0 -5.492561063588429 -14.644558311637383 0 -14.644558311637383 -35.695903045062636 0 0 0 0 -7.113699985734387 -24.643147693325474 0 -24.643147693325474 -39.608954178372976 0 0 0 0 -6.0516434549940641 -15.149825551212416 0 -15.149825551212416 -22.620939351443667 0 0 0 0 8.0164624465634127 -9.7302926811737791 0 -9.7302926811737791 -48.198059996942845 0 0 0 0 -1157.0660707685552 -1040.241714918644 0 -1040.241714918644 -783.24049093023496 0 0 0 0 -3.4676171617532079 -2.6851947777964398 0 -2.6851947777964398 -23.685918266281988 0 0 0 0 -2000.0243831347868 -2330.2030788230368 0 -2330.2030788230368 -2740.7030484394709 0 0 0 0 -224.88084838344523 -1933.5664992283928 0 -1933.5664992283928 -4492.6701377221543 0 0 0 0 -144.15371700307338 -1762.1224953650649 0 -1762.1224953650649 -3847.5043902761536 0 0 0 0 -87.775177881725298 -1440.5245719019804 0 -1440.5245719019804 -3808.310532536525 0 0 0 0 -612.61006915510745 -2033.3943266613187 0 -2033.3943266613187 -3358.5753053791996 0 0 0 0 -14.67312610374475 10.557029801266083 0 10.557029801266083 -11.275825457639456 0 0 0 0 -943.80471390193907 532.45064168356475 0 532.45064168356475 -226.29429609607905 0 0 0 0 -335.42884687607562 1053.8273562418181 0 1053.8273562418181 -5222.2530096236005 0 0 0 0 -527.5775084833673 1071.673425985573 0 1071.673425985573 -4751.6678637000878 0 0 0 0 49.417342182655872 727.3236449137039 0 727.3236449137039 -5033.6474106190763 0 0 0 0 -1337.6272192588717 1676.9240406953177 0 1676.9240406953177 -5197.481155130341 0 0 0 0 359.29109044696946 127.78903935883136 0 127.78903935883136 -4493.8747580646886 0 0 0 0 -322.24026804993179 1170.9298462676743 0 1170.9298462676743 -3726.6679055478889 0 0 0 0 -53.506999842795182 -12.354468590190663 0 -12.354468590190663 -29.130911357075092 0 0 0 0 -3.2757502096623314 6.524483415202198 0 6.524483415202198 -6.1897671980586324 0 0 0 0 15.38452987819554 1.4604875784177409 0 1.4604875784177409 -26.808863927775057 0 0 0 0 34.759606736237401 7.6648703213213594 0 7.6648703213213594 -67.208605889661158 0 0 0 0 6.5790453704103129 -5.5021192910062382 0 -5.5021192910062382 -62.895201462510158 0 0 0 0 -1.1615858284591749 0.90858690579310064 0 0.90858690579310064 -19.737597678756714 0 0 0 0 27.295013536961505 3.212008381189662 0 3.212008381189662 -60.585759370362211 0 0 0 0 -85.847001314205045 -174.84645773129887 0 -174.84645773129887 -1.6736083160867565 0 0 0 0 -481.4321455543182 -35.564087286315043 0 -35.564087286315043 294.8913191397005 0 0 0 0 58.638280270921769 4.3890687804305344 0 4.3890687804305344 -62.050095609665732 0 0 0 0 22.59811689016724 8.41435512995983 0 8.41435512995983 -12.648614873549992 0 0 0 0 114.67141468987211 17.861418703585514 0 17.861418703585514 193.86459082592046 0 0 0 0 766.00645897893219 -142.39205104154462 0 -142.39205104154462 -36.706857618322829 0 0 0 0 17.831214371754257 14.833215073620998 0 14.833215073620998 -39.928131559581743 0 0 0 0 -897.08633155867392 -134.93101902089256 0 -134.93101902089256 204.37669736314274 0 0 0 0 113.4000986954934 22.167343544999312 0 22.167343544999312 -63.614579434841289 0 0 0 0 3.3476058414905969 -9.4152743524183222 0 -9.4152743524183222 -34.971903364926845 0 0 0 0 66.53244616299412 57.440481747369631 0 57.440481747369631 -20.75050606840523 0 0 0 0 -11.849952726677429 40.617997502771686 0 40.617997502771686 -80.093953464718652 0 0 0 0 78.003542553164152 48.114088329013612 0 48.114088329013612 -90.577400667629263 0 0 0 0 58.398574966103297 6.4686702396138571 0 6.4686702396138571 -107.70987110887654 0 0 0 0 53.007994122648597 -31.617529059054505 0 -31.617529059054505 -121.28584740641236 0 0 0 0 122.21644977616063 -60.655069384822127 0 -60.655069384822127 -119.73325691620994 0 0 0 0 -189.59888238309736 133.18087621188715 0 133.18087621188715 -78.240608745923964 0 0 0 0 212.16348083635512 223.71202203519351 0 223.71202203519351 -116.7428459052353 0 0 0 0 270.94964709771153 -16.887205891076519 0 -16.887205891076519 -158.64619508976466 0 0 0 0 -3.041398935895141 -7.2766793648200263 0 -7.2766793648200263 -19.088192642753768 0 0 0 0 -230.30694599904564 213.69024486656417 0 213.69024486656417 -295.12955226465419 0 0 0 0 -285.78686566562374 0.5238745376082079 0 0.5238745376082079 -25.611378739064094 0 0 0 0 51.077108300552936 -290.84218488451734 0 -290.84218488451734 75.967848022894032 0 0 0 0 -429.77088925238422 317.85861982240749 0 317.85861982240749 223.17124519871868 0 0 0 0 -912.59120508886917 377.77290034510224 0 377.77290034510224 -32.850219256462879 0 0 0 0 -400.90274400368776 376.71337326469256 0 376.71337326469256 -561.03410300362157 0 0 0 0 -2172.5285075330562 846.54547861465107 0 846.54547861465107 77.893495174430427 0 0 0 0 4.9165486619458534 60.427516331008519 0 60.427516331008519 -4.5449492674233625 0 0 0 0 -4.1779166746541438 21.342783812521436 0 21.342783812521436 -38.247512628965865 0 0 0 0 349.88560956306083 189.44643350608021 0 189.44643350608021 -602.17436959694896 0 0 0 0 -24.465013714677809 32.58635754351053 0 32.58635754351053 0.48955404070147779 0 0 0 0 4.7038980615460559 9.0038358127203537 0 9.0038358127203537 -34.781041296490002 0 0 0 0 -300.71957074098304 -91.929261753015453 0 -91.929261753015453 255.50299246277427 0 0 0 0 1648.5735498930985 322.89222333638463 0 322.89222333638463 -841.45868640186382 0 0 0 0 -231.88802319456954 1141.4265069788817 0 1141.4265069788817 -1183.458907225795 0 0 0 0 -1432.4461006456495 341.82748774174252 0 341.82748774174252 102.29003783580265 0 0 0 0 -878.03180317263514 3139.1707783088787 0 3139.1707783088787 -3200.0816112749526 0 0 0 0 -152.22448247014432 378.79452507194492 0 378.79452507194492 -2715.9721418453555 0 0 0 0 -5.3575463502037177 10.579627525994855 0 10.579627525994855 2.7196449540248864 0 0 0 0 -20.961419199381673 6.0744758898604516 0 6.0744758898604516 -0.2379429985752548 0 0 0 0 -853.94315499514232 1983.6232040638715 0 1983.6232040638715 -4932.7480227136075 0 0 0 0 -944.22715055392837 -345.19187297211101 0 -345.19187297211101 349.21012124379922 0 0 0 0 -1568.1948319148396 2733.8871528112068 0 2733.8871528112068 -4053.8920726524229 0 0 0 0 -2141.5189890589095 2270.3661675497128 0 2270.3661675497128 -4258.64759047798 0 0 0 0 -1294.733303200378 2187.0947849725926 0 2187.0947849725926 -4503.0522580611942 0 0 0 0 -1869.7396508139691 1118.7912384559895 0 1118.7912384559895 -5317.7230696004453 0 0 0 0 471.39414924748735 722.29351926161326 0 722.29351926161326 -1730.0823036919464 0 0 0 0 -2578.8594484065152 3159.7376114306462 0 3159.7376114306462 -2557.4626070594531 0 0 0 0 -1486.4821863756456 2434.5708142794647 0 2434.5708142794647 -3841.1433953989181 0 0 0 0 -8.9932464712064757 3027.4960916322016 0 3027.4960916322016 -5193.4556360297174 0 0 0 0 705.69214375282945 -32.10196758890379 0 -32.10196758890379 -3386.2275710021422 0 0 0 0 -2117.9767897424981 1369.14618511342 0 1369.14618511342 -3252.2697565183189 0 0 0 0 -424.08170429466981 1139.2754455514223 0 1139.2754455514223 -4495.5601885907508 0 0 0 0 -758.41260605130697 1934.7983231851977 0 1934.7983231851977 -2761.6493277523768 0 0 0 0 -973.77397962631812 758.86775683991436 0 758.86775683991436 -3024.074744864316 0 0 0 0 -219.40754907558738 1422.7617682715681 0 1422.7617682715681 -2790.5512083550566 0 0 0 0 -454.88775488438142 1595.9230554613348 0 1595.9230554613348 -1694.4825014416128 0 0 0 0 -447.88165516900716 1281.4626756654907 0 1281.4626756654907 -1750.1439381131204 0 0 0 0 -1839.1381881689395 2122.9738734710409 0 2122.9738734710409 -1444.0331209536234 0 0 0 0 -1381.7022318005563 1320.8241212135545 0 1320.8241212135545 -557.60610831955273 0 0 0 0 -443.84775025292583 715.19308412249666 0 715.19308412249666 -451.99184857266664 0 0 0 0 -776.34839263561207 992.3712512967677 0 992.3712512967677 -662.84199064916174 0 0 0 0 -609.76896254334315 983.88698194451354 0 983.88698194451354 -821.60204686789075 0 0 0 0 -242.16104638589059 732.01493417510574 0 732.01493417510574 -1092.6323802982079 0 0 0 0 -155.00583539333957 547.10195263566857 0 547.10195263566857 -703.59867679749732 0 0 0 0 242.57641450664164 321.38556577159761 0 321.38556577159761 -870.64314533131255 0 0 0 0 -119.65209763554412 216.1532892807154 0 216.1532892807154 -655.03542846203345 0 0 0 0 -76.522694877806316 19.129278991778847 0 19.129278991778847 -519.94070061389357 0 0 0 0 -234.25502025810965 365.63555934593023 0 365.63555934593023 -453.44338296689966 0 0 0 0 -413.94642039108504 561.7819651788617 0 561.7819651788617 -636.74470264618867 0 0 0 0 -412.29961233280005 219.57796630399253 0 219.57796630399253 -190.01169558000402 0 0 0 0 267.98508149594272 90.946251371482504 0 90.946251371482504 -374.82852546707727 0 0 0 0 57.897797749976235 33.631183299949043 0 33.631183299949043 -286.62047651872854 0 0 0 0 293.40837212945985 143.83702254841955 0 143.83702254841955 -350.66638275439618 0 0 0 0 23.812992613975439 185.12568930780981 0 185.12568930780981 -457.57691259252897 0 0 0 0 16.674885947549374 18.443843320426623 0 18.443843320426623 -99.830242747562465 0 0 0 0 -344.69082103833853 -353.32855696234765 0 -353.32855696234765 54.854462396440795 0 0 0 0 352.31616880923406 -401.83207514298556 0 -401.83207514298556 -205.74043473397614 0 0 0 0 645.67044752282709 13.999474877266039 0 13.999474877266039 -439.55141540890327 0 0 0 0 422.80171288868587 -266.44618944390095 0 -266.44618944390095 -244.64423767029075 0 0 0 0 -2.1839940366797941 -3.6902632633624961 0 -3.6902632633624961 -5.2202419493992238 0 0 0 0 228.05950077249346 -73.387868623161921 0 -73.387868623161921 -30.108013817138271 0 0 0 0 241.94231650063011 -30.948339201888302 0 -30.948339201888302 -769.00816827791277 0 0 0 0 -1053.0811149453139 305.09135333512677 0 305.09135333512677 -424.20119809557218 0 0 0 0 -40.322847392485698 -885.43218633813376 0 -885.43218633813376 -27.178089070162969 0 0 0 0 180.62115069456922 50.43886345581268 0 50.43886345581268 -133.27056205984263 0 0 0 0 302.34462754722517 221.03397500973369 0 221.03397500973369 -189.96052619448164 0 0 0 0 -49.66811683979995 32.41152046895877 0 32.41152046895877 -327.10925411054632 0 0 0 0 133.75268222853265 -33.757578062475659 0 -33.757578062475659 -251.49351663319976 0 0 0 0 215.70975411164181 -105.16534226039948 0 -105.16534226039948 -315.6844153549755 0 0 0 0 213.24967373013169 -76.916244316278608 0 -76.916244316278608 -500.18368307227502 0 0 0 0 60.403125284037742 80.392413159730495 0 80.392413159730495 -410.65059675369412 0 0 0 0 223.26984930730896 -5.5838306703844864 0 -5.5838306703844864 -489.21497490192996 0 0 0 0 25.095366164097868 -60.448024130892009 0 -60.448024130892009 -455.14037023841956 0 0 0 0 301.88956717188921 -85.678242002824845 0 -85.678242002824845 -497.66575649722654 0 0 0 0 80.306607108846947 -25.444650921661378 0 -25.444650921661378 -586.29919373171288 0 0 0 0 131.120399701108 102.99446427198563 0 102.99446427198563 -265.66795891989022 0 0 0 0 14.353225152440954 56.774674150917896 0 56.774674150917896 -106.53331653100861 0 0 0 0 71.594683172319705 -0.67016127598404296 0 -0.67016127598404296 -29.122592552545342 0 0 0 0 126.05845831153965 11.446173647032992 0 11.446173647032992 -644.78980822120502 0 0 0 0 141.93650036640975 -18.371034128329484 0 -18.371034128329484 -615.18912678109336 0 0 0 0 -50.593484984291536 152.12005908550054 0 152.12005908550054 -225.70763907545188 0 0 0 0 -514.01058439832059 -181.14720707637753 0 -181.14720707637753 -552.25683535038843 0 0 0 0 361.78975095894521 -89.225065325539617 0 -89.225065325539617 -704.89031486038584 0 0 0 0 -58.445417229667811 87.385462509628269 0 87.385462509628269 -1048.6279914921033 0 0 0 0 -89.900768139180173 60.855099863492796 0 60.855099863492796 -621.09567166052875 0 0 0 0 9.7398722167208689 -6.5102453210711246 0 -6.5102453210711246 -739.07940667928779 0 0 0 0 28.150005893674461 -57.408937004802283 0 -57.408937004802283 -638.1079467212403 0 0 0 0 37.515281115494929 -5.3972676270301463 0 -5.3972676270301463 1.601981282712714 0 0 0 0 -49.858877790265069 48.86316642788006 0 48.86316642788006 -789.98695325695735 0 0 0 0 143.75181191241245 1029.781955155675 0 1029.781955155675 -1140.6665710872257 0 0 0 0 640.3595098549099 89.777716615346435 0 89.777716615346435 -910.11906894674757 0 0 0 0 157.63271092633261 57.43630764207046 0 57.43630764207046 -1352.7655344726372 0 0 0 0 12.130721616989002 -0.46542743924121055 0 -0.46542743924121055 -0.92716120767238408 0 0 0 0 -103.68909332675867 449.01125188416336 0 449.01125188416336 562.61130204056099 0 0 0 0 1157.2104185978678 311.86709241444623 0 311.86709241444623 -1397.1387308561243 0 0 0 0 5.8984834362419996 3.2707234504424036 0 3.2707234504424036 -8.3451557088054358 0 0 0 0 1388.7013010449277 609.48815998634382 0 609.48815998634382 -1870.7756867473217 0 0 0 0 276.77622029734221 -1186.5635644129143 0 -1186.5635644129143 -1918.8243600412679 0 0 0 0 916.99441062186952 72.181203957516118 0 72.181203957516118 -891.24493036867352 0 0 0 0 59.024243672136436 -148.62205067349714 0 -148.62205067349714 -678.83823389612371 0 0 0 0 -87.320313407016442 420.60114105794673 0 420.60114105794673 -801.14459829495172 0 0 0 0 -581.12304624789977 147.98245718748512 0 147.98245718748512 -907.87342272690148 0 0 0 0 -594.21983560844592 500.03413248383004 0 500.03413248383004 -883.71608797476074 0 0 0 0 -880.40539754578379 850.14894818475113 0 850.14894818475113 -1180.1757673356769 0 0 0 0 -1229.6417458716169 79.895053184409335 0 79.895053184409335 -1703.7422011946328 0 0 0 0 -392.65441760895919 708.17803957892465 0 708.17803957892465 -1289.0358685656829 0 0 0 0 -143.53399856825305 763.6581652442585 0 763.6581652442585 -3096.9267856332444 0 0 0 0 -153.27592478617953 666.36698080044971 0 666.36698080044971 -1475.8122635028849 0 0 0 0 -1885.9578434398341 1421.9679782567509 0 1421.9679782567509 -1676.6603885337099 0 0 0 0 -1.1347433610265121 6.5294587860348905 0 6.5294587860348905 -27.357687839106347 0 0 0 0 -2709.4275358464101 1704.5079748106873 0 1704.5079748106873 -789.41782652356778 0 0 0 0 -703.8023248546051 2056.8235359254322 0 2056.8235359254322 -2714.3713398804139 0 0 0 0 -454.01321336330625 1427.4623361934246 0 1427.4623361934246 -1455.9955134521297 0 0 0 0 -96.481717453526471 1204.9329167764809 0 1204.9329167764809 -1331.7148359239218 0 0 0 0 -96.405828475896669 1201.0303527056458 0 1201.0303527056458 -1275.3914883949474 0 0 0 0 254.72723494718502 1239.9418469447992 0 1239.9418469447992 -2146.5091471434571 0 0 0 0 356.74902901155053 820.15085477437424 0 820.15085477437424 -1391.605928510573 0 0 0 0 79.983454714446225 646.79715638466587 0 646.79715638466587 -1499.318637964454 0 0 0 0 40.563085454732573 934.46324787026242 0 934.46324787026242 -1010.3934605221148 0 0 0 0 1.7414332977834874 1086.9969654125889 0 1086.9969654125889 -1538.9097175545903 0 0 0 0 -444.04035013623218 1252.0056673592044 0 1252.0056673592044 -1187.5039466546586 0 0 0 0 -83.965136752103717 1298.2042458883734 0 1298.2042458883734 -1281.2301220353838 0 0 0 0 15.524553497773013 1124.5674664029575 0 1124.5674664029575 -1244.5019780018483 0 0 0 0 -237.22660957112566 1088.6153899928504 0 1088.6153899928504 -885.70222377746541 0 0 0 0 399.46358030056535 549.85280999496172 0 549.85280999496172 -920.78107515460579 0 0 0 0 355.15374568467541 582.70918175017869 0 582.70918175017869 -944.60592094837921 0 0 0 0 -37.883186284766907 1138.9495573293389 0 1138.9495573293389 -1205.2280094780108 0 0 0 0 227.27096949602674 1146.3421520470001 0 1146.3421520470001 -1753.5477176227578 0 0 0 0 447.11131901715817 791.60340598245239 0 791.60340598245239 -2194.475413640077 0 0 0 0 932.21606233553939 429.84845087444137 0 429.84845087444137 -1762.812642880177 0 0 0 0 389.36683762170219 618.27913514174725 0 618.27913514174725 -1259.9813512908222 0 0 0 0 447.97059301684658 371.12307051553216 0 371.12307051553216 -1172.5583240737615 0 0 0 0 1114.6021426144412 -476.30264889643877 0 -476.30264889643877 -453.88543446367839 0 0 0 0 455.27314433117772 -1363.6314541762586 0 -1363.6314541762586 1411.1871993265813 0 0 0 0 311.80902124700322 488.08087100050761 0 488.08087100050761 -4990.3764467073051 0 0 0 0 9.8436676910475143 -8.2491558228680901 0 -8.2491558228680901 -4.3474648763389467 0 0 0 0 343.30630600555378 -132.14517023526423 0 -132.14517023526423 194.57032265916496 0 0 0 0 1802.9262283652861 -2703.9489877619781 0 -2703.9489877619781 -4502.6203750809791 0 0 0 0 1072.8227248221247 212.27678990895947 0 212.27678990895947 -3960.3234887377166 0 0 0 0 1888.9299022893492 -1298.3970713392991 0 -1298.3970713392991 -1255.6407736904512 0 0 0 0 -191.64561923101982 -882.36421353276921 0 -882.36421353276921 -3697.4976248564344 0 0 0 0 8.5794442912717734 4.3317679781625511 0 4.3317679781625511 -5.9734543075149986 0 0 0 0 170.4791531816802 729.35287811621674 0 729.35287811621674 -4495.7327222368558 0 0 0 0 222.72626683285853 -190.79621764765761 0 -190.79621764765761 69.479695041954983 0 0 0 0 380.94776008772351 -100.53750008971474 0 -100.53750008971474 -216.90918734857405 0 0 0 0 27.729117127403036 -12.193163685905319 0 -12.193163685905319 -25.008750896565857 0 0 0 0 464.9778551213742 -74.951205724125657 0 -74.951205724125657 -209.13910819380544 0 0 0 0 230.99008270838567 -36.738765542198962 0 -36.738765542198962 -196.77625406534207 0 0 0 0 144.18107982284769 183.86828544406876 0 183.86828544406876 67.86552007184946 0 0 0 0 8.079106861732912 14.734679096720669 0 14.734679096720669 -97.354246945877094 0 0 0 0 -0.91730101966594169 12.921338049090725 0 12.921338049090725 -69.879052406083247 0 0 0 0 -21.830687188536103 411.55428860634856 0 411.55428860634856 -513.86542302750604 0 0 0 0 726.52646069909269 171.09854707536124 0 171.09854707536124 -213.13162446708884 0 0 0 0 121.91702864639501 -25.916418091088417 0 -25.916418091088417 -99.510297582513886 0 0 0 0 -34.780230363878218 415.4701057375205 0 415.4701057375205 -637.8020011226763 0 0 0 0 -570.75335462604301 412.08468581082252 0 412.08468581082252 -144.74004908348434 0 0 0 0 -419.01490485165505 1295.4367762484981 0 1295.4367762484981 -1116.9224701903877 0 0 0 0 86.408697068016323 1001.9093998608951 0 1001.9093998608951 -4494.4976737180223 0 0 0 0 309.66755188323032 429.44081521633052 0 429.44081521633052 -237.55746038322468 0 0 0 0 -50.417279382384493 170.41943602658284 0 170.41943602658284 -343.66932110709604 0 0 0 0 -84.215169122103816 194.13741569345439 0 194.13741569345439 -100.46206000971142 0 0 0 0 87.094994901603968 435.30581842319225 0 435.30581842319225 -113.11366928545522 0 0 0 0 146.96612398490834 289.69540957888239 0 289.69540957888239 -86.165993934031576 0 0 0 0 136.56260181928815 166.79155376720882 0 166.79155376720882 39.06852422998054 0 0 0 0 146.09703237970655 307.41878785819426 0 307.41878785819426 157.62629702046979 0 0 0 0 0.68926647349481129 2.7754742143319788 0 2.7754742143319788 1.2720761765538668 0 0 0 0 -18.123736641924665 154.36580037140448 0 154.36580037140448 1049.8022018484044 0 0 0 0 -25.323574874303972 289.37098102188611 0 289.37098102188611 -290.28988808067515 0 0 0 0 134.59252721070425 82.551778218825348 0 82.551778218825348 158.75776170744427 0 0 0 0 12.266675933241453 25.142048938862047 0 25.142048938862047 -7.302313094491538 0 0 0 0 -997.74744551487822 1820.9056821745917 0 1820.9056821745917 -3235.2998850747972 0 0 0 0 238.7755288035909 821.96162672390346 0 821.96162672390346 -4382.8474305942582 0 0 0 0 -1.4613513898718482 146.00301673392096 0 146.00301673392096 -1927.1903315117524 0 0 0 0 -489.4961300891826 163.73192745713459 0 163.73192745713459 1326.3263477133005 0 0 0 0 3.8347553322889834 9.2596952112321844 0 9.2596952112321844 2.2750415148821475 0 0 0 0 0.82524174912452231 2.5482847398448598 0 2.5482847398448598 0.10007918290280315 0 0 0 0 253.75186017205834 791.35490138291789 0 791.35490138291789 -929.02101047507313 0 0 0 0 -120.92560177572568 173.72496514976956 0 173.72496514976956 234.99826643220149 0 0 0 0 -87.613794834073815 262.83941643935395 0 262.83941643935395 -214.73477060433652 0 0 0 0 -45.72104471823252 300.39839574079815 0 300.39839574079815 -436.53355264468337 0 0 0 0 -0.071427821422496429 440.05712631936331 0 440.05712631936331 -276.85569334794127 0 0 0 0 -0.082832850481167952 133.51305428682099 0 133.51305428682099 -643.4301221744754 0 0 0 0 0.12765901253731265 440.6534050192746 0 440.6534050192746 -1066.9289999939501 0 0 0 0 41.700512822929682 272.22189485532726 0 272.22189485532726 -1248.1735686883985 0 0 0 0 159.92920342468528 444.27885354502723 0 444.27885354502723 -1603.4114120437735 0 0 0 0 127.30164250454777 18.213162977655884 0 18.213162977655884 -1287.8299746295525 0 0 0 0 -31.553306926012738 110.91144698974676 0 110.91144698974676 -173.65690970937067 0 0 0 0 1006.107343319867 -482.64490320574987 0 -482.64490320574987 -1907.6163833039027 0 0 0 0 -88.103819354395455 1250.984805211323 0 1250.984805211323 -2776.5453286128177 0 0 0 0 99.731197735940441 406.59223760186433 0 406.59223760186433 -1333.4424350980189 0 0 0 0 404.1274410202011 613.98684544812568 0 613.98684544812568 -2149.0301867976668 0 0 0 0 -692.79521534757941 1099.0325727732125 0 1099.0325727732125 -1650.4971191638833 0 0 0 0 -575.73434509906019 757.05664061619609 0 757.05664061619609 -1342.3039120973117 0 0 0 0 -601.48501812772668 727.67032793771068 0 727.67032793771068 -1321.8553781881055 0 0 0 0 -227.33620300936602 612.46085483235584 0 612.46085483235584 -1477.0426180675859 0 0 0 0 -283.18057957189217 784.62423931830563 0 784.62423931830563 -1424.3412298217663 0 0 0 0 -14.742413395653671 423.14179505833454 0 423.14179505833454 -1582.6516765979977 0 0 0 0 0.11506085039099774 466.77137647519305 0 466.77137647519305 -1515.1867400357733 0 0 0 0 -115.54287110312492 636.18909172470012 0 636.18909172470012 -1602.2426207742828 0 0 0 0 -3.6765015780090611 5.8991795795657076 0 5.8991795795657076 -7.3606212113013996 0 0 0 0 63.631382728280641 -133.13385833626216 0 -133.13385833626216 -296.07418633774978 0 0 0 0 -164.88245655515402 -26.816754045785274 0 -26.816754045785274 -11.937581062867139 0 0 0 0 -62.387173965222587 -164.43597561962588 0 -164.43597561962588 -178.10154139759288 0 0 0 0 -235.46910454859062 -96.198980394039609 0 -96.198980394039609 -143.7976397927996 0 0 0 0 -200.74670198847798 -74.03941554712128 0 -74.03941554712128 -153.49177970534356 0 0 0 0 -11.422291541224695 197.21468180293596 0 197.21468180293596 -32.164920996139699 0 0 0 0 242.25189918651449 39.735880499138148 0 39.735880499138148 -71.91662530744361 0 0 0 0 -44.567164959929414 -166.16641452090698 0 -166.16641452090698 -112.26533255128015 0 0 0 0 -263.16101297204932 -112.33170155132848 0 -112.33170155132848 -78.357787044995348 0 0 0 0 11.617490817486125 -10.934941374986488 0 -10.934941374986488 -99.84919524378239 0 0 0 0 369.23417679753402 243.96835629471389 0 243.96835629471389 -163.28460557974904 0 0 0 0 -152.61600904462284 -161.8486290877554 0 -161.8486290877554 -112.34812355418399 0 0 0 0 -147.47845318819645 -222.6158362908518 0 -222.6158362908518 -252.17573504135225 0 0 0 0 -335.76465982542436 -231.76516090532004 0 -231.76516090532004 -137.62760417246318 0 0 0 0 0.03953580533537604 2.2197513697467208 0 2.2197513697467208 -4.1865109024208209 0 0 0 0 -237.53214364904534 -4.79722316387506 0 -4.79722316387506 -403.82255285054271 0 0 0 0 10.293465250272613 -17.216227070383219 0 -17.216227070383219 -90.133891257100785 0 0 0 0 -420.25381788656796 -140.61880181385095 0 -140.61880181385095 45.665240202406494 0 0 0 0 64.019821271042019 180.70400950674048 0 180.70400950674048 -3.5838782960054232 0 0 0 0 -576.03170469815063 -39.335580332129894 0 -39.335580332129894 44.437960904167994 0 0 0 0 -600.46590207089685 -77.319482329261518 0 -77.319482329261518 53.286885674041514 0 0 0 0 5.6148873421755408 -12.85221209841945 0 -12.85221209841945 -5.1603410588528789 0 0 0 0 2249.7189003608819 548.09165601609857 0 548.09165601609857 80.543285198255035 0 0 0 0 -336.76004743629449 -393.96525874647159 0 -393.96525874647159 99.860760276227666 0 0 0 0 -569.50931484005753 -17.468173573808372 0 -17.468173573808372 -115.07486185055313 0 0 0 0 -575.83398792550361 -119.55747040516144 0 -119.55747040516144 -22.768995852144144 0 0 0 0 -604.69643937141882 -57.870577717945707 0 -57.870577717945707 75.213240871074959 0 0 0 0 194.77440748074989 -355.47934143351267 0 -355.47934143351267 -247.75009334389688 0 0 0 0 -138.69981744733914 -229.99983831334794 0 -229.99983831334794 -292.90741016556785 0 0 0 0 104.01818773324874 -207.00215156479271 0 -207.00215156479271 -331.42573821681799 0 0 0 0 59.870386895504907 -136.71730607073187 0 -136.71730607073187 -519.77343153236507 0 0 0 0 -43.604908980260234 -160.90839710277214 0 -160.90839710277214 -342.23771972986242 0 0 0 0 -89.104404723471816 -76.201315379318658 0 -76.201315379318658 -94.642234208578884 0 0 0 0 -69.258183083712083 -30.243664930791056 0 -30.243664930791056 3.7429366841888623 0 0 0 0 38.876025966897032 47.310676564833557 0 47.310676564833557 -97.707468886144852 0 0 0 0 -250.78127536463035 -282.88931204624259 0 -282.88931204624259 -122.50476494898066 0 0 0 0 -303.42464765841396 312.36422418773668 0 312.36422418773668 -436.31746620460217 0 0 0 0 -4.5516712857107073 -5.6067956765850475 0 -5.6067956765850475 -8.7664527609842082 0 0 0 0 9.0918256946611109 74.304575191696358 0 74.304575191696358 -37.281930556089719 0 0 0 0 57.907276443940873 0.48832515553158373 0 0.48832515553158373 -30.806058566991851 0 0 0 0 0.88838759192807792 -11.389578124466297 0 -11.389578124466297 -31.575992725221994 0 0 0 0 46.106574082429688 89.196938677297112 0 89.196938677297112 -116.50820903472413 0 0 0 0 -77.474904920906738 118.64468350154948 0 118.64468350154948 -63.856053635312492 0 0 0 0 -184.53956480908073 81.691340879201562 0 81.691340879201562 -59.979142680929726 0 0 0 0 380.88068279667641 28.783297327572654 0 28.783297327572654 -227.52113178830041 0 0 0 0 304.83904953851516 -234.41262516821098 0 -234.41262516821098 -293.86344057523456 0 0 0 0 126.74608104655772 -76.494694781660655 0 -76.494694781660655 86.739718466427803 0 0 0 0 15.320626695106512 -164.31805075793818 0 -164.31805075793818 -171.54385861257651 0 0 0 0 125.95836981261429 -42.700117333329047 0 -42.700117333329047 -485.70094818564758 0 0 0 0 132.12544400710976 -218.41148209799667 0 -218.41148209799667 -266.25815001754836 0 0 0 0 165.17912132116544 -122.57429582446935 0 -122.57429582446935 -221.40787240955251 0 0 0 0 6.9722355959186473 4.9614291697513035 0 4.9614291697513035 -70.417015583634722 0 0 0 0 5.2200956439207964 -12.774298937588377 0 -12.774298937588377 -63.797246067527666 0 0 0 0 4.9251728675608319 193.28837542339807 0 193.28837542339807 121.80587065280997 0 0 0 0 15.109431928625781 -355.11609737546632 0 -355.11609737546632 -555.81345182494624 0 0 0 0 35.347906295950906 -182.69859500591542 0 -182.69859500591542 -915.37033609369064 0 0 0 0 -466.0480668177629 -471.22975041349264 0 -471.22975041349264 -82.898648040958506 0 0 0 0 -6.3854160711909032 7.9639894688107944 0 7.9639894688107944 -6.4615494850374304 0 0 0 0 -86.764545046259627 498.13235517898738 0 498.13235517898738 -217.17288889712495 0 0 0 0 -176.82154242891181 67.866301506011951 0 67.866301506011951 53.391369340121855 0 0 0 0 72.584056599799737 -25.981437410964418 0 -25.981437410964418 -204.88326164386854 0 0 0 0 -3.4750453717793626 1.7404833432530893 0 1.7404833432530893 -12.477366033072549 0 0 0 0 33.06026252840752 14.171262038860505 0 14.171262038860505 -38.166892299301253 0 0 0 0 -112.17603197365588 -26.992528521207532 0 -26.992528521207532 209.27006434407667 0 0 0 0 -17.054824256068969 -60.574751881175871 0 -60.574751881175871 -724.47024666110747 0 0 0 0 51.796469155523937 7.1762511609496187 0 7.1762511609496187 -1374.3702743425165 0 0 0 0 -0.29676378005105519 2.6633083965023658 0 2.6633083965023658 -10.969333579850218 0 0 0 0 -2.2661380416464763 1.9902582363950749 0 1.9902582363950749 1.0671333213984902 0 0 0 0 -234.44478096597481 -176.85597197752031 0 -176.85597197752031 19.437396140392593 0 0 0 0 16.335684313242488 -20.209356288296913 0 -20.209356288296913 -72.053330704647436 0 0 0 0 -102.81420689213337 122.48242844994093 0 122.48242844994093 -153.27762869092112 0 0 0 0 24.986819626932846 -40.178893647872613 0 -40.178893647872613 -87.224725670683199 0 0 0 0 63.555244742630748 -168.58536325611385 0 -168.58536325611385 -414.49103783213832 0 0 0 0 20.168751802112613 -28.460788494577201 0 -28.460788494577201 -74.887183482817306 0 0 0 0 7.6895644108481065 -297.81145952835323 0 -297.81145952835323 -218.87363043161608 0 0 0 0 28.565971925636859 -17.216496348130931 0 -17.216496348130931 -56.883375683391932 0 0 0 0 20.621166663345299 -4.4834737898219501 0 -4.4834737898219501 -79.106188000142325 0 0 0 0 47.110614624402388 -140.51333704840192 0 -140.51333704840192 -67.139167649775118 0 0 0 0 -70.058711216087431 -259.0534717808423 0 -259.0534717808423 -175.36861311560369 0 0 0 0 7.1167298984245768 -17.435100707080146 0 -17.435100707080146 -61.552455592576216 0 0 0 0 16.098959049242694 10.176169315695006 0 10.176169315695006 -110.53820101874408 0 0 0 0 -17.680596224313035 -65.893570431567326 0 -65.893570431567326 -737.40014572011114 0 0 0 0 3.8614881258539988 31.812337472216786 0 31.812337472216786 -80.801023300524577 0 0 0 0 72.820083279475512 161.81478706425332 0 161.81478706425332 -101.24047979619235 0 0 0 0 17.385051263023342 4.8649408360943198 0 4.8649408360943198 -105.63486147320145 0 0 0 0 118.8445085088606 -43.568280783860246 0 -43.568280783860246 -144.66724443074781 0 0 0 0 3.0726876870253577 6.3559623989046354 0 6.3559623989046354 -91.473801060704574 0 0 0 0 -119.38634379471478 -52.063550163104082 0 -52.063550163104082 -102.30588990997057 0 0 0 0 7.2676331328475499 -125.22860899273655 0 -125.22860899273655 -99.820825471552865 0 0 0 0 -0.45105955631985317 -15.037337500482323 0 -15.037337500482323 5.5933867133238095 0 0 0 0 -37.924228060339374 -469.54792734092553 0 -469.54792734092553 -982.09019031347998 0 0 0 0 8.3118991311503763 9.1737426960651298 0 9.1737426960651298 -114.25974716174551 0 0 0 0 9.4282803725382109 -535.1833471060545 0 -535.1833471060545 -927.4353237782052 0 0 0 0 12.718525140764712 13.767537575227948 0 13.767537575227948 -52.829862771025546 0 0 0 0 80.685585710087253 -113.0624069826514 0 -113.0624069826514 -1023.3102097259941 0 0 0 0 55.743262749913811 -156.93204310363166 0 -156.93204310363166 -804.48007033512124 0 0 0 0 10.154976611794922 -0.93831790297519824 0 -0.93831790297519824 -108.59000992165957 0 0 0 0 326.3004393743613 -276.25578961515384 0 -276.25578961515384 -738.64444056395041 0 0 0 0 145.3804622964667 -135.55552125497445 0 -135.55552125497445 -674.62098597558406 0 0 0 0 251.6241954204088 -145.44961399482236 0 -145.44961399482236 -963.89010542314645 0 0 0 0 -18.731591747484345 -337.82038403309707 0 -337.82038403309707 -785.51150667194815 0 0 0 0 29.798678112085327 -271.36853880964918 0 -271.36853880964918 -833.36656634078827 0 0 0 0 -3.226428330779072 -459.16727809780059 0 -459.16727809780059 -1137.7316614519514 0 0 0 0 -132.42467720559935 17.66605075394445 0 17.66605075394445 -1195.625629328973 0 0 0 0 -130.49932244176924 -100.62122959209081 0 -100.62122959209081 -1859.0279503191941 0 0 0 0 53.850926273274126 -26.658568594842222 0 -26.658568594842222 -820.23965525452491 0 0 0 0 -78.881806715626979 -207.46687232424844 0 -207.46687232424844 -548.00950866209598 0 0 0 0 -6.0484508956324134 -374.60504857507658 0 -374.60504857507658 -906.04746960216698 0 0 0 0 -313.0635632822549 -629.95484516949966 0 -629.95484516949966 -1107.9072620168695 0 0 0 0 -335.09458910128598 -776.21771230110699 0 -776.21771230110699 -1727.1672543283721 0 0 0 0 -0.74977756230017967 4.8477223898906061 0 4.8477223898906061 -13.758693004842907 0 0 0 0 -121.71202241704304 746.91126482817663 0 746.91126482817663 -773.21695225130316 0 0 0 0 -254.10166153975342 303.07360858265156 0 303.07360858265156 206.14459562802534 0 0 0 0 838.45995928888124 385.61254802060785 0 385.61254802060785 -844.2396616710239 0 0 0 0 158.59810125615968 137.77917109506097 0 137.77917109506097 305.00928497216319 0 0 0 0 293.57346880428605 174.77832838967939 0 174.77832838967939 -410.86244811275537 0 0 0 0 343.34102028112829 -264.03841400536612 0 -264.03841400536612 -1691.5092005783058 0 0 0 0 -750.55854859268356 -529.93615691721823 0 -529.93615691721823 -741.23230317965681 0 0 0 0 -449.07250819321223 -356.5389736002362 0 -356.5389736002362 -337.45998601890278 0 0 0 0 -136.222921833491 -132.36738351354234 0 -132.36738351354234 -732.58395582475555 0 0 0 0 -773.51246706312486 154.47015832580746 0 154.47015832580746 -781.70647261752401 0 0 0 0 -11.195454230812175 -341.33470011051941 0 -341.33470011051941 -704.41658552476019 0 0 0 0 43.922126728312719 -175.25771657073574 0 -175.25771657073574 -490.34512955447099 0 0 0 0 -163.44402215920758 -108.22146003929697 0 -108.22146003929697 -208.93771471425862 0 0 0 0 -108.64049822889433 -148.38883198145049 0 -148.38883198145049 -493.84627874085891 0 0 0 0 313.06574190801712 282.36980447726091 0 282.36980447726091 -425.79457614979083 0 0 0 0 496.06056440843372 44.371537467378403 0 44.371537467378403 -201.21724159249425 0 0 0 0 12.503162716277739 -12.168653840547652 0 -12.168653840547652 -107.82791977326627 0 0 0 0 13.251655389437056 -12.350382228894642 0 -12.350382228894642 -112.62728656354011 0 0 0 0 437.55636968318868 143.30742145266959 0 143.30742145266959 -703.91879150366731 0 0 0 0 440.42518925734203 -167.56430556260648 0 -167.56430556260648 -795.14623281319109 0 0 0 0 251.1972486960276 215.02249837302588 0 215.02249837302588 -422.40638150133282 0 0 0 0 288.19509357753941 -90.965061255217734 0 -90.965061255217734 -878.14915626093716 0 0 0 0 297.86119433685985 85.31723171680278 0 85.31723171680278 -733.96861985899159 0 0 0 0 7.1610154862766073 4.661936013197618 0 4.661936013197618 -7.5594640935633777 0 0 0 0 284.90236371722131 -130.21887531983157 0 -130.21887531983157 -789.37184140269528 0 0 0 0 30.121253388587604 -378.49894314793482 0 -378.49894314793482 -860.67379066318972 0 0 0 0 160.16780012694471 67.852742949438834 0 67.852742949438834 -89.047294642887209 0 0 0 0 -8.7606101095525446 -118.6594084786484 0 -118.6594084786484 -562.97221306914798 0 0 0 0 1.0603710020322374 -8.1159330747522489 0 -8.1159330747522489 -34.713830055176828 0 0 0 0 18.602832646989555 -74.200799035672389 0 -74.200799035672389 -324.57218470482439 0 0 0 0 4.845049449454109 -11.82695004436664 0 -11.82695004436664 -372.93150886568765 0 0 0 0 12.897660789792937 -9.5301045001127687 0 -9.5301045001127687 -111.24025524361632 0 0 0 0 182.74861317198702 2.9944225324616127 0 2.9944225324616127 -249.9225809782929 0 0 0 0 52.742246037495534 12.204680936529257 0 12.204680936529257 -107.62149386657984 0 0 0 0 274.5680730589952 -49.197652182070669 0 -49.197652182070669 -269.63892760314047 0 0 0 0 196.25742291437791 44.806852079233067 0 44.806852079233067 -151.14184263211791 0 0 0 0 3.6902215836154468 1.6874139640289059 0 1.6874139640289059 -5.4649051877605785 0 0 0 0 517.20553872347955 510.30734427873904 0 510.30734427873904 149.15267456354013 0 0 0 0 200.27097034278086 0.91296854662141413 0 0.91296854662141413 -137.72777456553013 0 0 0 0 260.85973060111519 126.16165159744924 0 126.16165159744924 95.623290870331402 0 0 0 0 712.11998663598115 194.66484946225683 0 194.66484946225683 -425.27072851292542 0 0 0 0 449.20558405751126 12.693674998132337 0 12.693674998132337 -256.86180376321136 0 0 0 0 292.93259823089102 -128.25985598256193 0 -128.25985598256193 -270.64926959494187 0 0 0 0 249.22398685662927 -120.88412149119915 0 -120.88412149119915 -285.63933560797886 0 0 0 0 244.18511185340412 -35.846699523030111 0 -35.846699523030111 -218.28010383780565 0 0 0 0 102.59656038352296 -128.73511548683746 0 -128.73511548683746 -246.74062017218239 0 0 0 0 84.610912240977996 -171.89385623125145 0 -171.89385623125145 -236.05531665639865 0 0 0 0 50.801222715205768 -150.1730369960751 0 -150.1730369960751 -222.62078487230974 0 0 0 0 -108.78009305377805 -173.44713182686792 0 -173.44713182686792 -185.31349827280792 0 0 0 0 12.061657849406402 -214.16451613112804 0 -214.16451613112804 -293.13559413997427 0 0 0 0 60.321470780863365 -202.65188766460051 0 -202.65188766460051 -291.68486787930306 0 0 0 0 -62.962039556710806 -305.58814220521526 0 -305.58814220521526 -366.32347708026646 0 0 0 0 180.78439946338449 -166.43333739427908 0 -166.43333739427908 -357.10981259324763 0 0 0 0 198.18348012540127 -84.74461205026455 0 -84.74461205026455 -222.74720130310743 0 0 0 0 103.55649911680052 -236.65506437607473 0 -236.65506437607473 -420.43182167627674 0 0 0 0 424.15047140335128 -235.30139063175375 0 -235.30139063175375 -621.82282297489292 0 0 0 0 244.16500089574674 -194.43200837328914 0 -194.43200837328914 -432.69781500474346 0 0 0 0 290.90458732616753 -343.31585673097288 0 -343.31585673097288 -708.46443556304439 0 0 0 0 -99.977196386663763 -425.78388457070105 0 -425.78388457070105 -513.24901944596058 0 0 0 0 50.799463040108094 -279.9567395168342 0 -279.9567395168342 -384.34565198402925 0 0 0 0 110.94639204661416 -330.56102910009213 0 -330.56102910009213 -545.74454131566745 0 0 0 0 267.66070189699531 -295.91632736662723 0 -295.91632736662723 -566.41797805228634 0 0 0 0 92.287918901539342 -400.09386889175767 0 -400.09386889175767 -602.2592620394571 0 0 0 0 71.519040173017515 -341.1928169995881 0 -341.1928169995881 -586.87177790178976 0 0 0 0 -77.492645480249394 -391.26527887390694 0 -391.26527887390694 -589.65150204556994 0 0 0 0 173.47769275035671 -320.87152905130642 0 -320.87152905130642 -631.38757658009126 0 0 0 0 105.09588271569874 -400.24782167406738 0 -400.24782167406738 -704.33698327530874 0 0 0 0 349.22770656083003 -377.79129119850768 0 -377.79129119850768 -614.10327221898478 0 0 0 0 372.67531865882302 -401.92902382329339 0 -401.92902382329339 -685.02717549203953 0 0 0 0 224.29525021767358 -407.95988382035284 0 -407.95988382035284 -508.78575678588822 0 0 0 0 355.21392889029994 -517.78907329473441 0 -517.78907329473441 -483.12761648496235 0 0 0 0 172.02318786859723 -706.84962125931634 0 -706.84962125931634 -683.94385745253385 0 0 0 0 362.71388441518047 -329.85142006340175 0 -329.85142006340175 -93.316805991125875 0 0 0 0 42.440538772771106 -482.10922738161207 0 -482.10922738161207 36.412685982460971 0 0 0 0 26.704933324805097 -311.42732345915283 0 -311.42732345915283 309.17984213535965 0 0 0 0 1.2132893247345162 -1.6332945942667267 0 -1.6332945942667267 -7.4252966637101281 0 0 0 0 588.54580179384448 313.7589951539012 0 313.7589951539012 -626.63117145095021 0 0 0 0 2.8785074942566098 -686.59878714304614 0 -686.59878714304614 -796.42461093026213 0 0 0 0 351.99345835054282 168.64378235180266 0 168.64378235180266 -197.69250584059046 0 0 0 0 318.5384923971742 231.61489431586961 0 231.61489431586961 146.59035121158649 0 0 0 0 443.5165218052698 319.06785081463022 0 319.06785081463022 -123.23479762779607 0 0 0 0 447.87234261521553 360.43249195803219 0 360.43249195803219 -561.31428915828292 0 0 0 0 -374.03270971280062 -633.93575889459498 0 -633.93575889459498 -1965.7252400664947 0 0 0 0 590.40434075547091 185.29086239182288 0 185.29086239182288 -1303.5638816279243 0 0 0 0 -286.51188167782675 -815.17980938362598 0 -815.17980938362598 -1590.4387682851302 0 0 0 0 424.01245328877764 -243.54750742681182 0 -243.54750742681182 -980.00839942313905 0 0 0 0 432.81149685504624 -421.919474455819 0 -421.919474455819 -690.95023062116161 0 0 0 0 430.80566028840894 -395.48267819521789 0 -395.48267819521789 -959.22882173321705 0 0 0 0 405.16805391667094 -646.23999049868144 0 -646.23999049868144 -1983.3509017160541 0 0 0 0 12.008572629812834 -12.952855570334576 0 -12.952855570334576 -69.265773427505337 0 0 0 0 -183.44397349042629 77.155016350112419 0 77.155016350112419 -13.369082253542729 0 0 0 0 -8.0222868934599845 5.7673420091414265 0 5.7673420091414265 -71.093726787752075 0 0 0 0 184.09883917789557 -69.183088455371035 0 -69.183088455371035 -83.824371696464368 0 0 0 0 173.08292416834593 -39.983013188248151 0 -39.983013188248151 -123.55152804305362 0 0 0 0 152.39379844866659 49.161611879586417 0 49.161611879586417 -117.47090581809516 0 0 0 0 17.994755232395292 -28.624509305750507 0 -28.624509305750507 -36.489909251373319 0 0 0 0 -0.19390888649107585 4.404296107568225 0 4.404296107568225 -66.106291921422979 0 0 0 0 160.69218198492089 63.029255865960295 0 63.029255865960295 -82.283103492245573 0 0 0 0 -305.75874705060164 -105.75086285775251 0 -105.75086285775251 -92.608678181995856 0 0 0 0 -203.96930709247056 -84.137694528031716 0 -84.137694528031716 -96.032625589505187 0 0 0 0 -198.73425280097564 -86.401516665592681 0 -86.401516665592681 -117.20611344736244 0 0 0 0 -107.24245568798415 -169.00420314472649 0 -169.00420314472649 -172.66395412233123 0 0 0 0 -186.76929531305268 -151.00031622271536 0 -151.00031622271536 -139.42977615757991 0 0 0 0 -242.18793608191527 -236.41743166622473 0 -236.41743166622473 -189.98390408041087 0 0 0 0 -313.25344977979762 -283.10090983545524 0 -283.10090983545524 -208.35152429166192 0 0 0 0 -191.34769753725959 -291.10689684029421 0 -291.10689684029421 -315.18007383917575 0 0 0 0 -72.538554342712189 -219.76377662818595 0 -219.76377662818595 -276.33518292875669 0 0 0 0 -208.69239883871654 -312.53192909436984 0 -312.53192909436984 -313.1684787566337 0 0 0 0 -467.1995859238059 -505.22203334508595 0 -505.22203334508595 -454.88145127017197 0 0 0 0 -76.080770974474405 -391.15634627188547 0 -391.15634627188547 -711.89371139443392 0 0 0 0 -179.86427091774794 -397.23786602920882 0 -397.23786602920882 -696.41745774566152 0 0 0 0 -935.21443840537995 -587.47034248499767 0 -587.47034248499767 -406.19539946410077 0 0 0 0 -194.98081817515208 -512.11048580434363 0 -512.11048580434363 -1359.1766751380928 0 0 0 0 -420.36412567284572 -210.00520349940234 0 -210.00520349940234 -245.15974567963713 0 0 0 0 -442.22544911721207 -234.05635262437863 0 -234.05635262437863 -208.30119834276775 0 0 0 0 -0.12706908869655514 2.7046057128750327 0 2.7046057128750327 -43.938839028227477 0 0 0 0 -1279.2449160351164 -1103.3365112751417 0 -1103.3365112751417 -1178.7264489841764 0 0 0 0 -1.006669770253986 0.52085838212124003 0 0.52085838212124003 -16.219510747957372 0 0 0 0 -230.46597841256289 333.45941094711452 0 333.45941094711452 -202.21298977544029 0 0 0 0 82.010021623688317 21.131680586191578 0 21.131680586191578 -48.721378974005347 0 0 0 0 9.3653082731245121 -19.255381574515532 0 -19.255381574515532 -93.588657404356979 0 0 0 0 -154.84025989194561 -170.2323347990714 0 -170.2323347990714 -105.7476098737061 0 0 0 0 -705.57376639467611 -171.58161946699329 0 -171.58161946699329 -2051.253864014403 0 0 0 0 398.11742245746143 -116.46629825063701 0 -116.46629825063701 -2229.5354260831518 0 0 0 0 9.5795302242821396 -14.383332409621627 0 -14.383332409621627 -108.85501588286982 0 0 0 0 -417.96929288205729 35.40300690803997 0 35.40300690803997 -2528.9615017425895 0 0 0 0 -1034.1841113268674 156.60589183716911 0 156.60589183716911 -1343.4734938314868 0 0 0 0 -189.26691967818761 178.60037706762887 0 178.60037706762887 -1655.1330865195487 0 0 0 0 -413.39122118388502 -140.7896479560477 0 -140.7896479560477 -1241.9912263440783 0 0 0 0 -319.63350125487727 -28.04532710606145 0 -28.04532710606145 -1169.8975532014083 0 0 0 0 -130.22982949299831 -148.25975520969587 0 -148.25975520969587 -1176.2672916224838 0 0 0 0 29.857054905318364 -323.05117955360402 0 -323.05117955360402 -970.97761611320311 0 0 0 0 -91.535288973850584 -25.321228660432098 0 -25.321228660432098 -787.18391507690103 0 0 0 0 -103.02629775482978 109.09795227072027 0 109.09795227072027 -875.36968510548468 0 0 0 0 26.098262594419793 116.95523479627445 0 116.95523479627445 -1036.7848960683332 0 0 0 0 -180.89434055533093 246.3948076125489 0 246.3948076125489 -1110.0979954759432 0 0 0 0 -15.73536155816646 490.99656652283375 0 490.99656652283375 -1056.4329682949392 0 0 0 0 -259.71358581843265 597.55593576126921 0 597.55593576126921 -738.2725914239636 0 0 0 0 59.34497657915972 329.19345854942003 0 329.19345854942003 -603.43556210719544 0 0 0 0 -147.35134599049252 474.15795850638096 0 474.15795850638096 -609.50192560999858 0 0 0 0 -485.17460522750434 679.7102143382981 0 679.7102143382981 -780.39239469112363 0 0 0 0 -509.69815538598141 974.92536857766754 0 974.92536857766754 -969.91153128247242 0 0 0 0 -275.68298066163823 483.57047408113431 0 483.57047408113431 -1145.344154391234 0 0 0 0 -595.13107735172662 502.03549201573333 0 502.03549201573333 -1053.615847602483 0 0 0 0 -447.95142099569239 588.16218194719113 0 588.16218194719113 -1213.762200424113 0 0 0 0 -514.70148256031439 219.77975857816318 0 219.77975857816318 -1584.8392520373163 0 0 0 0 -509.44555344117106 562.50725627228212 0 562.50725627228212 -1086.0565109929448 0 0 0 0 -643.09852203288835 72.171899841727281 0 72.171899841727281 -1544.3203471121305 0 0 0 0 -437.17992268575722 239.7664451650453 0 239.7664451650453 -1847.6315288004844 0 0 0 0 687.1237859074381 -223.34496241682791 0 -223.34496241682791 119.73288132534526 0 0 0 0 497.05199132234429 111.41860594745049 0 111.41860594745049 -285.90324625112407 0 0 0 0 345.14693789330977 294.20764801164478 0 294.20764801164478 249.38645323891251 0 0 0 0 1.3687475200066093 0.18824214784816107 0 0.18824214784816107 -1.7050540864900654 0 0 0 0 -356.73521098216406 350.16385194499162 0 350.16385194499162 41.066893800190883 0 0 0 0 1843.2410125561928 -649.54928784557069 0 -649.54928784557069 -360.02077585596999 0 0 0 0 3.0550364829869121 -2.0434806684264064 0 -2.0434806684264064 -10.686566382554219 0 0 0 0 1295.6257780837659 320.77713951117403 0 320.77713951117403 51.319232945621479 0 0 0 0 93.129981883917253 414.20242856606274 0 414.20242856606274 -248.59980386098323 0 0 0 0 189.3793445601824 290.43702576451778 0 290.43702576451778 -312.76645970778191 0 0 0 0 868.06980441807173 -330.67120261886885 0 -330.67120261886885 210.74359905110214 0 0 0 0 1253.9881436163514 119.87540633783465 0 119.87540633783465 -249.46833172094193 0 0 0 0 504.90766893458931 235.11762072685087 0 235.11762072685087 243.95366042901878 0 0 0 0 588.70351879051964 -171.88508434750929 0 -171.88508434750929 -301.03790846663469 0 0 0 0 338.2138652833637 -196.54302959753113 0 -196.54302959753113 -204.64996453119966 0 0 0 0 242.32779655265085 -335.04621216416126 0 -335.04621216416126 -267.64915866806405 0 0 0 0 231.86127822148683 -246.89862841764261 0 -246.89862841764261 -591.33347157625758 0 0 0 0 184.81922860486429 -106.47462514529252 0 -106.47462514529252 -297.33535935281543 0 0 0 0 358.90170760918818 -151.62578000756184 0 -151.62578000756184 -72.744839886443515 0 0 0 0 337.1883796382026 -54.557919622697227 0 -54.557919622697227 -445.43977708597595 0 0 0 0 47.67585303985561 -237.23132349637308 0 -237.23132349637308 -645.30647261076956 0 0 0 0 159.25071315494142 -316.73121949851702 0 -316.73121949851702 -610.57520763449429 0 0 0 0 118.48431845187133 43.028273497584451 0 43.028273497584451 -630.52592220174665 0 0 0 0 148.19385603750834 140.60143006493308 0 140.60143006493308 -678.32436295938533 0 0 0 0 32.526901601323971 58.460203154314513 0 58.460203154314513 -507.11353988815245 0 0 0 0 166.63033123765581 221.8857932257888 0 221.8857932257888 -416.44005386805111 0 0 0 0 251.57766383714625 50.188373719163792 0 50.188373719163792 -78.314056880881253 0 0 0 0 149.58476066992603 387.47564665704704 0 387.47564665704704 -331.72302160058462 0 0 0 0 343.32672479427083 412.77616578626476 0 412.77616578626476 -373.24363301622725 0 0 0 0 180.61328230193874 422.84977486748812 0 422.84977486748812 -633.80020723344933 0 0 0 0 78.930683636211143 592.31230142252753 0 592.31230142252753 -592.88041828476889 0 0 0 0 374.46805707318345 612.67728623617222 0 612.67728623617222 -573.61582883282972 0 0 0 0 43.075677371831262 465.17814772618294 0 465.17814772618294 -552.87610719400982 0 0 0 0 8.4775112046800132 382.98233991249253 0 382.98233991249253 -737.38172378710442 0 0 0 0 10.461542570023539 590.28477654849848 0 590.28477654849848 -732.40926101571415 0 0 0 0 64.959349759714769 559.62819348124322 0 559.62819348124322 -737.31518722313194 0 0 0 0 77.600912235504893 537.28087047967347 0 537.28087047967347 -733.54315914538893 0 0 0 0 -70.187134356321849 580.44486409302408 0 580.44486409302408 -814.54484168840372 0 0 0 0 107.72990273344283 592.71110482835866 0 592.71110482835866 -1101.6030917215758 0 0 0 0 208.90349529686864 430.45209480503399 0 430.45209480503399 -770.72978790483467 0 0 0 0 -130.35410161343634 134.22235432042362 0 134.22235432042362 -788.9732118149459 0 0 0 0 484.81409311340758 213.16945260779539 0 213.16945260779539 -793.98691497346954 0 0 0 0 0.98861152316808543 0.023112182676520376 0 0.023112182676520376 -3.1286161716348602 0 0 0 0 781.70403017344506 553.36111540400543 0 553.36111540400543 -453.50194880862546 0 0 0 0 10.333745198094908 13.268728305162568 0 13.268728305162568 -6.477400058606122 0 0 0 0 773.69131581157274 461.88117401203999 0 461.88117401203999 652.46244980417396 0 0 0 0 1351.6225251248136 -590.5858185939378 0 -590.5858185939378 -708.78625389534864 0 0 0 0 105.96671106007237 -509.66935892913443 0 -509.66935892913443 -316.97563774530136 0 0 0 0 66.702044246123421 1196.1520892995031 0 1196.1520892995031 -604.90588131637924 0 0 0 0 844.99401252415214 149.14171495824121 0 149.14171495824121 -1272.9316902189457 0 0 0 0 909.32376495588142 -303.53424816788174 0 -303.53424816788174 -331.44834011717467 0 0 0 0 -188.50049521318749 881.43287536092976 0 881.43287536092976 412.46883326489478 0 0 0 0 846.01133124623789 -236.96502242861607 0 -236.96502242861607 481.38797903941304 0 0 0 0 58.219275162855752 59.577932943233463 0 59.577932943233463 418.00943961975281 0 0 0 0 285.33537086678325 1653.8547625301503 0 1653.8547625301503 -1035.9282000073072 0 0 0 0 476.39811655535891 657.15922109110761 0 657.15922109110761 -1524.9255352833443 0 0 0 0 386.30383948203416 1056.7473862832994 0 1056.7473862832994 -1557.470896913539 0 0 0 0 465.41146696772103 92.6962593674034 0 92.6962593674034 -1089.5553146280654 0 0 0 0 167.50076473689751 932.59761904948027 0 932.59761904948027 -1627.5704895984018 0 0 0 0 672.90100967569151 918.86094434592087 0 918.86094434592087 -1817.8284700221266 0 0 0 0 -245.82974233033747 837.38888408548155 0 837.38888408548155 776.41582388442475 0 0 0 0 282.52510047143619 382.10492192269703 0 382.10492192269703 -2544.2319444655695 0 0 0 0 -3.8231495206537223 2.0201427186548102 0 2.0201427186548102 -1.492615303154508 0 0 0 0 -10.719907620347797 8.0270199923556333 0 8.0270199923556333 -2.7100196628571358 0 0 0 0 202.94207198844151 487.06974748284847 0 487.06974748284847 -1225.9238208890274 0 0 0 0 -529.43031461494866 343.83166155606159 0 343.83166155606159 -1187.3214006909666 0 0 0 0 121.34304702120335 397.12388392155117 0 397.12388392155117 -953.97461333574029 0 0 0 0 719.72045787739717 353.9038595524471 0 353.9038595524471 -4082.9493662922323 0 0 0 0 851.42450925772209 -1127.4211053198997 0 -1127.4211053198997 81.189372722270491 0 0 0 0 2.1639710385729138 -4.4068835150942789 0 -4.4068835150942789 -15.679211753687426 0 0 0 0 -891.13036178710081 2483.7945108550894 0 2483.7945108550894 -3444.5962980238764 0 0 0 0 295.01747958452324 591.33893400261513 0 591.33893400261513 -1989.3945669946988 0 0 0 0 -1175.647310932598 1334.1305599978623 0 1334.1305599978623 -1750.8139038896552 0 0 0 0 10.103361886584025 644.50275048964795 0 644.50275048964795 -1634.3218802777919 0 0 0 0 7.6313557515986616 -12.743275594641752 0 -12.743275594641752 -36.69658436432529 0 0 0 0 147.06102735779768 777.40306952504034 0 777.40306952504034 -1617.3039238439087 0 0 0 0 -368.79415071468657 -132.21961004207697 0 -132.21961004207697 380.20974050803488 0 0 0 0 -345.57355814571474 -1595.551260970693 0 -1595.551260970693 -2473.6557479495877 0 0 0 0 975.49995341673002 233.63262882906929 0 233.63262882906929 -1679.9861910412656 0 0 0 0 3.5413370594768505 2.5181774536829806 0 2.5181774536829806 -8.1608601905030582 0 0 0 0 600.90051964301665 -575.69545459871006 0 -575.69545459871006 -621.20100887637818 0 0 0 0 403.23888260671265 229.01861346065925 0 229.01861346065925 -489.94393178415157 0 0 0 0 671.79977304715374 -590.69484780326275 0 -590.69484780326275 -344.13983132815702 0 0 0 0 140.21711378894361 692.87063822056007 0 692.87063822056007 -1381.825344354429 0 0 0 0 -407.37694592306525 83.909441730909748 0 83.909441730909748 -1330.4048929778219 0 0 0 0 847.76150686505446 221.14098161073161 0 221.14098161073161 -1484.7735811985876 0 0 0 0 155.77995840249187 1027.6368718514404 0 1027.6368718514404 -1930.5581446879805 0 0 0 0 556.45604216704794 551.92540779035699 0 551.92540779035699 -2402.9498902516025 0 0 0 0 434.3069959704053 793.27282907753033 0 793.27282907753033 -1882.4186361892935 0 0 0 0 555.8876690422934 550.46177864649508 0 550.46177864649508 -1743.7183624852623 0 0 0 0 -184.03614956801039 166.95239666386624 0 166.95239666386624 53.252403597638477 0 0 0 0 -259.07365055706765 595.81865118363521 0 595.81865118363521 -891.7079922764824 0 0 0 0 -147.04841730632506 558.94952934047615 0 558.94952934047615 -1086.0247460164501 0 0 0 0 -90.575365051725385 -125.28732464323366 0 -125.28732464323366 -273.58267008775874 0 0 0 0 -496.9591691131991 318.03436379358754 0 318.03436379358754 -996.32838089466168 0 0 0 0 98.004425816563526 365.3658020836956 0 365.3658020836956 -1129.3587441223863 0 0 0 0 -210.51320566657137 824.1533582295815 0 824.1533582295815 -1485.9109545959072 0 0 0 0 -455.58201697177947 711.86749755546771 0 711.86749755546771 261.70642532494094 0 0 0 0 -6.9236708649089191 5.1017243960840375 0 5.1017243960840375 -2.3260091074106635 0 0 0 0 -321.75854395867646 723.28903181601345 0 723.28903181601345 -3106.9968595368223 0 0 0 0 -278.60696081015658 1282.4181159315326 0 1282.4181159315326 -2517.4014991898584 0 0 0 0 509.07670430216604 -187.05513461162627 0 -187.05513461162627 -1625.4349000312977 0 0 0 0 -21.904137101401375 -131.95995897353714 0 -131.95995897353714 -996.23123785308417 0 0 0 0 -644.76119063981059 -418.49426150267391 0 -418.49426150267391 -722.46090356353307 0 0 0 0 101.22162572185653 -217.22221461354275 0 -217.22221461354275 -814.86993402934604 0 0 0 0 1.6476936805836573 0.88432685749910434 0 0.88432685749910434 -0.95927779264135893 0 0 0 0 -325.00122892851357 -47.44417274713669 0 -47.44417274713669 27.321684037109662 0 0 0 0 -518.26649125886524 406.74871205505042 0 406.74871205505042 -275.89806155241604 0 0 0 0 11.451338545313657 -0.73788177576676617 0 -0.73788177576676617 2.4282513426704 0 0 0 0 -87.82705077248329 33.149227862864791 0 33.149227862864791 -36.346219974242558 0 0 0 0 18.788162580076715 -150.89661701418208 0 -150.89661701418208 -451.57953217969043 0 0 0 0 61.753118044614212 35.022616017089604 0 35.022616017089604 -207.4546462769722 0 0 0 0 -62.465736026858394 37.460801558674575 0 37.460801558674575 -70.809922983793513 0 0 0 0 -506.43346432432884 -7.4914206593348354 0 -7.4914206593348354 39.26707147261186 0 0 0 0 -886.08721953731163 -950.34721158669345 0 -950.34721158669345 -324.07432442497179 0 0 0 0 -118.30367155043029 -214.37295258985796 0 -214.37295258985796 -296.69343843542447 0 0 0 0 -116.26620436455073 -224.31484442063083 0 -224.31484442063083 -263.77587842933281 0 0 0 0 -135.34723355072197 -439.41883143101131 0 -439.41883143101131 -955.44886425590084 0 0 0 0 -285.87181615376585 -348.64154062789748 0 -348.64154062789748 -329.03721970690094 0 0 0 0 -183.34894187697853 -961.8942976710423 0 -961.8942976710423 -1264.6396588824573 0 0 0 0 -103.48688881763292 -813.6389561235992 0 -813.6389561235992 -1005.0833733720356 0 0 0 0 11.064696883639346 5.7316490055235363 0 5.7316490055235363 -23.134636445958975 0 0 0 0 -415.74685753927542 -433.97674655645096 0 -433.97674655645096 -617.48991355796352 0 0 0 0 -340.87731478542821 -801.86897031568742 0 -801.86897031568742 -1504.9696531570662 0 0 0 0 10.438323619895872 5.9973634406887157 0 5.9973634406887157 -20.226552608917714 0 0 0 0 805.24085312598868 156.92738562757222 0 156.92738562757222 -1409.6247955256731 0 0 0 0 148.9090408409983 -1182.0954698961921 0 -1182.0954698961921 -3032.27862639659 0 0 0 0 688.31262854123224 -767.24004486437207 0 -767.24004486437207 -3271.3531171959694 0 0 0 0 611.73797206056042 -1045.5752456007503 0 -1045.5752456007503 -4189.2111285044884 0 0 0 0 -100.93673088073498 -1516.0861095207183 0 -1516.0861095207183 -4499.6033229086024 0 0 0 0 180.18652666932351 -922.68225851430088 0 -922.68225851430088 -2651.6944158240294 0 0 0 0 -593.26446631234035 -1605.7304973543141 0 -1605.7304973543141 -2977.8848382961223 0 0 0 0 -1046.9930039503388 -2505.7504512997839 0 -2505.7504512997839 -4758.2287726929062 0 0 0 0 5.1417166093050399 1.8770343502624769 0 1.8770343502624769 -13.500501406825748 0 0 0 0 -345.1405828794127 -1223.3962302229738 0 -1223.3962302229738 -4850.0139994218262 0 0 0 0 -743.93408130296655 -1125.9263460076618 0 -1125.9263460076618 -4501.519741142185 0 0 0 0 -460.42815467014708 -1096.2370420747466 0 -1096.2370420747466 -3422.4409863975015 0 0 0 0 -117.72194855173871 525.51919595151776 0 525.51919595151776 -1089.5008890295721 0 0 0 0 -38.772603407153213 543.14601975355072 0 543.14601975355072 -2353.9846946448397 0 0 0 0 -247.67358703722221 1360.6611312887389 0 1360.6611312887389 -5430.3017366800523 0 0 0 0 0.11745219279521413 -7.181512375773778 0 -7.181512375773778 -18.316896155586079 0 0 0 0 -156.29558799298854 779.31460167798286 0 779.31460167798286 -655.90399470812554 0 0 0 0 -145.26428699569715 920.370391660319 0 920.370391660319 -1292.2969853339091 0 0 0 0 4.5540678299027091 -15.387568465783716 0 -15.387568465783716 -38.612755424321207 0 0 0 0 347.11718131264251 -130.38036891791126 0 -130.38036891791126 -1802.7353426304417 0 0 0 0 258.38301468049667 659.14911460456278 0 659.14911460456278 -278.53368573250327 0 0 0 0 1651.4052826047878 1533.365416756842 0 1533.365416756842 -402.53281118322047 0 0 0 0 681.70649313490026 -597.61357778252022 0 -597.61357778252022 -2177.226210031271 0 0 0 0 1043.1420546410511 -303.81881858228917 0 -303.81881858228917 -4147.6820166490943 0 0 0 0 1034.7920802893559 63.693100346434022 0 63.693100346434022 -3219.1341532591177 0 0 0 0 1215.6327279696866 -810.28620988380771 0 -810.28620988380771 -4499.1700659557246 0 0 0 0 1129.9508079458253 -718.83667801587944 0 -718.83667801587944 -3736.1276629154418 0 0 0 0 1039.64856380579 -436.41559076854173 0 -436.41559076854173 -4500.2248976807823 0 0 0 0 383.13892358544564 -450.53909849532283 0 -450.53909849532283 -3876.7513139644689 0 0 0 0 -327.6346874038436 -551.97794802420685 0 -551.97794802420685 -4323.8957331031288 0 0 0 0 -246.55837324871015 -101.34657201734444 0 -101.34657201734444 -4499.3370765434629 0 0 0 0 383.44760051975089 -435.66045641587095 0 -435.66045641587095 -4451.1614738083081 0 0 0 0 -175.85855171548334 96.370812581189057 0 96.370812581189057 -4072.5002884850182 0 0 0 0 -88.911494367563733 227.13052626722219 0 227.13052626722219 -4499.5307768221701 0 0 0 0 -961.62192825612647 18.23875759864859 0 18.23875759864859 -4028.0308925588633 0 0 0 0 455.33823412035002 538.38637084321635 0 538.38637084321635 -4499.8082301709019 0 0 0 0 88.43213306899726 514.74086943507427 0 514.74086943507427 -4073.6393002591258 0 0 0 0 307.24575058145882 645.88278766853637 0 645.88278766853637 -4016.5278899776822 0 0 0 0 355.11309446886446 510.54031187180976 0 510.54031187180976 -3954.7474353154375 0 0 0 0 -243.46025566635973 223.28434964990265 0 223.28434964990265 -3487.8652190172397 0 0 0 0 112.76984469573949 720.50072047799245 0 720.50072047799245 -3160.7139040990842 0 0 0 0 -1123.2270594574363 773.63536411733185 0 773.63536411733185 -2879.8290409681795 0 0 0 0 -290.38455927206087 -790.6126027944847 0 -790.6126027944847 -3165.351897521934 0 0 0 0 -242.94393246639305 255.04407438870112 0 255.04407438870112 -4023.7875715342052 0 0 0 0 -1085.4267002121119 97.166699116836753 0 97.166699116836753 -1557.7223796485159 0 0 0 0 -27.958161952790988 -1725.9560445087318 0 -1725.9560445087318 123.24915437703385 0 0 0 0 -790.6404569808941 182.88343797505695 0 182.88343797505695 -1158.7791014800569 0 0 0 0 -434.84631173622722 740.33386087401163 0 740.33386087401163 -1617.7253525341766 0 0 0 0 -2324.5330212795884 -173.69277424619941 0 -173.69277424619941 -1984.7252875778831 0 0 0 0 97.738955507705441 716.22015048694266 0 716.22015048694266 -3501.9852272567296 0 0 0 0 -188.8321975428139 124.63013442502961 0 124.63013442502961 -2708.7844281474063 0 0 0 0 -1963.5874934976791 1510.9578838967134 0 1510.9578838967134 -1170.0501436982559 0 0 0 0 -921.55513637281683 1511.0842908197938 0 1511.0842908197938 -1465.2031183627878 0 0 0 0 -1015.9988848138141 907.28326538658393 0 907.28326538658393 -2357.4014042842646 0 0 0 0 -933.37972809725443 1471.5344411174956 0 1471.5344411174956 244.77359621676442 0 0 0 0 -3.6295316400569169 7.571660006136824 0 7.571660006136824 -9.6912278186783283 0 0 0 0 274.69040097915013 216.26721845240991 0 216.26721845240991 -3345.2389575072575 0 0 0 0 113.20551435635662 -262.56043123927236 0 -262.56043123927236 -1025.5498288488725 0 0 0 0 519.39005085319673 161.3193759525584 0 161.3193759525584 -572.75513476439301 0 0 0 0 -5.5199763281268179 13.16310990637658 0 13.16310990637658 -15.966700614156501 0 0 0 0 608.33986297046147 -386.6138673508467 0 -386.6138673508467 -633.99960512141934 0 0 0 0 -183.19350104798625 -20.194167314223307 0 -20.194167314223307 -709.52548300508715 0 0 0 0 3.6904394148499016 2.1656711319883826 0 2.1656711319883826 0.58867106877679021 0 0 0 0 205.09611649559059 -111.16519618377424 0 -111.16519618377424 -609.34192962820089 0 0 0 0 254.74961055619619 -346.68446911423052 0 -346.68446911423052 150.13454730671219 0 0 0 0 -289.28680012843142 -104.90717488728842 0 -104.90717488728842 -323.77237233816777 0 0 0 0 214.87915515913267 -617.85165462564419 0 -617.85165462564419 -781.17995764313673 0 0 0 0 -697.64599836236084 -263.74712639503559 0 -263.74712639503559 92.460812364464005 0 0 0 0 -775.29026509195796 2.3269708292982614 0 2.3269708292982614 54.34070000864449 0 0 0 0 4.6893134126629281 -11.170609614918499 0 -11.170609614918499 -67.8362280221221 0 0 0 0 292.29748924944079 -120.44971029492444 0 -120.44971029492444 -36.188318580578198 0 0 0 0 -389.9253899266223 -83.083592636587127 0 -83.083592636587127 -61.348105215260148 0 0 0 0 819.49378563531127 248.52264975529033 0 248.52264975529033 -1023.6017448535349 0 0 0 0 -28.139565292019256 618.27340765281679 0 618.27340765281679 -509.81127790539176 0 0 0 0 -548.69580487845906 85.59407467323399 0 85.59407467323399 -162.79679588421277 0 0 0 0 -3.2808349836171571 -4.7650598155460795 0 -4.7650598155460795 -23.634331391742265 0 0 0 0 -1409.0222489064745 1877.733795218559 0 1877.733795218559 -1657.4919957805869 0 0 0 0 -1733.0581772516261 -339.86542440391077 0 -339.86542440391077 -115.22241543727432 0 0 0 0 -995.38888826987568 -970.24596335784554 0 -970.24596335784554 -1240.6484831549551 0 0 0 0 395.53747748198629 317.93714444094439 0 317.93714444094439 -156.28840126595605 0 0 0 0 -51.038663769740083 833.38617175928994 0 833.38617175928994 -697.86423808698601 0 0 0 0 113.15014507368619 98.780933097081856 0 98.780933097081856 -254.43184198348604 0 0 0 0 4.8980284260400033 -17.682544454901599 0 -17.682544454901599 -67.132967591288377 0 0 0 0 183.41504967016999 -41.474140461001753 0 -41.474140461001753 -164.93456790250937 0 0 0 0 73.665735280851095 88.144225686374739 0 88.144225686374739 -96.618254011829777 0 0 0 0 -13.841446954964795 28.376796942516648 0 28.376796942516648 -89.336488258781173 0 0 0 0 38.966087769936166 44.02536183747452 0 44.02536183747452 -140.10117154088584 0 0 0 0 39.023836855020662 24.767960840491796 0 24.767960840491796 -9.0389532106955102 0 0 0 0 -1756.2539743489397 357.62326353671961 0 357.62326353671961 -784.394260071178 0 0 0 0 28.746763944656045 7.3715093335334245 0 7.3715093335334245 -13.576816313796698 0 0 0 0 104.88602289786559 -32.837287811516035 0 -32.837287811516035 -109.10346586948071 0 0 0 0 -32.454868748004742 -314.67023419796169 0 -314.67023419796169 -406.29359235562515 0 0 0 0 13.21361511856021 4.3437728075880813 0 4.3437728075880813 1.7366687825905593 0 0 0 0 13.18651914088241 -12.990991970340474 0 -12.990991970340474 -237.60925735465025 0 0 0 0 -238.20623705827569 -239.34629829160622 0 -239.34629829160622 -431.34533423979155 0 0 0 0 -20.847600594032969 -29.083274131135113 0 -29.083274131135113 -637.09813035466141 0 0 0 0 -2.85763550802743 4.9498163241512003 0 4.9498163241512003 -6.2107230457067359 0 0 0 0 -205.36077012535043 495.59355816813695 0 495.59355816813695 580.63359162379493 0 0 0 0 -93.534232813284859 801.41268539560156 0 801.41268539560156 460.19946290962616 0 0 0 0 573.41244847307701 -733.93160334008098 0 -733.93160334008098 -1699.5055552803342 0 0 0 0 -209.14228714239721 7.3772373732972483 0 7.3772373732972483 355.50560316400879 0 0 0 0 -241.42119592877589 525.02299720969131 0 525.02299720969131 -452.30402194493217 0 0 0 0 270.61623335121817 -88.708596324501741 0 -88.708596324501741 -501.01907570836738 0 0 0 0 307.25165366873102 646.02464986372343 0 646.02464986372343 -428.36806636161054 0 0 0 0 291.84461739317624 337.88144059562001 0 337.88144059562001 -1290.3652859173108 0 0 0 0 77.676445461198796 331.05466073213211 0 331.05466073213211 -1290.2244726382919 0 0 0 0 -324.92832055205974 105.1661467073983 0 105.1661467073983 -138.09014309401755 0 0 0 0 -74.678440066507932 155.03141244468475 0 155.03141244468475 -128.17408125832299 0 0 0 0 168.62270138297663 -122.89280986168865 0 -122.89280986168865 -3.3178623853791578 0 0 0 0 -254.37700751809825 371.48151301517009 0 371.48151301517009 -733.9579983022395 0 0 0 0 -3.9412283857869683 -12.676767221753686 0 -12.676767221753686 -46.320066885363516 0 0 0 0 -1220.1197504959719 1828.8610483345574 0 1828.8610483345574 -2479.0007354266772 0 0 0 0 -606.69583530105047 501.35125520601105 0 501.35125520601105 -643.26127791360886 0 0 0 0 129.99995724832735 721.72078555010103 0 721.72078555010103 -2604.3878493514767 0 0 0 0 -171.89858770903675 1140.9803551526165 0 1140.9803551526165 -2704.3976636859588 0 0 0 0 -135.01708262037647 880.90284685925712 0 880.90284685925712 -3302.1653690700678 0 0 0 0 510.00409125604932 712.32946653352587 0 712.32946653352587 -3729.692587324188 0 0 0 0 421.90218106079817 705.13206569398062 0 705.13206569398062 -2798.3092968408155 0 0 0 0 138.03638097563442 442.46858930007227 0 442.46858930007227 -2957.2888169864964 0 0 0 0 369.70060080468909 923.69249614849741 0 923.69249614849741 -3424.0603539046497 0 0 0 0 393.18645104551587 963.46431866511284 0 963.46431866511284 -3832.4954146490768 0 0 0 0 574.18218371677278 790.83928725471105 0 790.83928725471105 -4109.7073383574125 0 0 0 0 639.05783805426495 835.02858874477715 0 835.02858874477715 -4499.9365574857393 0 0 0 0 222.27050244749796 1304.0320755495438 0 1304.0320755495438 -4499.0671407262917 0 0 0 0 -58.753818550350871 1180.5543519529017 0 1180.5543519529017 -3581.8292030244579 0 0 0 0 -593.84419472758282 1883.6387832444702 0 1883.6387832444702 -4500.0566668103438 0 0 0 0 -992.69146384160558 1210.3799316481623 0 1210.3799316481623 -3424.4381462287406 0 0 0 0 -1035.6051591318271 1443.953398128067 0 1443.953398128067 -2992.1873503323077 0 0 0 0 -1665.0005376811691 1869.2030234103609 0 1869.2030234103609 -1154.8474077714714 0 0 0 0 -975.78950511679102 2250.3054079216763 0 2250.3054079216763 -2904.1689550381261 0 0 0 0 -5934.0609387064651 3376.3201940458966 0 3376.3201940458966 765.33466540152585 0 0 0 0 -3551.04474270736 4889.7991173484825 0 4889.7991173484825 -4494.4048570088962 0 0 0 0 -956.1219862847704 2435.972269167386 0 2435.972269167386 -3613.4412407383579 0 0 0 0 -458.72238376178859 150.71343719242577 0 150.71343719242577 70.550219396467583 0 0 0 0 -498.75830341222411 -1430.0571330127573 0 -1430.0571330127573 -3968.1040127325496 0 0 0 0 -4.3946938358902159 -20.82419365327689 0 -20.82419365327689 5.6520941955117046 0 0 0 0 -5393.7062816071029 4168.3355255585375 0 4168.3355255585375 -3302.1874655076826 0 0 0 0 0.10751454701599172 1.6025828815918981 0 1.6025828815918981 -8.7653233707118385 0 0 0 0 342.58093380332639 -140.25982493526317 0 -140.25982493526317 -808.41032607743909 0 0 0 0 7.9882648780459622 -3.2826439280625097 0 -3.2826439280625097 -107.0605189617693 0 0 0 0 -1511.5867273948961 2158.2972385836774 0 2158.2972385836774 -2645.6093273994748 0 0 0 0 8.7906206624738488 1.050313109777762 0 1.050313109777762 -109.62192776240535 0 0 0 0 237.77363001815786 136.89602787960393 0 136.89602787960393 -553.02339037743695 0 0 0 0 -156.1601419348458 144.73923445222772 0 144.73923445222772 -191.78407890076414 0 0 0 0 40.214338753204629 -145.54972440519487 0 -145.54972440519487 -419.05759412824045 0 0 0 0 -468.04142169374609 -678.55474593888971 0 -678.55474593888971 -311.8449558367144 0 0 0 0 -1.2318384264392268 -2.7846759272664237 0 -2.7846759272664237 -19.629538922566709 0 0 0 0 -665.17023580842806 -181.63206419452575 0 -181.63206419452575 -19.041892736298905 0 0 0 0 621.08234950918927 -14.294266280220313 0 -14.294266280220313 -2303.8833563467929 0 0 0 0 -169.86044430671501 -62.820506852756807 0 -62.820506852756807 171.60016233384886 0 0 0 0 54.606850135436844 -176.04812582120212 0 -176.04812582120212 -257.27140818368025 0 0 0 0 -2.4958162188720827 -6.7657565773726915 0 -6.7657565773726915 -1.8954016112842567 0 0 0 0 -52.900226114151764 -8.5042510456714808 0 -8.5042510456714808 -252.9314259486564 0 0 0 0 -76.915540522184301 -79.26997654209481 0 -79.26997654209481 -150.77242861970262 0 0 0 0 126.75482596759139 16.111970583424409 0 16.111970583424409 -135.4340081214059 0 0 0 0 -161.84086043970177 -760.90243312277016 0 -760.90243312277016 -4562.2142646080138 0 0 0 0 -219.23297568448913 -872.40016081837166 0 -872.40016081837166 -4614.3395216986955 0 0 0 0 -216.46110724642668 -751.17165262675917 0 -751.17165262675917 -4499.9197513988402 0 0 0 0 -281.75376502440747 -774.121322123141 0 -774.121322123141 -4507.8714742240445 0 0 0 0 -110.73587776593298 -731.15989180870019 0 -731.15989180870019 -4547.2742998659342 0 0 0 0 -113.69806482736348 -723.59203044650098 0 -723.59203044650098 -4463.3455737223503 0 0 0 0 104.46591684415671 -161.77866710282979 0 -161.77866710282979 -203.74273621341854 0 0 0 0 233.81021218567844 -100.25982371449572 0 -100.25982371449572 -273.01460381843208 0 0 0 0 -67.402703840298727 -382.93709065209623 0 -382.93709065209623 -843.32622552637986 0 0 0 0 -18.968699968099372 -113.32748530966637 0 -113.32748530966637 -222.73909828222895 0 0 0 0 184.09119142039162 271.67601525110877 0 271.67601525110877 -445.0176866996535 0 0 0 0 -5.5688846024047063 -21.4976155028967 0 -21.4976155028967 3.347629256046968 0 0 0 0 -34.60643235899699 -762.46102582843014 0 -762.46102582843014 -4500.9031023567222 0 0 0 0 -107.42980666919243 117.88487009486198 0 117.88487009486198 62.450824298559382 0 0 0 0 -34.624831887229334 -761.67454586466192 0 -761.67454586466192 -4496.3476030233305 0 0 0 0 2.093680602740001 -35.856719674176567 0 -35.856719674176567 -0.67852427143981409 0 0 0 0 312.78766693394664 -454.12316131694024 0 -454.12316131694024 -1436.3473932519983 0 0 0 0 -556.8978760903492 -1245.3369097568357 0 -1245.3369097568357 -1306.700503238244 0 0 0 0 279.27598055464375 445.18020716133947 0 445.18020716133947 216.08353695007463 0 0 0 0 -2.9173894553138453 3.6613077268633702 0 3.6613077268633702 -6.326492031955695 0 0 0 0 81.041698533890724 -23.452739043623296 0 -23.452739043623296 -75.817535340489485 0 0 0 0 333.0650865790185 50.422815922154768 0 50.422815922154768 -178.63633042732727 0 0 0 0 -5.7720323184356754 12.9234836914409 0 12.9234836914409 -20.994913245809684 0 0 0 0 309.82124041297163 286.33651738077151 0 286.33651738077151 56.126909536105813 0 0 0 0 -517.70507479693731 -385.65424480436536 0 -385.65424480436536 -614.05859753210098 0 0 0 0 -94.190588110436579 -440.32771425686042 0 -440.32771425686042 -947.00949160989694 0 0 0 0 0.74394156432681591 -0.78938975438725834 0 -0.78938975438725834 -0.83323433883384723 0 0 0 0 -148.8444464711817 -354.66838366433012 0 -354.66838366433012 -848.61709669678385 0 0 0 0 112.31959526904802 -141.83838734205892 0 -141.83838734205892 -343.02289347147598 0 0 0 0 -145.58568810008697 -250.61184136153224 0 -250.61184136153224 -571.2819067482269 0 0 0 0 -122.13534341739546 -142.9229364297862 0 -142.9229364297862 -506.68337718395935 0 0 0 0 -22.096968769170154 23.139911779230566 0 23.139911779230566 -49.331047443509235 0 0 0 0 17.400473266951849 52.754325094216711 0 52.754325094216711 -122.78080268911435 0 0 0 0 44.788652783058751 -23.936390665554427 0 -23.936390665554427 -160.38781930435653 0 0 0 0 49.622253182835266 7.4947858749401348 0 7.4947858749401348 -215.64216387661872 0 0 0 0 -97.94028849798427 -209.03638909348638 0 -209.03638909348638 -343.6882201146509 0 0 0 0 -12.239736687359503 22.755280681355046 0 22.755280681355046 -30.403038789671697 0 0 0 0 -81.948937791573144 -152.75562670685395 0 -152.75562670685395 -506.24371318865497 0 0 0 0 134.59302862204004 119.09132187964678 0 119.09132187964678 -40.546380313175177 0 0 0 0 22.671259673736131 -14.35792859429057 0 -14.35792859429057 -60.271352371713874 0 0 0 0 79.055878872170524 36.844671954153455 0 36.844671954153455 -138.03036064273147 0 0 0 0 58.561130059103562 -32.469985224224274 0 -32.469985224224274 -220.66971438887413 0 0 0 0 118.59943375924797 19.476832905255833 0 19.476832905255833 -250.57627805658558 0 0 0 0 11.099008803265406 -67.950681850879846 0 -67.950681850879846 -167.19554618885559 0 0 0 0 231.71742279136694 23.33720903755966 0 23.33720903755966 -201.08172430466584 0 0 0 0 97.784497665180879 24.487372855557624 0 24.487372855557624 28.108595075070525 0 0 0 0 99.965729106959088 -109.67380916708316 0 -109.67380916708316 -305.11780850575451 0 0 0 0 23.335728930605292 -25.336528699084909 0 -25.336528699084909 11.828804188066925 0 0 0 0 -87.643258446430082 -106.30404456310953 0 -106.30404456310953 -239.19695378980396 0 0 0 0 54.573369319812628 -63.590779948553973 0 -63.590779948553973 -339.81637419884464 0 0 0 0 50.41487859743097 -56.476568033136118 0 -56.476568033136118 -251.64734031885746 0 0 0 0 -2.3733691716970498 -116.89851623363575 0 -116.89851623363575 -159.30844272721879 0 0 0 0 103.46077662210701 -37.941771656418496 0 -37.941771656418496 -293.55689941107084 0 0 0 0 37.376308033396661 -26.130259914850491 0 -26.130259914850491 1.3017123052799331 0 0 0 0 21.661936462640369 -28.808365595941723 0 -28.808365595941723 -220.46125645542634 0 0 0 0 7.2499852730017622 -7.0323411334081953 0 -7.0323411334081953 0.31254452211483397 0 0 0 0 42.690475823111228 -61.636303914267046 0 -61.636303914267046 -323.68565609741199 0 0 0 0 17.244012320156799 -95.44195600790772 0 -95.44195600790772 -285.96516129628071 0 0 0 0 18.704350262223841 -118.21632560590876 0 -118.21632560590876 -214.07971429824829 0 0 0 0 32.046806075227551 -49.213303728699429 0 -49.213303728699429 -157.75955125321343 0 0 0 0 3.7410385732036957 -83.826458326124339 0 -83.826458326124339 -197.44448450626078 0 0 0 0 28.771419618967784 -5.0784420321433643 0 -5.0784420321433643 -58.087007612534691 0 0 0 0 31.428407091660063 -5.0550355892209495 0 -5.0550355892209495 -28.438285221477464 0 0 0 0 17.602454712846338 -26.270848726566328 0 -26.270848726566328 -67.763519768770493 0 0 0 0 -17.704444076092841 9.7120668729785393 0 9.7120668729785393 -126.84794102707383 0 0 0 0 25.518388525703266 -33.188051327757087 0 -33.188051327757087 -39.458355538595512 0 0 0 0 6.8125936778178584 5.950682313330617 0 5.950682313330617 -215.69720266162744 0 0 0 0 11.67382574651646 -12.274886842007101 0 -12.274886842007101 -28.802368481880279 0 0 0 0 -0.52703956931145512 -69.646101151833136 0 -69.646101151833136 -135.56958205541741 0 0 0 0 132.75907688364123 -35.874052387850952 0 -35.874052387850952 162.6070558988431 0 0 0 0 6.9929174294256953 5.9159495330975052 0 5.9159495330975052 -33.539590994061463 0 0 0 0 37.874491982841391 -48.306157934413932 0 -48.306157934413932 270.34336411980576 0 0 0 0 -2.1567450810252922 -193.97269905790017 0 -193.97269905790017 -313.67545623295882 0 0 0 0 209.79250949473271 -414.36496853234826 0 -414.36496853234826 -636.44642008309745 0 0 0 0 -823.32740391585867 427.85235830784768 0 427.85235830784768 -161.81919857714877 0 0 0 0 457.15554168726658 -211.3012679654683 0 -211.3012679654683 -1166.6280164261882 0 0 0 0 87.413050516383919 -182.70918226205936 0 -182.70918226205936 20.393384844843808 0 0 0 0 -12.461789639469316 -176.79828165223194 0 -176.79828165223194 26.233522579066744 0 0 0 0 -32.731272616571914 -124.8817080502738 0 -124.8817080502738 188.39774027144585 0 0 0 0 90.929370287200527 -98.72417740642004 0 -98.72417740642004 71.744650138248744 0 0 0 0 -84.548795943256209 -7.4827715886949591 0 -7.4827715886949591 24.849011613457151 0 0 0 0 -308.54409263993534 -223.16615253807345 0 -223.16615253807345 40.736717776628211 0 0 0 0 110.03614603530741 -449.74718165154854 0 -449.74718165154854 -269.61689370274769 0 0 0 0 300.72312449289586 -302.24033767981359 0 -302.24033767981359 -159.79749493971576 0 0 0 0 10.127265737940144 -1.2339337766634939 0 -1.2339337766634939 -90.75434144901044 0 0 0 0 -237.79025297452836 -163.54972889396322 0 -163.54972889396322 -187.65344109404759 0 0 0 0 117.08127951341885 -27.334897870257919 0 -27.334897870257919 -251.53407815558603 0 0 0 0 -12.406124941590406 -160.47940252369153 0 -160.47940252369153 -245.64374351400056 0 0 0 0 -68.507496945527919 -80.503671157511235 0 -80.503671157511235 -150.10908072755228 0 0 0 0 72.586042560946225 -173.41105974419042 0 -173.41105974419042 -405.72654348706965 0 0 0 0 11.325101288467851 -20.477152474819647 0 -20.477152474819647 -11.565937029397013 0 0 0 0 34.656287418041757 -164.27338351430808 0 -164.27338351430808 -318.8997303501892 0 0 0 0 22.036566692699125 -117.3049310722472 0 -117.3049310722472 -182.48596972254018 0 0 0 0 35.836964783263284 -81.349184307886389 0 -81.349184307886389 -337.79105062531926 0 0 0 0 64.601411792385989 -114.85732198839833 0 -114.85732198839833 -278.14647289706045 0 0 0 0 -16.964233658655303 -152.04469426415926 0 -152.04469426415926 -290.06514200229867 0 0 0 0 93.692776067315208 -44.482922921022691 0 -44.482922921022691 -324.13141391096178 0 0 0 0 21.399730005176025 -3.6343721953962813 0 -3.6343721953962813 -52.552429348081205 0 0 0 0 27.267210234162121 -47.100949788287835 0 -47.100949788287835 -198.78203443586108 0 0 0 0 41.404402743598439 -109.70003003432976 0 -109.70003003432976 43.362062067837542 0 0 0 0 166.74477811740962 -125.27526992829826 0 -125.27526992829826 -157.37839521257411 0 0 0 0 5.4115657579186909 -11.233433722170409 0 -11.233433722170409 -72.983667158258214 0 0 0 0 61.607577974036076 -47.445119075014986 0 -47.445119075014986 -210.42252895361162 0 0 0 0 10.586309975881658 -5.4147044748745605 0 -5.4147044748745605 -106.04821142161693 0 0 0 0 -39.626904277130961 -146.79783465627952 0 -146.79783465627952 -256.75330356920313 0 0 0 0 8.8638538911036449 -99.035192437768274 0 -99.035192437768274 -214.63504662277774 0 0 0 0 34.488191448204859 26.964157982225558 0 26.964157982225558 -5.6790089628468383 0 0 0 0 34.237512370477816 72.838687281884219 0 72.838687281884219 -152.54014944422352 0 0 0 0 -192.72279258115395 -131.79475646321157 0 -131.79475646321157 -71.176482764843058 0 0 0 0 8.5284107951079715 -2.8658750965886366 0 -2.8658750965886366 -6.1312797499570326 0 0 0 0 -244.63627557770951 338.59990106421276 0 338.59990106421276 -356.66598641251647 0 0 0 0 27.002504713817476 1.9647084586376984 0 1.9647084586376984 -67.640919986591427 0 0 0 0 70.100737027288574 -31.922055731334467 0 -31.922055731334467 -68.286444213787036 0 0 0 0 7.8520635394571858 -6.5888370576613919 0 -6.5888370576613919 -80.623964596058954 0 0 0 0 146.66348755421495 15.119216950647569 0 15.119216950647569 -127.99027756642113 0 0 0 0 69.095234383962634 -18.334256996787644 0 -18.334256996787644 -61.99263620582019 0 0 0 0 155.01447929585811 -33.936404994067743 0 -33.936404994067743 -73.689626073964291 0 0 0 0 -55.814645402710539 26.988116475570678 0 26.988116475570678 53.42453981480503 0 0 0 0 485.95129893992771 -430.38577940843243 0 -430.38577940843243 95.693696408645337 0 0 0 0 2.4799410650239526 -7.8638010617526186 0 -7.8638010617526186 -78.169463218450176 0 0 0 0 -0.62388115432497138 -5.1055349894017841 0 -5.1055349894017841 -75.536592854665358 0 0 0 0 149.07019219609492 -72.180754639527322 0 -72.180754639527322 -65.978682867789757 0 0 0 0 -761.03164400830428 -304.45159292013341 0 -304.45159292013341 618.22532747986043 0 0 0 0 269.37821559458644 -39.20984015526119 0 -39.20984015526119 -57.180152204207843 0 0 0 0 544.63685983119649 1102.7288712514292 0 1102.7288712514292 -1584.5608496591485 0 0 0 0 -1893.2581402646265 887.25008081702981 0 887.25008081702981 285.85304643283598 0 0 0 0 -77.919121169063146 286.33357249846449 0 286.33357249846449 -559.74054811689712 0 0 0 0 -413.72236061275908 -573.79891300447343 0 -573.79891300447343 -813.74923162592313 0 0 0 0 -127.61953654532408 -18.663770738581661 0 -18.663770738581661 -508.52318611845021 0 0 0 0 27.478200304676648 -37.022835079062588 0 -37.022835079062588 -684.22451574982551 0 0 0 0 -50.945588329097518 27.01250814838204 0 27.01250814838204 -1703.4963677256565 0 0 0 0 -472.03801510361336 -391.58112101497682 0 -391.58112101497682 -364.68366577864799 0 0 0 0 7.3249260635865756 6.7365249000916023 0 6.7365249000916023 -13.436884228575678 0 0 0 0 -349.19688237269293 -420.67422196689586 0 -420.67422196689586 -520.20039142402311 0 0 0 0 -147.09417903200847 -137.60222897007043 0 -137.60222897007043 -212.87523730206885 0 0 0 0 -325.94319364149123 -379.0320750064493 0 -379.0320750064493 -473.67292528197868 0 0 0 0 -399.47504884479713 -246.2959769711415 0 -246.2959769711415 -101.98834103887202 0 0 0 0 -350.20098377872273 -216.45040453268302 0 -216.45040453268302 -48.363885100567131 0 0 0 0 7.0349881695302905 -7.1620494565165913 0 -7.1620494565165913 -4.7760435453084185 0 0 0 0 -207.58179473551354 -10.74156297486843 0 -10.74156297486843 -68.104209705597896 0 0 0 0 63.629344813773059 111.91265441635551 0 111.91265441635551 -115.68791944167606 0 0 0 0 945.96019763643744 -44.725688980366613 0 -44.725688980366613 -647.66838027079939 0 0 0 0 41.157675650161565 -17.706369822436674 0 -17.706369822436674 -36.800912456143372 0 0 0 0 -49.841233411323628 -92.673078914993766 0 -92.673078914993766 -19.722790969361085 0 0 0 0 -0.54948854322377372 -0.3574115727795828 0 -0.3574115727795828 1.9250114700369068 0 0 0 0 -109.57950373506173 -350.75597805654616 0 -350.75597805654616 -375.01057655410114 0 0 0 0 573.12229174264212 108.68117622844875 0 108.68117622844875 -121.38423050430538 0 0 0 0 107.25118425394612 -103.0656232041656 0 -103.0656232041656 -212.50101008397178 0 0 0 0 136.46040189332143 -273.99742463010807 0 -273.99742463010807 -312.0907533809368 0 0 0 0 243.71600633296748 -254.20684483038895 0 -254.20684483038895 -332.84204086262616 0 0 0 0 140.96444544385031 26.843721298499077 0 26.843721298499077 -351.28863723222457 0 0 0 0 31.403912533846437 13.014762280045034 0 13.014762280045034 -278.10756472065987 0 0 0 0 117.44372601432406 -59.052633113509728 0 -59.052633113509728 -86.085479739303992 0 0 0 0 82.156679482317486 -63.012559312232042 0 -63.012559312232042 -44.036572799261194 0 0 0 0 -8.9953986589353008 36.790273207889186 0 36.790273207889186 -15.254867028758554 0 0 0 0 -69.874700312170717 144.83416249763195 0 144.83416249763195 -19.576763696270064 0 0 0 0 7.6543153649636224 30.585719173810503 0 30.585719173810503 -53.579953395324992 0 0 0 0 16.293853069722445 55.966440852074811 0 55.966440852074811 18.716358924786618 0 0 0 0 -84.363031120207779 -244.19849958508166 0 -244.19849958508166 -291.74251638729947 0 0 0 0 184.52458889916625 100.26212435451816 0 100.26212435451816 -127.05237248651611 0 0 0 0 0.0999075787716599 0.073940449075319492 0 0.073940449075319492 -2.4054192662147784 0 0 0 0 -32.433451946964851 -144.92815319889996 0 -144.92815319889996 -105.70217103350296 0 0 0 0 12.565251982469817 -157.65654075074053 0 -157.65654075074053 -246.97441747564517 0 0 0 0 153.45412541463338 -70.558021907470902 0 -70.558021907470902 -76.942384564721578 0 0 0 0 0.33403236337926501 -56.285968571932244 0 -56.285968571932244 -48.281798681211512 0 0 0 0 0.41146144894233183 -0.15983664425371913 0 -0.15983664425371913 -5.0076584280361089 0 0 0 0 10.12171856913676 -109.84832417291318 0 -109.84832417291318 -164.92365965085628 0 0 0 0 -20.481031653991522 -104.71597699909762 0 -104.71597699909762 -147.7144658960915 0 0 0 0 9.1782611585304039 -116.72733451304521 0 -116.72733451304521 -212.91735487177266 0 0 0 0 -5.9498968394691474 -132.26230230713554 0 -132.26230230713554 -140.66453075848767 0 0 0 0 -19.092719249119909 -107.52475696562942 0 -107.52475696562942 -90.813202597197233 0 0 0 0 14.255101646203002 -118.48859222794817 0 -118.48859222794817 -147.06465161589404 0 0 0 0 -21.820872335239528 -91.360848347509091 0 -91.360848347509091 -157.24935391401959 0 0 0 0 -23.765235813183722 -71.244579980761046 0 -71.244579980761046 -162.21617026279273 0 0 0 0 -22.592114343070534 -63.640099148211448 0 -63.640099148211448 -118.28051929253706 0 0 0 0 0.51940557402576815 -51.068877068450092 0 -51.068877068450092 -112.80059427746892 0 0 0 0 14.567367630182162 -69.934880512311793 0 -69.934880512311793 -87.672425658500288 0 0 0 0 26.789897360377836 15.017055813204934 0 15.017055813204934 -65.58114536118228 0 0 0 0 27.115288271177633 -12.554781992243079 0 -12.554781992243079 -180.53549398911127 0 0 0 0 10.609422158672714 -29.871317942441237 0 -29.871317942441237 -177.35881369291019 0 0 0 0 -0.77340406969415199 -25.3134007356457 0 -25.3134007356457 -143.45862838406902 0 0 0 0 2.3084325624022313 -44.285206297667173 0 -44.285206297667173 -186.74028350129083 0 0 0 0 -6.5418286772655847 -45.274595945676992 0 -45.274595945676992 -185.84679292294095 0 0 0 0 197.91789520679185 -15.663810812655356 0 -15.663810812655356 -148.23381879189765 0 0 0 0 23.448672758639077 -40.262815881716961 0 -40.262815881716961 11.455883589747828 0 0 0 0 137.19316959526714 -16.513143819516699 0 -16.513143819516699 -264.91649589470035 0 0 0 0 235.78826724692954 114.88709741750063 0 114.88709741750063 -108.68777946936279 0 0 0 0 129.21411272656769 41.427444264762016 0 41.427444264762016 -200.46306583983096 0 0 0 0 -90.397405122360396 -233.45523516229696 0 -233.45523516229696 -251.41245164200882 0 0 0 0 0.17515250232888535 -0.057480922065117568 0 -0.057480922065117568 -2.5523293665649049 0 0 0 0 117.05028937617499 -129.33662931457729 0 -129.33662931457729 -339.07082638046268 0 0 0 0 -199.29961803243532 -113.2168915977818 0 -113.2168915977818 -120.2901707052406 0 0 0 0 15.842327751582001 -7.7989691408987909 0 -7.7989691408987909 10.466435703411115 0 0 0 0 115.01733117300114 -7.5180865068614366 0 -7.5180865068614366 -284.57215919716691 0 0 0 0 106.2867695861969 -42.551354839990381 0 -42.551354839990381 -283.5493367624731 0 0 0 0 66.514873082805025 -4.9179564110781939 0 -4.9179564110781939 -283.92631829688617 0 0 0 0 91.458450915371941 -38.115626284561586 0 -38.115626284561586 -283.72448339985567 0 0 0 0 10.79798291780935 -41.606701433991475 0 -41.606701433991475 12.910220444544393 0 0 0 0 115.74538221644434 -265.49415779390301 0 -265.49415779390301 259.61812505529451 0 0 0 0 7.4365447963482438 -41.308538271463476 0 -41.308538271463476 17.597371053012012 0 0 0 0 7.8265658415104724 -41.878380510690874 0 -41.878380510690874 10.896477685931419 0 0 0 0 0.33433088815945666 -40.888344098435482 0 -40.888344098435482 334.78959962881709 0 0 0 0 33.481912688586817 -32.091983058529877 0 -32.091983058529877 38.733651955182722 0 0 0 0 16.434496363196089 -29.771903213958069 0 -29.771903213958069 20.622371195825451 0 0 0 0 -66.546551872586861 -0.69716852262354223 0 -0.69716852262354223 137.03728908438643 0 0 0 0 58.812432953697673 -81.423575178356657 0 -81.423575178356657 18.39819394395721 0 0 0 0 -192.66990307152446 -358.49865433431114 0 -358.49865433431114 750.86316578189235 0 0 0 0 367.07096315918625 426.23260812277113 0 426.23260812277113 132.0436828527163 0 0 0 0 -9.7146288681697115 -102.65007546384368 0 -102.65007546384368 -157.55942011828301 0 0 0 0 -19.235687232669079 -80.246691392974753 0 -80.246691392974753 -59.388574608572526 0 0 0 0 6.1012800736416466 -51.598496665494167 0 -51.598496665494167 -205.03500025939138 0 0 0 0 -0.42463636120101 -111.00791018837845 0 -111.00791018837845 -242.3048011514984 0 0 0 0 20.392878368472338 -38.367769645799854 0 -38.367769645799854 -247.18372426994756 0 0 0 0 64.561212391985464 -84.20553412616573 0 -84.20553412616573 -335.31277246917307 0 0 0 0 100.58876596079608 -12.244346084182325 0 -12.244346084182325 -389.90164646203903 0 0 0 0 4.2631508794012625 -1.8579485747285247 0 -1.8579485747285247 -1.3248074967225492 0 0 0 0 79.04158897146408 -0.12721738149411976 0 -0.12721738149411976 -281.38022013720911 0 0 0 0 74.114630367015707 -13.493602545480826 0 -13.493602545480826 -244.99344827884488 0 0 0 0 0.76173670616626765 -38.942707367405767 0 -38.942707367405767 -3.6235539359342468 0 0 0 0 -13.019463619434646 -37.175411777039699 0 -37.175411777039699 29.675699139144854 0 0 0 0 -45.331830328885644 188.77375995235616 0 188.77375995235616 651.32270707955104 0 0 0 0 17.782894668561312 -39.018824278962711 0 -39.018824278962711 6.6716996598042897 0 0 0 0 -9.2087848355943951 -32.655800810385642 0 -32.655800810385642 -13.684602016364217 0 0 0 0 57.059194211103886 212.02003842951672 0 212.02003842951672 -1071.0985920480198 0 0 0 0 -167.55450029632732 243.73697760405594 0 243.73697760405594 -605.98198763155233 0 0 0 0 140.29164220765961 81.137904198138131 0 81.137904198138131 -1296.3647689627833 0 0 0 0 43.989494964111145 161.3434321521745 0 161.3434321521745 -1776.036596433667 0 0 0 0 -829.26604966213836 -225.14902711649847 0 -225.14902711649847 -1310.0304619109447 0 0 0 0 53.062867513256606 55.919033860001946 0 55.919033860001946 -923.13389286981692 0 0 0 0 -239.64473258174257 -4.4745159047597554 0 -4.4745159047597554 28.144929635767767 0 0 0 0 -7.2499153947253205 -10.631247076233421 0 -10.631247076233421 0.29665805812669532 0 0 0 0 -27.511919681244763 23.603947143743426 0 23.603947143743426 -491.07131536756788 0 0 0 0 -152.45653435996792 27.83266239571094 0 27.83266239571094 21.179904378324864 0 0 0 0 17.612969411529775 -330.54859319317984 0 -330.54859319317984 -1645.4693753797765 0 0 0 0 -311.88325542645543 278.97671743114188 0 278.97671743114188 -298.86426199828747 0 0 0 0 5.6780128836862218 -31.297464768925167 0 -31.297464768925167 -8.1978223599658833 0 0 0 0 -5.4194227571636695 -0.87494231457399962 0 -0.87494231457399962 -1.2448277615778238 0 0 0 0 456.29271165579848 334.0914146396135 0 334.0914146396135 -2799.2923130529216 0 0 0 0 106.32123688610409 -191.81433139507863 0 -191.81433139507863 -2539.8625024009016 0 0 0 0 219.35431637313013 309.98732422132889 0 309.98732422132889 -1692.949582372743 0 0 0 0 414.14471420076734 308.92801461848285 0 308.92801461848285 -2336.4209302496929 0 0 0 0 478.16531905122793 599.21769208767546 0 599.21769208767546 -1308.4543364420897 0 0 0 0 484.31663777826543 383.89752048112859 0 383.89752048112859 -2298.3466091643277 0 0 0 0 451.67715234724164 739.28354810776364 0 739.28354810776364 -3070.4940331758789 0 0 0 0 -1271.7270104391719 -1655.0208373103305 0 -1655.0208373103305 -1426.4514308650469 0 0 0 0 450.95540906778479 -742.73068683161546 0 -742.73068683161546 -3307.5460909542589 0 0 0 0 -7.8764428948412899 8.7318462449632932 0 8.7318462449632932 -13.218194359044503 0 0 0 0 243.72629517520181 -516.49188935110578 0 -516.49188935110578 -1165.2763784397102 0 0 0 0 1273.4160118110449 -32.308546933534672 0 -32.308546933534672 -1453.3450400546244 0 0 0 0 -17.830441022932064 -615.2424273610377 0 -615.2424273610377 -1208.5645571525965 0 0 0 0 -257.16101206275926 1367.8335672495741 0 1367.8335672495741 198.47794872737722 0 0 0 0 -1263.6578608821351 -247.37212849616796 0 -247.37212849616796 -199.55128817932564 0 0 0 0 248.65759347487619 -1412.9703038829975 0 -1412.9703038829975 23.430785093869872 0 0 0 0 -650.61417707105284 -202.3312614243041 0 -202.3312614243041 148.54618334467523 0 0 0 0 18.087947880136198 -398.88002087485074 0 -398.88002087485074 6.709115743971779 0 0 0 0 303.61031171517607 -112.3083848707065 0 -112.3083848707065 -241.8706491755438 0 0 0 0 38.054832685025758 -256.77802801199141 0 -256.77802801199141 -651.47502014350903 0 0 0 0 -392.86073518902413 222.96592582853918 0 222.96592582853918 -469.67476739486665 0 0 0 0 289.92979604583525 255.28074745420599 0 255.28074745420599 -224.078443202372 0 0 0 0 69.384381799703988 -104.33599472179776 0 -104.33599472179776 -391.50479367228399 0 0 0 0 47.667272047347069 79.203589508240839 0 79.203589508240839 754.67957067297539 0 0 0 0 -15.365185657698021 -1302.8109036579626 0 -1302.8109036579626 663.55712377391319 0 0 0 0 1048.3802767186862 1884.759620532619 0 1884.759620532619 -1058.5987769917265 0 0 0 0 0.18616193649984325 5.5876155050617058 0 5.5876155050617058 -11.227981043981345 0 0 0 0 748.8690554076602 1309.2666181279092 0 1309.2666181279092 307.36515531119949 0 0 0 0 4.7672318562872533 -0.22212226014146097 0 -0.22212226014146097 -2.2735008899146436 0 0 0 0 1401.9299020426042 694.9122329406091 0 694.9122329406091 -1194.0180188404338 0 0 0 0 214.9979385768238 503.82400019183115 0 503.82400019183115 -181.94740694302891 0 0 0 0 -1244.3399017811735 -1100.4436231644722 0 -1100.4436231644722 -1632.7557329256088 0 0 0 0 2.2833047976090626 15.074334134685131 0 15.074334134685131 -23.302878085502115 0 0 0 0 -409.12859470622061 -904.43548869514052 0 -904.43548869514052 -1607.9670032773327 0 0 0 0 -1036.5082212091656 -724.39468190988555 0 -724.39468190988555 -1556.0310331815126 0 0 0 0 -421.60571469541901 -526.34137765223568 0 -526.34137765223568 -1630.022458779742 0 0 0 0 -94.015346630782005 -390.9752005610535 0 -390.9752005610535 -1228.7216848986645 0 0 0 0 56.420336517323449 -210.44749181160296 0 -210.44749181160296 -1163.7252797957881 0 0 0 0 -151.6847069892101 -351.66235586064067 0 -351.66235586064067 -1251.1983243309151 0 0 0 0 -210.35892371230148 -613.23399640648859 0 -613.23399640648859 -1656.4556616378977 0 0 0 0 -603.34735167854524 -754.90214499439389 0 -754.90214499439389 -1098.2717803236337 0 0 0 0 -131.62620136266196 -536.75551651282149 0 -536.75551651282149 -1401.0476831543856 0 0 0 0 -233.36730961357534 -412.27514165988396 0 -412.27514165988396 -1006.8399378255963 0 0 0 0 -155.23042102498584 -559.62492238004052 0 -559.62492238004052 3.0840310827425128 0 0 0 0 -370.97772492752847 -440.8004220589828 0 -440.8004220589828 -940.64852305937529 0 0 0 0 217.63316001204657 191.63738415260741 0 191.63738415260741 -513.17213666133466 0 0 0 0 10.824280983008578 0.46138131282312145 0 0.46138131282312145 -7.0458191435950255 0 0 0 0 8.0636485932045616 819.64828223289078 0 819.64828223289078 -577.10372302883479 0 0 0 0 451.07691055154487 336.76531378144671 0 336.76531378144671 -23.188958497165004 0 0 0 0 415.36340657980327 -309.72683565746775 0 -309.72683565746775 75.383420459242188 0 0 0 0 188.86315649448443 -31.390279651335732 0 -31.390279651335732 -575.04569243540027 0 0 0 0 -177.61538045869383 21.773442736674042 0 21.773442736674042 4.0235323800734477 0 0 0 0 -0.48030305783005645 -5.2151125648748007 0 -5.2151125648748007 -6.0032212100968501 0 0 0 0 159.9380726544041 -97.117590124369599 0 -97.117590124369599 -3.1596704963885713 0 0 0 0 26.707929691983736 -160.26709960596781 0 -160.26709960596781 -278.9387721351959 0 0 0 0 296.99543962550524 82.158268813418545 0 82.158268813418545 -611.93234519230464 0 0 0 0 14.673723770739741 -1.9145489410458794 0 -1.9145489410458794 -26.7790542545184 0 0 0 0 0.098655390968815482 3.6542487685265428 0 3.6542487685265428 0.0082714274157691392 0 0 0 0 164.76725591658032 -206.36177048065292 0 -206.36177048065292 106.7631071701544 0 0 0 0 61.713447905836802 -44.490355963389447 0 -44.490355963389447 -32.325664000150937 0 0 0 0 54.445036537147644 -75.561387377108531 0 -75.561387377108531 6.9814408949096105 0 0 0 0 43.324934599240336 -40.529543872752733 0 -40.529543872752733 15.892481149885413 0 0 0 0 45.033506332990328 -209.00825981383969 0 -209.00825981383969 -70.116528022872444 0 0 0 0 25.985157689048719 -73.901976894681866 0 -73.901976894681866 -27.890063546730744 0 0 0 0 13.431430687589149 -6.4442898889336675 0 -6.4442898889336675 -9.2970136104514438 0 0 0 0 137.98696534027385 -36.640201862172944 0 -36.640201862172944 -69.717744116001995 0 0 0 0 187.65348214603728 -154.88198040920543 0 -154.88198040920543 30.138587827146694 0 0 0 0 948.21174556153528 -116.44186664394692 0 -116.44186664394692 -229.63144395106065 0 0 0 0 304.14118203907037 -32.012127842436712 0 -32.012127842436712 -6.4708087274484569 0 0 0 0 68.072983379303423 -58.249214318310997 0 -58.249214318310997 3.496362375819194 0 0 0 0 0.33757171577462941 -13.615057931917946 0 -13.615057931917946 23.442555075104885 0 0 0 0 -77.105938763332233 -150.76048996812824 0 -150.76048996812824 -68.20682513860811 0 0 0 0 262.17852883453452 -392.20440332120779 0 -392.20440332120779 92.230414888850646 0 0 0 0 -268.16651801147964 -283.13554797643701 0 -283.13554797643701 150.10695954744006 0 0 0 0 4.5696531984320643 16.063633823967336 0 16.063633823967336 -53.211782129676124 0 0 0 0 -206.57423564936471 -519.49994369483829 0 -519.49994369483829 -308.71881717599535 0 0 0 0 -236.7897235931232 -180.59680465684505 0 -180.59680465684505 -202.69572740850163 0 0 0 0 -11.253054469904001 -14.262636623611932 0 -14.262636623611932 -11.853038188628346 0 0 0 0 78.173080693113661 -125.50249912654908 0 -125.50249912654908 -399.55779357586289 0 0 0 0 -394.45406549441577 177.4718884174581 0 177.4718884174581 516.99032790924684 0 0 0 0 72.409555928290501 -183.54848861430582 0 -183.54848861430582 -945.22622534080438 0 0 0 0 -113.32847044161417 -42.776253808731781 0 -42.776253808731781 -206.88547196528634 0 0 0 0 -73.66325977770795 -71.510891517831595 0 -71.510891517831595 -37.565943463109981 0 0 0 0 -39.458221615575894 -96.206822995703988 0 -96.206822995703988 -35.618136406454141 0 0 0 0 -74.70033025894702 -0.62765493057581523 0 -0.62765493057581523 -16.49695846889631 0 0 0 0 -98.295524408016718 38.387714255833998 0 38.387714255833998 59.103369192022001 0 0 0 0 -102.55009772863377 67.038457520437078 0 67.038457520437078 96.811412140872562 0 0 0 0 -219.57126065814555 -70.172047074345755 0 -70.172047074345755 151.08363644943711 0 0 0 0 -77.429359276496712 -0.10439296208984672 0 -0.10439296208984672 5.2504065993928037 0 0 0 0 -461.79776560903565 51.123932291453457 0 51.123932291453457 205.8919242110278 0 0 0 0 -327.67675426072128 -331.33219485484369 0 -331.33219485484369 -186.03504566874471 0 0 0 0 -38.652163684559127 -91.059469870255271 0 -91.059469870255271 -2.7481895051532774 0 0 0 0 -301.46140189329708 -227.14622904816497 0 -227.14622904816497 -268.01614423064166 0 0 0 0 90.865817330915888 -374.59496936882351 0 -374.59496936882351 -884.67190740673686 0 0 0 0 -657.30416197665363 -755.62870761665545 0 -755.62870761665545 -782.55715732867247 0 0 0 0 -632.79896772861127 -255.31831764064214 0 -255.31831764064214 -314.56024403306947 0 0 0 0 -1761.4552189635324 -1634.2738695861772 0 -1634.2738695861772 -1210.5484275864947 0 0 0 0 -127.89237399880585 -427.2217870541208 0 -427.2217870541208 -1615.9376273621456 0 0 0 0 -209.4575880522907 42.693431334719207 0 42.693431334719207 -2335.4721610066481 0 0 0 0 -155.80174743582393 -249.86989663291024 0 -249.86989663291024 -2741.8447508724857 0 0 0 0 -83.597605395177197 -330.74208639810513 0 -330.74208639810513 -861.02236483986781 0 0 0 0 -67.474691320207057 -264.83184280682326 0 -264.83184280682326 -1421.0028361124205 0 0 0 0 18.091941367862091 -180.1169091449301 0 -180.1169091449301 -1162.6728027885765 0 0 0 0 -119.24163907859111 -241.36252642812906 0 -241.36252642812906 -718.03795927635656 0 0 0 0 26.645834095224927 -395.34400865262432 0 -395.34400865262432 -794.7224194406881 0 0 0 0 -33.913241629153163 -473.3446298545623 0 -473.3446298545623 -539.58063577287248 0 0 0 0 -21.237984686326854 -482.10409946614345 0 -482.10409946614345 -496.77836849067535 0 0 0 0 239.12658562443903 -497.03854309738381 0 -497.03854309738381 -580.66904968564631 0 0 0 0 -116.83340444890928 -344.92861517754864 0 -344.92861517754864 -654.29820161955286 0 0 0 0 -103.83213387686919 -228.76935074078574 0 -228.76935074078574 334.23493429563678 0 0 0 0 -1.5950575912305069 -7.9541536079205883 0 -7.9541536079205883 -25.89050616407215 0 0 0 0 -400.44242771261725 949.9005769612013 0 949.9005769612013 -1529.4719482017244 0 0 0 0 -306.53937806638032 690.1664790559098 0 690.1664790559098 -859.83472636445367 0 0 0 0 190.68045300794256 -1078.1078265327742 0 -1078.1078265327742 -429.57990888722998 0 0 0 0 250.47477379374232 -644.00655424635988 0 -644.00655424635988 -2142.5532509808399 0 0 0 0 -27.08975463862771 141.69024573987554 0 141.69024573987554 -292.50248979446405 0 0 0 0 14.067515687042032 -139.54348914288857 0 -139.54348914288857 -503.64496087065709 0 0 0 0 -35.44422551064963 231.35315646580784 0 231.35315646580784 -790.72831840279287 0 0 0 0 312.13093458631192 65.497554318360926 0 65.497554318360926 -1440.1658249850007 0 0 0 0 60.62998392378654 178.2580695433644 0 178.2580695433644 -960.35061396948731 0 0 0 0 -12.369199942237042 -38.903582983935834 0 -38.903582983935834 -0.82450967783588602 0 0 0 0 -37.114483895656008 -39.384386951700435 0 -39.384386951700435 31.594290173066838 0 0 0 0 -35.392467215842771 -38.875389966720832 0 -38.875389966720832 30.073260031233076 0 0 0 0 -4.6627918514705016 -36.097173792855756 0 -36.097173792855756 26.153504647460068 0 0 0 0 -20.117053058150589 -38.106973298519321 0 -38.106973298519321 -14.24402968030698 0 0 0 0 216.6392878058432 11.165095687509165 0 11.165095687509165 -788.1517736855676 0 0 0 0 -29.416030224498325 -42.323940224941744 0 -42.323940224941744 -15.227347475369253 0 0 0 0 -48.460346656589536 -57.310719102035364 0 -57.310719102035364 -166.68432682746061 0 0 0 0 -49.77328631688124 -65.176273276909342 0 -65.176273276909342 -205.34992008922563 0 0 0 0 -90.861609155240103 -76.430770184851099 0 -76.430770184851099 -171.33632659271825 0 0 0 0 61.1285930786471 22.359857315525005 0 22.359857315525005 -216.27555071029929 0 0 0 0 -27.186886229525044 -71.3241597566157 0 -71.3241597566157 -161.58627310735028 0 0 0 0 11.028366477952886 -69.038269047633548 0 -69.038269047633548 -178.4055882416942 0 0 0 0 -1.791727749257916 -54.830957614220097 0 -54.830957614220097 -170.06637411888005 0 0 0 0 -1195.4653818711704 -1056.0443681877005 0 -1056.0443681877005 1390.5291692705505 0 0 0 0 -666.43005939571958 1204.4997815794486 0 1204.4997815794486 -1408.7379087527079 0 0 0 0 166.3773652965001 371.03709856336354 0 371.03709856336354 -2080.3560328789754 0 0 0 0 71.909514563845732 -1187.1776459714019 0 -1187.1776459714019 -855.34789239466772 0 0 0 0 -31.968126184035022 -34.057737515614448 0 -34.057737515614448 8.3848882123397459 0 0 0 0 -123.72844566262484 -83.253177777685778 0 -83.253177777685778 -188.69371985541511 0 0 0 0 -76.113833443836484 -83.878868262971082 0 -83.878868262971082 -218.55786131761045 0 0 0 0 -90.383861997663189 -74.132269506968441 0 -74.132269506968441 -187.3884160736161 0 0 0 0 -129.00759797271871 -74.448455962065054 0 -74.448455962065054 -179.35143022180273 0 0 0 0 -124.32382748667189 -58.743011218273182 0 -58.743011218273182 -229.45855164287059 0 0 0 0 -72.212667649114834 -78.430049909258827 0 -78.430049909258827 -23.358039747370604 0 0 0 0 -119.29940784805785 -66.728850472847625 0 -66.728850472847625 -173.25581226650684 0 0 0 0 -111.78698668077504 -85.714231234170256 0 -85.714231234170256 -171.89417955568206 0 0 0 0 -91.134375835276387 -69.446337898565616 0 -69.446337898565616 -165.5140192943727 0 0 0 0 -107.00519144609598 -82.74748917494253 0 -82.74748917494253 -161.26978615004828 0 0 0 0 -106.79017312661745 -79.730007910120548 0 -79.730007910120548 -170.84399448896966 0 0 0 0 17.915918881974029 28.906588454768553 0 28.906588454768553 -89.964799092612722 0 0 0 0 135.10890297126571 183.88671369045915 0 183.88671369045915 -127.67551664647908 0 0 0 0 -24.374721486130852 -74.177380889952929 0 -74.177380889952929 -185.36432466386759 0 0 0 0 -7.4350285629079735 -47.355627036547048 0 -47.355627036547048 -166.72764497762546 0 0 0 0 -21.655649959445327 -59.854314286327281 0 -59.854314286327281 -177.67559506939506 0 0 0 0 -63.040152903600756 -70.775626651378843 0 -70.775626651378843 -159.0549364254548 0 0 0 0 -68.893846437805223 -84.632949764942168 0 -84.632949764942168 -177.6366662760156 0 0 0 0 -56.934259462886075 -87.501909468137455 0 -87.501909468137455 -172.80682624534711 0 0 0 0 -77.16764363963739 -65.934738273982475 0 -65.934738273982475 -161.12712729986015 0 0 0 0 -44.821064608699089 -67.033351152696923 0 -67.033351152696923 -143.0180314463214 0 0 0 0 -28.616995861890246 -96.465945229258068 0 -96.465945229258068 -155.73527783205282 0 0 0 0 -66.907575599342636 -86.820107220555656 0 -86.820107220555656 -147.50323899291652 0 0 0 0 -68.769727715224462 -94.524500835871095 0 -94.524500835871095 -169.39996722578871 0 0 0 0 -28.659701739865341 -77.742903651356755 0 -77.742903651356755 -160.06300697135521 0 0 0 0 62.322421335739364 32.734521751408465 0 32.734521751408465 -98.754412514885189 0 0 0 0 145.93935060944773 50.951444801627076 0 50.951444801627076 -214.34991461050959 0 0 0 0 156.8366601764983 3.4432651770039229 0 3.4432651770039229 -105.75000274412741 0 0 0 0 26.518081279683315 15.674295057756396 0 15.674295057756396 -78.460800231837936 0 0 0 0 210.14532617209807 -23.371328627832554 0 -23.371328627832554 -188.43724595101594 0 0 0 0 3.5978157775352884 118.19966467466656 0 118.19966467466656 -222.02281696034788 0 0 0 0 -13.102860675219404 -86.235097597673303 0 -86.235097597673303 -250.67548799351289 0 0 0 0 -162.48067447896938 0.34723311370180454 0 0.34723311370180454 -299.93368451114657 0 0 0 0 -217.66427377818763 136.79776691962252 0 136.79776691962252 -113.35761633163929 0 0 0 0 -18.953701980354253 11.26910334130298 0 11.26910334130298 -362.5581958299008 0 0 0 0 -56.665048358378499 70.030690236531882 0 70.030690236531882 20.70995128890354 0 0 0 0 -75.298725092363384 128.6022246272114 0 128.6022246272114 -121.4628066390178 0 0 0 0 -11.950707047747528 132.21464719526193 0 132.21464719526193 0.7583985271921847 0 0 0 0 -3.0136262058177037 30.870471766046137 0 30.870471766046137 -108.57583144996566 0 0 0 0 -53.327944427524926 -52.35483897332233 0 -52.35483897332233 -20.516528384214325 0 0 0 0 -164.85568096553652 -32.896727710325649 0 -32.896727710325649 121.88554334404216 0 0 0 0 -87.334619233683043 43.366252880092361 0 43.366252880092361 37.701355720011634 0 0 0 0 -287.78545338580807 109.08478083891532 0 109.08478083891532 -56.891850526102644 0 0 0 0 -198.75544713099544 13.541160632366882 0 13.541160632366882 29.852639652657672 0 0 0 0 -81.027602368527369 -56.815772914225818 0 -56.815772914225818 -20.800304776421399 0 0 0 0 -211.97669608844535 -152.30161164567107 0 -152.30161164567107 -55.694236930285115 0 0 0 0 68.462700475258316 -166.93450855120318 0 -166.93450855120318 -871.16803141637502 0 0 0 0 -541.60455563732467 -55.790291065401107 0 -55.790291065401107 -69.544890387703163 0 0 0 0 -202.72848515018813 26.580079273264346 0 26.580079273264346 -193.06040396232856 0 0 0 0 -393.65110657969672 257.13269809417761 0 257.13269809417761 -442.42634922864818 0 0 0 0 -272.03112414597217 -125.96502154833797 0 -125.96502154833797 -635.98670880684222 0 0 0 0 -149.83687284506686 -4.6627468058140948 0 -4.6627468058140948 -556.81396102927101 0 0 0 0 -544.3538568011445 -77.071090990575613 0 -77.071090990575613 -476.36644741454802 0 0 0 0 -307.3700513098338 -12.102352527283074 0 -12.102352527283074 -369.41596646449034 0 0 0 0 -4.3844593453555234 2.2305109174673277 0 2.2305109174673277 -1.0705626014383016 0 0 0 0 -543.88056599821357 -69.397865482038469 0 -69.397865482038469 -375.7029647172094 0 0 0 0 -386.96062944270943 -83.839443344434585 0 -83.839443344434585 -556.4330618566164 0 0 0 0 -544.33875194100619 51.799897490614967 0 51.799897490614967 -631.32187775060811 0 0 0 0 -226.30363690483955 -110.91995716876954 0 -110.91995716876954 -1025.8156413893958 0 0 0 0 -165.19213649200537 -248.79970788346145 0 -248.79970788346145 -628.81285310240492 0 0 0 0 -187.75675465132008 -241.79373661019054 0 -241.79373661019054 -601.59788107473287 0 0 0 0 -224.46935355331334 -137.93855053196603 0 -137.93855053196603 -677.97020800404789 0 0 0 0 -217.61563544317397 -205.53879157498977 0 -205.53879157498977 -460.83207069910713 0 0 0 0 -381.6898775379891 -60.804542443242099 0 -60.804542443242099 -528.1950408963603 0 0 0 0 -314.51008189768436 -75.356599194761657 0 -75.356599194761657 -538.58318848545605 0 0 0 0 -310.65886611535484 -142.03813171378579 0 -142.03813171378579 -426.99463405170536 0 0 0 0 -161.15016596437727 -162.88234924177596 0 -162.88234924177596 -538.72887221715791 0 0 0 0 -86.516263797433567 -126.95301185639983 0 -126.95301185639983 -459.22629572106234 0 0 0 0 -160.94458244571524 -169.91232928628233 0 -169.91232928628233 -329.17124055406748 0 0 0 0 -56.061945208717987 -38.963395667766235 0 -38.963395667766235 -292.34839368342364 0 0 0 0 -131.6543531272755 -248.37298526771701 0 -248.37298526771701 -290.20296363438649 0 0 0 0 -56.799056978406156 -180.64135934566002 0 -180.64135934566002 -257.60236336736125 0 0 0 0 -230.28911074115001 -385.07999764301348 0 -385.07999764301348 -345.90476216192474 0 0 0 0 -138.55080368568724 -299.96698188571099 0 -299.96698188571099 -411.19433773333003 0 0 0 0 -125.34577788867659 -258.77074585268292 0 -258.77074585268292 -491.31563833369 0 0 0 0 -123.50348999958078 -304.15316116371832 0 -304.15316116371832 -573.95864626548064 0 0 0 0 -131.25341419104188 -419.66586764956446 0 -419.66586764956446 -508.01387246308877 0 0 0 0 -91.32440227738789 -415.83311300500282 0 -415.83311300500282 -532.98924780454763 0 0 0 0 -130.97126399398849 -413.52592080642717 0 -413.52592080642717 -391.81078991817049 0 0 0 0 -137.641453413275 -471.58606290446187 0 -471.58606290446187 -490.23894129619293 0 0 0 0 -177.65574527710089 -577.14274914298949 0 -577.14274914298949 -485.30077745750168 0 0 0 0 -22.945994572419295 -472.87570348143709 0 -472.87570348143709 -947.96818953210459 0 0 0 0 -52.904905749643149 -315.45557965046828 0 -315.45557965046828 -505.28625382388418 0 0 0 0 8.797973586675198 -340.96203164573626 0 -340.96203164573626 -496.05710865952278 0 0 0 0 37.460850082634565 13.866526500226342 0 13.866526500226342 -21.25405207220966 0 0 0 0 -44.214916837183409 -126.72356383094666 0 -126.72356383094666 -234.25936903508773 0 0 0 0 -286.96733225450225 -357.90816867418471 0 -357.90816867418471 -279.82536522441478 0 0 0 0 65.624695690604099 42.12446598319184 0 42.12446598319184 -66.461184061830863 0 0 0 0 30.49506758186908 21.980214087525383 0 21.980214087525383 -27.089254887629068 0 0 0 0 37.882539637763834 28.128702542164945 0 28.128702542164945 -34.089036650068124 0 0 0 0 -8.4526134360712604 188.34860807776568 0 188.34860807776568 210.64531047272612 0 0 0 0 26.02895633641409 20.322788625473592 0 20.322788625473592 -23.003615979725524 0 0 0 0 4.9011585699759728 -0.14888114042904022 0 -0.14888114042904022 -8.2955179965368444 0 0 0 0 -229.1024062975639 -392.33831578619538 0 -392.33831578619538 -395.25827497450518 0 0 0 0 -227.66623756875924 -310.11670074725043 0 -310.11670074725043 -434.18873902381165 0 0 0 0 -274.12381437670592 -475.51819263448124 0 -475.51819263448124 -788.17122112699872 0 0 0 0 -465.82371631686692 -355.64714572968296 0 -355.64714572968296 -398.91635924308503 0 0 0 0 -207.86207120790823 -407.82597777326737 0 -407.82597777326737 -566.08315352038881 0 0 0 0 -46.390034905122775 -272.66211573429791 0 -272.66211573429791 -456.32730090958648 0 0 0 0 2.9749562970891503 -6.5288032037124424 0 -6.5288032037124424 -17.123577219858589 0 0 0 0 75.508801478328678 -88.728552609438339 0 -88.728552609438339 -223.38890909853217 0 0 0 0 -17.247200571617071 -46.924214793079123 0 -46.924214793079123 -58.930802972790474 0 0 0 0 -38.067405672285531 -49.633966980836703 0 -49.633966980836703 -105.97912210451977 0 0 0 0 -40.613461478038516 -68.868851242943492 0 -68.868851242943492 -100.54462518513174 0 0 0 0 -39.956801776072098 -69.853243815530732 0 -69.853243815530732 -126.70385159914622 0 0 0 0 -0.74988539971491974 -11.537792541185127 0 -11.537792541185127 -22.915444985696354 0 0 0 0 -37.309339537478081 -50.474120712031436 0 -50.474120712031436 -129.34979954931805 0 0 0 0 5.4770686313695478 -68.379318679837525 0 -68.379318679837525 -160.41402816789633 0 0 0 0 39.396643998868129 6.0759300305339465 0 6.0759300305339465 -63.663457694361256 0 0 0 0 1.1414923693819219 -8.1499235921837681 0 -8.1499235921837681 -105.81588029708686 0 0 0 0 -3.0523714510027276 -52.472822765004821 0 -52.472822765004821 -95.003269379820267 0 0 0 0 -52.22336714179346 -49.75599075108039 0 -49.75599075108039 -115.89215395155043 0 0 0 0 139.71673916582313 31.210685099278635 0 31.210685099278635 -220.73460283645545 0 0 0 0 173.08393882682412 -7.6029088275881804 0 -7.6029088275881804 -178.45024778282823 0 0 0 0 133.61386288848325 -117.53759513377372 0 -117.53759513377372 -41.04842098300287 0 0 0 0 3.6530446437000208 4.3042888396917505 0 4.3042888396917505 -1.1008653597512321 0 0 0 0 -60.795381641179745 -177.89723853242322 0 -177.89723853242322 -130.74723814074042 0 0 0 0 92.858182802755209 47.257110055112207 0 47.257110055112207 -133.7765672382011 0 0 0 0 76.980420122814394 -186.13315254287227 0 -186.13315254287227 -221.86538240472873 0 0 0 0 -420.32288431377725 -424.09304314747715 0 -424.09304314747715 -228.07484891087734 0 0 0 0 -116.73089803664016 -196.09628384976349 0 -196.09628384976349 -130.21415010048077 0 0 0 0 -465.63725405046819 -537.62923188512787 0 -537.62923188512787 81.047745943476912 0 0 0 0 -348.65831221800767 -982.31804774601551 0 -982.31804774601551 -1256.6500846247218 0 0 0 0 -12.29213016378648 -6.8471049805593509 0 -6.8471049805593509 -3.0553634632867102 0 0 0 0 43.96016334049034 70.975960325737105 0 70.975960325737105 -1566.2681147469448 0 0 0 0 -103.876440643965 -69.124202431514277 0 -69.124202431514277 103.49468189686013 0 0 0 0 159.05064899965419 1.4902940836946073 0 1.4902940836946073 -168.42465265262217 0 0 0 0 164.60581174796516 -89.818365798513696 0 -89.818365798513696 -119.47639137711872 0 0 0 0 -31.691948632388783 -17.130352518913398 0 -17.130352518913398 -19.597431966652152 0 0 0 0 57.574821050204264 -106.11025831042934 0 -106.11025831042934 8.7068325449508848 0 0 0 0 -45.001608166020446 -9.0410363273767871 0 -9.0410363273767871 -365.41206740360212 0 0 0 0 24.034023792992798 44.313930165795682 0 44.313930165795682 -720.38754317858547 0 0 0 0 -65.713879699353129 27.750071395415944 0 27.750071395415944 -194.79946865606325 0 0 0 0 -67.221692146991813 -76.231209553667213 0 -76.231209553667213 -312.72133002654664 0 0 0 0 -86.475173114832387 -136.0295928989508 0 -136.0295928989508 -466.7336191052309 0 0 0 0 0.068382187519592019 -1.9584387327468846 0 -1.9584387327468846 -0.63168990585413809 0 0 0 0 -144.62763003588702 -135.96947357915997 0 -135.96947357915997 -462.30213377364089 0 0 0 0 -6.2821963633566043 -258.63431777116966 0 -258.63431777116966 -739.71506355351448 0 0 0 0 -32.616719562267349 -112.71893239289784 0 -112.71893239289784 -505.1505956226174 0 0 0 0 -25.389369345501272 -182.75736823059196 0 -182.75736823059196 -628.84146613969642 0 0 0 0 35.842551613519618 -164.57122047583471 0 -164.57122047583471 -651.45186991439186 0 0 0 0 21.454285091274969 -219.82063418372081 0 -219.82063418372081 -705.06077328392712 0 0 0 0 -43.897986280577157 -168.78265786971315 0 -168.78265786971315 -535.51986541924271 0 0 0 0 -77.025640593900022 -281.56477254147649 0 -281.56477254147649 -790.44595494541863 0 0 0 0 -287.30707708711975 -755.97691873049553 0 -755.97691873049553 -928.78645783209504 0 0 0 0 -537.38354514504442 -503.84000039491366 0 -503.84000039491366 -363.0111993410419 0 0 0 0 27.964359442433079 -32.202019749161991 0 -32.202019749161991 -42.263109646624798 0 0 0 0 -327.67597017301068 -617.25231222218099 0 -617.25231222218099 -1137.5916210512623 0 0 0 0 -1.2198303896718388 -0.30202544968675227 0 -0.30202544968675227 -0.42018805465045261 0 0 0 0 -243.43867120033838 -195.21545827413138 0 -195.21545827413138 -392.20679268391541 0 0 0 0 -0.57450704192086477 -1.0870996725666942 0 -1.0870996725666942 -1.0088928803368979 0 0 0 0 -208.03804609866054 45.453459585842211 0 45.453459585842211 -322.35719158393113 0 0 0 0 -387.5651289716684 -1014.6497982649125 0 -1014.6497982649125 -1093.4142742052481 0 0 0 0 -531.55692521793083 315.3079764383001 0 315.3079764383001 -1627.1965906847508 0 0 0 0 -1050.2447408725675 -459.10259491455145 0 -459.10259491455145 -434.37084799469449 0 0 0 0 -561.34108977855624 13.752636851331999 0 13.752636851331999 -251.28710466905613 0 0 0 0 -582.82564327352816 -365.90392767122103 0 -365.90392767122103 -609.7464052055584 0 0 0 0 -10.193130210271192 -4.8109246085004997 0 -4.8109246085004997 -51.69543071375665 0 0 0 0 -0.79781107520939853 -1.3332563233132078 0 -1.3332563233132078 -5.6562682192896823 0 0 0 0 -0.9172486429576443 -0.6545437427098193 0 -0.6545437427098193 -5.4731602438386773 0 0 0 0 36.348691201881593 -62.620375878585037 0 -62.620375878585037 -193.40016647770608 0 0 0 0 -466.30857968809369 -10.4184485642254 0 -10.4184485642254 45.910624726457172 0 0 0 0 147.60401015015304 -253.3092476261354 0 -253.3092476261354 -1677.1171964831738 0 0 0 0 -68.796301362795958 -465.42715105652678 0 -465.42715105652678 -1190.7896413619892 0 0 0 0 761.13311276849072 299.52881773177796 0 299.52881773177796 -4501.0956051923495 0 0 0 0 359.37365943599445 577.08036067642388 0 577.08036067642388 -3480.3376112184851 0 0 0 0 254.18929866479144 -123.52551031857729 0 -123.52551031857729 -3306.038819686175 0 0 0 0 281.07506676603663 -146.77518394268373 0 -146.77518394268373 -3943.4477364110498 0 0 0 0 -0.16908932158822509 0.35169395665600689 0 0.35169395665600689 -0.24589622243297526 0 0 0 0 6.3246508376834711 98.572309013888116 0 98.572309013888116 -2086.4340051142281 0 0 0 0 -188.33423998961598 -79.205179979791865 0 -79.205179979791865 -194.50153535670961 0 0 0 0 128.40549448644924 -726.5584868360711 0 -726.5584868360711 -3212.2840127118816 0 0 0 0 2.0609523845971287 9.0650200048876499 0 9.0650200048876499 -9.1121350285027916 0 0 0 0 88.577049515277793 -879.5642638096615 0 -879.5642638096615 -3799.2288825780997 0 0 0 0 80.781535659148545 -159.61061784927006 0 -159.61061784927006 -261.57600706342782 0 0 0 0 0.98653101419344913 3.8629579260308446 0 3.8629579260308446 -6.7651553748841948 0 0 0 0 52.879775991248295 -719.43166676476358 0 -719.43166676476358 -4262.6408408842326 0 0 0 0 -293.15621775030945 -265.17483647496192 0 -265.17483647496192 -370.07735617634955 0 0 0 0 -326.17088235642154 99.593104113868321 0 99.593104113868321 -359.5383813154549 0 0 0 0 -287.04601433876508 -317.57178186528472 0 -317.57178186528472 -572.58080848594363 0 0 0 0 -226.44113593697071 -296.31899407933815 0 -296.31899407933815 -624.54727457322588 0 0 0 0 -141.20524250832659 -377.58178006563685 0 -377.58178006563685 -894.0395967379518 0 0 0 0 -26.856987710280123 291.55430339272425 0 291.55430339272425 -975.54483731352957 0 0 0 0 80.348045584887316 -481.76632638223691 0 -481.76632638223691 -4499.0175078787324 0 0 0 0 -371.95846368969814 -637.33673830542102 0 -637.33673830542102 -4170.6763300260864 0 0 0 0 -415.48338694412928 -1016.3205298304092 0 -1016.3205298304092 -3881.0180777986534 0 0 0 0 -271.47422193433141 -717.09207447296103 0 -717.09207447296103 -4322.1612034834834 0 0 0 0 -274.83043930779149 -747.12275560885246 0 -747.12275560885246 -4454.2794527957303 0 0 0 0 -349.18903658113067 -954.97557721399789 0 -954.97557721399789 -4417.2121355077943 0 0 0 0 -269.35600426558676 -374.34980230995279 0 -374.34980230995279 -43.28766359394649 0 0 0 0 -20.580119889273305 319.74987321275694 0 319.74987321275694 -1748.309057246559 0 0 0 0 -144.90081746072212 -427.05933620046562 0 -427.05933620046562 -1421.9776365464095 0 0 0 0 -270.223933823891 -546.74770611732492 0 -546.74770611732492 -511.2766118470463 0 0 0 0 -206.89195729664442 -148.97157580173007 0 -148.97157580173007 -360.89734110722202 0 0 0 0 -118.03528800791935 -25.514191834023222 0 -25.514191834023222 220.25324685804662 0 0 0 0 48.920987596677207 69.095245631149737 0 69.095245631149737 151.94598020181729 0 0 0 0 -269.14172089117312 191.0094455639628 0 191.0094455639628 106.52047937886891 0 0 0 0 -81.582315755037769 333.63652197180636 0 333.63652197180636 2.5710497943728114 0 0 0 0 -257.94784559102885 30.367771774755965 0 30.367771774755965 206.59618369001873 0 0 0 0 -29.333824231944817 -107.09778049126908 0 -107.09778049126908 80.863776702164614 0 0 0 0 321.89489632254265 -104.48857775552824 0 -104.48857775552824 -173.29250849389064 0 0 0 0 -0.48150631885010348 0.12135451402858299 0 0.12135451402858299 -38.209946379510257 0 0 0 0 112.62082907910481 -28.500856734198351 0 -28.500856734198351 11.734958366665523 0 0 0 0 105.33679588970163 6.1140899979445749 0 6.1140899979445749 99.923414523334941 0 0 0 0 13.817963510564644 5.8166892563402808 0 5.8166892563402808 -43.251548957491508 0 0 0 0 70.946817799070971 -2.2440216640773087 0 -2.2440216640773087 -128.58300910095568 0 0 0 0 92.615335557206237 -15.415622263357363 0 -15.415622263357363 52.504630898940377 0 0 0 0 149.80232857205868 95.750584799134231 0 95.750584799134231 78.727730198213976 0 0 0 0 169.18484119033735 69.178490157879423 0 69.178490157879423 26.598763100668293 0 0 0 0 10.640308918265191 -85.628365614866198 0 -85.628365614866198 -151.95549644505809 0 0 0 0 0.93783679365223571 0.31479753196050808 0 0.31479753196050808 1.7278972658003724 0 0 0 0 -19.13246508140486 74.087137338548928 0 74.087137338548928 286.62237213022308 0 0 0 0 -37.789842904647685 -23.537447921480634 0 -23.537447921480634 -331.77789588882661 0 0 0 0 2.7920868403743127 -2.5398975257048875 0 -2.5398975257048875 -16.154540078457678 0 0 0 0 4.8579313386626026 -0.15563660056704975 0 -0.15563660056704975 -188.2578267350691 0 0 0 0 14.734455682391374 21.044136354542218 0 21.044136354542218 -28.734947313792901 0 0 0 0 40.311518473172328 -67.851085676848015 0 -67.851085676848015 -604.46308420652349 0 0 0 0 -22.115004626181872 -342.56328981784827 0 -342.56328981784827 -777.66278380079893 0 0 0 0 55.577674249708707 10.409880962411989 0 10.409880962411989 -699.99821374518433 0 0 0 0 2.1286205695542657 9.6300285579573135 0 9.6300285579573135 -7.188959439231013 0 0 0 0 36.734464133975052 -185.18887335342879 0 -185.18887335342879 -197.89649290694069 0 0 0 0 304.27434985799505 -202.90561240702664 0 -202.90561240702664 -349.23683978407644 0 0 0 0 160.31873036009347 65.302727885995409 0 65.302727885995409 -785.92971891378488 0 0 0 0 -190.42748689751068 316.70081874708558 0 316.70081874708558 -488.69927408589137 0 0 0 0 6.0089787899782099 5.6983901636159544 0 5.6983901636159544 -21.945924436715927 0 0 0 0 -39.816176869640913 -55.746815919097571 0 -55.746815919097571 -148.43737108313508 0 0 0 0 341.52085081520636 144.96473095227702 0 144.96473095227702 113.68925179919461 0 0 0 0 10.843023050543508 -13.799270402087295 0 -13.799270402087295 -66.869628662307122 0 0 0 0 1.4824610164338718 -1.3134890801360797 0 -1.3134890801360797 -52.468486387029543 0 0 0 0 -0.61259443227390875 -2.8687496823549736 0 -2.8687496823549736 -87.712301569041301 0 0 0 0 447.04742388261809 64.167377498746646 0 64.167377498746646 -81.093024844223692 0 0 0 0 66.662126052373424 125.82837638436467 0 125.82837638436467 -42.237340266685351 0 0 0 0 28.182040440695062 151.15216470824089 0 151.15216470824089 -58.180337810772471 0 0 0 0 169.16690057785286 231.19805899062339 0 231.19805899062339 -13.446931700440473 0 0 0 0 0.82026912256158535 -2.2026410851427016 0 -2.2026410851427016 -17.498419050226886 0 0 0 0 2.2760700381163019 -39.968055800602087 0 -39.968055800602087 -38.862203506650985 0 0 0 0 174.51644480409604 99.160517642543709 0 99.160517642543709 3.3478241350603639 0 0 0 0 1.6492856468114276 -5.1058988990280056 0 -5.1058988990280056 -41.219175055982248 0 0 0 0 288.79794723369901 301.90021446115679 0 301.90021446115679 -55.230289070095751 0 0 0 0 -122.8397047796158 446.88960735203909 0 446.88960735203909 -1500.4442187901586 0 0 0 0 237.71233246767497 478.27498034707605 0 478.27498034707605 -2056.9316856625301 0 0 0 0 225.47528879857501 455.33598387448546 0 455.33598387448546 -1551.610319992029 0 0 0 0 -635.21153399795367 2334.4039560685742 0 2334.4039560685742 -4491.31745672744 0 0 0 0 -0.39039826812327089 -1.7111629464821903 0 -1.7111629464821903 -18.585521274328954 0 0 0 0 91.954684051345396 -1197.8971318644417 0 -1197.8971318644417 -1142.0693687586026 0 0 0 0 632.11547529671623 -700.60379893219942 0 -700.60379893219942 -4490.4162959233445 0 0 0 0 568.86242569906096 84.077629716528463 0 84.077629716528463 -1579.2028901583835 0 0 0 0 -146.32124156295242 -69.128168270641709 0 -69.128168270641709 -1598.2722409276612 0 0 0 0 -242.51325761438619 334.39943026159017 0 334.39943026159017 76.072484644198994 0 0 0 0 -416.11238917245737 292.11003319473821 0 292.11003319473821 -76.474975718678252 0 0 0 0 -245.24691875902462 -312.56910409250122 0 -312.56910409250122 543.82633424262167 0 0 0 0 -534.44329965069915 1151.5115853988923 0 1151.5115853988923 -1873.0841458505893 0 0 0 0 522.64218674969459 833.92916298328055 0 833.92916298328055 -4492.0759531208905 0 0 0 0 -0.78900859971330295 0.16345502542148571 0 0.16345502542148571 -17.536432423570545 0 0 0 0 841.91471985727287 -730.58449905911039 0 -730.58449905911039 -4494.0860327535775 0 0 0 0 -539.96740484041447 -1398.0088167409606 0 -1398.0088167409606 -1697.6908140382438 0 0 0 0 1119.7453727643467 630.27190802429504 0 630.27190802429504 -4490.68708663078 0 0 0 0 994.72281937102184 185.54783572163797 0 185.54783572163797 -1596.9672980588948 0 0 0 0 5.0989631368737474 -10.586348995411619 0 -10.586348995411619 -2.0814286994885265 0 0 0 0 -74.632262812650652 86.527318649146764 0 86.527318649146764 -83.410574653455114 0 0 0 0 -42.494198162305679 -310.82471492964396 0 -310.82471492964396 -1192.9608100433106 0 0 0 0 -240.13453240844387 60.069617795856175 0 60.069617795856175 190.12962503930612 0 0 0 0 512.72066765046247 142.67906865669306 0 142.67906865669306 -211.22970935527701 0 0 0 0 -34.311454938459065 97.148223975211295 0 97.148223975211295 45.394888960130629 0 0 0 0 -9.6772787037888008 12.709095818688183 0 12.709095818688183 -40.392876548925415 0 0 0 0 72.4407582488043 38.603470763459406 0 38.603470763459406 4.0969900486031747 0 0 0 0 163.66565479986264 136.27685392266358 0 136.27685392266358 -34.962232381032663 0 0 0 0 56.042948304981557 45.19537945012587 0 45.19537945012587 20.399653727108927 0 0 0 0 -31.83080527346101 -82.62443726460333 0 -82.62443726460333 -154.68518250689522 0 0 0 0 -10.808823465947626 -136.95159408987092 0 -136.95159408987092 -207.37221823431901 0 0 0 0 29.091148084122324 -63.897051277308492 0 -63.897051277308492 -155.25369420416246 0 0 0 0 54.981241570150971 -26.207176946672426 0 -26.207176946672426 -143.93304137498012 0 0 0 0 197.19991420117367 139.87077012702866 0 139.87077012702866 -68.993944877322065 0 0 0 0 -19.401261502025466 -60.294680297424989 0 -60.294680297424989 -79.29996552770595 0 0 0 0 -54.057918566055378 -124.22601849099738 0 -124.22601849099738 -144.78975713480395 0 0 0 0 -94.6699033812165 -104.84759575745557 0 -104.84759575745557 -157.06488342968805 0 0 0 0 -20.430566578679244 -14.580759485667016 0 -14.580759485667016 28.487370909171176 0 0 0 0 -61.156972178526757 -141.40810692293053 0 -141.40810692293053 -161.18034134856134 0 0 0 0 -11.047978020988802 3.14169556514058 0 3.14169556514058 0.068114428747151123 0 0 0 0 -14.379734099105463 -129.52083653298541 0 -129.52083653298541 -228.3483406765954 0 0 0 0 -825.35299602809812 724.6167785946709 0 724.6167785946709 -515.23519491437946 0 0 0 0 -129.26387698701819 -1248.7358733463188 0 -1248.7358733463188 -4493.110324804401 0 0 0 0 -8.6749067224050957 2.634464176700817 0 2.634464176700817 -27.072265458883521 0 0 0 0 -1104.8185493946705 -1921.0432424171158 0 -1921.0432424171158 -3429.1506440285011 0 0 0 0 -131.85326607227933 -700.76762669562436 0 -700.76762669562436 -2576.7253624680743 0 0 0 0 729.93693460822942 -499.85089178118869 0 -499.85089178118869 -4501.8066193748818 0 0 0 0 -389.94802808384338 -268.95508138736841 0 -268.95508138736841 -464.51983970346191 0 0 0 0 80.964428510459726 474.97063130733295 0 474.97063130733295 -170.42634921887111 0 0 0 0 -304.42258916530437 -1486.5242173961306 0 -1486.5242173961306 -2091.660060061593 0 0 0 0 66.665422823864787 -266.45771497236274 0 -266.45771497236274 -1337.2439422576572 0 0 0 0 -617.6388629837237 -861.52620643179398 0 -861.52620643179398 117.50548148826056 0 0 0 0 -490.54968343072426 1206.6796856759684 0 1206.6796856759684 -3019.5005457223233 0 0 0 0 699.13991259938655 -83.604291132061917 0 -83.604291132061917 -2978.3208463365117 0 0 0 0 649.87181392760499 723.28123938343924 0 723.28123938343924 -4491.5700039206204 0 0 0 0 431.04062861041268 445.71589609080547 0 445.71589609080547 -2584.9404087897856 0 0 0 0 -194.87999083149282 241.24145853990922 0 241.24145853990922 -1632.5584379464708 0 0 0 0 -27.491620669683719 -22.882514870716193 0 -22.882514870716193 -13.692792061593352 0 0 0 0 78.672924026114572 -489.2330845064098 0 -489.2330845064098 453.41287637839559 0 0 0 0 -27.791044206105653 -119.14812273395364 0 -119.14812273395364 87.924804793612566 0 0 0 0 -191.37792264348627 -453.69630449086981 0 -453.69630449086981 -122.92842035428112 0 0 0 0 21.325956332022315 32.017364932806231 0 32.017364932806231 -674.25022603513207 0 0 0 0 -37.701922393556337 -29.926230407305496 0 -29.926230407305496 -8.3417518490019944 0 0 0 0 232.7326092613057 -253.48067005930352 0 -253.48067005930352 119.01012573409389 0 0 0 0 131.5951044437943 -380.95595033530844 0 -380.95595033530844 -11.338039634429151 0 0 0 0 70.023011824634523 -286.14691616687196 0 -286.14691616687196 -183.60267439914605 0 0 0 0 348.97416697573499 -267.161106818181 0 -267.161106818181 -196.81049209378398 0 0 0 0 427.44246933215618 -114.68713494426629 0 -114.68713494426629 8.7678957898897352 0 0 0 0 73.158480905551187 -256.98600762611022 0 -256.98600762611022 -275.88879417152202 0 0 0 0 -3.7941610919269557 -6.2183300990270425 0 -6.2183300990270425 -4.0694148828677044 0 0 0 0 -244.56459211360016 -326.71982795503573 0 -326.71982795503573 -224.17302699029096 0 0 0 0 257.84671670788521 -197.24213119240449 0 -197.24213119240449 -289.31993841793883 0 0 0 0 285.06232983381278 -53.51856374532781 0 -53.51856374532781 -769.63887338057975 0 0 0 0 -71.002614053360048 143.51140671906614 0 143.51140671906614 -344.72159282575012 0 0 0 0 216.22095099603212 132.70952064788798 0 132.70952064788798 -303.12126782740233 0 0 0 0 132.43173385053433 -110.2172370217595 0 -110.2172370217595 -334.51286254875595 0 0 0 0 133.23430602760254 -229.32817281925963 0 -229.32817281925963 -1124.3850524002337 0 0 0 0 -0.75529248343568689 -2.9975317907003074 0 -2.9975317907003074 -7.1532186787294449 0 0 0 0 -305.70879216758021 644.74892405273567 0 644.74892405273567 -1158.5868098991907 0 0 0 0 421.30214806173115 -713.65348881169484 0 -713.65348881169484 -520.26837931486079 0 0 0 0 434.99211393511632 -795.66803929637535 0 -795.66803929637535 -79.225420193833997 0 0 0 0 555.10948318150622 84.89821001564269 0 84.89821001564269 -377.48954871759634 0 0 0 0 428.84330599508303 -240.31101017886249 0 -240.31101017886249 -485.82100990886101 0 0 0 0 545.73843403561386 -212.01963212018018 0 -212.01963212018018 -197.65196228020068 0 0 0 0 -6.9809380579217404 -9.3362459784959526 0 -9.3362459784959526 -13.493695922843131 0 0 0 0 447.25144624745917 -1.2931201512910775 0 -1.2931201512910775 178.83306203683242 0 0 0 0 472.7766848725264 251.2993065949413 0 251.2993065949413 -599.75855669040175 0 0 0 0 202.5273351029864 47.907130834337295 0 47.907130834337295 -75.663785475015175 0 0 0 0 627.97080736627504 237.18364815146197 0 237.18364815146197 -614.626061195886 0 0 0 0 -36.953966400755235 185.12732276484167 0 185.12732276484167 -380.07688513432731 0 0 0 0 42.907293413456955 28.750555435581191 0 28.750555435581191 -152.63573219333193 0 0 0 0 23.706196546390856 322.99805414255388 0 322.99805414255388 -464.69438924180577 0 0 0 0 20.297627548095942 -5.2278574945927545 0 -5.2278574945927545 -43.875327119012297 0 0 0 0 16.957937804918402 186.49325241368206 0 186.49325241368206 -720.25008579148562 0 0 0 0 844.73831263725879 -13.818733026650079 0 -13.818733026650079 -600.89277217771451 0 0 0 0 50.766244327631199 -36.188488865593513 0 -36.188488865593513 -149.89787303601071 0 0 0 0 140.56407638146902 115.69422004419175 0 115.69422004419175 -179.9342513347583 0 0 0 0 77.489414349634899 -148.15050146718568 0 -148.15050146718568 -418.58490665599675 0 0 0 0 477.79420502386347 -346.21641322948562 0 -346.21641322948562 -646.4644533507817 0 0 0 0 -217.53576021860863 -64.493288281293644 0 -64.493288281293644 -582.37564508826472 0 0 0 0 76.758968161453595 -131.5645953147814 0 -131.5645953147814 -567.09292717957578 0 0 0 0 -171.614463102218 -181.39721660323266 0 -181.39721660323266 -400.9630650307372 0 0 0 0 597.58856409295186 -527.19494589827627 0 -527.19494589827627 -168.07408114154532 0 0 0 0 726.50921055678191 974.41635773909366 0 974.41635773909366 -931.99316805785929 0 0 0 0 93.48072365160624 -209.00973712972336 0 -209.00973712972336 -1391.2876407436233 0 0 0 0 -1.215470406543929 4.8594881747304441 0 4.8594881747304441 -4.875913346423971 0 0 0 0 52.91230851167515 -22.620039802595471 0 -22.620039802595471 -150.56597175780948 0 0 0 0 -68.123986583093938 622.59417304030649 0 622.59417304030649 785.40280012539006 0 0 0 0 -155.01106724513375 67.674726580647985 0 67.674726580647985 -372.13391980530287 0 0 0 0 54.60481054576303 351.94421466358835 0 351.94421466358835 -1128.5444410223718 0 0 0 0 -90.543088502949104 -184.7063770412351 0 -184.7063770412351 -803.51040452494999 0 0 0 0 -78.33580320848705 20.896068467991427 0 20.896068467991427 -879.33210377974683 0 0 0 0 6.829529185739375 -115.28966807662073 0 -115.28966807662073 -670.44256907969248 0 0 0 0 -120.11378334198889 -157.97156519594137 0 -157.97156519594137 -667.0946382425609 0 0 0 0 -251.27901465787727 -231.38586911433231 0 -231.38586911433231 -571.14456941052504 0 0 0 0 -169.82082537250244 -136.39925184666208 0 -136.39925184666208 -555.76651946402853 0 0 0 0 12.881877280538902 -254.60957048156706 0 -254.60957048156706 -669.45329863300503 0 0 0 0 -66.153256388330192 -220.20557926170295 0 -220.20557926170295 -683.30697911931929 0 0 0 0 25.055359783647873 -234.18089967447304 0 -234.18089967447304 -730.56885835331195 0 0 0 0 -0.012297201240961897 3.2034548650317873 0 3.2034548650317873 -1.9495630463516136 0 0 0 0 -300.08515066227665 24.264125792898994 0 24.264125792898994 -469.47356038695216 0 0 0 0 -5.4882370465420536 -165.3707422472944 0 -165.3707422472944 -724.79878360123257 0 0 0 0 113.09901510128475 -175.59397143429669 0 -175.59397143429669 -726.74486776667254 0 0 0 0 -322.65866260705934 -308.02895567906671 0 -308.02895567906671 -779.17027556112589 0 0 0 0 99.874663710914319 -152.83540079189333 0 -152.83540079189333 -955.16012069782118 0 0 0 0 112.9925686123679 -12.975742006212386 0 -12.975742006212386 -740.56263040298836 0 0 0 0 -6.4241960801055029 -159.45190471376736 0 -159.45190471376736 -810.31366496656847 0 0 0 0 -10.487662830818557 10.796790976480636 0 10.796790976480636 -8.4063629472844639 0 0 0 0 148.38604864318768 113.91373660825775 0 113.91373660825775 101.94461536021117 0 0 0 0 -33.065869658676093 -11.952772826309229 0 -11.952772826309229 -408.69454989090445 0 0 0 0 -157.86293693136395 174.65166295145536 0 174.65166295145536 -161.59041471993623 0 0 0 0 1.6294618781106598 0.64417962100441173 0 0.64417962100441173 -7.5450380511819901 0 0 0 0 18.542657283879635 126.02716088293528 0 126.02716088293528 -24.553502382914303 0 0 0 0 -15.394039141057711 20.237025257633675 0 20.237025257633675 -13.698781193459808 0 0 0 0 0.33227298621932277 77.764454658950854 0 77.764454658950854 17.871370541732176 0 0 0 0 -14.19133146382228 41.257017881522188 0 41.257017881522188 2.5364473633089801 0 0 0 0 39.631074078612805 40.996245211880961 0 40.996245211880961 -16.158802674766491 0 0 0 0 1.0005562838341575 58.999394616497739 0 58.999394616497739 92.638211570694693 0 0 0 0 19.083785737941071 136.45803489921855 0 136.45803489921855 51.267343924992019 0 0 0 0 456.15265424048994 286.72324462221877 0 286.72324462221877 79.139778032509639 0 0 0 0 128.04884887433218 85.692904151590483 0 85.692904151590483 -26.213501114951214 0 0 0 0 165.67046362815563 -40.629699207827798 0 -40.629699207827798 -210.49246097724244 0 0 0 0 50.300518386904599 -23.070969713008296 0 -23.070969713008296 -147.30179848562554 0 0 0 0 944.78752286736562 369.92419593111299 0 369.92419593111299 281.0458019837024 0 0 0 0 55.323714681264391 184.28967224825465 0 184.28967224825465 269.31581150178681 0 0 0 0 -304.67231325939343 47.000972171226749 0 47.000972171226749 187.12057437784097 0 0 0 0 0.76176967175192378 -0.83985539687446931 0 -0.83985539687446931 1.075251057490533 0 0 0 0 -89.552569315902787 -57.551412002721918 0 -57.551412002721918 127.60194507276174 0 0 0 0 51.298069869301798 -72.283146501533338 0 -72.283146501533338 112.57234590055305 0 0 0 0 -44.840233822017808 -85.399926621903433 0 -85.399926621903433 125.10738729833975 0 0 0 0 10.731646284530598 154.65491212056077 0 154.65491212056077 120.02013924668427 0 0 0 0 3.4459943994888302 -4.4530460465969668 0 -4.4530460465969668 -6.7520048323892183 0 0 0 0 81.402755748539903 303.29391527216649 0 303.29391527216649 175.68980978397303 0 0 0 0 -181.54144127144485 268.98528647825879 0 268.98528647825879 235.1049654991948 0 0 0 0 -94.76989108346595 33.117736459433218 0 33.117736459433218 311.60213060984097 0 0 0 0 6.0075834026155519 6.9690307557300173 0 6.9690307557300173 -4.0621483229004411 0 0 0 0 438.07890228582755 183.91852943621052 0 183.91852943621052 94.178530432662228 0 0 0 0 -1.107177703604258 -228.36108032042466 0 -228.36108032042466 -1259.8113525690424 0 0 0 0 287.12587409730423 -1015.3221240189669 0 -1015.3221240189669 -4483.6503518617101 0 0 0 0 -957.64921603017592 -866.29756856189852 0 -866.29756856189852 86.82437267905334 0 0 0 0 -621.70303283981275 -1565.502871771132 0 -1565.502871771132 -1848.6096254791482 0 0 0 0 233.06622431763867 574.36115340375909 0 574.36115340375909 -851.87123592806165 0 0 0 0 -139.59210870663279 304.44728002784541 0 304.44728002784541 -676.2832942015375 0 0 0 0 5.3232766109618881 -8.1676216855485961 0 -8.1676216855485961 -51.782496545084882 0 0 0 0 34.168168521484361 208.44714310265408 0 208.44714310265408 -1376.9059681736223 0 0 0 0 -407.00681053102142 2173.269161866634 0 2173.269161866634 -4490.3175903850934 0 0 0 0 -3.510675634235862 -5.6215402006323671 0 -5.6215402006323671 -20.266542133807491 0 0 0 0 262.55985609549265 595.62120738575322 0 595.62120738575322 -2636.4191196526808 0 0 0 0 296.83939593925709 349.24355466648558 0 349.24355466648558 -1374.3809474565205 0 0 0 0 -78.295456687540877 92.7464317004451 0 92.7464317004451 -522.43328164701234 0 0 0 0 25.065441960709094 7.1525832349536529 0 7.1525832349536529 -28.31280668449017 0 0 0 0 -68.449132694631771 -25.619087492275867 0 -25.619087492275867 -74.711897054301517 0 0 0 0 451.49573713647146 150.60907696661525 0 150.60907696661525 -36.288195486500626 0 0 0 0 12.167073962721133 46.946195100346813 0 46.946195100346813 -58.181746354508505 0 0 0 0 20.430552198889416 6.9940405829573251 0 6.9940405829573251 -42.793164325962692 0 0 0 0 117.23298502204307 -14.642856277234387 0 -14.642856277234387 -82.360231534665218 0 0 0 0 96.165563904938722 -145.20228210562345 0 -145.20228210562345 80.287499101890717 0 0 0 0 94.513224479389464 60.928486505676119 0 60.928486505676119 -99.382260879428941 0 0 0 0 10.433255153804794 -17.072153648550739 0 -17.072153648550739 -33.48266017329297 0 0 0 0 -0.74189213148579225 -13.840758349547094 0 -13.840758349547094 -44.738293215787735 0 0 0 0 -9.6463060012517872 51.655621022886407 0 51.655621022886407 -42.095085318083875 0 0 0 0 34.201873705770595 -10.596220996259945 0 -10.596220996259945 -84.787380828987807 0 0 0 0 -158.25406942541485 -3.8374103949681739 0 -3.8374103949681739 17.99311310100893 0 0 0 0 1.0993442951128483 -11.634907033123085 0 -11.634907033123085 -37.651788023356858 0 0 0 0 -155.30786974820967 -77.670205318841909 0 -77.670205318841909 -104.95621452014893 0 0 0 0 -210.4911498723377 -84.053077324839251 0 -84.053077324839251 -44.395942159011611 0 0 0 0 -135.15483536150896 -188.82283027363519 0 -188.82283027363519 -191.98061345393944 0 0 0 0 -115.8448507271064 -104.52541058660609 0 -104.52541058660609 -123.43618691638403 0 0 0 0 -74.085969228038152 -180.56910700451408 0 -180.56910700451408 -7.8379755695641506 0 0 0 0 -69.680128452690042 -60.512629118537006 0 -60.512629118537006 -82.191526469243399 0 0 0 0 687.3979339142262 -222.49380014301641 0 -222.49380014301641 -4499.9694438215229 0 0 0 0 -187.20258028661814 -41.098457353622507 0 -41.098457353622507 -2106.7627618867264 0 0 0 0 153.07780456048044 -512.18141933230072 0 -512.18141933230072 -1788.4193322318461 0 0 0 0 12.239100870944574 16.017753813167985 0 16.017753813167985 -19.604493654294316 0 0 0 0 -156.64076632003051 -1229.471624055237 0 -1229.471624055237 -3111.5442610909704 0 0 0 0 -21.304710902940315 -186.87076104043808 0 -186.87076104043808 -142.75003888752144 0 0 0 0 -31.302480638512392 -255.72247819382937 0 -255.72247819382937 -103.30373140331358 0 0 0 0 140.24400710273312 -557.72416653115215 0 -557.72416653115215 -407.97011841091444 0 0 0 0 -58.268632502823266 -302.2136775002582 0 -302.2136775002582 -4.7458460137131624 0 0 0 0 -58.02486518135629 -292.61833458449109 0 -292.61833458449109 40.333112707659893 0 0 0 0 44.513368873945183 -520.43092994493782 0 -520.43092994493782 522.70275448980829 0 0 0 0 183.01564892306362 -836.90135577314777 0 -836.90135577314777 360.48554973580758 0 0 0 0 193.00375651693639 -783.9616887664306 0 -783.9616887664306 114.26295990969629 0 0 0 0 0.25650682942994441 15.320514000257845 0 15.320514000257845 -20.176912906973484 0 0 0 0 -184.80934293086972 -1107.2391380576955 0 -1107.2391380576955 -3456.3790419578727 0 0 0 0 -1315.3139042963357 661.22267365379957 0 661.22267365379957 -1024.5608613619697 0 0 0 0 -675.69203207164821 -1858.0952327783743 0 -1858.0952327783743 -4498.6707195955951 0 0 0 0 -543.61632102912961 803.61454311173748 0 803.61454311173748 -1296.103403476649 0 0 0 0 -3.9772571864672899 5.3200304401787548 0 5.3200304401787548 -11.126370385207792 0 0 0 0 -188.20842443021957 -730.14717598678544 0 -730.14717598678544 1076.5653457878507 0 0 0 0 1893.8157252289102 -576.88959364389302 0 -576.88959364389302 -3698.9155305461027 0 0 0 0 -10.516543799081802 -7.9563062171735623 0 -7.9563062171735623 -5.124396800684508 0 0 0 0 121.00886444436446 -253.6997273181405 0 -253.6997273181405 -67.448900183779188 0 0 0 0 28.806522286106514 -18.655397370512219 0 -18.655397370512219 730.24237173057918 0 0 0 0 9.8598327717077154 -153.1141186468376 0 -153.1141186468376 -87.1705616388208 0 0 0 0 -23.061407137317474 -143.37968370367889 0 -143.37968370367889 219.00493359321263 0 0 0 0 -150.83413678775167 -171.39624058591289 0 -171.39624058591289 -89.124186805443969 0 0 0 0 49.533234726605613 -207.57603109872434 0 -207.57603109872434 -441.27878816390876 0 0 0 0 14.081718504238779 -187.30250800161593 0 -187.30250800161593 -79.817450348373313 0 0 0 0 248.91281466880037 -417.33748926365661 0 -417.33748926365661 -877.25385569093123 0 0 0 0 -79.426471290846621 -433.76729967434949 0 -433.76729967434949 -497.52974227479535 0 0 0 0 225.89485255928503 -508.01883174422255 0 -508.01883174422255 -583.02490586182103 0 0 0 0 -79.169469956879084 -511.73694760279614 0 -511.73694760279614 -568.73649615875183 0 0 0 0 355.25975223475052 -196.40691842939123 0 -196.40691842939123 -418.34021946761641 0 0 0 0 225.10705305619354 -377.09293778535357 0 -377.09293778535357 -635.15953797835391 0 0 0 0 415.95861693494726 -122.34837743061507 0 -122.34837743061507 -683.43676450413477 0 0 0 0 366.78503695290647 -66.024161601875676 0 -66.024161601875676 -747.67780062372913 0 0 0 0 686.67656730777298 34.686465271079214 0 34.686465271079214 -737.4228300822906 0 0 0 0 313.10442043610868 -312.88372520137636 0 -312.88372520137636 -918.85485515311302 0 0 0 0 232.07556769553798 59.03801918226236 0 59.03801918226236 -942.92198414373615 0 0 0 0 64.983520289329746 -119.00393445891677 0 -119.00393445891677 -1064.2102443824933 0 0 0 0 250.16045827968208 -379.03305673316936 0 -379.03305673316936 -793.27048600887065 0 0 0 0 23.576234174524188 -588.46442054954241 0 -588.46442054954241 -986.24491957553255 0 0 0 0 -251.51381098840648 -552.66136828684103 0 -552.66136828684103 -733.51886225843919 0 0 0 0 -115.35620665379042 -328.11539351339889 0 -328.11539351339889 -919.46985395639786 0 0 0 0 -728.01144645104978 -300.43574391714355 0 -300.43574391714355 -1349.6314586243243 0 0 0 0 -181.90439139095997 -51.824906629401085 0 -51.824906629401085 -1754.2964098020748 0 0 0 0 -846.03619812542854 -802.99310760895787 0 -802.99310760895787 -2218.2934953577351 0 0 0 0 -3.8594858625336625 -5.1810330429315457 0 -5.1810330429315457 -5.790624234964298 0 0 0 0 -388.87365787957378 -886.33416514530836 0 -886.33416514530836 -1540.1955815144393 0 0 0 0 -508.6128479125432 -105.61178996954186 0 -105.61178996954186 5.1018381001777016 0 0 0 0 -1487.3644245333999 -609.38707633453669 0 -609.38707633453669 -215.83607306332851 0 0 0 0 -79.253079300421348 -522.45138478157241 0 -522.45138478157241 -735.27152958318766 0 0 0 0 -440.01690479255308 -677.3527348406642 0 -677.3527348406642 -538.55508928882773 0 0 0 0 -736.96187341859013 -422.22129950849194 0 -422.22129950849194 -92.271074822958326 0 0 0 0 -78.93549834078749 -398.67319943467703 0 -398.67319943467703 -327.98805706665735 0 0 0 0 -362.79253584138769 -329.64725551407901 0 -329.64725551407901 -199.30796726311382 0 0 0 0 -158.46445323293938 -51.54866688119364 0 -51.54866688119364 -126.62064085085876 0 0 0 0 -361.79491204615533 -138.21070246573072 0 -138.21070246573072 -54.545324929589697 0 0 0 0 -282.16647339867086 -253.83757416233857 0 -253.83757416233857 -153.13850956276292 0 0 0 0 -6.6204166056637828 -11.757198273336392 0 -11.757198273336392 -19.430281749336871 0 0 0 0 -121.80071640277674 34.326516161774634 0 34.326516161774634 27.725074898917228 0 0 0 0 -110.27759557964418 -121.11352884086227 0 -121.11352884086227 -87.095907361981517 0 0 0 0 112.14435387016806 -22.714723643028265 0 -22.714723643028265 79.185605682316236 0 0 0 0 -3.8483530077989339 -12.46122170462418 0 -12.46122170462418 -37.137709717086864 0 0 0 0 424.83994815101971 -353.49022203201093 0 -353.49022203201093 -155.07508086475718 0 0 0 0 -78.670452149863195 -245.61218983921572 0 -245.61218983921572 205.12801539516659 0 0 0 0 284.76326908828514 25.60431491908821 0 25.60431491908821 -180.01957548197242 0 0 0 0 -3.4422424885385681 655.57493837797665 0 655.57493837797665 -1819.1644842544629 0 0 0 0 -338.95343894564121 116.39150190550572 0 116.39150190550572 106.26349495651084 0 0 0 0 -720.07581678263568 -1245.395136117746 0 -1245.395136117746 -1433.584997333237 0 0 0 0 -1.5052680570093631 -4.672508459466286 0 -4.672508459466286 -16.944791508789024 0 0 0 0 159.50633245764652 -290.15695577755832 0 -290.15695577755832 -3121.1101656344545 0 0 0 0 -870.46475552434731 394.06829449994257 0 394.06829449994257 -2060.9905663380723 0 0 0 0 238.57483879735992 97.630953445623163 0 97.630953445623163 -1882.185376748952 0 0 0 0 351.83877788995983 43.006460880234954 0 43.006460880234954 -2027.7174815689941 0 0 0 0 183.18815886797347 98.123269377727411 0 98.123269377727411 -1865.4385719812853 0 0 0 0 -138.01350899770802 665.48120016304165 0 665.48120016304165 -447.71908827428706 0 0 0 0 -214.78120364237142 157.60625719836389 0 157.60625719836389 -581.68056736353901 0 0 0 0 139.59502698824789 275.77459921864283 0 275.77459921864283 -1194.6556047566992 0 0 0 0 -55.727501918859161 -42.398480209201807 0 -42.398480209201807 -845.12471065095451 0 0 0 0 -200.19344491604696 -300.44086807643907 0 -300.44086807643907 -1818.3584130764357 0 0 0 0 347.03127232882093 -53.45205498332507 0 -53.45205498332507 -2307.4558706903917 0 0 0 0 -382.26498722076957 282.27841748802348 0 282.27841748802348 -1304.1910550870089 0 0 0 0 1.4566096656834593 128.69074543089664 0 128.69074543089664 -2095.6059835160413 0 0 0 0 50.01269205629778 122.8615257384663 0 122.8615257384663 -1281.5987458275195 0 0 0 0 -0.70625212917622737 -68.933803229643672 0 -68.933803229643672 -746.34149947221158 0 0 0 0 -85.806265705277951 -133.85075464024703 0 -133.85075464024703 -357.00375805827207 0 0 0 0 -76.71799412449765 88.308825200641877 0 88.308825200641877 -405.44670835185389 0 0 0 0 -124.51224614295745 -204.6925892045474 0 -204.6925892045474 -13.789299253483478 0 0 0 0 -106.86662675644352 25.981099708617421 0 25.981099708617421 -8.7997686660382897 0 0 0 0 -110.18785264743227 163.22035846030758 0 163.22035846030758 -347.53886739074369 0 0 0 0 -49.73476822256184 -106.16094288474414 0 -106.16094288474414 56.886231237527682 0 0 0 0 21.305097688780506 -161.77799991660868 0 -161.77799991660868 99.677559115880285 0 0 0 0 -120.51971703191285 -24.232838339943555 0 -24.232838339943555 417.40288378065452 0 0 0 0 0.16847519994180318 -139.12759246016643 0 -139.12759246016643 -38.098875799449161 0 0 0 0 -0.043782581706515396 -1.7001578088311362 0 -1.7001578088311362 -19.504214241402224 0 0 0 0 -31.291242919432761 2.7301496375730494 0 2.7301496375730494 11.787622774725605 0 0 0 0 1.5530173760541695 0.83767798144231165 0 0.83767798144231165 -4.6948008320823078 0 0 0 0 25.196197812522708 31.864965165490275 0 31.864965165490275 -20.182977555887192 0 0 0 0 0.54118355754468128 -1.6487003688480533 0 -1.6487003688480533 -19.641001955280899 0 0 0 0 -0.38446530357858943 -1.4261555428820429 0 -1.4261555428820429 -18.484239498735406 0 0 0 0 0.015161765458350813 -2.1030496514213155 0 -2.1030496514213155 -17.683049409046362 0 0 0 0 0.74284063271184719 1.8317111218769924 0 1.8317111218769924 -3.033607956582216 0 0 0 0 0.78993327077715603 0.53073862292071627 0 0.53073862292071627 -10.416352286659844 0 0 0 0 -171.69889707032416 -526.9765972192356 0 -526.9765972192356 -1621.0364603917988 0 0 0 0 169.45312985437573 663.92414562929343 0 663.92414562929343 -882.98283447738504 0 0 0 0 315.55666594607283 255.68579346824117 0 255.68579346824117 -2163.7564081238816 0 0 0 0 97.520327263982153 -544.81406354490173 0 -544.81406354490173 64.558712137335533 0 0 0 0 -336.67745792701635 88.790761096897768 0 88.790761096897768 222.84447592326615 0 0 0 0 56.957476985808398 75.330809358652914 0 75.330809358652914 -200.7378135548679 0 0 0 0 -613.904006055629 42.119608946624794 0 42.119608946624794 -192.1627762462158 0 0 0 0 -4.2621011379260381 7.3539426146235201 0 7.3539426146235201 -820.35816285849432 0 0 0 0 -34.2349103711108 247.68531509234163 0 247.68531509234163 -764.84972486316838 0 0 0 0 -317.923875527603 -354.45251730793825 0 -354.45251730793825 -1812.6981428643339 0 0 0 0 -1620.4153517548514 -638.84970145161788 0 -638.84970145161788 -1409.9689344668732 0 0 0 0 -579.46265142718573 122.71649062136748 0 122.71649062136748 -882.34869845572393 0 0 0 0 -902.05215510123378 25.730903110881627 0 25.730903110881627 -152.57269495696528 0 0 0 0 -513.40374712518133 -93.112933377415175 0 -93.112933377415175 -757.78993903149239 0 0 0 0 -539.68771772868536 115.6957211356239 0 115.6957211356239 -136.27632145941607 0 0 0 0 -579.23438023782228 104.5909647779954 0 104.5909647779954 228.31782599860162 0 0 0 0 -464.32906957405669 -133.34730837088136 0 -133.34730837088136 225.46813661894294 0 0 0 0 -1.4340146230005608 -1.2182436703756423 0 -1.2182436703756423 -0.088024206167574448 0 0 0 0 -25.182256787956931 -14.283440480758145 0 -14.283440480758145 -114.03468074319244 0 0 0 0 -519.97152405219992 21.849735509882521 0 21.849735509882521 30.617770227327128 0 0 0 0 -406.13808663237927 66.064293137729692 0 66.064293137729692 -52.8097935491096 0 0 0 0 -390.83297850725285 149.5440610602891 0 149.5440610602891 3.9758719363017008 0 0 0 0 -308.02195287062773 209.28865165913885 0 209.28865165913885 30.912164919252973 0 0 0 0 -168.49266047462919 282.7893027646569 0 282.7893027646569 -62.133030846953261 0 0 0 0 -524.33850907829435 262.15067204268416 0 262.15067204268416 -12.340742408487131 0 0 0 0 -620.13692968682938 56.651841588318348 0 56.651841588318348 91.429716033831937 0 0 0 0 -410.3517966103081 121.99920265196852 0 121.99920265196852 -242.57480540107645 0 0 0 0 -673.67364552517779 391.46980584692392 0 391.46980584692392 -491.56999955826905 0 0 0 0 -461.63597307016812 -36.592813636329083 0 -36.592813636329083 -814.29291394476604 0 0 0 0 -893.66680688092856 198.50500646556611 0 198.50500646556611 -941.34954064828344 0 0 0 0 -209.97670219262864 246.33286372435396 0 246.33286372435396 -1166.3954646233069 0 0 0 0 -137.06654150390665 28.397107827302534 0 28.397107827302534 -516.91553153775749 0 0 0 0 -420.74150966043521 128.17259467034455 0 128.17259467034455 -21.411901220533764 0 0 0 0 -143.64048896173671 305.16563504337682 0 305.16563504337682 -197.6142615127028 0 0 0 0 114.57645495077145 -103.54696790239541 0 -103.54696790239541 -450.5929737593251 0 0 0 0 334.44202673816244 -154.850199164488 0 -154.850199164488 -582.01242131859181 0 0 0 0 351.23544442309003 104.62421076003011 0 104.62421076003011 -552.81889966063318 0 0 0 0 941.10271024412168 77.082139421676402 0 77.082139421676402 -649.34532560044318 0 0 0 0 998.69643071323753 -274.82297481158457 0 -274.82297481158457 -152.11037862876401 0 0 0 0 515.9295366604365 -144.64649707934586 0 -144.64649707934586 -187.17608912504511 0 0 0 0 227.69737810139964 160.29979716394701 0 160.29979716394701 555.85353642377595 0 0 0 0 1186.3976214070235 355.86082126652764 0 355.86082126652764 -11.710841510590399 0 0 0 0 -165.94114710089644 254.53422683777899 0 254.53422683777899 179.21207206881809 0 0 0 0 224.06506499549243 93.458228752715513 0 93.458228752715513 -108.51001735497266 0 0 0 0 322.53694757310643 307.98158902653086 0 307.98158902653086 -113.57221986365039 0 0 0 0 257.66856638676114 174.91702807480942 0 174.91702807480942 -37.096334631132777 0 0 0 0 137.6519735784492 288.19866675006779 0 288.19866675006779 -230.68518117872009 0 0 0 0 -55.761497774512122 207.3590246791573 0 207.3590246791573 -131.29712231159647 0 0 0 0 49.073328672856519 180.5535211900351 0 180.5535211900351 -360.52202947020123 0 0 0 0 232.78446541544707 50.505647375286571 0 50.505647375286571 -307.03312764353177 0 0 0 0 96.668009297960253 64.562127401670296 0 64.562127401670296 -529.78432891068223 0 0 0 0 32.0221907518644 14.222427934502775 0 14.222427934502775 -669.87533560152951 0 0 0 0 134.58124685816639 167.23098357177605 0 167.23098357177605 -603.80501414852915 0 0 0 0 -55.848809740483489 111.77023901836947 0 111.77023901836947 -378.81308032997185 0 0 0 0 -54.505804147123513 106.65719830691523 0 106.65719830691523 -451.92250198517286 0 0 0 0 49.131793510476655 50.01539956684428 0 50.01539956684428 -763.22017592344491 0 0 0 0 -62.178131647831066 -32.081863027233339 0 -32.081863027233339 -535.16942513416507 0 0 0 0 -62.547447255340728 -37.786396757881448 0 -37.786396757881448 -478.51776354280446 0 0 0 0 -217.97077196137775 42.796119736880428 0 42.796119736880428 -248.62793722956849 0 0 0 0 -212.13325983831024 118.8209027571138 0 118.8209027571138 -212.45822248677359 0 0 0 0 -38.776900334366609 228.89387090479067 0 228.89387090479067 -136.98362493587774 0 0 0 0 -172.01782857698905 175.18572129715903 0 175.18572129715903 -155.8299002025451 0 0 0 0 -294.47943710744869 81.206371332642448 0 81.206371332642448 -51.301693097484531 0 0 0 0 -365.54331482761404 0.71590952174301492 0 0.71590952174301492 -141.401034558221 0 0 0 0 -292.54690565262922 -142.83151842535517 0 -142.83151842535517 -42.01449277572101 0 0 0 0 -222.26061837927023 -148.08552011744177 0 -148.08552011744177 -118.52649383428798 0 0 0 0 -115.05380501481284 -16.205376958321722 0 -16.205376958321722 -109.53029015874745 0 0 0 0 -226.48182513594935 20.967349037495296 0 20.967349037495296 -174.79219052701956 0 0 0 0 -249.50921650447631 -166.18609768195893 0 -166.18609768195893 -335.77316527152288 0 0 0 0 -90.864970360211643 -192.02085982347126 0 -192.02085982347126 -758.06677045111428 0 0 0 0 -80.223425063634011 -439.86413541178626 0 -439.86413541178626 -896.79676412012486 0 0 0 0 -100.24402620963438 -157.9989785659327 0 -157.9989785659327 -623.1691835578531 0 0 0 0 -258.58118094874163 -312.36183329783671 0 -312.36183329783671 -387.94576192085515 0 0 0 0 -216.00965375749834 -104.74120189693713 0 -104.74120189693713 -238.6506715042342 0 0 0 0 -239.53332943838694 -129.73640889027047 0 -129.73640889027047 -114.45677829757915 0 0 0 0 -44.423852417963417 -9.1734315087232972 0 -9.1734315087232972 -153.17464164315243 0 0 0 0 -459.22609892525696 -708.2888255060725 0 -708.2888255060725 -1087.4779268256389 0 0 0 0 -307.61624518276039 -386.2626615714762 0 -386.2626615714762 -408.83808424734161 0 0 0 0 318.38422350052474 92.350627530686324 0 92.350627530686324 -671.87028733509942 0 0 0 0 -0.03410414745970821 -1.4757634928823071 0 -1.4757634928823071 -7.1985456136548009 0 0 0 0 -0.20760043483568688 -96.452116251835832 0 -96.452116251835832 154.59676967606356 0 0 0 0 93.31229803570605 -90.656289948150516 0 -90.656289948150516 66.378567492007278 0 0 0 0 0.22716580154752483 -2.331876024869346 0 -2.331876024869346 -16.257253976264906 0 0 0 0 61.1667478308608 -74.634803127133637 0 -74.634803127133637 -158.92509947673534 0 0 0 0 -112.72533571737296 -40.351726304841577 0 -40.351726304841577 77.485751190979499 0 0 0 0 106.01357780652597 33.851144602682325 0 33.851144602682325 -97.997993741038954 0 0 0 0 0.16447408851667539 -2.4067741289876667 0 -2.4067741289876667 -17.034055370750139 0 0 0 0 0.14571541712528099 -1.8802991823890549 0 -1.8802991823890549 -18.796339483751581 0 0 0 0 0.53828574854059674 -2.7283398868821678 0 -2.7283398868821678 -18.151626158622093 0 0 0 0 -47.290726035962393 -27.875460714352812 0 -27.875460714352812 -58.778795496051316 0 0 0 0 -27.2526998980602 -22.093262061018322 0 -22.093262061018322 -65.562327557767276 0 0 0 0 -29.190342532167506 -25.580107197036341 0 -25.580107197036341 -48.26105118439591 0 0 0 0 -25.565122276881993 -29.764492428941594 0 -29.764492428941594 -72.479514776872747 0 0 0 0 -23.682584207529544 -23.246340445144597 0 -23.246340445144597 -70.351492826506728 0 0 0 0 -29.017967927666177 -29.105794497983879 0 -29.105794497983879 -72.205500836033025 0 0 0 0 -32.079729246025636 -28.93689953439025 0 -28.93689953439025 -65.247096748598324 0 0 0 0 -38.527972443494946 -23.443052856884606 0 -23.443052856884606 -69.925407608403475 0 0 0 0 -60.693307332393104 -25.354475665557402 0 -25.354475665557402 -64.631561337329913 0 0 0 0 1.5999725606296906 -3.2689372927428622 0 -3.2689372927428622 -8.8564865721986763 0 0 0 0 -40.147895043027631 -16.889962045615903 0 -16.889962045615903 -75.223783348832512 0 0 0 0 -75.974673846098398 -1.8841056291474274 0 -1.8841056291474274 -6.6661278185508763 0 0 0 0 -71.477396639325889 -70.626310024767008 0 -70.626310024767008 26.367470290248093 0 0 0 0 -49.682653214724269 -89.793501180227395 0 -89.793501180227395 -112.67928330312134 0 0 0 0 -36.299686363005094 -47.659625824875548 0 -47.659625824875548 -39.233408947991848 0 0 0 0 -7.247620837803173 -27.361229369152621 0 -27.361229369152621 -45.536779635454252 0 0 0 0 -61.694024640437405 -21.513541063319281 0 -21.513541063319281 -58.654002339433646 0 0 0 0 210.21238825862019 -158.40586037872708 0 -158.40586037872708 -667.36532122056815 0 0 0 0 58.17812680270265 -31.717474653567706 0 -31.717474653567706 -482.98309134568262 0 0 0 0 -8.0509443239956884 -11.913360339924058 0 -11.913360339924058 -0.2083579284112318 0 0 0 0 -233.24611963911957 -179.97353399729036 0 -179.97353399729036 -201.00371316992823 0 0 0 0 2.1779149226563277 -4.1384978954274061 0 -4.1384978954274061 -10.345637168265796 0 0 0 0 -27.599641499054997 6.9696574576519197 0 6.9696574576519197 -85.472074918600811 0 0 0 0 -192.26011550844851 -91.126443393353838 0 -91.126443393353838 -519.26792392216885 0 0 0 0 103.11884417064721 -46.166982212525909 0 -46.166982212525909 -514.07149985877186 0 0 0 0 -14.914313377256455 0.96333513215772371 0 0.96333513215772371 -1.6274583465733938 0 0 0 0 72.608135181177204 -103.54302062157512 0 -103.54302062157512 -617.17709134844335 0 0 0 0 0.48438240580568959 3.0818782622746852 0 3.0818782622746852 -2.6134968464558952 0 0 0 0 -125.15019507459874 -0.1071489618771011 0 -0.1071489618771011 -667.20786283283815 0 0 0 0 -28.42506657992061 4.7434880104531914 0 4.7434880104531914 0.96112323966802826 0 0 0 0 141.11178074858617 -237.12239511238295 0 -237.12239511238295 -969.30638439006725 0 0 0 0 -117.63832542087403 -261.58093127565371 0 -261.58093127565371 -656.91021471024214 0 0 0 0 17.235677147891693 -40.58286397255506 0 -40.58286397255506 -429.92058786258713 0 0 0 0 -39.572698887139595 -21.887431110843949 0 -21.887431110843949 1.4726121175220435 0 0 0 0 -137.99120403090092 -34.726942397624953 0 -34.726942397624953 -228.73300985153264 0 0 0 0 -48.920222021773952 -69.625457612943137 0 -69.625457612943137 -272.25785172707401 0 0 0 0 167.99339573286125 -63.816674094901828 0 -63.816674094901828 -902.02619050815701 0 0 0 0 489.48730118015374 -324.28004806224635 0 -324.28004806224635 -1107.9977434202374 0 0 0 0 1.7094050849734117 3.2540481241141919 0 3.2540481241141919 -3.0204868815944508 0 0 0 0 -77.461642818598193 2.2072662110585952 0 2.2072662110585952 -1180.3602235885119 0 0 0 0 -45.440979531517129 -7.4643822272100664 0 -7.4643822272100664 -28.831805893930014 0 0 0 0 -115.6645918192371 -693.08278585360677 0 -693.08278585360677 -104.95197649818147 0 0 0 0 82.932562997477362 -183.36766981816618 0 -183.36766981816618 -1129.6879918146151 0 0 0 0 -21.378341748029925 -87.907768679724541 0 -87.907768679724541 -1200.8964872294309 0 0 0 0 538.11860691542233 18.31302877523467 0 18.31302877523467 -451.79886631850968 0 0 0 0 -212.27349710505405 561.38725916654221 0 561.38725916654221 -1754.0578861606191 0 0 0 0 70.3508089463473 -16.302659408039744 0 -16.302659408039744 -148.39920830713089 0 0 0 0 -157.60108178576775 642.69223309993686 0 642.69223309993686 -2706.9600336976873 0 0 0 0 74.605602561266267 22.121961740049144 0 22.121961740049144 -70.474095794087901 0 0 0 0 37.425037225691469 10.01740248155437 0 10.01740248155437 -60.474198723995457 0 0 0 0 -160.63173138804268 234.42737979842059 0 234.42737979842059 -703.22410532635331 0 0 0 0 41.651769363394124 236.05092491713003 0 236.05092491713003 -1070.1717731259414 0 0 0 0 -19.62058031541892 198.80600160181348 0 198.80600160181348 -761.03808368969476 0 0 0 0 23.047725178612382 245.79574635718018 0 245.79574635718018 -1057.6506671206444 0 0 0 0 8.1526658245538783 -39.816959280200535 0 -39.816959280200535 -104.82137978168021 0 0 0 0 17.439395883290899 -24.021358476122259 0 -24.021358476122259 -78.17528557573678 0 0 0 0 14.496491298030559 -7.2244334140081179 0 -7.2244334140081179 -112.34559051995421 0 0 0 0 -15.119018352587062 35.605042874414664 0 35.605042874414664 -294.18868508606101 0 0 0 0 -16.359761523053805 -103.48213922835669 0 -103.48213922835669 -288.19453811895801 0 0 0 0 -149.1728953617021 -132.98586941199028 0 -132.98586941199028 24.482639517664211 0 0 0 0 -22.082527261743476 -23.395447449523719 0 -23.395447449523719 23.055660881696014 0 0 0 0 -17.353558523522224 -47.602704960430856 0 -47.602704960430856 -308.80217653868021 0 0 0 0 -22.149514219767298 -18.117306064406876 0 -18.117306064406876 -489.93390199608984 0 0 0 0 -32.446303399405224 -57.056248257969855 0 -57.056248257969855 -263.63268865636928 0 0 0 0 -31.618205782222503 -85.144671635061968 0 -85.144671635061968 -260.05992181255533 0 0 0 0 -28.013671211330802 -114.04033612945932 0 -114.04033612945932 -290.0638573498145 0 0 0 0 756.47106928065477 -39.237419934375794 0 -39.237419934375794 -659.12896233881474 0 0 0 0 735.40558337425432 258.71804453652385 0 258.71804453652385 -754.10150067112409 0 0 0 0 817.20628174024114 55.542098814781639 0 55.542098814781639 -250.96278438839363 0 0 0 0 755.3033083663413 227.73844191656099 0 227.73844191656099 -715.71479556991835 0 0 0 0 1221.7624747854807 18.392074293340556 0 18.392074293340556 -777.15707002920681 0 0 0 0 466.32964462015298 383.81928334149416 0 383.81928334149416 -192.762711927091 0 0 0 0 72.938446986281633 -264.84309710055823 0 -264.84309710055823 -855.49189751543963 0 0 0 0 214.89346832798947 640.52710921873222 0 640.52710921873222 -737.46828453725902 0 0 0 0 305.55369769936806 396.52514105779119 0 396.52514105779119 -692.39140752601088 0 0 0 0 851.35939432471969 300.33744656156341 0 300.33744656156341 -818.01448868156876 0 0 0 0 76.144973727445176 106.91641149966745 0 106.91641149966745 -726.14480909923441 0 0 0 0 287.29660149841402 421.41563285388111 0 421.41563285388111 -710.77152482006932 0 0 0 0 -264.94708705681842 209.29699875268852 0 209.29699875268852 -703.70083117717149 0 0 0 0 29.218391791162503 54.03535086044576 0 54.03535086044576 -1165.7950606343511 0 0 0 0 3.1450891823544058 7.5381577087619576 0 7.5381577087619576 -6.8315925201546293 0 0 0 0 -83.349028720735078 377.73748921600054 0 377.73748921600054 -1230.4180644234293 0 0 0 0 406.34012117961174 275.68056760808395 0 275.68056760808395 140.81185330997687 0 0 0 0 -181.24625340046259 90.614288629352814 0 90.614288629352814 142.01498189750419 0 0 0 0 6.482559484353871 -21.824330127195381 0 -21.824330127195381 -73.574408714003653 0 0 0 0 2.9617133912762377 3.4542154096205593 0 3.4542154096205593 -11.942551610413 0 0 0 0 508.77617232894772 -134.51905342830287 0 -134.51905342830287 -329.73831555232755 0 0 0 0 1019.8338977034905 330.16941323524588 0 330.16941323524588 -165.56771228699654 0 0 0 0 1244.9125025295857 168.71590088214725 0 168.71590088214725 -336.81428373906965 0 0 0 0 902.51430882611976 -453.79565437957353 0 -453.79565437957353 90.628705627517775 0 0 0 0 247.85262481913958 -313.48892719422292 0 -313.48892719422292 372.19302905756922 0 0 0 0 13.434825876416843 -4.0985047913982839 0 -4.0985047913982839 -21.880999241347023 0 0 0 0 334.4206517024445 -388.96025639728759 0 -388.96025639728759 152.1516554379923 0 0 0 0 -13.227061562728295 -64.470455410308205 0 -64.470455410308205 156.43618433576194 0 0 0 0 103.18755877501962 -313.55139447064721 0 -313.55139447064721 264.41409127991938 0 0 0 0 5.1366406868246486 -203.1772798326565 0 -203.1772798326565 177.37021019344684 0 0 0 0 86.498670150243015 -286.8446216993907 0 -286.8446216993907 213.8743664335052 0 0 0 0 161.60992526659686 -245.70421230341708 0 -245.70421230341708 74.892584569344763 0 0 0 0 199.03910333829026 -275.68689535916201 0 -275.68689535916201 88.753600079100579 0 0 0 0 165.85196912718095 -226.60652321675298 0 -226.60652321675298 91.513698057737201 0 0 0 0 252.15330887880464 -257.68417649297044 0 -257.68417649297044 51.779651591030415 0 0 0 0 185.03748371783524 -199.55553279844753 0 -199.55553279844753 4.5597432219074108 0 0 0 0 321.40995277126672 -192.00460706171725 0 -192.00460706171725 -43.061639695399208 0 0 0 0 409.96191465079903 -228.03473127554025 0 -228.03473127554025 -3.6421784023696091 0 0 0 0 708.1394060502605 -11.530873958094162 0 -11.530873958094162 -198.79860358731094 0 0 0 0 351.91804487191393 -227.80603460913699 0 -227.80603460913699 -3.223147150099976 0 0 0 0 -25.367518258619381 -22.330331025072269 0 -22.330331025072269 -8.8378447111675342 0 0 0 0 -17.209476649812132 -32.835499710316071 0 -32.835499710316071 -60.18315738804813 0 0 0 0 39.072570376525391 -173.75631782584787 0 -173.75631782584787 -7.0176585698791314 0 0 0 0 -13.313017946592927 -32.97481116401336 0 -32.97481116401336 -64.945895933796123 0 0 0 0 -22.070172657673538 -64.256090617884183 0 -64.256090617884183 -28.528785899412469 0 0 0 0 -30.694237406520791 -66.713184480259642 0 -66.713184480259642 -37.043771776590013 0 0 0 0 17.703695572140532 -49.026058842464408 0 -49.026058842464408 -75.393928278412204 0 0 0 0 -8.3378482358057227 -41.023526767385192 0 -41.023526767385192 -55.159155586006818 0 0 0 0 20.66734413247832 -40.08786762348609 0 -40.08786762348609 -53.172704979187984 0 0 0 0 15.768113120497919 -38.022095800818875 0 -38.022095800818875 -129.66219327718946 0 0 0 0 14.75699352231095 -64.106246656403528 0 -64.106246656403528 -107.51771809341153 0 0 0 0 -12.242738411536841 -51.411751268412971 0 -51.411751268412971 -37.53131028794769 0 0 0 0 -15.229579403647222 -10.704864692874253 0 -10.704864692874253 -136.15258978016209 0 0 0 0 -226.23689404846073 238.38636514390237 0 238.38636514390237 -242.58409432513872 0 0 0 0 18.210448836454354 -30.080502557509448 0 -30.080502557509448 -66.346617801093885 0 0 0 0 64.376383732435215 -205.47439217165811 0 -205.47439217165811 115.22946468932787 0 0 0 0 -52.143026888370514 15.382819121674402 0 15.382819121674402 -103.41448409407167 0 0 0 0 58.222171236149165 -164.64281191102054 0 -164.64281191102054 2.1468592581222765 0 0 0 0 -36.212355295935595 -89.1328489523803 0 -89.1328489523803 -3.2509932066313922 0 0 0 0 -63.575313301742426 -4.9653098221460823 0 -4.9653098221460823 -85.55118976070662 0 0 0 0 -10.366122904762506 -48.965883678709361 0 -48.965883678709361 -71.442018698202446 0 0 0 0 98.156467636291566 -144.9186061323494 0 -144.9186061323494 81.572162318276241 0 0 0 0 -184.87941623555798 -71.026266278167896 0 -71.026266278167896 45.232863794073637 0 0 0 0 -169.26010261357806 -18.69319904238364 0 -18.69319904238364 20.778065426187823 0 0 0 0 67.614527160183542 -170.62361295791561 0 -170.62361295791561 111.41738911648281 0 0 0 0 -157.75352947321198 -145.61219740226807 0 -145.61219740226807 -18.255041644966695 0 0 0 0 -9.6085702769392327 -26.038330617303799 0 -26.038330617303799 -49.278176679760804 0 0 0 0 94.68272967084647 -207.59391819480516 0 -207.59391819480516 115.35104610200506 0 0 0 0 55.580163805077461 -204.19798167071713 0 -204.19798167071713 122.69799047725974 0 0 0 0 113.41502599103296 -230.19939563237131 0 -230.19939563237131 133.69257820892381 0 0 0 0 131.91721671714686 -192.95954369858373 0 -192.95954369858373 62.690273729444016 0 0 0 0 154.35091740513803 -133.67309374726756 0 -133.67309374726756 38.28369629374356 0 0 0 0 179.29537146117059 -192.58982942736475 0 -192.58982942736475 59.0136121083342 0 0 0 0 -157.62486534509048 -134.25520839381716 0 -134.25520839381716 82.368148407258559 0 0 0 0 156.9403196044027 30.34346391721192 0 30.34346391721192 -308.95346311663889 0 0 0 0 214.09510827419194 -296.0205364732501 0 -296.0205364732501 -100.42117887687346 0 0 0 0 -388.19952475970433 -66.286251047687983 0 -66.286251047687983 248.62012879971007 0 0 0 0 -8.1784171736147471 -29.060468267361209 0 -29.060468267361209 -74.335338471182467 0 0 0 0 2.1068712944120698 3.3410921894827084 0 3.3410921894827084 -10.810255714149207 0 0 0 0 212.2921135278624 -166.3197188376289 0 -166.3197188376289 -29.876900812116219 0 0 0 0 235.12673391707619 -105.80041307787178 0 -105.80041307787178 47.789799548045266 0 0 0 0 308.71364679596172 -68.806746541493339 0 -68.806746541493339 -20.224218300514622 0 0 0 0 286.16433155921072 -111.31329649248801 0 -111.31329649248801 -53.276083983975695 0 0 0 0 424.52724786354463 -238.42168212815159 0 -238.42168212815159 -92.78666225435154 0 0 0 0 157.15471178457184 29.883574903491535 0 29.883574903491535 -239.83807252552651 0 0 0 0 173.39135674047037 -231.13189930848603 0 -231.13189930848603 130.23809221200645 0 0 0 0 -5.595835145413651 -13.171010148784518 0 -13.171010148784518 -29.870665568744698 0 0 0 0 254.97756741921808 111.11917855005595 0 111.11917855005595 -228.98021786532263 0 0 0 0 388.75663225134417 -138.03408086317359 0 -138.03408086317359 -136.98144310266071 0 0 0 0 234.55677226063381 -140.08582194964401 0 -140.08582194964401 -58.122832936314808 0 0 0 0 223.96243374862297 -188.77439401281299 0 -188.77439401281299 7.3489504829631187 0 0 0 0 206.42470417673445 34.294354067656514 0 34.294354067656514 -258.19142175449815 0 0 0 0 223.03322669078193 -142.79528305048007 0 -142.79528305048007 -66.665418486780254 0 0 0 0 180.67773214993451 -2.3778785686881747 0 -2.3778785686881747 -286.91035212759016 0 0 0 0 193.06133786238286 196.22564714535838 0 196.22564714535838 -439.3143962818358 0 0 0 0 135.78755164019026 39.476327020056488 0 39.476327020056488 -656.07579001989507 0 0 0 0 175.68788999664352 181.75389792631177 0 181.75389792631177 -561.60720093968848 0 0 0 0 120.64172523896866 51.758334013338754 0 51.758334013338754 -199.66129739378812 0 0 0 0 238.86082931754942 185.08527215640788 0 185.08527215640788 -1029.4373650252528 0 0 0 0 204.13094653412355 170.90603445282613 0 170.90603445282613 -764.28154769324465 0 0 0 0 83.246822929680775 -28.167832338127482 0 -28.167832338127482 -856.3533954293016 0 0 0 0 -2.2355289912770786 -3.9354153056287942 0 -3.9354153056287942 -9.9962613100291264 0 0 0 0 -974.6039506832393 -58.766918563094805 0 -58.766918563094805 178.85789195360849 0 0 0 0 89.094833525611193 329.38783987369243 0 329.38783987369243 -921.12830794148613 0 0 0 0 205.14315383058519 249.3362816102599 0 249.3362816102599 -778.73166833011055 0 0 0 0 16.411001766396186 260.83487405018241 0 260.83487405018241 -52.153669466817519 0 0 0 0 80.859342944908491 61.965854849513562 0 61.965854849513562 -847.47135389635878 0 0 0 0 284.57487488362426 12.536058038036572 0 12.536058038036572 -1427.8340130293363 0 0 0 0 65.547567428490993 150.88444628666184 0 150.88444628666184 193.74390003291046 0 0 0 0 140.2783339122866 359.78556368539284 0 359.78556368539284 -2133.3441473595449 0 0 0 0 -614.26045904340742 77.585423111821001 0 77.585423111821001 292.23729199601803 0 0 0 0 811.13978694743992 -309.1061010263802 0 -309.1061010263802 -1036.1407327867491 0 0 0 0 -1.1045567975379806 -4.0882698868602461 0 -4.0882698868602461 -12.434664062960167 0 0 0 0 -3.6487164973568866 -18.602386187734737 0 -18.602386187734737 306.46959765780775 0 0 0 0 3.4180172879493966 -16.002393497103185 0 -16.002393497103185 -18.424413628818002 0 0 0 0 732.02756225993653 -700.82785713854537 0 -700.82785713854537 -907.7462055881042 0 0 0 0 -2.7302092001256106 -10.075730489281298 0 -10.075730489281298 -27.848543222556543 0 0 0 0 13.738700815236825 382.68879668157024 0 382.68879668157024 149.67902744693856 0 0 0 0 -8.0323917432593621 -17.857011307961528 0 -17.857011307961528 -23.643019348360781 0 0 0 0 -3.8346788613481877 -19.858235100177225 0 -19.858235100177225 -42.731481770155 0 0 0 0 11.884209328663928 -28.687133696374076 0 -28.687133696374076 -15.532022101269831 0 0 0 0 380.69040643639028 -395.30060083966237 0 -395.30060083966237 -96.478366309378544 0 0 0 0 -20.207833910053751 -13.758738253374759 0 -13.758738253374759 -84.652870890800841 0 0 0 0 -26.504169799454758 -26.261123436415801 0 -26.261123436415801 -80.752306772257725 0 0 0 0 -34.057539007105788 -24.125898092435818 0 -24.125898092435818 -76.789798372541554 0 0 0 0 -25.645790463112917 -27.468756857761036 0 -27.468756857761036 -79.599109852511901 0 0 0 0 -81.079152864145726 61.157246095062874 0 61.157246095062874 51.206300128336807 0 0 0 0 44.141156353886799 144.60392256663908 0 144.60392256663908 47.10085510724457 0 0 0 0 -8.5880212854977422 10.053900161006696 0 10.053900161006696 -53.808767266437656 0 0 0 0 -44.975770169993694 -13.901252091120114 0 -13.901252091120114 -66.468015605190885 0 0 0 0 -32.736311379140261 -20.631929073366337 0 -20.631929073366337 -74.763538811916078 0 0 0 0 -71.91197974791794 -10.299490194040118 0 -10.299490194040118 -54.332222732402442 0 0 0 0 -30.802249756934401 -0.10725145539254299 0 -0.10725145539254299 -53.059633532015141 0 0 0 0 -201.26955514628571 28.941937233015778 0 28.941937233015778 82.686915477555885 0 0 0 0 -203.36710032547126 178.32181062256132 0 178.32181062256132 84.799186798562005 0 0 0 0 -524.3042413476378 852.28039498057478 0 852.28039498057478 617.96852763764036 0 0 0 0 829.80676147341319 382.0921061556146 0 382.0921061556146 -84.776717860673671 0 0 0 0 -616.61314636719726 -361.60303508798825 0 -361.60303508798825 -174.17511592341907 0 0 0 0 1.510845393394612 4.3086068830480029 0 4.3086068830480029 -53.240750867745476 0 0 0 0 -20.341155057478034 0.10187479414889822 0 0.10187479414889822 -54.823256443465652 0 0 0 0 -6.578564779631499 -14.890867022337716 0 -14.890867022337716 -43.767060486501123 0 0 0 0 -487.39190904693714 -111.50511148251826 0 -111.50511148251826 -121.86037410010613 0 0 0 0 11.331274486274104 13.021923018244436 0 13.021923018244436 -20.358507400952988 0 0 0 0 -1198.3837826796098 -143.2604566284208 0 -143.2604566284208 617.94351613317849 0 0 0 0 6030.3159142117074 3821.8167200070748 0 3821.8167200070748 2793.9661021748325 0 0 0 0 -1552.4704891425536 -83.393719173764111 0 -83.393719173764111 903.63784519100591 0 0 0 0 -4844.4888358984099 -2302.4474062695226 0 -2302.4474062695226 2568.6046794859776 0 0 0 0 -235.309602494719 -319.7478771576134 0 -319.7478771576134 -7411.3285340323564 0 0 0 0 -4991.6819244878807 -4777.7448094321144 0 -4777.7448094321144 -2712.5482975461928 0 0 0 0 -17.439211999475816 -3471.1767627785557 0 -3471.1767627785557 -594.53984752269753 0 0 0 0 -1327.0162122054189 1909.8591668129593 0 1909.8591668129593 -3302.8988057690149 0 0 0 0 -3.6357634622130846 -13.255321101025288 0 -13.255321101025288 -35.993139016847977 0 0 0 0 -1395.6365572336726 1250.3769676866323 0 1250.3769676866323 -538.61380459823704 0 0 0 0 2.2517697071485538 -8.6800788425585669 0 -8.6800788425585669 -60.267881123562006 0 0 0 0 227.790239812241 1066.6950184481539 0 1066.6950184481539 -4229.8830070303811 0 0 0 0 708.26649076322519 -2797.4976913976207 0 -2797.4976913976207 -5191.1379684902931 0 0 0 0 -826.15032741064567 852.52646026347793 0 852.52646026347793 -1304.8582558195631 0 0 0 0 1497.8433421076593 1529.1243488364416 0 1529.1243488364416 -4088.9993230797991 0 0 0 0 -4021.2827905676113 624.70174236902676 0 624.70174236902676 1259.0878829993453 0 0 0 0 1.6882589073028385 24.07220080056868 0 24.07220080056868 -957.12259612922207 0 0 0 0 14.012343796793367 7.4032828900273273 0 7.4032828900273273 -22.864116930010624 0 0 0 0 3697.4342747944083 -12.21855294033594 0 -12.21855294033594 -2761.9298269977662 0 0 0 0 -86.702902841097966 18.196320602708511 0 18.196320602708511 -505.79731800321315 0 0 0 0 5.0181661851139179 -20.657857474040149 0 -20.657857474040149 -95.993462573806198 0 0 0 0 -115.29508116221245 -13.610789020545781 0 -13.610789020545781 -904.90775054710684 0 0 0 0 12.458309500334604 8.6494933378567254 0 8.6494933378567254 -109.24968608539069 0 0 0 0 -89.964359913600219 -58.243465576189919 0 -58.243465576189919 -854.81820394059469 0 0 0 0 -48.611763537281149 -61.569269644242013 0 -61.569269644242013 -889.24110984762956 0 0 0 0 -29.839048536143309 -49.461588485806715 0 -49.461588485806715 -710.91646453482099 0 0 0 0 -11.518087903533115 -37.256829814185039 0 -37.256829814185039 -873.78047044771665 0 0 0 0 -53.970421657951533 -17.993597790133208 0 -17.993597790133208 -813.77719322824851 0 0 0 0 -60.477554240789686 -158.11201471141248 0 -158.11201471141248 -782.6638564750574 0 0 0 0 -63.065315559838723 -140.97420206815514 0 -140.97420206815514 -896.1144236533728 0 0 0 0 -221.88277506671488 -200.10891325177363 0 -200.10891325177363 -711.13480677676853 0 0 0 0 87.321454216819888 -103.3995835357855 0 -103.3995835357855 -682.87533822033947 0 0 0 0 13.252060707491626 -87.860860428888827 0 -87.860860428888827 -602.17973000279744 0 0 0 0 15.233833547986194 -73.577933167573065 0 -73.577933167573065 -764.99956346263934 0 0 0 0 -11.560374158031664 20.140846135182073 0 20.140846135182073 -833.49004064622568 0 0 0 0 13.073761756879435 -35.890905001695501 0 -35.890905001695501 -726.31604720657924 0 0 0 0 20.916682316683307 -19.076433783950051 0 -19.076433783950051 -710.99278817027516 0 0 0 0 -10.156950132105814 -5.0882502369898077 0 -5.0882502369898077 1.130638861751379 0 0 0 0 55.40573330636451 -5.9193964013720688 0 -5.9193964013720688 -772.86122079039342 0 0 0 0 519.57372314596932 -1227.7526303428531 0 -1227.7526303428531 -1022.2510328900426 0 0 0 0 188.80421743640795 904.09855749684357 0 904.09855749684357 -2211.1454135663953 0 0 0 0 373.87406588636532 253.72629721715202 0 253.72629721715202 -2631.1315604650445 0 0 0 0 361.11318232839301 73.738509887949476 0 73.738509887949476 -1657.3897069415689 0 0 0 0 -124.98689517997309 -160.89225102223281 0 -160.89225102223281 -1324.0287179579391 0 0 0 0 -469.58640583853526 311.59697018824227 0 311.59697018824227 -1724.7425718144077 0 0 0 0 86.450985786339402 -323.10556268057553 0 -323.10556268057553 -1593.7699169686312 0 0 0 0 87.068843418107079 -183.55720168849439 0 -183.55720168849439 -1795.7834114542638 0 0 0 0 17.779625066098461 -131.25090764839842 0 -131.25090764839842 -438.73131198829651 0 0 0 0 -3.5390734390589516 -2.4919302363555289 0 -2.4919302363555289 -2.6144588354556006 0 0 0 0 249.3202734257689 7.9523091598202882 0 7.9523091598202882 -1124.9297473912156 0 0 0 0 12.66555356769852 -46.521845109135029 0 -46.521845109135029 -1134.0668106579105 0 0 0 0 176.31569768670403 -93.146753226232249 0 -93.146753226232249 -1150.0127265325755 0 0 0 0 212.8121342485008 -63.142477245128248 0 -63.142477245128248 -1304.9636949095293 0 0 0 0 18.924610860136795 -418.16065646559582 0 -418.16065646559582 -1008.1293333744325 0 0 0 0 226.08452881278825 -122.80309204195055 0 -122.80309204195055 -1110.0619286729634 0 0 0 0 1.6859971249729546 0.18161809675947893 0 0.18161809675947893 -1.7927348242295409 0 0 0 0 113.64994586009556 -241.9396575024075 0 -241.9396575024075 -1228.5415004395472 0 0 0 0 136.04310327304347 -59.179959525525192 0 -59.179959525525192 -788.84650276286993 0 0 0 0 29.084051083198403 -42.658614198604482 0 -42.658614198604482 -732.97883720906248 0 0 0 0 140.8782955988988 -203.51752257157932 0 -203.51752257157932 -823.6777407512127 0 0 0 0 183.63327384817944 -138.59599981303472 0 -138.59599981303472 -765.01111930093612 0 0 0 0 82.930471729908206 -130.84290566713912 0 -130.84290566713912 -644.18882872100221 0 0 0 0 52.72010771991927 -59.337311320850858 0 -59.337311320850858 -688.92059995763702 0 0 0 0 31.939789986302117 -50.868862478499068 0 -50.868862478499068 -692.32669411005918 0 0 0 0 82.796230884648949 -122.21396860209609 0 -122.21396860209609 -755.86056362400996 0 0 0 0 60.878787912394444 -37.007931822867249 0 -37.007931822867249 -761.30678382900078 0 0 0 0 24.776267316023961 -25.292699139579781 0 -25.292699139579781 -759.0254153113201 0 0 0 0 104.75645339881984 -91.337351493755705 0 -91.337351493755705 -659.3754800928582 0 0 0 0 2.4479084025016498 -3.3374172724179516 0 -3.3374172724179516 -657.37034168939863 0 0 0 0 -7.8080378682768981 -251.87820780156471 0 -251.87820780156471 -651.93808970661485 0 0 0 0 59.082636716675836 -112.10238652220869 0 -112.10238652220869 -637.46805602811401 0 0 0 0 21.180875676061703 -210.20704305404797 0 -210.20704305404797 -695.69242621801095 0 0 0 0 80.542143269730815 -148.84471797216247 0 -148.84471797216247 -613.9523003258364 0 0 0 0 93.971314002492988 -107.0372036460758 0 -107.0372036460758 -611.33182538935216 0 0 0 0 123.87126758998667 -134.50576401084982 0 -134.50576401084982 -650.58483754711051 0 0 0 0 125.8562015921508 -77.491256181383505 0 -77.491256181383505 -651.15012443672458 0 0 0 0 66.525244303644001 -100.65883291867794 0 -100.65883291867794 -604.37135984084307 0 0 0 0 139.62031570773564 -188.06132177233303 0 -188.06132177233303 -504.25447122365586 0 0 0 0 193.290042741234 -74.553566539969324 0 -74.553566539969324 -601.26574405789142 0 0 0 0 17.459052664280307 -121.77421314294043 0 -121.77421314294043 -383.2975212707388 0 0 0 0 62.537969175062017 16.469773923912726 0 16.469773923912726 -712.06984778810875 0 0 0 0 1.6787364194693912 -0.16743946149267686 0 -0.16743946149267686 -0.97233284090338401 0 0 0 0 -4.1426285973368522 30.089525612813304 0 30.089525612813304 -536.12761935986055 0 0 0 0 67.278039579857477 -20.238413727638545 0 -20.238413727638545 -676.65354714811838 0 0 0 0 112.03440567382633 -116.54876785382476 0 -116.54876785382476 -497.88725452126528 0 0 0 0 13.450904820407061 7.0511417771631386 0 7.0511417771631386 -721.89951272539474 0 0 0 0 -72.919141751688471 128.43020043639262 0 128.43020043639262 -895.33491304275231 0 0 0 0 5.3809388879020705 -0.62925534084203605 0 -0.62925534084203605 -1.687316269766125 0 0 0 0 35.764130725441476 6.5092135719532962 0 6.5092135719532962 -725.80121509374294 0 0 0 0 9.6077691040499076 33.328720256686211 0 33.328720256686211 -660.41197847609146 0 0 0 0 7.5321950871286845 31.550248097191798 0 31.550248097191798 -579.78864856661312 0 0 0 0 28.29603424625634 -66.605142512795283 0 -66.605142512795283 -508.56123538251268 0 0 0 0 16.891372455947248 3.895356305554742 0 3.895356305554742 -505.51278721867584 0 0 0 0 36.273492067480788 -72.247196166666981 0 -72.247196166666981 -590.29740400263108 0 0 0 0 -13.361267658668567 88.75952012417838 0 88.75952012417838 -671.34609435392485 0 0 0 0 -38.781353585419765 82.58958216803876 0 82.58958216803876 -462.43505762692075 0 0 0 0 7.9635378879011114 -8.6784008507529506 0 -8.6784008507529506 -714.3035807942797 0 0 0 0 -53.301733259321963 28.943631010653917 0 28.943631010653917 -322.020474919962 0 0 0 0 13.638749127780557 9.29921365834889 0 9.29921365834889 -980.8257908836531 0 0 0 0 -0.64484036633085129 1.3764782912330702 0 1.3764782912330702 -1.3297378363925034 0 0 0 0 -5.2509383772583078 -8.5939076090871822 0 -8.5939076090871822 -489.03986253112453 0 0 0 0 -24.134978586886859 27.442340565517952 0 27.442340565517952 -474.72038004756905 0 0 0 0 -24.332984920785975 3.0982720827087178 0 3.0982720827087178 -496.05541288461245 0 0 0 0 48.681888422112479 115.16465886111837 0 115.16465886111837 -533.66078504575125 0 0 0 0 -17.772258400640947 3.0618471978638127 0 3.0618471978638127 -0.82750050005660825 0 0 0 0 74.167703637470368 60.50786252625403 0 60.50786252625403 -464.84219657705262 0 0 0 0 75.198870654272469 -12.407315022566763 0 -12.407315022566763 -711.74129216061556 0 0 0 0 20.069508362642722 -43.902669842602336 0 -43.902669842602336 -535.76174758551497 0 0 0 0 -4.6853046174196606 20.298823581935721 0 20.298823581935721 -533.80821044474942 0 0 0 0 24.123093076446366 -21.353376872630179 0 -21.353376872630179 -475.75730584727717 0 0 0 0 -12.331303666911229 2.521162992878061 0 2.521162992878061 -0.52525066311406121 0 0 0 0 -99.528572438071933 15.894865713751642 0 15.894865713751642 -308.33455599710578 0 0 0 0 50.378592562750327 102.76371926879801 0 102.76371926879801 -448.39048612353508 0 0 0 0 41.79087135748432 74.216911230345431 0 74.216911230345431 -450.05056881521887 0 0 0 0 -161.3037989715167 110.01361451249977 0 110.01361451249977 -175.6863345862339 0 0 0 0 -26.992471706136257 -61.609034446708392 0 -61.609034446708392 -211.05793769793354 0 0 0 0 -4.4377630542351572 2.1321937350714393 0 2.1321937350714393 -0.83626446404114851 0 0 0 0 7.9871090034919803 -80.360038796206936 0 -80.360038796206936 -390.42156291684478 0 0 0 0 19.770207140056456 -64.74586429143892 0 -64.74586429143892 -406.7989631943492 0 0 0 0 5.9592825801171259 0.4825295072398319 0 0.4825295072398319 2.4411830085365018 0 0 0 0 21.009860357727348 58.222688795671274 0 58.222688795671274 -177.14910216423687 0 0 0 0 -52.111207236686369 53.06492942442128 0 53.06492942442128 -119.80186071449134 0 0 0 0 -3.3190580308421431 -46.189546438603429 0 -46.189546438603429 -291.31404087843839 0 0 0 0 -58.112965491079535 -74.68150256244553 0 -74.68150256244553 -197.92223022139706 0 0 0 0 -31.153268960568084 -115.08617523551948 0 -115.08617523551948 -492.90314128620957 0 0 0 0 -110.62164569953757 -152.06820025054913 0 -152.06820025054913 -309.06698007026534 0 0 0 0 -39.315001813127537 -116.46313674365956 0 -116.46313674365956 -456.82025952544063 0 0 0 0 -204.73734189125025 -167.68751408615208 0 -167.68751408615208 -445.22541453296435 0 0 0 0 -69.40184441496271 -110.42143407255071 0 -110.42143407255071 -658.88224262467702 0 0 0 0 -31.790858415940733 -156.20416514621502 0 -156.20416514621502 -600.31927319482202 0 0 0 0 -27.448257157444573 -106.54796562906995 0 -106.54796562906995 -715.16972305737727 0 0 0 0 -72.730012616183345 -187.32592449956928 0 -187.32592449956928 -571.36065952756326 0 0 0 0 -6.6687600590268943 -105.62148258952948 0 -105.62148258952948 -551.06717926901183 0 0 0 0 41.610188115639545 -136.69539479641389 0 -136.69539479641389 -602.01222512562083 0 0 0 0 42.435784979143364 -119.86813560788141 0 -119.86813560788141 -489.77774389425758 0 0 0 0 -32.780240033420846 -183.73220135248226 0 -183.73220135248226 -462.43178640892438 0 0 0 0 -8.7473238842072885 37.843745528618456 0 37.843745528618456 -1120.7299140436662 0 0 0 0 0.022014954612399364 21.020518950703263 0 21.020518950703263 -1099.1044304549068 0 0 0 0 -17.561684702379679 54.505676349355781 0 54.505676349355781 -1079.8575409248915 0 0 0 0 -27.388090645751095 9.9550922635826282 0 9.9550922635826282 -1060.2524854192161 0 0 0 0 -17.669670540810614 25.58163875133323 0 25.58163875133323 -1037.8923679525906 0 0 0 0 -2.2966335366514876 -66.694775379201019 0 -66.694775379201019 -1038.024582463564 0 0 0 0 -24.3861981956763 7.2024035025624471 0 7.2024035025624471 -1106.9203676059842 0 0 0 0 -0.13181243901372586 9.518588069920952 0 9.518588069920952 -1110.9331155654436 0 0 0 0 5.4890232267669852 -55.276080401541549 0 -55.276080401541549 -1224.9674691302644 0 0 0 0 -492.47825586681313 -285.00800585628895 0 -285.00800585628895 -988.71517656202195 0 0 0 0 -0.84835384763370669 0.0040577705983935175 0 0.0040577705983935175 -2.3294891949631591 0 0 0 0 0.86691495108240646 -433.370022830023 0 -433.370022830023 -1404.1014634245657 0 0 0 0 68.711358727647337 -71.336054561586934 0 -71.336054561586934 -1220.4879775258487 0 0 0 0 -0.74878503458892176 0.36897207774143226 0 0.36897207774143226 -1.7289328274490856 0 0 0 0 -2.3885134689978855 -34.153588339540875 0 -34.153588339540875 -954.68005259998972 0 0 0 0 69.39873335736975 -87.054752903624831 0 -87.054752903624831 -1093.5566652131383 0 0 0 0 -37.71525435755818 -103.59762544026307 0 -103.59762544026307 -1083.6512720303508 0 0 0 0 -30.876072675632852 -156.26605317029771 0 -156.26605317029771 -751.39156337587337 0 0 0 0 119.70796851036408 54.985753712902806 0 54.985753712902806 -892.82588474176009 0 0 0 0 16.998590443617363 -58.434297308514942 0 -58.434297308514942 -962.5794632112229 0 0 0 0 -2.0936142198838326 27.320235860355751 0 27.320235860355751 -924.21186576403852 0 0 0 0 -18.027044130279805 42.114883939706488 0 42.114883939706488 -1034.5877752753549 0 0 0 0 7.4318481738051716 14.022973814389843 0 14.022973814389843 -1049.3866171152622 0 0 0 0 55.478750623440703 95.97336720237945 0 95.97336720237945 -1024.5776716575419 0 0 0 0 80.845395090337718 -4.6239237881381996 0 -4.6239237881381996 -1067.2456358519703 0 0 0 0 -53.779170890052853 -132.12374938775611 0 -132.12374938775611 -1000.3479034702686 0 0 0 0 22.552929470650326 -36.811563360650325 0 -36.811563360650325 -1051.9780999363793 0 0 0 0 53.097528100319153 -105.57820432577137 0 -105.57820432577137 -1263.4287656420347 0 0 0 0 63.581029053897055 37.301367537249462 0 37.301367537249462 -686.19153057263247 0 0 0 0 1.48210330206783 0.4242172572301115 0 0.4242172572301115 -1.8112026143571427 0 0 0 0 86.593068373008236 -49.997770277965174 0 -49.997770277965174 -936.14272822137355 0 0 0 0 91.666949602720535 -14.584186436215532 0 -14.584186436215532 -769.00426051505201 0 0 0 0 90.161807702250826 42.30347093862656 0 42.30347093862656 -880.11840447244253 0 0 0 0 -1.7552635419654621 -81.388418042261037 0 -81.388418042261037 -881.52906766999513 0 0 0 0 39.685693278864079 -65.440496134400746 0 -65.440496134400746 -925.45686848141486 0 0 0 0 142.12184273041987 91.390516234132519 0 91.390516234132519 -830.49310252373107 0 0 0 0 -28.087655741099752 -36.278145294054411 0 -36.278145294054411 -937.97928111420333 0 0 0 0 -29.035967351496339 -135.14037569084758 0 -135.14037569084758 -828.95349947153591 0 0 0 0 66.139600586178346 -80.311673928415985 0 -80.311673928415985 -1049.5253548066685 0 0 0 0 3.2007630378812975 0.78765357568306626 0 0.78765357568306626 -2.5955894999723625 0 0 0 0 -0.025580422394227753 -100.98767022506217 0 -100.98767022506217 -975.6195258878106 0 0 0 0 -54.825204012872689 -84.495886572307086 0 -84.495886572307086 -902.93730505125131 0 0 0 0 22.644598792696229 11.273588276104419 0 11.273588276104419 -954.73073495662538 0 0 0 0 -25.981254611484331 -2.3171123614920361 0 -2.3171123614920361 -826.54274113888096 0 0 0 0 6.0930657441122662 -10.394415191854932 0 -10.394415191854932 -879.30763924408529 0 0 0 0 13.471044138686921 -48.525906440860126 0 -48.525906440860126 -795.19812789051139 0 0 0 0 8.3771216259502239 33.434796766901854 0 33.434796766901854 -805.15493202154903 0 0 0 0 8.6762397678409311 -0.83117015640996783 0 -0.83117015640996783 -1.7550995659566411 0 0 0 0 -11.03791748396867 7.3200949335077894 0 7.3200949335077894 -838.6212388395943 0 0 0 0 79.793871250289612 41.838148746777733 0 41.838148746777733 -805.51268355223874 0 0 0 0 21.124106702277459 14.271162620047107 0 14.271162620047107 -561.51340137854277 0 0 0 0 -45.228989817267575 56.099932325276313 0 56.099932325276313 -525.7311541979434 0 0 0 0 48.449202394115673 151.34529579320952 0 151.34529579320952 -687.36889709896059 0 0 0 0 -1.3362493208252264 2.1718804032339563 0 2.1718804032339563 -1.6946695215835632 0 0 0 0 12.618606544035458 -0.43057844509439747 0 -0.43057844509439747 -523.96705041901441 0 0 0 0 -11.824630970817907 -82.295965742028784 0 -82.295965742028784 -620.95035483369429 0 0 0 0 16.338798827261144 -28.574542916496284 0 -28.574542916496284 -441.81166135336389 0 0 0 0 -0.3545301970075343 37.803272034914698 0 37.803272034914698 -496.08312142995419 0 0 0 0 2.5556885736664299 34.493662904453231 0 34.493662904453231 -492.86454543141008 0 0 0 0 -420.04842455603148 245.92776365546888 0 245.92776365546888 -719.3176902099367 0 0 0 0 -21.24837260622018 3.0025818233662847 0 3.0025818233662847 -1.0806910015194049 0 0 0 0 303.89834160245459 -53.999739370825409 0 -53.999739370825409 -1779.8861041176278 0 0 0 0 -48.569664789972876 -50.836871731935389 0 -50.836871731935389 -593.48554751081974 0 0 0 0 4.9282867691922547 37.53050968181924 0 37.53050968181924 -528.82494388025953 0 0 0 0 -79.297298858116392 119.37984574971051 0 119.37984574971051 -348.63730250897061 0 0 0 0 -19.696164574492691 2.2944409515493192 0 2.2944409515493192 -1.3024185254635068 0 0 0 0 -109.85008417564086 16.369470341167471 0 16.369470341167471 -1041.0083095741797 0 0 0 0 -53.978549635717457 53.784953904471877 0 53.784953904471877 -1031.2818573005352 0 0 0 0 60.61242405082362 85.078214527857199 0 85.078214527857199 -1179.8822822007351 0 0 0 0 -45.655328489981002 20.750206748198252 0 20.750206748198252 -1008.8895840865443 0 0 0 0 41.695143879001989 164.02014480704383 0 164.02014480704383 -753.57819198837387 0 0 0 0 -105.45708581663473 31.203091687957567 0 31.203091687957567 -247.16447868445539 0 0 0 0 -111.22565035513935 -15.672674024768639 0 -15.672674024768639 -273.78850029013483 0 0 0 0 -0.6572445135924756 0.88157241339422399 0 0.88157241339422399 -1.1229456675230267 0 0 0 0 119.79065405338088 28.235952600065502 0 28.235952600065502 -906.06042629761214 0 0 0 0 54.380003408402217 129.02777436393808 0 129.02777436393808 -724.86241402605083 0 0 0 0 9.8607599320308577 -0.75061821085986935 0 -0.75061821085986935 -1.8488914690853804 0 0 0 0 -10.358326477376039 -20.549989433624432 0 -20.549989433624432 -999.79946645599557 0 0 0 0 86.561248581439145 82.840756885663723 0 82.840756885663723 -935.41880649844825 0 0 0 0 7.9641630098417613 -0.36461036465519214 0 -0.36461036465519214 -2.092276778036787 0 0 0 0 48.61237775589003 52.994481791174621 0 52.994481791174621 -1104.8461756737088 0 0 0 0 2.644579100943929 204.35338375012361 0 204.35338375012361 -612.10715639853879 0 0 0 0 -54.763303081825256 44.173881615235587 0 44.173881615235587 -581.1417975207878 0 0 0 0 45.34600980187156 124.77493200466415 0 124.77493200466415 -548.71035725502225 0 0 0 0 -12.793696313480432 -0.10340165431679793 0 -0.10340165431679793 -1.2539277152077677 0 0 0 0 -150.81552019314535 40.337643189883238 0 40.337643189883238 -756.34017456631409 0 0 0 0 -61.269307099091463 171.80864734602801 0 171.80864734602801 -986.41164922955795 0 0 0 0 161.41943818040068 -0.16249543172307312 0 -0.16249543172307312 -1254.5815319123794 0 0 0 0 150.5307799943804 134.27506503101904 0 134.27506503101904 -1353.6971215287049 0 0 0 0 71.440476601343107 155.17146710504312 0 155.17146710504312 -807.20608704633196 0 0 0 0 39.387503873375408 31.658766458916944 0 31.658766458916944 -700.99464559077751 0 0 0 0 4.1272108806622327 -96.296830153558403 0 -96.296830153558403 -984.9658721810556 0 0 0 0 27.450600197514717 -24.446488802499516 0 -24.446488802499516 -499.85691693241824 0 0 0 0 -5.3212600546553208 -3.5517463730757015 0 -3.5517463730757015 -3.0529519041849564 0 0 0 0 -115.67519814867114 91.717677323453245 0 91.717677323453245 -109.95780273297987 0 0 0 0 9.3045434405631795 -20.188114718221186 0 -20.188114718221186 -299.71645641615032 0 0 0 0 -0.46263439173529947 -4.1914536308421617 0 -4.1914536308421617 -11.347382918076732 0 0 0 0 -174.0594405423135 53.238179696694715 0 53.238179696694715 -1099.3735395434778 0 0 0 0 -117.33071999890115 -104.92499506362947 0 -104.92499506362947 -1216.671813010762 0 0 0 0 -4.547975198390759 200.14504060361651 0 200.14504060361651 -1038.4764122014749 0 0 0 0 23.425413895591632 -0.12846939374685462 0 -0.12846939374685462 -1288.3770556032541 0 0 0 0 82.965423992176056 96.064482881803997 0 96.064482881803997 -829.52740360303142 0 0 0 0 -41.876282642512024 131.94927684593131 0 131.94927684593131 -836.02832043415401 0 0 0 0 46.062856226366875 54.916336323425639 0 54.916336323425639 -882.17951826233184 0 0 0 0 -1.0773915845384181 166.06670195556944 0 166.06670195556944 -853.10481339326361 0 0 0 0 36.961136462758432 -60.977581902341626 0 -60.977581902341626 -1452.9552644042851 0 0 0 0 -0.087316370714853611 -0.89447793673241449 0 -0.89447793673241449 -3.5618423121086948 0 0 0 0 -60.3378927979075 363.30906680630869 0 363.30906680630869 -1448.0732665251198 0 0 0 0 -58.633865020094049 327.59835596077028 0 327.59835596077028 -785.63400760645163 0 0 0 0 131.62506982412947 3.7270702752139186 0 3.7270702752139186 -1417.356892633914 0 0 0 0 -0.59728082904179591 -84.829569812020054 0 -84.829569812020054 -547.37468926314614 0 0 0 0 45.407497397720036 -1.7566887086723 0 -1.7566887086723 -24.776576822710922 0 0 0 0 0.69243659963726534 0.24465256614632835 0 0.24465256614632835 -3.2513070591232527 0 0 0 0 25.620031806663235 9.541446582734352 0 9.541446582734352 -2.2936869273580669 0 0 0 0 13.75415405566153 27.154692209194764 0 27.154692209194764 -28.219899330812041 0 0 0 0 41.763763239215848 12.315827506696223 0 12.315827506696223 -55.847613646823447 0 0 0 0 -221.48308547915039 570.37112321163659 0 570.37112321163659 -1337.5150186004175 0 0 0 0 0.13759774651854223 -0.6801845465171823 0 -0.6801845465171823 -5.922884923313859 0 0 0 0 0.24468721605528276 -49.951902299828362 0 -49.951902299828362 1.5518567536710179 0 0 0 0 -171.22720590805807 332.91137001576135 0 332.91137001576135 -340.85713054796179 0 0 0 0 2.8131589785746201 70.161943479957699 0 70.161943479957699 -1051.1846093083441 0 0 0 0 3.1166666143926984 -0.36837355058176513 0 -0.36837355058176513 -2.21974631611047 0 0 0 0 -16.834216854150988 77.351589606521884 0 77.351589606521884 -1053.0973272784468 0 0 0 0 -1.4468078740558932 -475.82000450391206 0 -475.82000450391206 -1705.8627413163194 0 0 0 0 10.02661801529973 19.089682906003873 0 19.089682906003873 -76.336573364736978 0 0 0 0 -0.049259341799476219 26.408326743418002 0 26.408326743418002 -22.975481105473591 0 0 0 0 3.4363649087705568 18.466285152768251 0 18.466285152768251 -10.681885123733082 0 0 0 0 8.7506069471594259 26.239812433821498 0 26.239812433821498 -13.491508807514037 0 0 0 0 25.988465200175838 0.26030058345349971 0 0.26030058345349971 -57.392020140468958 0 0 0 0 31.506403380223318 13.702855163570348 0 13.702855163570348 -45.487063081149245 0 0 0 0 4.6471933151783347 -1.8078950418857858 0 -1.8078950418857858 -37.258372781463549 0 0 0 0 -4.913208665224424 -37.900264183990657 0 -37.900264183990657 -104.50404361302935 0 0 0 0 -0.025583581600947293 23.15681524115897 0 23.15681524115897 -8.7191717749810778 0 0 0 0 -0.32085014323252203 -0.019720498354331539 0 -0.019720498354331539 0.032296780244450929 0 0 0 0 -0.045626294352841032 -0.014095547634440209 0 -0.014095547634440209 -3.037736787489564 0 0 0 0 14.311942530536285 -8.1701537160261068 0 -8.1701537160261068 -39.896751131454948 0 0 0 0 -0.53725663688734504 1.6666521266233758 0 1.6666521266233758 -17.568449985803454 0 0 0 0 0.0042732915828706192 -1.0333067739769886 0 -1.0333067739769886 -10.946583754266612 0 0 0 0 -0.0099553558512269179 -1.0325500756246542 0 -1.0325500756246542 -10.9462758906011 0 0 0 0 21.198479050918422 87.446876077563502 0 87.446876077563502 -503.15728144560126 0 0 0 0 -21.213692432233529 111.55812217769562 0 111.55812217769562 -386.16082087304676 0 0 0 0 -1.6304288165628691 47.450903953216766 0 47.450903953216766 -530.31790828250814 0 0 0 0 11.843736499585589 106.73313771189714 0 106.73313771189714 -624.8003588457359 0 0 0 0 -23.960159745566443 162.86905970360385 0 162.86905970360385 -616.00264604343101 0 0 0 0 -199.4023626034317 219.37785567813262 0 219.37785567813262 -332.93127359074424 0 0 0 0 -156.9705908492906 -14.762029414006975 0 -14.762029414006975 -203.26270957430825 0 0 0 0 -1.6468935803079212 -1.6882015435430731 0 -1.6882015435430731 -7.174565733558893 0 0 0 0 -27.238631772266899 -8.6504369119356852 0 -8.6504369119356852 -206.81704900776094 0 0 0 0 -71.209766641619581 100.22139889423124 0 100.22139889423124 19.404148525325581 0 0 0 0 5.7569255334174159 3.900901820830768 0 3.900901820830768 -18.791225563851185 0 0 0 0 0.07143803775716151 35.214612174546346 0 35.214612174546346 77.742882388556609 0 0 0 0 7.8504775524558568 -11.101644809641584 0 -11.101644809641584 -47.891453001095215 0 0 0 0 -2.96699073104848 8.2338985738366546 0 8.2338985738366546 -18.253220521963101 0 0 0 0 5.2794337728964393 -4.5170959185470565 0 -4.5170959185470565 -19.389882290241076 0 0 0 0 3.2527318196300872 10.835756074383767 0 10.835756074383767 -23.120275990375944 0 0 0 0 -2.3785568405950364 3.0472002720924252 0 3.0472002720924252 -16.404806612661559 0 0 0 0 -9.2138584123193823 -4.437033336609602 0 -4.437033336609602 -25.444449342903681 0 0 0 0 1.0793954932114633 -0.83581850980445438 0 -0.83581850980445438 -5.7601971847562368 0 0 0 0 4.0228772471079495 -1.5196928774665253 0 -1.5196928774665253 -24.15215419323539 0 0 0 0 11.609895359768416 154.79107788097463 0 154.79107788097463 64.013292381372594 0 0 0 0 55.003484455563921 -35.828290451041539 0 -35.828290451041539 22.904668309987755 0 0 0 0 3.5887503405952796 -4.984609296648074 0 -4.984609296648074 -3.2982585523774333 0 0 0 0 104.69345099541897 11.4278805760041 0 11.4278805760041 -37.275325702939881 0 0 0 0 112.34967428706477 37.968166858423501 0 37.968166858423501 -12.593318791085039 0 0 0 0 14.181684506898819 -4.896956114389468 0 -4.896956114389468 29.90203393054253 0 0 0 0 40.928626655264452 -12.063969744107453 0 -12.063969744107453 -29.788109427725431 0 0 0 0 7.889877448314337 -40.253935932603781 0 -40.253935932603781 0.043158392538316548 0 0 0 0 24.097342491440941 -16.055192442800035 0 -16.055192442800035 -69.845546251803171 0 0 0 0 -17.965059367149518 13.23438786824417 0 13.23438786824417 -8.4433396236270823 0 0 0 0 -5.7408131530658579 59.670157517830376 0 59.670157517830376 -16.235541253117844 0 0 0 0 2.1005170969377076 2.6171856174175616 0 2.6171856174175616 -6.1757873480653984 0 0 0 0 1.7841622469473744 3.9628921639224473 0 3.9628921639224473 -3.9380990919887182 0 0 0 0 -59.645914954001341 92.556301027565496 0 92.556301027565496 44.072750315361191 0 0 0 0 8.5681221887080028 -22.767524148046505 0 -22.767524148046505 -259.10016811943206 0 0 0 0 77.655409557577514 74.468077620258555 0 74.468077620258555 -224.87906354916049 0 0 0 0 14.234760410270837 -19.849299251945922 0 -19.849299251945922 -163.8494470398 0 0 0 0 14.319698339878869 59.245217632298591 0 59.245217632298591 -355.5538687981898 0 0 0 0 -4.3747784413132056 -1.4487142132731208 0 -1.4487142132731208 5.3504413478860897 0 0 0 0 35.288453060440133 -33.833085097758158 0 -33.833085097758158 -438.6180280908593 0 0 0 0 66.056049677430792 82.096519839964458 0 82.096519839964458 -757.34116662112956 0 0 0 0 88.728405281408413 24.151041749428259 0 24.151041749428259 -725.58969408026314 0 0 0 0 70.078649169469372 45.125332170340698 0 45.125332170340698 -642.09452600035729 0 0 0 0 -1.3053636592998146 80.479120809846791 0 80.479120809846791 -644.31190771562979 0 0 0 0 19.492485376787954 11.60778287195717 0 11.60778287195717 -462.13966547179734 0 0 0 0 51.508221922580901 82.231661578436615 0 82.231661578436615 -423.10098949144594 0 0 0 0 29.176750414130311 23.818151771673001 0 23.818151771673001 -438.42047038284363 0 0 0 0 -15.58451486355799 12.315289568474327 0 12.315289568474327 -6.0373290607805075 0 0 0 0 -140.32442296378213 34.661192196566844 0 34.661192196566844 -71.23996474818432 0 0 0 0 -21.434899191150635 0.29767651902511716 0 0.29767651902511716 -471.05949979528668 0 0 0 0 -134.93208421646602 23.76246727216494 0 23.76246727216494 -472.64322542563605 0 0 0 0 12.635869082521594 -109.35723910335219 0 -109.35723910335219 -741.64552474190714 0 0 0 0 -1.8997760701699988 -2.1357109181678169 0 -2.1357109181678169 -3.329284955601679 0 0 0 0 68.71906337425537 -48.774650646033479 0 -48.774650646033479 -20.038420214463258 0 0 0 0 -12.631830723148312 -332.04495860715951 0 -332.04495860715951 -14.128058121743379 0 0 0 0 116.82679814728908 20.651426890719449 0 20.651426890719449 -243.65454314652334 0 0 0 0 34.566035659587214 364.52389702381333 0 364.52389702381333 -237.52152939673397 0 0 0 0 75.270923504879647 -68.514663536989246 0 -68.514663536989246 -99.642395694681909 0 0 0 0 -1.607617459658238 1.8304426519771653 0 1.8304426519771653 -1.1187985169555645 0 0 0 0 80.814068555207086 -70.735842826165026 0 -70.735842826165026 6.7268936175714771 0 0 0 0 103.30139930942278 -28.415402916347375 0 -28.415402916347375 -8.3460460109636188 0 0 0 0 -0.77128726174165951 6.6046652970446473 0 6.6046652970446473 -23.130706531156761 0 0 0 0 2.6189448652635292 27.018185432330938 0 27.018185432330938 -34.56923274503788 0 0 0 0 -5.4257517692697093 14.997962374440249 0 14.997962374440249 -24.322217724693473 0 0 0 0 7.3056321414005652 5.6133536594279576 0 5.6133536594279576 -18.022988905475358 0 0 0 0 61.793669640662301 -4.2915143099598936 0 -4.2915143099598936 -25.854495559062343 0 0 0 0 21.656411321804171 19.960864829125057 0 19.960864829125057 -36.706704919430194 0 0 0 0 31.421387145410336 -10.536693247544463 0 -10.536693247544463 -10.565428775706096 0 0 0 0 31.719705986964982 -14.090772847965127 0 -14.090772847965127 24.542751727611176 0 0 0 0 -1.5462964722473149 -7.0422281233468453 0 -7.0422281233468453 -10.824661001672212 0 0 0 0 -157.67925810417114 -103.38236400434835 0 -103.38236400434835 -31.742184550923412 0 0 0 0 0.040540390604997256 -0.53195058406896578 0 -0.53195058406896578 -3.8701221982478273 0 0 0 0 0.28442002518795562 -26.841978568983905 0 -26.841978568983905 -166.93452162934409 0 0 0 0 0.55046330163759194 -15.289462255517719 0 -15.289462255517719 -68.976086778340687 0 0 0 0 -30.591792979415004 64.695630992981023 0 64.695630992981023 -138.70640152650594 0 0 0 0 -71.922925036837114 185.28912745777779 0 185.28912745777779 -136.01773607925861 0 0 0 0 65.061828192738176 120.32140781616908 0 120.32140781616908 -198.26327261181723 0 0 0 0 -9.3880132420972586 43.616608094853291 0 43.616608094853291 -9.8909784367715474 0 0 0 0 244.43250124527367 -98.149399486195762 0 -98.149399486195762 -33.565687069727574 0 0 0 0 -9.6275191970315817 8.7999596400427151 0 8.7999596400427151 -3.7353796185912103 0 0 0 0 -1.9284224321011294 0.98755778558972906 0 0.98755778558972906 0.38968812245933293 0 0 0 0 -81.791318773784042 79.000353058218025 0 79.000353058218025 232.16023733770271 0 0 0 0 -16.141650764382575 28.584174718787835 0 28.584174718787835 -1050.6652228992752 0 0 0 0 125.074404536158 113.30874367780052 0 113.30874367780052 16.44633916215389 0 0 0 0 34.632438719929041 -7.8476526060694596 0 -7.8476526060694596 -1030.118247045626 0 0 0 0 558.44396069402501 -311.78745513031026 0 -311.78745513031026 178.0209600108501 0 0 0 0 -133.25132401427027 69.587573906363104 0 69.587573906363104 238.04550159811333 0 0 0 0 -336.45190200945217 166.74684532225365 0 166.74684532225365 -50.628272807400208 0 0 0 0 -0.99552397160988448 0.18852772805593077 0 0.18852772805593077 0.15080754809936536 0 0 0 0 91.074428302247952 -12.400802751260926 0 -12.400802751260926 -13.632997305918252 0 0 0 0 -58.661519094278447 103.92849257213675 0 103.92849257213675 -122.64580301506794 0 0 0 0 9.1401061326969284 19.086951649828734 0 19.086951649828734 -17.00734509236645 0 0 0 0 23.558555273771162 110.81092174015066 0 110.81092174015066 -100.1716929503018 0 0 0 0 -24.230617263218846 104.83462068084191 0 104.83462068084191 -21.450915580775472 0 0 0 0 -96.344328277552449 -48.527608910910203 0 -48.527608910910203 -148.79861104085285 0 0 0 0 -2.872901415891862 3.3027047058683934 0 3.3027047058683934 -2.3206867050568292 0 0 0 0 -159.01623278517718 174.50757465725474 0 174.50757465725474 -54.312643771758303 0 0 0 0 -584.59669311629841 454.23025360552128 0 454.23025360552128 88.378185089037288 0 0 0 0 2.8605237607011986 303.99724495608461 0 303.99724495608461 -186.81722591829021 0 0 0 0 -65.515799539654836 307.16363374580396 0 307.16363374580396 130.02695752802538 0 0 0 0 -23.300481909116229 84.618005430644189 0 84.618005430644189 -297.75324406030995 0 0 0 0 15.771821070803487 62.503414920667012 0 62.503414920667012 -154.84861605553306 0 0 0 0 15.171934471031349 19.720062305384317 0 19.720062305384317 -250.87755400408059 0 0 0 0 -51.518780537365274 109.54243064168259 0 109.54243064168259 -138.11880247750378 0 0 0 0 16.260281539357493 26.112070087721804 0 26.112070087721804 -61.08884893389768 0 0 0 0 99.930097281544136 -114.84484299310952 0 -114.84484299310952 -74.992647335195215 0 0 0 0 38.609986696059423 146.72263664193451 0 146.72263664193451 74.335972608067095 0 0 0 0 -16.008124296928145 81.566363343546982 0 81.566363343546982 33.574452116299653 0 0 0 0 7.0689190905095529 34.875531654892256 0 34.875531654892256 -133.75241361673397 0 0 0 0 -7.9096349152187031 25.156521986340522 0 25.156521986340522 45.120340011650114 0 0 0 0 4.4316422546176089 4.7952299779173302 0 4.7952299779173302 -6.7055499679473485 0 0 0 0 -3.248979005140427 24.460572300347849 0 24.460572300347849 38.882592859352371 0 0 0 0 -25.791179246373986 5.322631963652384 0 5.322631963652384 231.44253029176616 0 0 0 0 2.2288576268696989 0.31568396726555648 0 0.31568396726555648 -0.28116817452908549 0 0 0 0 3.3081959318060399 -10.61044201887853 0 -10.61044201887853 14.333829520415748 0 0 0 0 6.8235736564096214 -42.203379591683188 0 -42.203379591683188 -106.54772546535241 0 0 0 0 7.6342063106553724 52.745410212424758 0 52.745410212424758 -65.39613350397849 0 0 0 0 13.204718168261934 -18.798673390636395 0 -18.798673390636395 -30.374916082480922 0 0 0 0 4.0978221447043559 -1.3862266296953862 0 -1.3862266296953862 -3.4878939902707771 0 0 0 0 42.316845363359562 37.33458154507025 0 37.33458154507025 -31.697846333874622 0 0 0 0 53.952744544349571 49.342251279507764 0 49.342251279507764 -111.17725336937292 0 0 0 0 19.792060016015739 -51.016204213876335 0 -51.016204213876335 -376.97558251881856 0 0 0 0 93.92319444971713 2.7685398413304938 0 2.7685398413304938 -68.132638293387572 0 0 0 0 6.6084589854077747 -13.511661164495933 0 -13.511661164495933 -42.666575083015289 0 0 0 0 21.730474485516595 -128.57474559363709 0 -128.57474559363709 -86.304250309098279 0 0 0 0 -107.72389878289232 -136.01476474690571 0 -136.01476474690571 387.78048073301034 0 0 0 0 184.12974998989876 -121.01121227332624 0 -121.01121227332624 -10.068085177466855 0 0 0 0 53.727437532185377 44.50318760619848 0 44.50318760619848 -115.25921015478752 0 0 0 0 92.047080737625038 -65.771084739477374 0 -65.771084739477374 -15.140974557041773 0 0 0 0 34.667514213310369 -83.58117466251133 0 -83.58117466251133 -19.13403074114467 0 0 0 0 5.951696398395975 -5.9075829242445792 0 -5.9075829242445792 -37.991804400080298 0 0 0 0 34.083564944701607 -73.046432279894361 0 -73.046432279894361 45.053009564231616 0 0 0 0 -55.03159047398367 -27.075701743218815 0 -27.075701743218815 26.496404472243739 0 0 0 0 -131.82589498093125 -26.010947668444715 0 -26.010947668444715 95.106162934767781 0 0 0 0 -176.56908538031917 86.523740729669953 0 86.523740729669953 -46.636858459532959 0 0 0 0 -56.119213312394777 39.961965276670526 0 39.961965276670526 -89.115876455824036 0 0 0 0 -53.667930972489671 6.5669616919622058 0 6.5669616919622058 38.750492960185511 0 0 0 0 -23.935034599977257 50.168710186251701 0 50.168710186251701 3.5639003745745867 0 0 0 0 1.7092711191881671 -1.7089818427907346 0 -1.7089818427907346 -0.19718206297977758 0 0 0 0 -6.567825786575213 -13.886100521238404 0 -13.886100521238404 47.285274446679978 0 0 0 0 -49.665261930920735 6.716011804081063 0 6.716011804081063 -4.9967841485049576 0 0 0 0 -27.184431028392055 -43.117980924027506 0 -43.117980924027506 24.023367886049527 0 0 0 0 9.5213149121806016 -6.6874790467776819 0 -6.6874790467776819 -0.11810154712867416 0 0 0 0 -20.392019664417461 -14.973690726134009 0 -14.973690726134009 6.0830068892682903 0 0 0 0 21.140213202724226 2.4915175510250265 0 2.4915175510250265 -6.3304949965895503 0 0 0 0 18.36423155064665 -28.131953280702874 0 -28.131953280702874 2.883490665743011 0 0 0 0 32.626902061514329 -47.698393346996454 0 -47.698393346996454 -4.1847003336115449 0 0 0 0 9.4584274933238799 -2.9934985482338021 0 -2.9934985482338021 -29.323199313632415 0 0 0 0 -61.481302153143702 199.46979578603987 0 199.46979578603987 58.508654589706566 0 0 0 0 20.869908461635987 -22.340691640150908 0 -22.340691640150908 -9.6833864938816987 0 0 0 0 10.868688622127388 -13.550539493218096 0 -13.550539493218096 0.66779519536623866 0 0 0 0 33.016309183233943 -5.9991731487752986 0 -5.9991731487752986 -15.671472872258164 0 0 0 0 23.285424547536422 2.4609358725429047 0 2.4609358725429047 -22.54558688239922 0 0 0 0 10.406403856378347 9.5918155418621609 0 9.5918155418621609 -16.09305452585977 0 0 0 0 21.196430035120557 2.1664484534740041 0 2.1664484534740041 -13.302208749344572 0 0 0 0 4.5920584216409566 9.9844060226751026 0 9.9844060226751026 5.9767616493918467 0 0 0 0 10.571465152519522 6.9310906772661838 0 6.9310906772661838 -13.364054769271661 0 0 0 0 10.698650568351809 6.9371816030597984 0 6.9371816030597984 -15.457355393882608 0 0 0 0 5.3783652650319258 3.8438289528806706 0 3.8438289528806706 -0.90157289886710146 0 0 0 0 18.536724750958456 0.8318899649893865 0 0.8318899649893865 -5.0749299770541256 0 0 0 0 20.146387784598119 0.56311502274184022 0 0.56311502274184022 -7.8814611882116878 0 0 0 0 17.362455618992499 -1.0973299724937533 0 -1.0973299724937533 -6.5739771621883847 0 0 0 0 32.919630089830321 -0.79406134432065301 0 -0.79406134432065301 -2.325378169916803 0 0 0 0 10.962210237133089 4.2041383110486095 0 4.2041383110486095 1.597047735748987 0 0 0 0 0.42143813289908394 -7.7568930809211452 0 -7.7568930809211452 5.9795991874561878 0 0 0 0 3.126357751799036 0.2737527007525955 0 0.2737527007525955 -0.065428886222093752 0 0 0 0 26.275358338690694 30.430554643258802 0 30.430554643258802 10.59494145901408 0 0 0 0 21.779935466028533 41.911130258613639 0 41.911130258613639 -92.658718198101269 0 0 0 0 24.763483403693954 -35.031734195821628 0 -35.031734195821628 -113.42048789041291 0 0 0 0 -15.470405898421632 -14.873491541700787 0 -14.873491541700787 -2.5576515537686646 0 0 0 0 -6.2505030160962178 -17.359292832625215 0 -17.359292832625215 -81.705367756658234 0 0 0 0 -21.91378626887581 15.543144553492311 0 15.543144553492311 -22.585458395566093 0 0 0 0 -17.739315099925079 -5.5274441072688205 0 -5.5274441072688205 4.3395743941946421 0 0 0 0 4.4001806829077168 6.6600656672089826 0 6.6600656672089826 10.983801194932312 0 0 0 0 15.663901791486524 23.267774381725758 0 23.267774381725758 9.4582753782742657 0 0 0 0 -8.4439236263077646 17.944242860357917 0 17.944242860357917 16.289366856450215 0 0 0 0 35.223035651665441 -5.2610875930113252 0 -5.2610875930113252 -18.243809198713279 0 0 0 0 -13.732059783754153 -26.600450279569486 0 -26.600450279569486 -74.916089341699262 0 0 0 0 -36.643037752936323 8.7077049978761352 0 8.7077049978761352 -19.220475502923364 0 0 0 0 9.2428145971817717 -3.9178542571535218 0 -3.9178542571535218 -10.463414396846929 0 0 0 0 -0.0594055825016086 1.0797951135741855 0 1.0797951135741855 -6.8060700982586582 0 0 0 0 76.899615944362438 65.722998491924955 0 65.722998491924955 -33.18675868261198 0 0 0 0 -0.041154039771175682 1.2705933725883369 0 1.2705933725883369 -6.3526063689641887 0 0 0 0 2.321928093402077 1.6340043325617444 0 1.6340043325617444 -6.548529932362726 0 0 0 0 3.8033237246310958 2.6170538184378529 0 2.6170538184378529 -11.533117007071269 0 0 0 0 0.04136644783989675 14.170828190613616 0 14.170828190613616 11.188278712914325 0 0 0 0 3.727248493507652 2.8861627778387628 0 2.8861627778387628 -9.6637122797110351 0 0 0 0 2.3173388421363681 1.2344784886481648 0 1.2344784886481648 -9.0718361831386574 0 0 0 0 0.25795244209372481 1.9667943196258264 0 1.9667943196258264 -9.0213277203726534 0 0 0 0 6.173640087646163 5.9167311789788073 0 5.9167311789788073 -12.474719212405034 0 0 0 0 10.473416863819104 20.345340844010934 0 20.345340844010934 -4.4124068887031171 0 0 0 0 -1.4699641952226097 5.5460869218839619 0 5.5460869218839619 -14.547415188375908 0 0 0 0 3.146162086142648 13.806623243479407 0 13.806623243479407 12.05784472002415 0 0 0 0 -3.2319933920453847 23.316890327936562 0 23.316890327936562 5.2121000437473413 0 0 0 0 -0.42024703612185937 1.2393853372616945 0 1.2393853372616945 -2.5581792572715187 0 0 0 0 13.148181336496906 11.415301748231286 0 11.415301748231286 -6.5774787219706923 0 0 0 0 -14.751657631326452 -81.570308528149326 0 -81.570308528149326 -94.444204253552016 0 0 0 0 18.397791923740442 -8.5336099347186973 0 -8.5336099347186973 -515.88570248415635 0 0 0 0 -401.63737713770661 151.27046822069678 0 151.27046822069678 6.84710117954819 0 0 0 0 37.525246880633631 -72.361207661968365 0 -72.361207661968365 -398.83193333863937 0 0 0 0 -111.32098153747279 391.14413059216531 0 391.14413059216531 -377.76214165885176 0 0 0 0 -372.30110332934009 414.48247558406729 0 414.48247558406729 -394.9900327422838 0 0 0 0 53.458916252681774 152.88522089286562 0 152.88522089286562 -382.35988791025738 0 0 0 0 28.444955915528226 84.840295571535535 0 84.840295571535535 -92.089357201766688 0 0 0 0 26.810246637802202 21.34871395567896 0 21.34871395567896 -14.572851382053074 0 0 0 0 67.991576852488834 100.94631262440089 0 100.94631262440089 -269.22370659108856 0 0 0 0 -1.4922574887091287 27.577960850387171 0 27.577960850387171 -72.710595976488548 0 0 0 0 -4.8936544649477582 59.517289190313932 0 59.517289190313932 -146.79714887891896 0 0 0 0 19.337354714675115 6.4279378307929278 0 6.4279378307929278 3.004622356313007 0 0 0 0 -6.1654015170371395 45.71989992519957 0 45.71989992519957 -200.67948800430167 0 0 0 0 29.31587701746821 -89.41997114244441 0 -89.41997114244441 -264.24046468896267 0 0 0 0 -123.92296374832176 -66.549444338266767 0 -66.549444338266767 -203.56262799349497 0 0 0 0 75.629753900885362 12.875393174093915 0 12.875393174093915 -402.33878621053736 0 0 0 0 44.884364608888518 101.03121090626883 0 101.03121090626883 -343.73061144923849 0 0 0 0 78.821544815761172 32.521878994072722 0 32.521878994072722 -330.29567050233891 0 0 0 0 43.946626007498423 8.2760705688269809 0 8.2760705688269809 -302.99551384245569 0 0 0 0 -2.2236058651639752 108.13792001137108 0 108.13792001137108 -358.92866077346844 0 0 0 0 -4.5640299695854196 85.571857662514958 0 85.571857662514958 -252.5366866366021 0 0 0 0 10.224360186562006 2.548877769666575 0 2.548877769666575 -1.4016164077404198 0 0 0 0 -23.734657561698555 19.401785436268256 0 19.401785436268256 47.540524200714572 0 0 0 0 -62.64079125211947 106.09196199216967 0 106.09196199216967 -338.07832130212046 0 0 0 0 39.447033881460385 41.112699984626943 0 41.112699984626943 -391.98407941107871 0 0 0 0 -1468.2098823511915 -555.43470991041977 0 -555.43470991041977 -786.09111341246171 0 0 0 0 -15.383302809931365 210.55682282998532 0 210.55682282998532 -759.38473362520745 0 0 0 0 -115.85610958497318 -64.800097767292755 0 -64.800097767292755 -556.74636796992854 0 0 0 0 -294.78015138417049 106.65116694706376 0 106.65116694706376 -334.32048582833886 0 0 0 0 1110.8217598294355 319.41050599520531 0 319.41050599520531 -1174.6781274477544 0 0 0 0 -111.24586906064997 204.93697423104459 0 204.93697423104459 -510.43503553493065 0 0 0 0 42.754130318095577 174.33322248853801 0 174.33322248853801 -548.11235695086361 0 0 0 0 -16.371387265028716 -364.66274757670908 0 -364.66274757670908 -892.47737183470235 0 0 0 0 -4.427652766049631 4.9946324169385434 0 4.9946324169385434 -6.4452755794067684 0 0 0 0 -381.56451742135505 247.67183244663374 0 247.67183244663374 66.992105081648333 0 0 0 0 -305.43604727743832 534.71134718762187 0 534.71134718762187 6.3928858550498262 0 0 0 0 29.045094969194309 418.92614551750739 0 418.92614551750739 -52.455564610456349 0 0 0 0 3.4883843358967086 0.33545369140870207 0 0.33545369140870207 -1.9064124304283325 0 0 0 0 72.993036285491371 158.15363301308025 0 158.15363301308025 -426.237353046512 0 0 0 0 79.968507750550998 218.50643826511077 0 218.50643826511077 -662.81289184668094 0 0 0 0 78.400045048480933 144.13689215109844 0 144.13689215109844 -520.68681429440039 0 0 0 0 22.864840348476719 149.17311671933567 0 149.17311671933567 -494.08036950917449 0 0 0 0 25.371181575714218 -102.83299630869442 0 -102.83299630869442 -307.24167929984105 0 0 0 0 79.915542592606471 59.66052351500548 0 59.66052351500548 -555.45517572030076 0 0 0 0 4.0235979713893357 12.92285410711338 0 12.92285410711338 -208.90834108738636 0 0 0 0 69.996934573524868 35.80626918593407 0 35.80626918593407 -365.09097674756777 0 0 0 0 30.966323599810494 73.924914724273549 0 73.924914724273549 -306.20179798539903 0 0 0 0 55.753138918274544 66.804126042214193 0 66.804126042214193 -114.77054461096122 0 0 0 0 -48.641397288683947 18.191596048243809 0 18.191596048243809 -104.40760998161568 0 0 0 0 -9.9389853373740156 13.374586576182139 0 13.374586576182139 -18.408660293483535 0 0 0 0 -22.025519954053607 34.17512483624887 0 34.17512483624887 14.844972924009198 0 0 0 0 188.35880423300387 118.74083347519627 0 118.74083347519627 -111.02006562190945 0 0 0 0 39.259677838830612 -10.803710367516032 0 -10.803710367516032 -45.932205018976674 0 0 0 0 -94.675149065068581 117.11163807730918 0 117.11163807730918 114.17998137093673 0 0 0 0 -118.36769256563593 275.10370567167411 0 275.10370567167411 -145.70501107061864 0 0 0 0 37.454667827097865 5.6045934353023767 0 5.6045934353023767 -112.72336006736441 0 0 0 0 -29.296160252066898 -53.617998198729765 0 -53.617998198729765 -56.623293452787038 0 0 0 0 21.914323519315531 -23.639575981957023 0 -23.639575981957023 -51.175241414610355 0 0 0 0 24.401812274159795 -14.518568864656118 0 -14.518568864656118 -29.977671223881771 0 0 0 0 92.788588866064401 40.463546892036902 0 40.463546892036902 -62.424729387959815 0 0 0 0 -9.730774020827587 19.907335060779033 0 19.907335060779033 -29.296043423250751 0 0 0 0 10.896422980531042 65.780201602618035 0 65.780201602618035 10.833700029814281 0 0 0 0 82.988201504624158 -5.1771029724623077 0 -5.1771029724623077 -66.038891283154953 0 0 0 0 32.474831879593694 -19.663720049909898 0 -19.663720049909898 -66.231523393143448 0 0 0 0 54.054729899246922 31.945328215777408 0 31.945328215777408 -55.696311476771371 0 0 0 0 -4.1783102040440099 -92.773352183459792 0 -92.773352183459792 -22.664975306721317 0 0 0 0 27.9061149510697 -10.019727789461001 0 -10.019727789461001 -22.031745876470239 0 0 0 0 67.557496212399656 100.90231059679354 0 100.90231059679354 -30.269888564678695 0 0 0 0 -120.63936083184308 -104.45176902014646 0 -104.45176902014646 -21.557871243016052 0 0 0 0 -139.44827038159565 106.57079158189299 0 106.57079158189299 -25.460365900828037 0 0 0 0 67.991771228343225 26.134513368466287 0 26.134513368466287 -244.1372040911665 0 0 0 0 71.150232844231255 6.2474021435355098 0 6.2474021435355098 -142.08445606997702 0 0 0 0 34.37489321776377 38.856983397923614 0 38.856983397923614 -124.24401391507126 0 0 0 0 12.010717544489125 18.507570314446639 0 18.507570314446639 -25.087779811583459 0 0 0 0 -35.900339488980762 105.31583494587539 0 105.31583494587539 -126.10920073262241 0 0 0 0 0.76067200678814606 2.1859577049711127 0 2.1859577049711127 -2.8172499267579383 0 0 0 0 -119.94485479456466 -91.030091546745098 0 -91.030091546745098 -32.31955377504346 0 0 0 0 35.793592790125359 -15.863537791891758 0 -15.863537791891758 -13.982512629212579 0 0 0 0 26.433465456282619 -13.83478920413188 0 -13.83478920413188 -18.481731608208037 0 0 0 0 6.1369416855078498 -9.6809308843367035 0 -9.6809308843367035 -26.833113529413822 0 0 0 0 58.155977121750311 -7.0930849153592135 0 -7.0930849153592135 -138.04746276414517 0 0 0 0 28.259851461565702 -13.344289006147136 0 -13.344289006147136 -19.752366446912703 0 0 0 0 32.725717281706238 -4.1129463952820515 0 -4.1129463952820515 -107.26034462197276 0 0 0 0 27.422253201756575 13.627406058571069 0 13.627406058571069 -70.208041963720461 0 0 0 0 35.907408716390819 -20.110640536833671 0 -20.110640536833671 -96.265737218032882 0 0 0 0 37.873609514525128 50.833048866938043 0 50.833048866938043 -190.08677990724391 0 0 0 0 22.104410513056184 -8.5183157156314735 0 -8.5183157156314735 -34.18288246260451 0 0 0 0 1.0319685346211007 -0.66785968071322799 0 -0.66785968071322799 -28.217612722900583 0 0 0 0 -17.610819143643312 8.3817844714430976 0 8.3817844714430976 -61.37962420743861 0 0 0 0 23.384407257002067 7.547643558755226 0 7.547643558755226 -38.261709656602761 0 0 0 0 -48.737208593790456 40.617299999841634 0 40.617299999841634 -29.785392144316575 0 0 0 0 -40.877193475982494 66.966651153306884 0 66.966651153306884 -190.4948107819946 0 0 0 0 -2.5357024351995676 17.459555801389499 0 17.459555801389499 -41.020268860862473 0 0 0 0 -40.082584366985429 33.55508381126856 0 33.55508381126856 -52.476083222645684 0 0 0 0 9.3793380853229564 1.5692830680854968 0 1.5692830680854968 -19.429106776064145 0 0 0 0 42.763158180620849 3.1205211255874019 0 3.1205211255874019 -27.047658601375588 0 0 0 0 -156.92546375317215 96.990235367164132 0 96.990235367164132 -81.056294170950423 0 0 0 0 1.3324923361841954 1.9028686101495076 0 1.9028686101495076 -18.629347894790953 0 0 0 0 -36.954484556122225 91.610069466580171 0 91.610069466580171 -152.15404078931897 0 0 0 0 -175.84161152341858 166.54557152713824 0 166.54557152713824 -191.12174238383886 0 0 0 0 1.021750938674348 2.7022451230122115 0 2.7022451230122115 -7.3612704216694169 0 0 0 0 -19.036172456054999 16.244625263861963 0 16.244625263861963 -3.1911145607300568 0 0 0 0 -62.486939503496615 -106.02562282595318 0 -106.02562282595318 -94.449573308767867 0 0 0 0 -2.9977271695097443 179.94078621803783 0 179.94078621803783 -237.20809166374966 0 0 0 0 67.717498296466147 114.32165723025537 0 114.32165723025537 -279.18932374489668 0 0 0 0 -5.4111312683688695 38.136448874088245 0 38.136448874088245 -84.627198893544147 0 0 0 0 -48.315845051741235 115.51681598282266 0 115.51681598282266 -145.68509560078382 0 0 0 0 60.174374046138837 83.96380306728679 0 83.96380306728679 -139.28308446051233 0 0 0 0 -13.531874563229973 31.721857327525179 0 31.721857327525179 -81.933707138908858 0 0 0 0 62.322644503416427 93.798740089594503 0 93.798740089594503 -148.59362117775891 0 0 0 0 29.125637580508283 49.875557580784516 0 49.875557580784516 -202.45823355692846 0 0 0 0 -0.61341156091441462 18.137008693543976 0 18.137008693543976 -65.97467386428616 0 0 0 0 -43.796889138312054 43.71164000859244 0 43.71164000859244 -31.475752830854617 0 0 0 0 1.9182192613843654 54.704127522798444 0 54.704127522798444 -49.129270065794117 0 0 0 0 -8.1591810350006462 28.670453980270949 0 28.670453980270949 -76.588098866997655 0 0 0 0 35.487560733800365 18.910810566605505 0 18.910810566605505 -101.50801124953432 0 0 0 0 14.805380369161867 -2.5023729961176286 0 -2.5023729961176286 -84.142630421512877 0 0 0 0 1.1855721888332482 8.2811622205699678 0 8.2811622205699678 -89.742079712130362 0 0 0 0 -20.915667421270882 19.1408159844068 0 19.1408159844068 -6.987536265347444 0 0 0 0 -23.185947540236157 5.3966079376114067 0 5.3966079376114067 -87.999819042250238 0 0 0 0 -7.1020852939727774 -5.080542624273221 0 -5.080542624273221 -95.421648489063955 0 0 0 0 1.4614112260533147 47.553030363462312 0 47.553030363462312 -74.484026820478903 0 0 0 0 13.329071021702475 9.1660800161871521 0 9.1660800161871521 -140.89129322233202 0 0 0 0 6.646015314151942 39.483929836004762 0 39.483929836004762 -78.390259893739596 0 0 0 0 -23.462849602072311 -24.718889722331369 0 -24.718889722331369 121.3451184023761 0 0 0 0 9.2705379717866236 -4.4062848277172293 0 -4.4062848277172293 -40.920325384175669 0 0 0 0 18.988841048914651 -66.749472250716281 0 -66.749472250716281 -104.60421701060841 0 0 0 0 45.36132256414453 75.00600945815313 0 75.00600945815313 -124.22330974068609 0 0 0 0 -124.14923095653467 -16.798116725083673 0 -16.798116725083673 -134.37138362486439 0 0 0 0 50.111867587786037 2.4727198265973129 0 2.4727198265973129 -347.92156834027264 0 0 0 0 10.425155390650616 -7.8766135271434905 0 -7.8766135271434905 -189.58140326471766 0 0 0 0 -11.759700113228973 20.297451038910367 0 20.297451038910367 -172.51995529757551 0 0 0 0 -0.0035387399570936395 21.222279367901137 0 21.222279367901137 -100.28097906625771 0 0 0 0 -4.9906273384831366 53.207777037201595 0 53.207777037201595 -106.33677564388199 0 0 0 0 -37.605406426635454 14.868295490847231 0 14.868295490847231 -97.321983462372373 0 0 0 0 15.370100879331886 24.446179488055233 0 24.446179488055233 -26.747967063187346 0 0 0 0 10.313899807058988 40.563362848878555 0 40.563362848878555 -73.995794201710837 0 0 0 0 -29.948327301182786 253.24621010286211 0 253.24621010286211 2.7788517758162925 0 0 0 0 -91.401151450827456 -100.69867609661742 0 -100.69867609661742 -438.94973987719277 0 0 0 0 -347.54203408313697 304.23871852393495 0 304.23871852393495 -299.25145750585943 0 0 0 0 72.988241401650157 5.8015529511467321 0 5.8015529511467321 -92.881276502135734 0 0 0 0 4.5550487174468799 17.339560054713729 0 17.339560054713729 -142.07088850661239 0 0 0 0 105.14507271723664 240.53898812450188 0 240.53898812450188 -372.75946337499772 0 0 0 0 13.88553667316458 49.032612569716775 0 49.032612569716775 -130.38242472840602 0 0 0 0 -102.92369355100709 69.467999035168759 0 69.467999035168759 -90.49801829694843 0 0 0 0 -16.881441152451316 0.76836734834614617 0 0.76836734834614617 -51.361552307251259 0 0 0 0 74.914250698932136 -22.177735657560959 0 -22.177735657560959 -116.70414316541692 0 0 0 0 182.45875142950899 82.683830477551965 0 82.683830477551965 -325.40186175258714 0 0 0 0 -30.391922454431551 -214.16864501866075 0 -214.16864501866075 -160.11297835623554 0 0 0 0 67.851008555591633 -24.093350223506086 0 -24.093350223506086 -82.352632337210949 0 0 0 0 180.65066080179167 105.23941975284288 0 105.23941975284288 -594.0265907394205 0 0 0 0 13.046378100874307 -16.558999671409868 0 -16.558999671409868 2.9423191060719489 0 0 0 0 -312.34989279598358 348.23397964439209 0 348.23397964439209 -407.61732896073954 0 0 0 0 -8.0822941110145621 -54.139017931523995 0 -54.139017931523995 -16.255481147869432 0 0 0 0 210.28514112635457 -15.416884659067364 0 -15.416884659067364 -303.76627893851037 0 0 0 0 31.568262330739991 2.5088888013066502 0 2.5088888013066502 -87.405321372384662 0 0 0 0 56.574447504066484 -24.996983204180651 0 -24.996983204180651 -362.20818541846529 0 0 0 0 -155.49705400124003 343.54859396236498 0 343.54859396236498 -389.08734070207538 0 0 0 0 -0.025428233551856749 -1.2719357029567675 0 -1.2719357029567675 -1.0886448193126483 0 0 0 0 -19.591539411531812 102.78561955062469 0 102.78561955062469 -216.34277641401059 0 0 0 0 15.135104409512678 112.77551713375215 0 112.77551713375215 -349.50441222944937 0 0 0 0 -52.912038827143988 109.9428809878591 0 109.9428809878591 -308.19317267757651 0 0 0 0 14.908100474305684 141.21224774925213 0 141.21224774925213 -673.52902298582194 0 0 0 0 47.047004819261929 3.3000231413243455 0 3.3000231413243455 -77.880075658300484 0 0 0 0 7.5594797273915901 20.586665563765564 0 20.586665563765564 -76.176335701944481 0 0 0 0 -103.5545381309023 175.18236836016149 0 175.18236836016149 -268.66469695030537 0 0 0 0 -108.8625343980566 165.90907139032788 0 165.90907139032788 -245.54669520074822 0 0 0 0 22.025821405400752 -4.2793996027755838 0 -4.2793996027755838 -36.881444165528677 0 0 0 0 19.361238677858168 -11.050920218027287 0 -11.050920218027287 -37.047637877912308 0 0 0 0 -27.533894856823281 133.41805564373499 0 133.41805564373499 -314.63638672447996 0 0 0 0 -31.869122974167112 203.88349975187884 0 203.88349975187884 -326.57341393914976 0 0 0 0 -0.59974930349073752 31.189098179149696 0 31.189098179149696 -72.446574167461335 0 0 0 0 26.867504798661219 35.597934490403119 0 35.597934490403119 -46.40303476066299 0 0 0 0 28.001582532449788 27.661646772967288 0 27.661646772967288 -73.144503425370203 0 0 0 0 30.826748388109991 48.521666320157237 0 48.521666320157237 -65.119107479185914 0 0 0 0 59.581158080554587 48.88674383777834 0 48.88674383777834 -81.329898511248757 0 0 0 0 6.6684233709868295 78.971271559217712 0 78.971271559217712 -55.488901465079834 0 0 0 0 -8.5576906472443426 26.457432790757956 0 26.457432790757956 -58.767930005544486 0 0 0 0 53.111497630434087 28.548280927108863 0 28.548280927108863 -89.492064490274061 0 0 0 0 9.821814227074583 81.352148478435993 0 81.352148478435993 -97.588773406336259 0 0 0 0 60.759173475218631 63.735391126516333 0 63.735391126516333 12.050777842203388 0 0 0 0 -14.275190954612629 35.032184571777876 0 35.032184571777876 6.943452991231652 0 0 0 0 -47.549900479600183 91.224880272144219 0 91.224880272144219 -93.80267175915651 0 0 0 0 24.003213625958683 62.086672488484879 0 62.086672488484879 -100.43949097247389 0 0 0 0 57.181298298711226 54.979931829555426 0 54.979931829555426 -87.407230168289971 0 0 0 0 12.901868655217843 104.55641351544743 0 104.55641351544743 -118.48264713644016 0 0 0 0 17.664743399700143 52.417137422446942 0 52.417137422446942 -120.59535011924801 0 0 0 0 6.5053385432952835 28.616218455317252 0 28.616218455317252 -64.964763529486135 0 0 0 0 31.805830976535162 13.279720028189331 0 13.279720028189331 -75.640309516056732 0 0 0 0 6.4053428158476722 41.089469375556391 0 41.089469375556391 -94.055501797472402 0 0 0 0 23.564775869899677 37.618959084422386 0 37.618959084422386 -95.4745827546285 0 0 0 0 49.141539682442271 186.16564951054988 0 186.16564951054988 -258.65878439832159 0 0 0 0 -146.01844339076888 0.86992356154223671 0 0.86992356154223671 -63.626076984131942 0 0 0 0 -5.5029803818460508 14.772390027850648 0 14.772390027850648 -36.847874033684718 0 0 0 0 -144.8951144916573 190.89607653003804 0 190.89607653003804 -140.35485350180534 0 0 0 0 25.272419918126616 -36.686242838553881 0 -36.686242838553881 -75.379722892597783 0 0 0 0 11.519261553936303 43.093962734179513 0 43.093962734179513 -92.070476617305758 0 0 0 0 14.186738611873807 32.575069419348438 0 32.575069419348438 -130.91131520473573 0 0 0 0 14.024328173269168 44.313124715197773 0 44.313124715197773 -106.91812957773072 0 0 0 0 19.955589283652444 49.669126614988272 0 49.669126614988272 -128.93070771727071 0 0 0 0 8.3598433400802605 32.411896281399095 0 32.411896281399095 -130.9349800002731 0 0 0 0 12.993004554951767 53.021847802736374 0 53.021847802736374 -131.09025695978198 0 0 0 0 48.147850540528452 124.30532753339503 0 124.30532753339503 109.86379055673024 0 0 0 0 11.081379577840977 51.035184769524037 0 51.035184769524037 -94.669527776972174 0 0 0 0 -282.61528151004677 84.279367769966484 0 84.279367769966484 105.42771197254478 0 0 0 0 29.096942450240022 62.839730628169491 0 62.839730628169491 -103.1804958010307 0 0 0 0 3.5606966033196414 45.565711390405227 0 45.565711390405227 -85.991162727781699 0 0 0 0 69.782390684944403 161.4574175035641 0 161.4574175035641 -32.092562610574532 0 0 0 0 95.131623641056649 4.6583554310745967 0 4.6583554310745967 -291.89447173520603 0 0 0 0 -84.510721430584454 -154.83019315843558 0 -154.83019315843558 -241.03178291288714 0 0 0 0 83.632488697395274 143.06192952504625 0 143.06192952504625 -519.37189031143498 0 0 0 0 303.88999878134291 78.321614271888393 0 78.321614271888393 -339.24292643244553 0 0 0 0 283.77131328291125 -254.89411650635157 0 -254.89411650635157 -338.93391477888508 0 0 0 0 18.076146428819378 25.181936909503627 0 25.181936909503627 -116.79643155316967 0 0 0 0 98.753996486222604 386.2457630067438 0 386.2457630067438 -587.45407605880609 0 0 0 0 -655.42328872188955 -358.28568071666814 0 -358.28568071666814 529.30563346139388 0 0 0 0 -44.65487956042125 250.09100176066568 0 250.09100176066568 -609.88586778628814 0 0 0 0 13.714487492298304 -72.453173607676945 0 -72.453173607676945 -52.038561196168303 0 0 0 0 -88.514483564549664 230.73570743862365 0 230.73570743862365 -618.07463944994379 0 0 0 0 73.561996652059861 63.369868506793864 0 63.369868506793864 -89.381318539948552 0 0 0 0 -6.5854585748311951 6.6244167909711535 0 6.6244167909711535 3.2683056573252998 0 0 0 0 -0.54200695770808061 2.6751092539535648 0 2.6751092539535648 -9.3378346600060809 0 0 0 0 17.331594463931161 33.470738002150952 0 33.470738002150952 -112.67626559042492 0 0 0 0 -159.25249911092396 -373.32455975971243 0 -373.32455975971243 -117.68580999018741 0 0 0 0 202.66717999948469 -117.7205104783352 0 -117.7205104783352 -49.003737110790098 0 0 0 0 145.23888534671187 198.78945725091398 0 198.78945725091398 -275.2518083077448 0 0 0 0 -652.09473650568543 885.40481932894909 0 885.40481932894909 -724.46858360967599 0 0 0 0 7.3563589892974051 56.954366465844942 0 56.954366465844942 -141.67547294271844 0 0 0 0 4.5148025558946756 42.64822691350264 0 42.64822691350264 -205.65613999100242 0 0 0 0 11.461954505323774 -15.439158406125898 0 -15.439158406125898 -168.0690069915928 0 0 0 0 -7.2700135974555451 61.584351557405171 0 61.584351557405171 -119.93796689418969 0 0 0 0 -32.523021369448543 74.94224926834795 0 74.94224926834795 -117.06171859092865 0 0 0 0 -12.217329629871529 57.402511970893102 0 57.402511970893102 -130.08871675727642 0 0 0 0 15.762267595142475 55.453523049691285 0 55.453523049691285 -134.44497063009294 0 0 0 0 39.162922642599341 3.2921615398856616 0 3.2921615398856616 -68.852604258549462 0 0 0 0 24.701142308742419 35.449800451080591 0 35.449800451080591 -111.27308285643539 0 0 0 0 -8.9152792249033155 78.539943895731767 0 78.539943895731767 -149.9488581149817 0 0 0 0 22.528157595403172 64.670287262739294 0 64.670287262739294 -71.578638709288498 0 0 0 0 67.386822889719042 40.99480550516455 0 40.99480550516455 -182.95803332753712 0 0 0 0 16.708584524250274 37.882244043764622 0 37.882244043764622 -101.65534088792197 0 0 0 0 28.080637535550238 39.725865193573554 0 39.725865193573554 -112.92708144123026 0 0 0 0 -20.864676634060743 26.659611272090842 0 26.659611272090842 -106.77264476416985 0 0 0 0 4.8183772120992217 39.814003203344328 0 39.814003203344328 -110.33833032065559 0 0 0 0 12.948959021699011 35.399936023302871 0 35.399936023302871 -140.02690787513711 0 0 0 0 -18.879291679502785 18.29293867745946 0 18.29293867745946 -137.75803390742294 0 0 0 0 6.8800716756395559 44.004198452263154 0 44.004198452263154 -147.50668623023375 0 0 0 0 22.769390915715007 -20.379758877601944 0 -20.379758877601944 -180.59698200407729 0 0 0 0 -8.9955597688428952 23.983520958036024 0 23.983520958036024 -165.42086142879998 0 0 0 0 7.1324879911627495 51.225250292092525 0 51.225250292092525 -100.84627613460329 0 0 0 0 -41.063376469343211 0.26467230993785051 0 0.26467230993785051 -154.9404848407321 0 0 0 0 -13.063701889404001 26.390903010385045 0 26.390903010385045 -153.61934611026663 0 0 0 0 21.66119175760247 -26.058901408911243 0 -26.058901408911243 -84.07100059307902 0 0 0 0 13.110307438246195 -10.35848101925535 0 -10.35848101925535 -251.85619229062286 0 0 0 0 116.26893105350968 -227.31321705158402 0 -227.31321705158402 2323.4072530839894 0 0 0 0 70.29721342758603 495.81621417256702 0 495.81621417256702 846.75325554601022 0 0 0 0 18.871373753588387 16.744735688046511 0 16.744735688046511 -22.303619900407998 0 0 0 0 -72.681073158139043 1480.2124093585307 0 1480.2124093585307 330.34526415385972 0 0 0 0 -444.47891143249808 1018.0277142454405 0 1018.0277142454405 2418.5414084911727 0 0 0 0 -25.433922821086071 189.74246326108914 0 189.74246326108914 -200.75013180020142 0 0 0 0 61.32665950681195 -54.232139392849149 0 -54.232139392849149 -1133.0242269131959 0 0 0 0 -560.0838687252558 -63.420655353424081 0 -63.420655353424081 -752.19433716049207 0 0 0 0 96.555859074416304 367.82354877819819 0 367.82354877819819 -531.91981379004574 0 0 0 0 759.93384041825311 575.73157638871135 0 575.73157638871135 -435.83190395595284 0 0 0 0 287.41808636745873 227.82163048423718 0 227.82163048423718 -306.37074882061461 0 0 0 0 1046.0810905520711 309.5393436606314 0 309.5393436606314 -366.49576216629612 0 0 0 0 -2.6813885852455983 -2.1995212950657361 0 -2.1995212950657361 3.886284914638086 0 0 0 0 205.29242174328692 -672.18846178867534 0 -672.18846178867534 -1224.3365335038361 0 0 0 0 -320.36676062887545 -728.56169762765239 0 -728.56169762765239 -419.07238069272717 0 0 0 0 172.69505583112368 -417.48036076486096 0 -417.48036076486096 -1083.5110576147138 0 0 0 0 -39.867471584764644 -401.5040768221661 0 -401.5040768221661 -1084.4949110055786 0 0 0 0 265.78701397646671 443.11309327998106 0 443.11309327998106 -1476.8076205214129 0 0 0 0 8.6226066025337786 50.893461355846739 0 50.893461355846739 -260.23829110549923 0 0 0 0 -38.339700648100916 159.06791603496822 0 159.06791603496822 -190.80119460625792 0 0 0 0 -15.803209987764603 25.082044898765162 0 25.082044898765162 -165.27548833219771 0 0 0 0 0.5980330754188401 56.068858419825006 0 56.068858419825006 -98.69641424036422 0 0 0 0 -48.810706157260483 -393.39760218742595 0 -393.39760218742595 -671.95730307090162 0 0 0 0 320.26694860351904 -59.60717287093064 0 -59.60717287093064 -472.23585630375237 0 0 0 0 16.655700905175991 106.8754368774421 0 106.8754368774421 -170.03883540450624 0 0 0 0 16.104309341160366 52.14681430232401 0 52.14681430232401 -126.21186917706288 0 0 0 0 281.33811251314182 189.0468996809941 0 189.0468996809941 -350.99017013559569 0 0 0 0 88.38579705331631 65.154947384065963 0 65.154947384065963 -323.14473422499714 0 0 0 0 32.420844495697423 -44.380937837091118 0 -44.380937837091118 -105.10238837466852 0 0 0 0 11.551333220494598 24.075365438839071 0 24.075365438839071 -170.3118632627411 0 0 0 0 138.19172712409375 -55.452305043779234 0 -55.452305043779234 -117.9255103513824 0 0 0 0 0.46865385692620976 -249.95785682068913 0 -249.95785682068913 -541.34447546261435 0 0 0 0 11.728093047986786 -14.02888023091873 0 -14.02888023091873 -32.787901287979103 0 0 0 0 11.247542057242981 266.41508909649201 0 266.41508909649201 326.04775672554388 0 0 0 0 6.6078093697890701 -48.06531219749202 0 -48.06531219749202 -63.969193992691068 0 0 0 0 -14.533225273253294 -65.618233526577114 0 -65.618233526577114 405.1118944890768 0 0 0 0 -29.391760420265939 104.44599855411889 0 104.44599855411889 52.214054019823379 0 0 0 0 -5.5364496947451753 11.581027693972704 0 11.581027693972704 -67.731613447214869 0 0 0 0 -7.814695938307743 21.106545321278702 0 21.106545321278702 19.474090768675524 0 0 0 0 -16.547644389611897 44.143103025244365 0 44.143103025244365 -34.817314478780126 0 0 0 0 424.33621991040854 -117.3117148301817 0 -117.3117148301817 -775.13316644899533 0 0 0 0 -562.04761972363826 -159.69572884065064 0 -159.69572884065064 -14.132268833858689 0 0 0 0 -0.99545206127819519 -2.452369254633723 0 -2.452369254633723 -13.666931490630724 0 0 0 0 -81.247240069030511 4.1398684873265665 0 4.1398684873265665 -28.443484985313262 0 0 0 0 79.779134252443328 -119.6423173658095 0 -119.6423173658095 -109.6708316219474 0 0 0 0 74.290394217523158 -158.83369331577978 0 -158.83369331577978 -132.75668535930527 0 0 0 0 -115.79010422869101 -102.06462485898555 0 -102.06462485898555 27.298303275343642 0 0 0 0 -544.93557644432531 -1319.5245025564382 0 -1319.5245025564382 -397.9218884327986 0 0 0 0 327.9783844331314 532.95443007246649 0 532.95443007246649 -526.21128928990515 0 0 0 0 15.546527873940594 -46.724904059103729 0 -46.724904059103729 -57.754695791388798 0 0 0 0 44.261861338777635 -30.448729320100483 0 -30.448729320100483 -19.114178012441698 0 0 0 0 -21.475209121475018 -126.09087511260077 0 -126.09087511260077 32.757369039978585 0 0 0 0 -1.8101238504489334 -17.908270860111095 0 -17.908270860111095 -26.614061975790548 0 0 0 0 85.543599423046544 -236.68317680428663 0 -236.68317680428663 238.83225503693757 0 0 0 0 378.97893579720858 -328.82523417752054 0 -328.82523417752054 15.320762237228337 0 0 0 0 274.05676096068146 241.28696945461161 0 241.28696945461161 -151.63280346479587 0 0 0 0 109.51953115034667 -166.9313654534435 0 -166.9313654534435 -645.77441144428121 0 0 0 0 22.890477837594517 107.97615943165692 0 107.97615943165692 -398.25058645641548 0 0 0 0 15.412342839230405 -102.33641188484216 0 -102.33641188484216 -225.96436035609986 0 0 0 0 182.07286703928457 -217.19562090249201 0 -217.19562090249201 4.2805940252947039 0 0 0 0 30.593199280333465 -8.8476976669965097 0 -8.8476976669965097 -58.013125177581969 0 0 0 0 -35.093802781488193 -32.095240326842031 0 -32.095240326842031 -99.433085219523491 0 0 0 0 86.107717940027214 -60.57853845673344 0 -60.57853845673344 -106.21262432941876 0 0 0 0 -42.49102439894159 53.420119126422833 0 53.420119126422833 -126.42009095753019 0 0 0 0 84.052638673170804 67.065690534571331 0 67.065690534571331 -124.94867101884302 0 0 0 0 22.975174563964174 53.127990901833982 0 53.127990901833982 -274.3846046707331 0 0 0 0 13.020423225896593 -18.603855669588484 0 -18.603855669588484 -438.53901204553767 0 0 0 0 -90.10966014989026 12.083412270305416 0 12.083412270305416 -275.43580695809231 0 0 0 0 -40.133612014187747 63.442456311833666 0 63.442456311833666 -248.12315701949046 0 0 0 0 -40.681672590440542 -127.5593181512437 0 -127.5593181512437 -741.8837700343247 0 0 0 0 -47.523523643996697 93.93848917742929 0 93.93848917742929 -493.88939176042913 0 0 0 0 -44.635539544011408 -98.186422755031344 0 -98.186422755031344 -701.44782499471057 0 0 0 0 -161.11063249734798 -223.54927105505067 0 -223.54927105505067 -850.94460518883261 0 0 0 0 -137.80487246127086 -41.695456363753692 0 -41.695456363753692 -730.39506002320377 0 0 0 0 -41.079638916755357 -63.584505454954524 0 -63.584505454954524 -925.32510525162797 0 0 0 0 -126.93835386147475 -398.29958404714671 0 -398.29958404714671 -1130.3729974616544 0 0 0 0 -61.238077738442371 -243.96551981852463 0 -243.96551981852463 -1108.3029539991285 0 0 0 0 247.57619663450896 -153.02415061717329 0 -153.02415061717329 -1547.2328651938151 0 0 0 0 256.8974944078609 -335.31216397264325 0 -335.31216397264325 -1163.5216645737892 0 0 0 0 172.35334343330192 -21.539932524101914 0 -21.539932524101914 -810.8009083763136 0 0 0 0 150.64580600992122 -283.34105552013352 0 -283.34105552013352 -1166.3528428466889 0 0 0 0 -25.972967324480123 -13.291018966690899 0 -13.291018966690899 -801.45107102301517 0 0 0 0 19.777819319591799 230.58808562515514 0 230.58808562515514 -250.38557404070042 0 0 0 0 24.105162577021474 215.69906218840151 0 215.69906218840151 -119.05056115651678 0 0 0 0 96.104138193131803 231.6841486850517 0 231.6841486850517 -250.42008837958872 0 0 0 0 77.085535463882479 194.07938574992386 0 194.07938574992386 -231.69488004856976 0 0 0 0 0.83101161339254759 183.27546429982067 0 183.27546429982067 -93.236285419679916 0 0 0 0 19.923147695801163 161.37684546826858 0 161.37684546826858 -355.18421634737751 0 0 0 0 -45.435429301967815 189.40850600944577 0 189.40850600944577 -229.1634917564561 0 0 0 0 11.243592689916113 163.2837028154463 0 163.2837028154463 -248.18491904399707 0 0 0 0 -61.770191140931274 87.284868855998866 0 87.284868855998866 -279.90047169975605 0 0 0 0 -27.530182029880962 105.14972285655676 0 105.14972285655676 -111.79696248579421 0 0 0 0 47.746347031134064 107.06854631933493 0 107.06854631933493 -198.2243864694592 0 0 0 0 23.889564688355676 47.878227959360629 0 47.878227959360629 -280.43631866758733 0 0 0 0 -37.222797680929943 139.44330585658645 0 139.44330585658645 -152.93621621323837 0 0 0 0 -51.934408345276097 117.00646905586746 0 117.00646905586746 -312.16808947109166 0 0 0 0 -58.406048224351252 3.1662096148793353 0 3.1662096148793353 -444.37883705862441 0 0 0 0 -108.80028653506679 72.659468779258304 0 72.659468779258304 -489.30192740378698 0 0 0 0 -75.059099531823449 -32.503958614869589 0 -32.503958614869589 -675.08681830118439 0 0 0 0 -219.28107017678485 -94.620562935464477 0 -94.620562935464477 -653.99394528220409 0 0 0 0 -154.96516726275695 81.864426496961642 0 81.864426496961642 -477.1647930941981 0 0 0 0 -81.500734865228878 26.906827942000746 0 26.906827942000746 -604.90201223445547 0 0 0 0 -45.050063664781192 63.445494005694854 0 63.445494005694854 -476.37326111674884 0 0 0 0 -64.268627856002922 143.64967710587865 0 143.64967710587865 -362.04072215537235 0 0 0 0 -103.67055363315558 133.92841883074925 0 133.92841883074925 -346.56645506864515 0 0 0 0 -34.280966755406553 124.64041755264225 0 124.64041755264225 -455.44116676010162 0 0 0 0 -84.668236602692559 154.50612233439006 0 154.50612233439006 -482.47235857945634 0 0 0 0 -166.83082966990696 84.584285763668959 0 84.584285763668959 -441.05624207859 0 0 0 0 -22.761063596361055 272.27181492821546 0 272.27181492821546 -279.36886882293402 0 0 0 0 -90.5511724358621 124.61357163984485 0 124.61357163984485 -412.84836132760756 0 0 0 0 -176.47625142458855 63.150476309638634 0 63.150476309638634 -398.70243945484617 0 0 0 0 49.38803189945429 203.98823052853095 0 203.98823052853095 -341.39912102972812 0 0 0 0 -81.649323125875526 204.46779991983976 0 204.46779991983976 -327.72110642247571 0 0 0 0 -67.964289319737873 59.134050452967131 0 59.134050452967131 -869.05903118443166 0 0 0 0 -82.003017443203134 91.023962933442817 0 91.023962933442817 -845.73416118541718 0 0 0 0 -102.52303027745802 108.92061846557863 0 108.92061846557863 -777.6777296587934 0 0 0 0 -182.97484095595428 49.91047166356293 0 49.91047166356293 -806.92198684850155 0 0 0 0 -51.506366836169036 18.302366626493495 0 18.302366626493495 -799.59188274678672 0 0 0 0 -148.79405098126517 -8.132652100548512 0 -8.132652100548512 -543.42885596141241 0 0 0 0 -126.96159273617741 93.149379674182455 0 93.149379674182455 -467.23521959231402 0 0 0 0 -144.90771587191153 -51.187845201111344 0 -51.187845201111344 -725.57412436999221 0 0 0 0 -148.93322727082341 63.923522214104196 0 63.923522214104196 -670.75192097928084 0 0 0 0 -214.37947194099814 -74.645772677621409 0 -74.645772677621409 -820.90804861965444 0 0 0 0 -216.14182802582945 20.00771410226298 0 20.00771410226298 -759.76824353915072 0 0 0 0 -156.93497985872818 -35.172572896462952 0 -35.172572896462952 -709.77381865201733 0 0 0 0 -161.79468550326783 -8.4610728341967842 0 -8.4610728341967842 -803.6439548419803 0 0 0 0 -326.36976352096099 2.4497257014627394 0 2.4497257014627394 -765.14899618205527 0 0 0 0 -267.31896545416384 -107.56398495093526 0 -107.56398495093526 -859.18368835486035 0 0 0 0 -307.63638246736082 -79.953665581559108 0 -79.953665581559108 -800.96889048630146 0 0 0 0 -313.03135892395949 -108.91616303672163 0 -108.91616303672163 -968.88318344530489 0 0 0 0 -281.69290416784497 -155.55359443824455 0 -155.55359443824455 -921.50603382662666 0 0 0 0 -382.40589673199065 -90.958188791293651 0 -90.958188791293651 -898.14417083187072 0 0 0 0 -360.84158242660124 -130.86998776074051 0 -130.86998776074051 -828.1737671554838 0 0 0 0 -218.75470483696699 -101.23012610512342 0 -101.23012610512342 -842.97583977116301 0 0 0 0 -226.85505502614978 8.1896645167762472 0 8.1896645167762472 -581.70727657502084 0 0 0 0 -129.88901657341739 -65.407218597656083 0 -65.407218597656083 -769.31237311682344 0 0 0 0 -264.83655867059497 -21.200036626079964 0 -21.200036626079964 -728.8407292753709 0 0 0 0 -313.83951336086284 -121.45084594973832 0 -121.45084594973832 -740.97854771942184 0 0 0 0 -204.26611562270773 -187.4069077365757 0 -187.4069077365757 -882.36253315733484 0 0 0 0 -280.45002562378249 -254.68877805593866 0 -254.68877805593866 -858.35838558687647 0 0 0 0 -287.88658604539069 -381.94349539309633 0 -381.94349539309633 -1039.4770914656892 0 0 0 0 -481.85537591404136 -256.33346736540261 0 -256.33346736540261 -856.40209254614183 0 0 0 0 145.72260625311173 -521.60278578048246 0 -521.60278578048246 748.80642261620415 0 0 0 0 1228.6623554032667 655.28220018635784 0 655.28220018635784 -1026.7440127702721 0 0 0 0 -143.58755791030853 230.13220531909155 0 230.13220531909155 -211.33200069102531 0 0 0 0 -1215.6619464818941 1365.0247236895557 0 1365.0247236895557 -800.95688967247497 0 0 0 0 58.874272080507581 642.07276436956045 0 642.07276436956045 -1096.6767331885712 0 0 0 0 -1218.9031492297217 1090.8036080124766 0 1090.8036080124766 -604.81273204506579 0 0 0 0 -1218.369222171852 1128.9590244003684 0 1128.9590244003684 -340.67010982691227 0 0 0 0 -13.627401804935943 0.56242830047384729 0 0.56242830047384729 2.1205173982272818 0 0 0 0 -616.68332126070163 439.01847006145726 0 439.01847006145726 343.05506791033622 0 0 0 0 -24.729745966513292 106.59843177252333 0 106.59843177252333 -574.9079154312567 0 0 0 0 -1548.230068095465 1789.5006462076853 0 1789.5006462076853 -226.45115096115842 0 0 0 0 -329.10032881782536 -243.742199330517 0 -243.742199330517 -1001.3404803127019 0 0 0 0 -64.843709032033104 54.135197876575972 0 54.135197876575972 -36.284537751574632 0 0 0 0 684.20388743272633 -856.0556940765091 0 -856.0556940765091 482.82913831254336 0 0 0 0 -499.2810727108299 -194.95419775560458 0 -194.95419775560458 -793.91320912282481 0 0 0 0 -250.4077264405496 -18.248846976761342 0 -18.248846976761342 -796.85103852580323 0 0 0 0 -456.21547783591814 -10.195508519616851 0 -10.195508519616851 -703.67706868630012 0 0 0 0 -299.91071130773344 34.092278688279293 0 34.092278688279293 -722.66711437260528 0 0 0 0 -132.95864882077149 -155.26792192730863 0 -155.26792192730863 41.201368422665837 0 0 0 0 144.66938589335768 -189.9407578519058 0 -189.9407578519058 7.375109692406113 0 0 0 0 393.19422401860356 1.7702388662382873 0 1.7702388662382873 -102.20759846668079 0 0 0 0 -332.20335988543229 573.64237013356615 0 573.64237013356615 -192.75305277827283 0 0 0 0 6.0224890656536445 16.256465021513577 0 16.256465021513577 35.114303832115183 0 0 0 0 -181.87470170893357 -36.048199650917013 0 -36.048199650917013 -716.79498175416666 0 0 0 0 160.78194161908323 173.73311415061744 0 173.73311415061744 19.047543280317768 0 0 0 0 -25.688020597047341 18.264243720100971 0 18.264243720100971 -7.6684132304043153 0 0 0 0 -60.248604456727776 60.023794785983313 0 60.023794785983313 -33.387814072804403 0 0 0 0 -118.91547180032649 -102.20507088822433 0 -102.20507088822433 -647.50320471485247 0 0 0 0 -130.37352288881812 -39.147828279374153 0 -39.147828279374153 -601.34096914736801 0 0 0 0 -188.01169628089701 -4.5452120907866629 0 -4.5452120907866629 -677.21514753108568 0 0 0 0 -139.94595122773535 -5.7011436374091318 0 -5.7011436374091318 -708.36000396788222 0 0 0 0 -188.05103622586466 0.88134792136042961 0 0.88134792136042961 -750.24614118555837 0 0 0 0 -191.78208056522271 34.519811726395346 0 34.519811726395346 -730.15857247093663 0 0 0 0 -226.75935511274292 66.578012658916123 0 66.578012658916123 -747.03836934748688 0 0 0 0 -148.02866280773742 55.994292375253281 0 55.994292375253281 -726.68438472973685 0 0 0 0 -157.54880462874735 530.62284699763654 0 530.62284699763654 615.51447016152269 0 0 0 0 -108.84119277496393 1015.7551909223007 0 1015.7551909223007 923.78921026265061 0 0 0 0 253.50799648786779 415.56232121039102 0 415.56232121039102 627.72587527463156 0 0 0 0 555.4092284776525 683.3814978249502 0 683.3814978249502 237.45248505169275 0 0 0 0 692.31349744518229 964.09674143785924 0 964.09674143785924 310.47268100788506 0 0 0 0 667.69551854565907 799.22621408303166 0 799.22621408303166 122.0571238587836 0 0 0 0 932.67910375431347 22.374540657037869 0 22.374540657037869 -44.054908763151047 0 0 0 0 -4.5633227512492907 -5.6700602709988468 0 -5.6700602709988468 -9.3639243938198824 0 0 0 0 1963.600458903652 229.19877298824395 0 229.19877298824395 -61.602878349923486 0 0 0 0 685.64263019567807 749.79466437103201 0 749.79466437103201 193.96029750653452 0 0 0 0 743.39586760301245 1644.2744655702961 0 1644.2744655702961 1360.1278656329819 0 0 0 0 -8.6182087056252179 4.3057790713554045 0 4.3057790713554045 -2.1602557471504884 0 0 0 0 2179.6983909522278 246.16658949588623 0 246.16658949588623 1815.2947110817879 0 0 0 0 -115.48800098404899 -722.93838074163978 0 -722.93838074163978 -1758.0364257519309 0 0 0 0 1901.6830937121786 1204.0193975358641 0 1204.0193975358641 355.83035763303542 0 0 0 0 -203.87781412971185 -220.43846970149752 0 -220.43846970149752 -1097.5139136791004 0 0 0 0 -30.686230457289639 -185.73511142346251 0 -185.73511142346251 -1098.6848133861822 0 0 0 0 -242.96219289445071 -355.11474168777022 0 -355.11474168777022 -1004.2675203329459 0 0 0 0 -86.396452229302668 -391.90921937305984 0 -391.90921937305984 -1342.3589019062524 0 0 0 0 -92.190767437023169 -114.20674457455334 0 -114.20674457455334 -852.49047551439071 0 0 0 0 -159.35378183362081 -261.64715223172288 0 -261.64715223172288 -985.82793437559212 0 0 0 0 -78.490202631699503 422.43669177553784 0 422.43669177553784 1194.1894923868458 0 0 0 0 -53.705939849039098 40.114313907508837 0 40.114313907508837 -24.633948804496811 0 0 0 0 258.97288100773949 217.68169942027635 0 217.68169942027635 483.98843589262469 0 0 0 0 -27.983825451754178 20.965140880304684 0 20.965140880304684 -13.46890663034398 0 0 0 0 -13.953861203030101 361.95459464651049 0 361.95459464651049 797.21090324904344 0 0 0 0 117.85792551475606 169.29361002010774 0 169.29361002010774 683.02168639897263 0 0 0 0 195.59912988006909 283.32313005668402 0 283.32313005668402 454.27967998016175 0 0 0 0 183.64730900689392 110.98606601367146 0 110.98606601367146 325.91101654263548 0 0 0 0 116.66042107714111 264.05997820527682 0 264.05997820527682 468.87523754052017 0 0 0 0 313.3386277929676 274.33163104274081 0 274.33163104274081 161.22333172776598 0 0 0 0 208.31773455312941 -62.751548974720208 0 -62.751548974720208 143.35816382887242 0 0 0 0 88.095452534827928 328.30441620892816 0 328.30441620892816 -173.49092680080867 0 0 0 0 156.94306524854619 331.20372348652018 0 331.20372348652018 -180.53163187009704 0 0 0 0 183.78731874317549 370.38277297283861 0 370.38277297283861 -558.35303860688873 0 0 0 0 21.705268215817341 250.10687247220267 0 250.10687247220267 -225.91519376489123 0 0 0 0 3.5116663963635801 552.13138497072578 0 552.13138497072578 -794.47550397907617 0 0 0 0 301.21664655950735 90.237580960681953 0 90.237580960681953 -125.46853378151718 0 0 0 0 182.24397292489448 199.7440225074788 0 199.7440225074788 -400.13484349369537 0 0 0 0 272.33505986583623 355.61410316342517 0 355.61410316342517 -190.96440360898305 0 0 0 0 333.66422958213298 163.37588604158736 0 163.37588604158736 -225.89920018986595 0 0 0 0 291.69118520630764 165.44364460393626 0 165.44364460393626 -105.28665095564793 0 0 0 0 319.35977721664312 260.90209333268649 0 260.90209333268649 -191.4873641442282 0 0 0 0 433.66377470560565 -84.647227886748169 0 -84.647227886748169 30.113995493571565 0 0 0 0 554.1484471076401 255.84329410914142 0 255.84329410914142 -74.15046146214263 0 0 0 0 359.50029560058465 143.67804403626906 0 143.67804403626906 100.27071714716112 0 0 0 0 643.86766701620581 360.58439068202915 0 360.58439068202915 231.27306385869088 0 0 0 0 363.78021595764949 485.9202105151835 0 485.9202105151835 184.92864444974475 0 0 0 0 -267.23771866722291 321.63453225792728 0 321.63453225792728 -178.46823352437059 0 0 0 0 7.5688366638124212 6.2409803982161867 0 6.2409803982161867 -6.2975469103864441 0 0 0 0 -43.926151088832739 54.078883591904741 0 54.078883591904741 -206.78080721556398 0 0 0 0 955.40334654749086 -33.331829075787027 0 -33.331829075787027 -31.380537220156839 0 0 0 0 706.76189599078771 639.0587061381857 0 639.0587061381857 -342.16358350668816 0 0 0 0 408.54415045309088 441.56778939128708 0 441.56778939128708 -278.44747449643 0 0 0 0 11.811258975044055 13.96822447385069 0 13.96822447385069 -12.227184033885734 0 0 0 0 241.06778193253922 51.041680117268697 0 51.041680117268697 -44.164013276702462 0 0 0 0 218.39625084406271 91.276833503383386 0 91.276833503383386 -115.27781975505786 0 0 0 0 197.01570799379658 -6.2940923994956393 0 -6.2940923994956393 -30.393478322497685 0 0 0 0 221.93716764685894 90.714144794812 0 90.714144794812 -119.02735595173726 0 0 0 0 44.738111356594345 239.0744812238263 0 239.0744812238263 -181.74805327102513 0 0 0 0 182.5637513905931 223.5590853496542 0 223.5590853496542 -267.30173041846137 0 0 0 0 -130.17640911732133 89.838391205308653 0 89.838391205308653 -80.57370502698177 0 0 0 0 -27.765579435625568 30.059077058882394 0 30.059077058882394 -48.219686977259698 0 0 0 0 0.33715838257595987 -4.2676786333094796 0 -4.2676786333094796 -9.147969981726531 0 0 0 0 -33.054839936309236 236.21849158235273 0 236.21849158235273 -227.59299657386146 0 0 0 0 119.61921681813783 162.85608666847111 0 162.85608666847111 -192.73668283433653 0 0 0 0 -112.81255456788359 198.88920093610568 0 198.88920093610568 -257.69318316932186 0 0 0 0 -109.75171637562926 290.12642175710062 0 290.12642175710062 -303.36395697841363 0 0 0 0 39.167559513698507 209.59113286751381 0 209.59113286751381 -261.07329420881433 0 0 0 0 102.8858671103626 306.3970555347405 0 306.3970555347405 -365.95236576653406 0 0 0 0 1.7463404732270646 320.96144521357201 0 320.96144521357201 -316.10797138989437 0 0 0 0 -22.81460994956683 375.78428046900103 0 375.78428046900103 -404.16997746942798 0 0 0 0 2.3944727941161545 347.12273032672238 0 347.12273032672238 -422.35453781377146 0 0 0 0 -159.08711483481056 343.9427301192336 0 343.9427301192336 -377.18963583849836 0 0 0 0 -17.368264845765765 277.72888461435468 0 277.72888461435468 -350.54627840241301 0 0 0 0 149.96212747119716 403.65050149534363 0 403.65050149534363 -437.01398767714636 0 0 0 0 121.64648230490275 463.45984548657179 0 463.45984548657179 -434.32688413861615 0 0 0 0 45.290206593861512 407.0439352890171 0 407.0439352890171 -434.56908224489962 0 0 0 0 205.90606986972489 341.14543651218992 0 341.14543651218992 -372.51832386977912 0 0 0 0 79.932092412274415 404.23038749696752 0 404.23038749696752 -399.3855114957114 0 0 0 0 164.7545419385151 430.52670351046618 0 430.52670351046618 -428.9476745789143 0 0 0 0 254.93158263957594 334.02539669994439 0 334.02539669994439 -373.23854978907912 0 0 0 0 281.78574557508182 231.93901222349086 0 231.93901222349086 -285.42051120431825 0 0 0 0 118.87384833584838 338.72465484112763 0 338.72465484112763 -322.27684241218958 0 0 0 0 399.66021412169357 106.19067285779965 0 106.19067285779965 -189.5202798903847 0 0 0 0 196.90453097274212 212.59646589475187 0 212.59646589475187 -234.9499824677041 0 0 0 0 367.1701967241097 219.72411516537613 0 219.72411516537613 -342.12456352696609 0 0 0 0 225.92141907690439 342.39715916520072 0 342.39715916520072 -332.14387350190373 0 0 0 0 164.48525103152497 432.983050322895 0 432.983050322895 -396.21783282820604 0 0 0 0 95.466399830707815 575.90207699450548 0 575.90207699450548 -592.96332798716412 0 0 0 0 129.33451136048825 334.94525164851802 0 334.94525164851802 -627.67175647992553 0 0 0 0 273.96573383855139 418.36539080372677 0 418.36539080372677 -516.74373417827155 0 0 0 0 -102.47546959447209 484.1806531532493 0 484.1806531532493 -523.86463699749766 0 0 0 0 -362.62295388891653 279.79696631551997 0 279.79696631551997 -538.77797245556576 0 0 0 0 -13.139524995283864 586.93905987802282 0 586.93905987802282 -940.83950855027069 0 0 0 0 -545.3060781294007 418.18748498368404 0 418.18748498368404 -54.216657569078961 0 0 0 0 -19.424127674112242 531.59606056592747 0 531.59606056592747 -435.41487552104809 0 0 0 0 84.708401771731587 482.31277382288681 0 482.31277382288681 -412.10420368185805 0 0 0 0 -84.420902900732472 513.53970329797448 0 513.53970329797448 -230.60636160441936 0 0 0 0 -6.7218100305508415 105.04975756949125 0 105.04975756949125 34.129914753888443 0 0 0 0 156.97661487344158 486.50225869472342 0 486.50225869472342 -442.28855121471133 0 0 0 0 196.3830838426984 443.13470653494005 0 443.13470653494005 -428.80067041455186 0 0 0 0 161.98215138227897 486.15139975878992 0 486.15139975878992 -474.66176433020883 0 0 0 0 93.931284013247932 535.32782173262967 0 535.32782173262967 -427.92132045995095 0 0 0 0 105.69542325125803 454.96030174106272 0 454.96030174106272 -438.85427156047081 0 0 0 0 115.4522801332314 485.16405542904795 0 485.16405542904795 -346.03593823808478 0 0 0 0 108.21822153354151 388.18351646618976 0 388.18351646618976 -365.99976554307068 0 0 0 0 94.580447846605239 418.77495599556642 0 418.77495599556642 -254.18744439037982 0 0 0 0 62.601818586786976 249.78905217734064 0 249.78905217734064 -412.1750893847784 0 0 0 0 101.61803778880858 407.34854220271882 0 407.34854220271882 -416.49889265184174 0 0 0 0 192.85572769539431 264.9479939582161 0 264.9479939582161 -142.92113438945671 0 0 0 0 128.88029585728145 270.6518486350833 0 270.6518486350833 -14.416551245099981 0 0 0 0 929.41220791916567 -174.01838498389407 0 -174.01838498389407 -335.53650901738729 0 0 0 0 5.4849081751088349 8.0652090079980603 0 8.0652090079980603 -3.0231914917757479 0 0 0 0 373.09626222646693 -67.848455219271273 0 -67.848455219271273 98.06918597681215 0 0 0 0 240.43395738278559 232.79190941364686 0 232.79190941364686 -269.15684465134109 0 0 0 0 663.51106840594002 177.59044843386073 0 177.59044843386073 -473.87629324742011 0 0 0 0 103.90753198196762 281.31568380690805 0 281.31568380690805 -399.17475823842688 0 0 0 0 139.56380947040452 199.8926195745662 0 199.8926195745662 -215.22155758968256 0 0 0 0 168.5807575002982 151.18422990697945 0 151.18422990697945 -415.94590827926004 0 0 0 0 258.969432865626 10.575111227837624 0 10.575111227837624 -197.33544114168762 0 0 0 0 51.278575116091815 81.628608177437854 0 81.628608177437854 -383.28372264679638 0 0 0 0 86.76463980065455 127.83979795542109 0 127.83979795542109 -546.94941884026048 0 0 0 0 89.361925304419856 92.155759018332901 0 92.155759018332901 -645.79014526146057 0 0 0 0 78.954874457536789 273.95709061952221 0 273.95709061952221 -604.57379227687488 0 0 0 0 37.288197633077289 319.33072401362006 0 319.33072401362006 -662.85206544498942 0 0 0 0 88.88891557835268 137.2143473422384 0 137.2143473422384 -756.1038535679254 0 0 0 0 65.42418820389139 217.98746415890491 0 217.98746415890491 -880.15639516127794 0 0 0 0 -11.954557576913771 309.2239880448069 0 309.2239880448069 -1098.2927586855221 0 0 0 0 8.5888201538205067 220.16466378868245 0 220.16466378868245 -755.55473111922038 0 0 0 0 23.209760704246946 272.40045297137112 0 272.40045297137112 -813.29888231232326 0 0 0 0 -111.94329259935967 426.11298315707973 0 426.11298315707973 -621.6991539329174 0 0 0 0 -137.7995852299627 351.67993188103719 0 351.67993188103719 -600.90172615152551 0 0 0 0 -163.45739689196591 357.53016388154356 0 357.53016388154356 -416.29964845551876 0 0 0 0 -318.93706928671145 457.38848009197682 0 457.38848009197682 -458.69790387763351 0 0 0 0 -32.896046429981652 404.02396813280939 0 404.02396813280939 -507.32476187586144 0 0 0 0 -9.1731969088177721 330.47988635752699 0 330.47988635752699 -533.87106674788811 0 0 0 0 71.237830278420006 399.15143827753855 0 399.15143827753855 -487.2196440447442 0 0 0 0 -18.287889251020715 379.11822572371693 0 379.11822572371693 -481.02736362315773 0 0 0 0 56.953308829044545 367.85004305020993 0 367.85004305020993 -444.27377128613898 0 0 0 0 114.4685479350992 448.59857170585747 0 448.59857170585747 -434.78868973010685 0 0 0 0 49.712581139730901 268.61523282230337 0 268.61523282230337 -555.81835109986423 0 0 0 0 68.356863033142872 385.77407861935353 0 385.77407861935353 -563.68655632228183 0 0 0 0 -32.191983670141781 138.10761667323368 0 138.10761667323368 -209.6913763909979 0 0 0 0 -7.8989540551629034 102.65281940130808 0 102.65281940130808 -159.59609234875825 0 0 0 0 18.94490901480458 29.614656230046421 0 29.614656230046421 -132.92854546882518 0 0 0 0 28.957590547319327 18.966795055680336 0 18.966795055680336 -20.43223600813262 0 0 0 0 57.477062421457958 127.43092288296612 0 127.43092288296612 7.9229515784636533 0 0 0 0 -7.4464710601023398 -45.580744877213874 0 -45.580744877213874 -59.104490925656137 0 0 0 0 135.21920491964556 3.4716904439555947 0 3.4716904439555947 -73.282406736518169 0 0 0 0 71.500787074123309 -34.688997200221593 0 -34.688997200221593 -90.388195445801102 0 0 0 0 22.594694538704061 -15.129762388130985 0 -15.129762388130985 -50.670525893190643 0 0 0 0 -34.829969938757131 124.62412558924734 0 124.62412558924734 -227.15828689316913 0 0 0 0 23.2826449025507 -1.1339114574217497 0 -1.1339114574217497 -27.901011114659212 0 0 0 0 -4.5131763930166926 12.886550248996173 0 12.886550248996173 -32.641062677357695 0 0 0 0 -14.469947454992507 -1.5753015779482666 0 -1.5753015779482666 -26.247425450050287 0 0 0 0 35.939424187825352 -62.416071307443417 0 -62.416071307443417 -144.23079086297366 0 0 0 0 -42.698512415576261 -75.324932137986252 0 -75.324932137986252 -54.05539103494084 0 0 0 0 -229.77644045806301 51.039170118161564 0 51.039170118161564 -86.023192199478217 0 0 0 0 -84.886351682496752 20.012111495336285 0 20.012111495336285 14.957996009230556 0 0 0 0 2.6912923965144344 4.6188310555975747 0 4.6188310555975747 -10.833907250955278 0 0 0 0 -641.47031851539214 610.05824333532473 0 610.05824333532473 -402.1100746722077 0 0 0 0 -467.08232973642407 584.76828503461275 0 584.76828503461275 -419.35494924317754 0 0 0 0 -6.9261523809560117 2.902998554981707 0 2.902998554981707 3.4624631184404535 0 0 0 0 14.326107560700621 29.646379372989031 0 29.646379372989031 -19.621489125414882 0 0 0 0 5.3657603370859093 7.8565782413372744 0 7.8565782413372744 -27.371008261700013 0 0 0 0 -120.4811643610301 300.15324664373838 0 300.15324664373838 -731.91406215139796 0 0 0 0 -3.8755371468452751 11.609695122955273 0 11.609695122955273 -36.129908721103448 0 0 0 0 6.1748954259310267 9.4482518498225545 0 9.4482518498225545 -31.768985483684446 0 0 0 0 371.70720434781106 103.2617842832733 0 103.2617842832733 -129.36444598026719 0 0 0 0 -10.697115432827559 76.58268104587296 0 76.58268104587296 -67.142530484852614 0 0 0 0 -3.6398772383108735 60.045224541294374 0 60.045224541294374 -92.126970781770069 0 0 0 0 8.4112183322809457 16.5875861505152 0 16.5875861505152 -2.1515503497511475 0 0 0 0 62.544438624259783 27.365504189023341 0 27.365504189023341 -194.74084465481428 0 0 0 0 47.317532265296904 -19.397172321416292 0 -19.397172321416292 -46.119619501216221 0 0 0 0 -421.59316783968097 475.78065580254406 0 475.78065580254406 -122.89583363314159 0 0 0 0 -339.91882783713663 390.465308652776 0 390.465308652776 -286.15198195341509 0 0 0 0 -127.36116633936763 126.1854118648771 0 126.1854118648771 -799.24577944449265 0 0 0 0 11.157492070546596 12.032187608829979 0 12.032187608829979 -25.882264773724955 0 0 0 0 75.202665473672823 118.04778372491637 0 118.04778372491637 -251.59434901086206 0 0 0 0 -336.361626314727 157.57328062466217 0 157.57328062466217 158.35751318762777 0 0 0 0 58.490077006892534 791.87839295295998 0 791.87839295295998 -1210.6338668811077 0 0 0 0 -3.5664918194240016 43.688994825270115 0 43.688994825270115 -92.696012893144086 0 0 0 0 1.9387130819079346 -2.8474775721444843 0 -2.8474775721444843 -29.583072621034972 0 0 0 0 -84.25602480078669 102.34784072821276 0 102.34784072821276 -354.40197034141238 0 0 0 0 -144.34045077521296 241.59759539163133 0 241.59759539163133 -323.3372085941046 0 0 0 0 5.3044554825100931 -4.2791328716484713 0 -4.2791328716484713 -26.775523845996304 0 0 0 0 12.212506855747165 -6.3442081159243529 0 -6.3442081159243529 -58.474885694845028 0 0 0 0 -140.8085225395771 150.97710304272368 0 150.97710304272368 -218.19551006957045 0 0 0 0 -12.100016437725571 133.13725708303537 0 133.13725708303537 -279.80965692515747 0 0 0 0 4.8861654380161781 108.28048760804268 0 108.28048760804268 -222.97353376098454 0 0 0 0 -106.71393911749692 123.61038882585035 0 123.61038882585035 -208.80302621900773 0 0 0 0 11.244601367485046 28.224419063519846 0 28.224419063519846 -49.053059258984014 0 0 0 0 -4.8894970638663153 40.460388713449149 0 40.460388713449149 -60.169503333955774 0 0 0 0 74.619618007491226 37.652713406148905 0 37.652713406148905 -181.33753692015853 0 0 0 0 67.332055234655854 102.46843397683915 0 102.46843397683915 -244.87599185742874 0 0 0 0 92.849173558337498 81.186075555244315 0 81.186075555244315 -181.79160783316911 0 0 0 0 72.250389023669413 -6.0770562235575198 0 -6.0770562235575198 -15.491443778570101 0 0 0 0 61.728687946597347 42.070720407638873 0 42.070720407638873 -202.75311857055567 0 0 0 0 51.885746548206953 52.502857603294615 0 52.502857603294615 -213.60139759114827 0 0 0 0 20.47696626992547 81.527867520607288 0 81.527867520607288 -224.03063943317829 0 0 0 0 -17.434882650240979 115.99955646819762 0 115.99955646819762 -225.76616379278857 0 0 0 0 27.407985618861858 104.43676287328708 0 104.43676287328708 -251.0549543696452 0 0 0 0 14.143796508069499 103.87380515823543 0 103.87380515823543 -219.33491413632146 0 0 0 0 22.251919493530295 94.536507345901555 0 94.536507345901555 -210.32309633160185 0 0 0 0 82.712814868339137 50.182612320926182 0 50.182612320926182 -34.252532379679906 0 0 0 0 47.373177457178826 41.451422735222877 0 41.451422735222877 -84.655550391777069 0 0 0 0 -14.348486269951536 117.01644636383571 0 117.01644636383571 -140.4394228734709 0 0 0 0 6.3448448057389015 -2.0438006371615529 0 -2.0438006371615529 -3.1066305572222319 0 0 0 0 95.557204951335734 -15.049495111863507 0 -15.049495111863507 -61.097299594555807 0 0 0 0 42.793997206936183 14.526564971700282 0 14.526564971700282 -26.092294954840327 0 0 0 0 16.538288863829379 25.826836269725561 0 25.826836269725561 -25.716965404330551 0 0 0 0 23.621369570329989 41.877991486726387 0 41.877991486726387 -11.91749604515644 0 0 0 0 -103.95801041412051 152.68348469520788 0 152.68348469520788 375.05186929087358 0 0 0 0 5.8304622525506886 -3.9404737016208777 0 -3.9404737016208777 -17.618289467067566 0 0 0 0 20.043036672484732 9.9398454050236467 0 9.9398454050236467 -45.913950900487478 0 0 0 0 8.6413274972292129 1.1293803291991935 0 1.1293803291991935 -66.439473092985281 0 0 0 0 85.501261778819753 -74.006281320889684 0 -74.006281320889684 23.040383428698988 0 0 0 0 -75.688408207890461 16.518633737454365 0 16.518633737454365 -54.693343196456681 0 0 0 0 43.615599483993719 6.7898745867132675 0 6.7898745867132675 -56.971066146419616 0 0 0 0 -28.801502672700735 -30.170332782416153 0 -30.170332782416153 1.1426966444632853 0 0 0 0 113.2918774611353 -23.478374767470086 0 -23.478374767470086 0.83917055166239152 0 0 0 0 -11.276123453153559 -23.966829926704122 0 -23.966829926704122 115.9178075712407 0 0 0 0 64.697965404062415 -19.680907020709128 0 -19.680907020709128 -63.721305037994171 0 0 0 0 -12.690328856140695 -72.363451529416125 0 -72.363451529416125 145.5519636031604 0 0 0 0 -90.225080289383186 187.37591565574985 0 187.37591565574985 -280.4350671792854 0 0 0 0 69.315768950996471 -42.889706765463188 0 -42.889706765463188 -26.857897723779264 0 0 0 0 163.55549940204946 426.12432665780216 0 426.12432665780216 -865.13551284294226 0 0 0 0 57.340852261720897 -52.365108995765667 0 -52.365108995765667 -19.167344170303839 0 0 0 0 104.76746439882481 215.48379213644148 0 215.48379213644148 -737.22811742727936 0 0 0 0 -95.185122547911305 184.22954945528181 0 184.22954945528181 -215.72035469360344 0 0 0 0 41.683834872259467 -33.920048760919599 0 -33.920048760919599 68.670551561948741 0 0 0 0 34.303715667226697 -119.74379691609283 0 -119.74379691609283 137.36992994891261 0 0 0 0 47.569969147278698 -102.04478350947329 0 -102.04478350947329 25.355176456068875 0 0 0 0 26.314952500651998 -76.288939766371186 0 -76.288939766371186 -125.23775906921946 0 0 0 0 58.094138130973079 -74.787947423154037 0 -74.787947423154037 -64.017134046443971 0 0 0 0 20.317969992109283 -33.695818956206494 0 -33.695818956206494 -25.475901023164624 0 0 0 0 62.542203353259538 -37.487623680219258 0 -37.487623680219258 -97.380069740043837 0 0 0 0 -102.88373063250401 10.262172483780887 0 10.262172483780887 -96.560269897694525 0 0 0 0 -471.22025541249241 -410.70324205062207 0 -410.70324205062207 -969.01589899258397 0 0 0 0 -18.252737680403726 -19.475886886813214 0 -19.475886886813214 -11.157158751487934 0 0 0 0 766.65937109293009 363.59176153559019 0 363.59176153559019 -2627.4650873981227 0 0 0 0 1475.9528062911704 -64.3567591182873 0 -64.3567591182873 -2797.2667199409298 0 0 0 0 1514.0101347445598 1028.3795312249058 0 1028.3795312249058 -2118.9340716769184 0 0 0 0 267.34266551445035 1862.3336361738602 0 1862.3336361738602 -3693.4204496290477 0 0 0 0 -331.39298010478524 -1836.7542589594159 0 -1836.7542589594159 -3148.0452969277394 0 0 0 0 -515.1510686223628 -474.68785912054591 0 -474.68785912054591 -945.14457925977331 0 0 0 0 12.954545849084752 -51.265812725299838 0 -51.265812725299838 -145.31546628107753 0 0 0 0 -13.641476438022764 -16.15956715772505 0 -16.15956715772505 -9.6819222750212077 0 0 0 0 39.261404897461034 -4.421079963869488 0 -4.421079963869488 -222.9909267444018 0 0 0 0 15.008188552688807 83.181056675344735 0 83.181056675344735 -250.44915646807931 0 0 0 0 -44.532797082065372 5.1919263340168982 0 5.1919263340168982 -65.411817732544478 0 0 0 0 -123.91351309112179 425.67878139187997 0 425.67878139187997 -279.59287118683278 0 0 0 0 250.74898909782496 -3.2799317848348437 0 -3.2799317848348437 -1883.121578693419 0 0 0 0 -646.44791321198863 -974.52434761250333 0 -974.52434761250333 -2006.9008155126066 0 0 0 0 -43.841124942737224 -196.3647759920641 0 -196.3647759920641 -1414.9821758448197 0 0 0 0 -55.086909315774392 -592.22105123505025 0 -592.22105123505025 -1878.8943383634178 0 0 0 0 2.5872553170629544 97.071858140639961 0 97.071858140639961 -1184.0626119268509 0 0 0 0 -3.6828074684199237 -61.284634279945749 0 -61.284634279945749 -1093.0140521376889 0 0 0 0 -133.02346889304317 -257.73300034233398 0 -257.73300034233398 -1274.7068114278154 0 0 0 0 16.006570335848664 23.666783267661231 0 23.666783267661231 -769.62283677636879 0 0 0 0 31.673301608476322 -101.08289006690029 0 -101.08289006690029 -1054.0357455026096 0 0 0 0 -87.550634900704608 133.10912201878818 0 133.10912201878818 -404.25645189120405 0 0 0 0 2.2973937860733713 228.20803474537388 0 228.20803474537388 -749.28251813609677 0 0 0 0 -250.98656333101098 -40.732304715740611 0 -40.732304715740611 -33.706997442845022 0 0 0 0 145.10167078483028 22.890292374367164 0 22.890292374367164 -371.04726015788037 0 0 0 0 206.21341825150557 4.150301920626589 0 4.150301920626589 -348.64218061558131 0 0 0 0 11.350489936860754 -7.6128790913837889 0 -7.6128790913837889 -3.3717987622139631 0 0 0 0 19.927180061571391 -64.411250496175285 0 -64.411250496175285 -21.700009153265036 0 0 0 0 64.586822476285761 -88.348623008831055 0 -88.348623008831055 -72.744308184490365 0 0 0 0 -138.38134197553609 -177.56512353918879 0 -177.56512353918879 116.3034050509832 0 0 0 0 170.77408164936742 -163.7073158885687 0 -163.7073158885687 -863.97644445809556 0 0 0 0 170.32930556271543 -67.614853217855512 0 -67.614853217855512 -1294.9808442894282 0 0 0 0 -4.280571686784242 -58.651728034026746 0 -58.651728034026746 -643.00956622812021 0 0 0 0 56.157953980679054 -145.90592971278602 0 -145.90592971278602 -598.08622946538526 0 0 0 0 49.097295190777004 52.315997573112327 0 52.315997573112327 -723.82630860903009 0 0 0 0 284.34759601113183 -5.9169304107053904 0 -5.9169304107053904 -1061.8861648660895 0 0 0 0 47.261118268230348 -100.04717635302222 0 -100.04717635302222 -457.74699691780006 0 0 0 0 338.8601086002418 202.76208939453136 0 202.76208939453136 -408.10767508913705 0 0 0 0 -117.38609632845328 -249.76758930995129 0 -249.76758930995129 -564.35932311374199 0 0 0 0 108.06080237766218 -56.229968742656638 0 -56.229968742656638 14.342207243404118 0 0 0 0 107.74762319436992 -85.819837112100657 0 -85.819837112100657 17.618488345528021 0 0 0 0 77.575583687346807 -78.583862459847296 0 -78.583862459847296 22.405269178776507 0 0 0 0 62.481423414057645 -40.732315153851232 0 -40.732315153851232 10.556949823241666 0 0 0 0 18.949822716935159 -89.480209756016848 0 -89.480209756016848 159.16594381345203 0 0 0 0 15.297858242289294 -4.9328026761468209 0 -4.9328026761468209 68.445470890867 0 0 0 0 40.489887093215067 -58.246067001160355 0 -58.246067001160355 -21.985689650928791 0 0 0 0 84.199085023306907 -36.101957146536733 0 -36.101957146536733 -96.514055422238016 0 0 0 0 3.526232499818434 -46.64646689685469 0 -46.64646689685469 -80.099876995605882 0 0 0 0 6.333462496836205 -60.386728648645203 0 -60.386728648645203 -182.18424644815968 0 0 0 0 80.733848717771252 -26.934562107773672 0 -26.934562107773672 -48.044909852447745 0 0 0 0 80.687292674010678 -33.015935257506499 0 -33.015935257506499 -91.244600394657027 0 0 0 0 95.560628802584688 -54.969157925021136 0 -54.969157925021136 -111.28575833122886 0 0 0 0 -1821.5251845321836 519.54401942295226 0 519.54401942295226 -1193.2007667999278 0 0 0 0 87.207648967598288 -42.10182267361597 0 -42.10182267361597 -150.43507617447904 0 0 0 0 92.405668677045469 -25.807842773087032 0 -25.807842773087032 -117.42611811990446 0 0 0 0 -5.4480793926844413 -11.214487398944186 0 -11.214487398944186 -8.195771591042103 0 0 0 0 -161.93402952338511 -191.11623948146735 0 -191.11623948146735 146.26172942969788 0 0 0 0 85.277492803347286 -9.1193359157723535 0 -9.1193359157723535 -66.03273613548663 0 0 0 0 -256.26217141382352 -815.55563459380755 0 -815.55563459380755 -1449.3789427411975 0 0 0 0 -319.40655851561496 -407.89940074674814 0 -407.89940074674814 -144.75313103840745 0 0 0 0 -71.345836904514442 -311.81598174614373 0 -311.81598174614373 -465.46811660146341 0 0 0 0 -233.48163774571185 -102.1034590370582 0 -102.1034590370582 -58.041537225974025 0 0 0 0 -8.0618489997596043 -104.90984055640001 0 -104.90984055640001 -150.44530159790156 0 0 0 0 32.946092705238243 -300.49101477610748 0 -300.49101477610748 -1235.0268118631357 0 0 0 0 -134.46961295342226 -303.28989027080388 0 -303.28989027080388 -466.5234688403807 0 0 0 0 4.9138445874800709 -189.24828375905781 0 -189.24828375905781 -654.46071790807218 0 0 0 0 -10.646726167296947 -172.27599037315667 0 -172.27599037315667 -556.78001044723351 0 0 0 0 -17.066021016112927 -130.30696650290702 0 -130.30696650290702 -320.72533230455156 0 0 0 0 -6.4514953905585699 -40.541834154758163 0 -40.541834154758163 -82.769404209754128 0 0 0 0 507.64360039165967 -82.822885839754235 0 -82.822885839754235 -1053.2194254506685 0 0 0 0 -10.855404799049211 -332.20414418735527 0 -332.20414418735527 -460.65688819265051 0 0 0 0 -22.473841199764991 -354.55090334866679 0 -354.55090334866679 -484.42026129335136 0 0 0 0 -39.305516944984447 -307.39226880967908 0 -307.39226880967908 -353.53752803912357 0 0 0 0 4.9121982690947643 -4.4275055429766894 0 -4.4275055429766894 3.5090862681486215 0 0 0 0 -301.36470476796558 -214.50940308120698 0 -214.50940308120698 -34.661785582218727 0 0 0 0 3.5761499489234563 -68.131095179616352 0 -68.131095179616352 -34.790073114342476 0 0 0 0 116.69227766590302 825.60927596705733 0 825.60927596705733 -818.66249637939472 0 0 0 0 -1495.612244718177 -233.63740114218672 0 -233.63740114218672 -1455.2963682386035 0 0 0 0 -1107.3230009222461 852.73214606981492 0 852.73214606981492 -2631.3966573746438 0 0 0 0 -314.28709038742272 1794.0361256231117 0 1794.0361256231117 -3097.8875087518827 0 0 0 0 -291.74240695932531 -7.3958020127101918 0 -7.3958020127101918 -2148.3305827832664 0 0 0 0 612.43759035148537 -602.63225227587373 0 -602.63225227587373 -1618.416316416653 0 0 0 0 -442.70982812038392 113.09189755977422 0 113.09189755977422 -1093.3843009088596 0 0 0 0 -118.88604171082079 -50.860823382812669 0 -50.860823382812669 -1747.4565029962105 0 0 0 0 230.29642643285842 152.92105872967295 0 152.92105872967295 -2135.848670977226 0 0 0 0 -8.9737910289870086 3.1768435271049924 0 3.1768435271049924 -2.8096735635865286 0 0 0 0 599.19856020613224 41.294360598549247 0 41.294360598549247 -4154.7745804625811 0 0 0 0 -165.12102582352236 441.8273181419936 0 441.8273181419936 538.95695566889844 0 0 0 0 -628.33129672334235 1394.1291692641134 0 1394.1291692641134 -1804.4007084544573 0 0 0 0 157.01921078165105 -503.41705061426183 0 -503.41705061426183 -1070.4727260991458 0 0 0 0 17.054039445329181 -8.4865269748250967 0 -8.4865269748250967 -13.670127102024303 0 0 0 0 -973.93857140417458 2.161348981262563 0 2.161348981262563 863.604985365826 0 0 0 0 -436.99001286883504 131.47580913001366 0 131.47580913001366 129.0511752701932 0 0 0 0 634.41564092705448 605.53261051507434 0 605.53261051507434 -1562.8098731417322 0 0 0 0 208.76588300875665 138.17384867808687 0 138.17384867808687 -1343.2787399420922 0 0 0 0 2.2149297161051322 -0.57840889879807378 0 -0.57840889879807378 0.33147339085363825 0 0 0 0 -146.98598508570831 -46.933880955806671 0 -46.933880955806671 -360.23872488112829 0 0 0 0 -5.3192418228468341 -21.27508085106362 0 -21.27508085106362 -66.633961574522402 0 0 0 0 909.34967381765182 -356.35385815345944 0 -356.35385815345944 -541.28855788252258 0 0 0 0 -198.51745612253399 43.596589309767296 0 43.596589309767296 -637.37168703073644 0 0 0 0 -77.675282346783206 -308.34602390353757 0 -308.34602390353757 -620.19077014200593 0 0 0 0 -244.48640976423667 232.61311151753762 0 232.61311151753762 -867.27009075088426 0 0 0 0 -121.22996200828129 99.626320135068454 0 99.626320135068454 -1009.7853715281526 0 0 0 0 -139.64479214803214 474.29240799454419 0 474.29240799454419 -2736.5935799754006 0 0 0 0 -160.36954773650723 503.98692539922922 0 503.98692539922922 -1792.2230291281394 0 0 0 0 -251.76372717377672 79.398868928801676 0 79.398868928801676 -948.56716313338256 0 0 0 0 -130.37203844769283 185.67869623281513 0 185.67869623281513 -1115.629173611851 0 0 0 0 -502.30920809759118 305.63601688623748 0 305.63601688623748 -1066.8207796443166 0 0 0 0 -240.58694395334533 207.49504911384065 0 207.49504911384065 -1234.4111253796 0 0 0 0 -602.6744702716951 355.78261180919435 0 355.78261180919435 -505.46314615345909 0 0 0 0 -3.4465988157249257 5.007155892048246 0 5.007155892048246 -31.643466588136487 0 0 0 0 -264.94298380598775 -239.95358321521053 0 -239.95358321521053 -1170.9275734836001 0 0 0 0 47.018626445717018 -53.180109454704507 0 -53.180109454704507 -1080.1622488525536 0 0 0 0 -397.37395265721443 334.26803358099187 0 334.26803358099187 -1128.8554167128314 0 0 0 0 -73.109103164691987 152.99332582110947 0 152.99332582110947 -1028.4808936988993 0 0 0 0 -122.534426293465 45.045721148206212 0 45.045721148206212 -1133.3901930592037 0 0 0 0 44.419340164058667 -201.61574552711681 0 -201.61574552711681 -879.36051372250949 0 0 0 0 -113.85979040266409 -242.26434892624877 0 -242.26434892624877 -821.37630071815511 0 0 0 0 61.428917794637528 12.892359028119245 0 12.892359028119245 -1186.1867958962102 0 0 0 0 -222.87458589050584 478.87847454487928 0 478.87847454487928 -1099.0924634170806 0 0 0 0 -112.52458548048844 328.55468823934916 0 328.55468823934916 -1385.4088664249866 0 0 0 0 28.715094654666245 -21.729049722125637 0 -21.729049722125637 -1313.5463807813576 0 0 0 0 -28.355419864274154 414.91195370277637 0 414.91195370277637 -2271.0586418322346 0 0 0 0 61.40720478084404 94.886560658946109 0 94.886560658946109 -1196.826524173106 0 0 0 0 -256.05400555758752 636.73969735895662 0 636.73969735895662 -1727.9359698407425 0 0 0 0 -237.00539436515101 -782.26755467338808 0 -782.26755467338808 -1633.0226742514496 0 0 0 0 -9.2202749385558231 6.2738670223058648 0 6.2738670223058648 -3.4146786624763763 0 0 0 0 -960.30840200800594 249.60516543452104 0 249.60516543452104 -1193.2788849288336 0 0 0 0 -24.834601397848637 15.565044812280831 0 15.565044812280831 -11.886670174168245 0 0 0 0 -3.8365660007930273 53.85621776654807 0 53.85621776654807 -41.109577785930014 0 0 0 0 -238.98053183621596 -186.41423589862461 0 -186.41423589862461 -562.72330100902036 0 0 0 0 -0.63143686552052714 4.6691272888312767 0 4.6691272888312767 -10.047032117415938 0 0 0 0 15.231269539503046 12.887130975392211 0 12.887130975392211 -83.986776181147434 0 0 0 0 34.058357748708659 -5.9657790013734484 0 -5.9657790013734484 -73.609224749437999 0 0 0 0 10.913751240888814 20.43039683283132 0 20.43039683283132 -96.56866769248154 0 0 0 0 0.55837108768027122 9.762854247824734 0 9.762854247824734 -19.255276220125495 0 0 0 0 38.231720348361705 45.927900446338754 0 45.927900446338754 -122.58658241926241 0 0 0 0 -5.9649885867224661 24.006862427307279 0 24.006862427307279 -70.701252084315882 0 0 0 0 -22.218294851132669 28.882419160237987 0 28.882419160237987 -70.116071758093312 0 0 0 0 -280.40332125735245 -104.71113584208433 0 -104.71113584208433 -705.33010477290372 0 0 0 0 8.601352800789968 9.4145468635247909 0 9.4145468635247909 -109.39965459999314 0 0 0 0 94.827274863391722 -215.01274108354119 0 -215.01274108354119 -887.98991028581804 0 0 0 0 -173.62550633080218 -293.86915490463434 0 -293.86915490463434 -970.36145615589339 0 0 0 0 7.0510794676997985 13.231731915143541 0 13.231731915143541 -34.979429151893598 0 0 0 0 -45.184600940543532 -136.63837698035786 0 -136.63837698035786 -734.60613105395169 0 0 0 0 13.770652696216899 2.0016650155233435 0 2.0016650155233435 -26.181143718105659 0 0 0 0 14.382940760086058 -4.0986577910516644 0 -4.0986577910516644 -127.86553498719513 0 0 0 0 8.3263232566823717 -1.8886157441520481 0 -1.8886157441520481 -93.083840547260479 0 0 0 0 5.6511552511728951 0.12614853833656525 0 0.12614853833656525 -100.9283598097245 0 0 0 0 23.315569074471568 11.913787128200056 0 11.913787128200056 -102.74783681242479 0 0 0 0 45.282737850198373 -8.6325241535087116 0 -8.6325241535087116 -125.76078136577053 0 0 0 0 -90.910604644260957 -144.64912246254607 0 -144.64912246254607 -190.84723632816167 0 0 0 0 1.7160123138710333 9.2685283177925157 0 9.2685283177925157 -107.47218474536203 0 0 0 0 8.5554899133958884 -4.9953406680987342 0 -4.9953406680987342 -102.1704865358879 0 0 0 0 5.4828792219708511 4.6117742635223919 0 4.6117742635223919 -91.338689531469981 0 0 0 0 12.069855435422596 31.734883605335199 0 31.734883605335199 -127.12885640346212 0 0 0 0 23.261865704762386 9.6357021185322083 0 9.6357021185322083 -90.22788949227288 0 0 0 0 21.774591630874056 8.1356902754378098 0 8.1356902754378098 -83.748938946140697 0 0 0 0 -84.041581158167901 67.109214947093278 0 67.109214947093278 -41.233280590284267 0 0 0 0 -0.75945256795775862 24.178653983355673 0 24.178653983355673 -28.442365085041885 0 0 0 0 18.457709235238326 7.9684294866783603 0 7.9684294866783603 -22.409674984976654 0 0 0 0 16.249135637293875 81.969623461969604 0 81.969623461969604 -69.020338172966149 0 0 0 0 2.8820227526157396 51.045767803545459 0 51.045767803545459 -121.17482569516869 0 0 0 0 22.712658180291491 -17.393142808679215 0 -17.393142808679215 -46.682246217553796 0 0 0 0 24.000826011131991 3.2386433837826303 0 3.2386433837826303 -56.882811571196214 0 0 0 0 21.913784139334894 -4.1133772128778219 0 -4.1133772128778219 -58.928024151049613 0 0 0 0 8.1868537790581009 2.7420314772739669 0 2.7420314772739669 -59.188654592021948 0 0 0 0 30.276936498863506 13.834597428605775 0 13.834597428605775 -88.701314535854181 0 0 0 0 -292.59087060683851 183.34140668585314 0 183.34140668585314 -87.047849942900939 0 0 0 0 2.0116767677630616 4.6810331513429588 0 4.6810331513429588 -4.8541437663548663 0 0 0 0 16.029393767633508 -8.5664039082191721 0 -8.5664039082191721 -21.416321750027031 0 0 0 0 -0.33815688670074451 -58.962968911833741 0 -58.962968911833741 -141.3597932814082 0 0 0 0 15.729256130995054 7.3340148361530737 0 7.3340148361530737 -71.38306684314739 0 0 0 0 10.184148353702945 -2.8905524427490974 0 -2.8905524427490974 -32.906674421715884 0 0 0 0 10.380349376150662 -0.92990835874843469 0 -0.92990835874843469 -101.27344568390254 0 0 0 0 20.356011482608665 16.262558983937197 0 16.262558983937197 -77.059441291945404 0 0 0 0 20.104050831385287 -12.730346456049077 0 -12.730346456049077 -89.842749208322289 0 0 0 0 29.215693495430969 25.838181050543426 0 25.838181050543426 -123.66065691064432 0 0 0 0 17.896561952285992 -6.6348290772002656 0 -6.6348290772002656 -115.20428237765736 0 0 0 0 46.823747275193455 31.631552644088515 0 31.631552644088515 -123.52937868285517 0 0 0 0 -37.879892289056443 -46.420536628706031 0 -46.420536628706031 -142.13419595604682 0 0 0 0 -28.924514907226694 -87.808287594314606 0 -87.808287594314606 -195.60821750963805 0 0 0 0 -10.417376687844808 33.847732054957305 0 33.847732054957305 -249.43591159705829 0 0 0 0 27.732221257792844 16.412379823508672 0 16.412379823508672 -157.34107727561423 0 0 0 0 -4.5661495780659607 37.752239875873784 0 37.752239875873784 -160.44412782100972 0 0 0 0 -5.6016774118874011 42.570515421423053 0 42.570515421423053 -61.972928183357979 0 0 0 0 -0.47824302371373051 -4.7632833036695956 0 -4.7632833036695956 32.210352245607282 0 0 0 0 -9.0102103794606592 57.923918813810815 0 57.923918813810815 -104.83809770626613 0 0 0 0 2.1797319289312895 20.979858499674634 0 20.979858499674634 -11.679933474268809 0 0 0 0 2.6068269830211648 40.166760154694202 0 40.166760154694202 15.086641101472196 0 0 0 0 11.84171340559551 19.165215421130966 0 19.165215421130966 -4.8580596802081111 0 0 0 0 41.372591145705883 -13.61844466207549 0 -13.61844466207549 81.858541041211993 0 0 0 0 -15.515824041244173 46.992020769961528 0 46.992020769961528 -48.230844751447876 0 0 0 0 -207.28634584849397 156.8681036646849 0 156.8681036646849 -217.53022860913188 0 0 0 0 6.7814764868963184 -5.0598825053487957 0 -5.0598825053487957 -51.7725514068525 0 0 0 0 225.89771295105675 -48.67926727575832 0 -48.67926727575832 -181.18739407003159 0 0 0 0 269.6164428539214 43.103132777061546 0 43.103132777061546 -477.21769479886279 0 0 0 0 -199.9819808853199 190.84260478538636 0 190.84260478538636 -154.07227040414 0 0 0 0 -23.629628189746654 34.444284227050957 0 34.444284227050957 15.453460361299221 0 0 0 0 224.4528116360907 231.60063678136066 0 231.60063678136066 -999.71522476838436 0 0 0 0 -291.75751798526289 107.06970181639917 0 107.06970181639917 -223.21127979891025 0 0 0 0 -280.56181019313931 251.53365580251557 0 251.53365580251557 -271.6515764206415 0 0 0 0 -210.50298153303083 254.43788988918823 0 254.43788988918823 -289.24556278916134 0 0 0 0 -10.497409550198427 3.7845717761795399 0 3.7845717761795399 5.9660177217157297 0 0 0 0 -18.292464590016607 20.728758396093326 0 20.728758396093326 12.920445040792401 0 0 0 0 -13.874158228740271 -80.953795489040203 0 -80.953795489040203 -286.54745209999965 0 0 0 0 -49.202252157938346 94.394086641303147 0 94.394086641303147 -99.776333251124015 0 0 0 0 -30.480632049744599 31.835772918559087 0 31.835772918559087 -58.43482202955056 0 0 0 0 -43.107595838595444 -29.093819679648732 0 -29.093819679648732 -5.1871433149062796 0 0 0 0 -50.544151417729154 120.96302429025673 0 120.96302429025673 -347.45559718002551 0 0 0 0 -350.75348009237496 325.20379511547071 0 325.20379511547071 359.96011336329684 0 0 0 0 -160.8087762526884 -127.57567618177563 0 -127.57567618177563 214.57767259103821 0 0 0 0 -109.74137516092742 -64.417489537529036 0 -64.417489537529036 -23.113699568493757 0 0 0 0 -1100.1330935009901 631.2857534587456 0 631.2857534587456 -433.12743233970832 0 0 0 0 -353.44247478690068 353.58849888715486 0 353.58849888715486 -305.7806796865334 0 0 0 0 -376.04086862140321 325.8582553203305 0 325.8582553203305 -329.47858196323796 0 0 0 0 -438.02888977131488 121.83744520177697 0 121.83744520177697 -154.35051355493488 0 0 0 0 -695.06650564497068 277.58473615879484 0 277.58473615879484 -169.87306420419372 0 0 0 0 -226.89702727049735 495.62743625322037 0 495.62743625322037 -831.20590362072107 0 0 0 0 -583.19065229618661 544.64098085946898 0 544.64098085946898 -459.59466918947874 0 0 0 0 -228.73330605691854 410.04712431181542 0 410.04712431181542 -758.39203992173134 0 0 0 0 -390.59422358021993 755.74832256527588 0 755.74832256527588 -1326.3378327343526 0 0 0 0 -296.19085777908003 757.72420506147319 0 757.72420506147319 -1637.7001282640485 0 0 0 0 -24.97735862294644 323.20333321708677 0 323.20333321708677 -1129.6971589114546 0 0 0 0 -76.932560518271202 253.48438789248758 0 253.48438789248758 -980.71716035720601 0 0 0 0 66.14149942163931 -183.86686266029938 0 -183.86686266029938 -70.310744141926989 0 0 0 0 3.4244685116699731 0.44505485003080025 0 0.44505485003080025 -22.287410539925077 0 0 0 0 -1115.0842728246844 1174.8350438364905 0 1174.8350438364905 -1088.839668114204 0 0 0 0 -187.88159770272978 828.38845736220537 0 828.38845736220537 -2294.1552701430828 0 0 0 0 2.6136002345574525 49.199542494421621 0 49.199542494421621 -697.81584278319497 0 0 0 0 -145.62026407532721 -161.66467081668816 0 -161.66467081668816 -4.9375808693584986 0 0 0 0 -42.317699150664339 1006.3680443246412 0 1006.3680443246412 -838.30351891319151 0 0 0 0 109.24613261735067 -62.521623625587381 0 -62.521623625587381 -87.636590807735047 0 0 0 0 16.305409245214832 -121.85703874057799 0 -121.85703874057799 -25.435229605442146 0 0 0 0 79.606701434053321 -39.547634960352298 0 -39.547634960352298 -83.821568428553292 0 0 0 0 86.123246036986529 105.76878407639742 0 105.76878407639742 -12.445649888624757 0 0 0 0 176.78244539681327 32.504684579693276 0 32.504684579693276 -101.06142707687104 0 0 0 0 61.700966901456923 1.8560523506093887 0 1.8560523506093887 -107.64139339154644 0 0 0 0 100.58160696637788 61.868908541066048 0 61.868908541066048 -103.78523281987145 0 0 0 0 27.103035651713071 26.998541089722494 0 26.998541089722494 -119.70028362626908 0 0 0 0 38.966512143169894 -2.6929706865475964 0 -2.6929706865475964 -128.50402806636703 0 0 0 0 58.381809021771915 11.335542657980113 0 11.335542657980113 -127.41507173894115 0 0 0 0 -25.983916480450716 -7.1213569928513607 0 -7.1213569928513607 -96.964299530065546 0 0 0 0 -15.394170926450897 -4.2886951892105571 0 -4.2886951892105571 -96.822385774561553 0 0 0 0 22.26102107837869 -40.516235120419879 0 -40.516235120419879 -82.163047821130021 0 0 0 0 
</DataArray>
<DataArray type="Float64" Name="cross_section_updated" format="ascii">
1 1 1 1 1 1 0.0098420827689968769 1 1 1 0.0097783512493508241 1 1 1 0.009674997760842817 1 1 1 1 1 1 0.008029582113054802 0.010049130583965574 1 1 1 1 0.00999318132543227 0.0082872607320281302 1 0.0090292061156820695 0.0054856599812928841 1 0.0044652743053794491 1 1 1 1.3166873147341107e-10 1 1 0.010591966792268509 1 1 1 1 1 1 1 0.009936315183939743 1 1 1 1 1 1 1 1 0.011402670405445995 1 1 0.0084402742054121415 1 0.012126952483784557 1 0.0095086913574076101 1 0.0062692191530286726 1 1 1 1 1 1 1 1 1 1 1 1 1 1 1 1 0.00729782347374789 1 1 1 1 1 1 1 1 0.010048668321841859 1 1 0.010338579185841093 0.0099395423945293424 1 1 1 1 1 1 1 1 1 1 1 1 0.010827510815376374 1 1 1 1 1 0.0060101087172364613 1 1 0.0070448131318227459 1 1 1 1 1 1 1 1 1 1 1 1 1 1 1 1 1 1 1 0.0061923729678509155 1 1 1 1 1 0.0083079888010276978 1 1 1 1 1 1 1 1 1 1 1 1 1 1 1 1 1 1 1 1 1 1 1 1 0.010099126690773686 1 2.4071000401248988e-10 1 1 1 0.0054546275956676576 1 1 1 0.0049754153015689057 1 1 1 0.0097843767464831349 -2.8859611922449346e-09 1 1 0.0058964216786257656 1 1 1 1 0.0049367798099575876 1 1 1 1 1 0.0094364816165002849 1 1 1 1 0.01001616194433886 1 0.0080869363227888923 1 1 0.0059557268576201361 1 1 1 0.010156782071896416 1 1 0.0067865638592212885 1 1 1 1 1 1 1 1 1 1 0.0059914017075326353 1 1 0.010011093374234434 1 1 1 1 1 1 1 0.0089662131903126014 1 1 1 1 1 1 1 1 1 1 1 1 1 1 1 1 1 1 1 1 1 0.0020187070473787639 1 -2.5417469951688476e-09 1 1 1 1 1 0.0099096329208529683 1 1 1 1 1 1 1 1 0.0042891552717863653 1 1 1 0.0067490613349681997 1 1 0.0033452779992813805 1 1 1 1 0.0077567163998597949 1 1 0.0090269414382498619 1 1 1 1 1 0.0080565004507596044 1 0.0095449205505048103 1 1 1 1 1 1 1 1 1 1 1 1 1 1 1 1 1 1 0.0093601072292255616 1 1 1 1 1 0.0047075203197151421 0.0023108361706788913 1 1 1 1 1 1 1 1 1 1 -1.1469261634172723e-09 1 1 1 1 1 1 1 1 1 0.0066223780115232025 1 1 0.0096278977632122207 0.0099837958244429377 1 1 1 0.010006454905375115 1 1 0.010954672760000395 1 1 1 1 1 1 1 1 1 1 1 1 1 1 1 0.00041178845387960031 1 1 1 1 1 1 1 1 0.0062129840170768724 1 1 0.0099500973480979252 1 1 1 1 0.0001108892010122306 1 1 1 1 1 1 1 1 1 1 1 1 1 1 0.0025972276486337584 2.5416851996258594e-05 1 1 0.0088014648785094407 0.0044975010565326129 1 0.0098634614489130461 1 0.0060157415265309185 1 0.0072185553370325353 1 1 0.010305888273776161 1 1 1 1 1 1 1 1 1 0.0045772537538838476 0.0090801678858402051 1 1 0.0082941097283004001 1 1 1 1 1 0.0019702574482370616 1 1 0.0015150921967012655 1 1 1 1 0.001607699352126981 1 1 1 0.0077244661482104892 1 1 1 0.0063004274075726154 1 0.0016097464249868656 1 1 0.010098894574812911 1 1 1 1 1 1 1 1 1 1 1 0.00989209999183043 1 1 1 1 1 1 0.0098021150233610476 1 1 1 0.010101117746575392 1 1 1 1 1 1 1 0.0043341369679552495 1 1 1 1 1 0.0095194054313842771 1 0.0093365137046146161 1 1 1 1 1 0.0090602934932722968 0.0068298918016581663 1 1 1 0.010005675802515584 0.0045275762430102319 1 0.0089664741773168143 1 1 1 1 1 1 1 0.0086689324449445784 1 1 1 1 1 1 1 1 1 1 1 1 1 1 0.0089589573632296998 1 1 0.0088693330094324271 1 0.0076278898081742763 1 1 1 1 1 1 1 1 1 1 1 1 1 1 0.0099417953468144051 1 1 1 1 1 1 1 1 1 1 1 1 1 1 1 1 0.010169571349040438 1 1 1 1 1 1 1 1 1 1 1 0.0095489622628332979 0.0088396588811517282 1 1 1 1 1 1 1 1 1 1 1 1 1 1 1 1 0.0050522853580742683 1 1 1 1 1 1 1 0.0070988080046507623 1 1 1 1 1 1 1 1 -1.1753785028600916e-09 1 1 1 0.0099087135375687651 1 1 1 1 1 1 1 1 1 1 1 1 1 1 1 1 1 1 1 1 1 1 1 1 1 1 1 1 0.0088348369406529084 1 0.0075502859381787538 1 1 1 1 1 1 1 1 1 1 1 1 1 0.0074055955095638643 1 1 1 0.0099982382975964609 1 1 1 1 1 1 1 1 1 1 1 1 1 0.010025934260477071 0.007120292163925887 1 1 1 1 1 1 1 0.0095114526800235792 1 1 1 1 1 1 1 1 1 1 1 0.0076090851471985119 1 1 1 1 1 1 1 0.0090273555373483749 1 1 1 1 1 1 1 1 1 1 1 1 1 1 1 1 1 0.0095128415878097464 1 1 1 1 1 1 1 1 1 1 0.010024304576439507 1 1 1 1 1 0.010162493633558324 1 1 1 0.010238620813220654 1 1 1 1 0.0047859222445826698 1 1 1 1 1 1 1 0.0092718855891596383 1 0.008700598749147935 1 1 0.0037981562309793854 1 0.0018582738220792941 1 1 1 1 1 1 1 1 1 1 1 1 1 1 1 1 1 1 1 1 1 1 1 1 1 1 1 1 1 1 1 1 1 1 1 0.0099868070685335611 1 2.5675736380764702e-09 0.0097604978347325989 1 1 1 1 1 1 1 1 1 1 1 -4.9445422201088718e-09 1 1 1 1 1 1 1 1.5899951980036242e-09 1 0.00951677451292318 1 0.0016237842088057189 1 1 1 1 1 1 0.0084838940949319326 1 0.010100431756101869 0.0061382598757038359 1 1 1 1 1 1 1 1 1 1 1 1 1 1 1 1 1 0.0093741778182086025 1 1 1 1 1 1 1 1 1 1 1 1 1 1 0.0096955947443235161 1 1 1 1 1 1 1 1 1 1 1 1 1 0.0078617970460344699 1 1 1 1 1 1 1 1 1 0.0088439400563480146 1 1 1 1 1 0.0039313115684914933 0.0097689131887545716 1 1 1 1 0.0087331490430227407 0.00054966601211541011 1 1 1 1 1 1 1 1 1 1 1 8.0750383029543071e-09 1 1 1 1 4.3284142709762181e-05 1 1 1 1 1 1 0.0052489037299280842 1 1 0.00082625641244137536 1 0.00095514929437912066 1 1 1 0.0084462735002537159 1 1 1 1 1 1 1 0.0099915739597647643 1 1 1 1 4.2623836335464738e-09 0.0030641915513798549 1 1 0.0101647489744769 1 1 1 0.0021804483220464604 0.01551967081986139 0.0066541052335931921 0.010016816416560818 1 1 0.0028588568979668119 1 1 1 1 1 1 1 1 0.0041881991060345632 0.0053911090684548475 1 1 1 1 1 1 0.0066412366096279297 1 -2.0837149852792614e-09 1 1 1 0.0095934437227498028 1 1 1 1 1 1 1 1 1 1 1 1 1 1 1 1 1 1 1 1 1 1 1 1 1 1 1 1 0.009106285310559542 1 1 1 1 1 1 1 1 1 1 1 1 1 1 1 1 1 1 1 1 1 0.010694500552679835 1 1 1 1 1 1 1 1 1 0.0086827390588434458 1 1 1 1 1 1 0.0099909674203101304 1 1 1 1 1 0.010349405083573345 1 1 1 1 1 0.010759759577590124 1 1 1 1 1 1 1 1 1 1 0.011626057102791772 1 1 1 1 0.012141911383657493 0.0065685333950839322 1 1 2.1591570822931949e-09 1 1 1 1 0.010046364417699103 1 1 0.0029463201481803522 1 1 1 1 1 0.01167649171724695 0.0099145880153235829 1 1 1 1 1 1 0.010028778726604088 1 1 1 1 1 1 1 0.0037273250940010397 0.0017605882297635975 1 1 1 0.012237029131032227 1 1 1 0.011394320440477688 1 1 -2.2093540261169942e-09 1 0.0027576401079424627 1 1 1 0.0077443229443072102 1 1 0.0095405516390062485 0.0097326797939818136 1 1 1 1 1 1 0.00093061408501356538 1 0.0029100429800293804 1 0.0089056839357138651 1 1 1 0.0099358649751433749 0.010303028602367523 1 0.0051536392787323998 1 1 1 1 1 1 1 1 1 1 1 1 1 1 1 1 0.010540802167634103 1 1 1 1 1 1 1 0.00087091788022636979 1 1 1 1 1 0.0098380358474029241 1 1 1 0.0092153838818792647 1 1 1 1 0.0086120075941841651 1 0.0099699761395149328 1 0.0085716574142554319 1 1 1 1 0.0044442369563732157 1 1 0.006152645596198679 1 1 1 1 1 1 1 1 1 1 1 0.011639599242583433 1 1 1 1 0.01275568122277292 1 1 1 1 0.0039848948680404409 1 1 1 1 1 1 0.0093884131682825181 1 1 1 0.010679869625797212 1 0.0099961270887606521 0.010737667904955533 1 1 1 1 1 1 1 1 1 1 1 1 1 1 1 1 1 1 1 1 1 1 1 1 1 1 1 1 0.0091891434390122661 1 1 0.009703578437835262 0.011482485246184511 1 0.010129761038500756 1 1 1 1 0.0062722527209812858 1 1 0.0087027066924613775 1 1 1 1 1 1 1 1 1 1 1 1 1 1 1 1 1 1 1 1 1 1 1 1 1 1 1 1 0.0097273790454194681 1 1 1 1 1 1 1 1 0.010073971334694369 1 1 1 1 1 1 1 0.010214226107005953 1 0.01000633822804548 1 1 1 0.0099613850141380099 1 1 1 1 1 1 1 0.01009304564653645 1 0.0099524264204438728 1 1 1 1 1 0.0099612760755671877 1 1 1 1 1 1 1 1 1 1 1 1 1 1 1 1 1 1 1 1 1 1 1 1 1 1 1 1 1 1 1 1 1 1 1 1 1 1 1 0.01071428223547799 0.008146337058257536 1 1 0.010067866953353426 1 1 1 0.0093961569369721883 1 1 1 0.0092572082374099158 0.010013945453791355 1 1 0.010249833172076409 1 1 1 1 1 1 1 1 1 1 1 1 1 1 1 1 1 1 1 1 1 0.014034797954280517 1 0.01138351471039652 1 1 1 1 1 1 1 1 1 1 1 1 1 1 1 1 1 1 1 1 1 1 1 1 1 1 1 1 1 1 1 1 1 1 1 1 1 1 1 1 1 1 1 1 1 0.0092907753129397239 1 0.0038708273966029335 1 0.0086437720542690416 1 1 0.0058658782453908445 1 1 1 1 1 1 1 1 1 1 1 1 1 1 1 1 1 1 1 1 1 1 1 1 1 1 1 0.010265275011288797 1 1 1 1 1 1 1 1 1 1 1 1 1 1 1 1 1 1 1 1 1 1 1 1 1 1 1 1 1 1 1 1 1 1 1 1 1 1 1 1 1 1 1 1 1 1 1 1 1 0.010004984994682123 1 1 1 1 0.010204853604339786 1 1 1 1 1 1 1 1 0.0093154889827263901 1 1 1 1 1 0.0086612273036288899 0.0076863579476191173 0.00068855756094242035 1 1 1 1 0.0086650073652686632 0.0059050221981446147 1 1 2.6215973211729526e-09 1 1 1 1 1 1 1 1 1 1 1 1 1 1 0.0079022744969926943 0.0099845586130843256 1 0.008566724434165774 1 1 1 1 1 1 1 1 1 1 1 1 1 1 1 1 1 1 0.010992107795731782 1 1 1 1 1 1 0.013075530846839661 1 1 1 1 1 1 1 1 1 1 1 1 1 1 1 1 1 1 0.0086307232992597245 1 1 1 1 1 1 1 1 1 0.0061406356336308979 1 1 0.0099730874870182645 1 1 1 1 1 1 1 1 1 1 1 1 1 1 1 1 0.0035720171974462905 1 0.0087220750244295722 1 1 1 1 0.010764851811054899 1 0.0067263711017171079 1 1 0.0093008519676931398 0.00095841947059294511 1 1 0.0082463599894860296 1 1 1 0.0094555427423549526 1 1 1 1 1 1 0.0099606526650398344 1 1 1 0.0022842159072206485 1 1 1 1 0.0051219196048566404 1 1 1 1 1 1 1 0.0083446450268861543 1 1 1 1 1 0.0049060611179921974 1 1 0.010102680354907342 1 1 1 1 1 1 1 0.0099557779511115045 1 1 1 0.0018693672225912512 0.0089356404494257049 1 1 1 1.0807829492476273e-09 1 1 1 1 1 0.0099804094556600279 0.0072237506772007002 0.0062516431987304048 1 1 1 1 1 1 1 1 1 0.010926515319822028 0.0089052350384085672 1 0.0093494611681144008 1 1 1 1 1 0.0090686921438694716 1 1 0.008171039789481499 1 0.0087371848805980895 1 1 1 0.0095228218494683263 1 1 0.0021576820465455081 1 1 1 1 1 1 1 0.0034231176743116151 1 1 0.0015484029324541997 0.0089335078546001704 1 1 0.003963483776037861 1 -3.0934039618041309e-09 1 1 0.0081377017742417304 1 1 3.699170150750497e-09 1 0.0037706217784717888 1 1 1 0.0080767297315646608 1 1 2.4072546744597495e-10 1 -3.3447812887443806e-09 1 1 -5.8456891584290904e-09 1 0.0091130784075605827 1 1 1 1 1.2305722205119274e-09 0.00033681586935172154 1 1 1 1 1 1 1 1 1 0.010177209820047182 1 1 1 1 1 1 1 1 1 1 1 1 1 1 1 1 1 1 0.0099637071376044856 0.012395634507262492 1 1 1 -1.1227699373526911e-09 1 1 1 1 0.0034191351480883127 1 1 0.0059593396609871176 1 1 1 0.0039789370681022713 1 1 0.005505664053522881 1 1 1 1 0.0099946824078402975 1 1 1 1 1 0.0093091096125089787 1 1 1 0.013836491927140301 0.0099820888425898938 1 1 0.0093581608358944586 1 1 1 1 1 0.00030970709782654482 0.010128745436709616 1 1 1 1 0.010031281360255573 1 1 1 1 -2.3557174386092811e-09 1 1 1 1 1 1 1 1 1 1 1 1 1 1 1 1 1 1 1 1 1 1 1 1 1 1 1 1 -2.0341666615020237e-09 1 1 1 1 1 1 1 1 1 1 1 0.0080062208024057786 1 1 1 1 0.009442746824673531 1 1 1 0.0094419261936017074 1 1 0.010056256362466308 1 1 1 1 1 0.0097108675086416112 1 1 1 1 1 1 1 1 1 1 1 1 1 1 1 1 1 1 1 1 0.0083188838558961795 1 1 1 1 1 0.0069894464356103966 1 1 1 1 1 1 1 0.01032540725537082 1 1 1 1 1 1 1 1 1 1 1 1 1 0.0097559528865710406 1 1 1 1 1 0.011311356287452593 0.0088287880933040509 1 1 1 1 -2.4171253713844987e-09 1 0.0099361881137398998 1 1 1 0.0090631310666110954 0.00055746160376894888 1 1 0.002443563410856938 1 1 1 0.0043768820811607833 1 1 1 1 -6.7008665283196933e-10 1 1 0.0095424169662090396 0.0098083350221781079 1 1 1 1 1 1 0.0095461816896901669 1 1 0.0099996433471365581 1 1 1 1 0.0091026475162844199 1 1 1 1 1 1 1 1 1 1 1 1 1 1 1 1 1 1 1 0.0074429042037867706 1 0.010375713804185779 1 1 1 0.0097367191053777408 1 0.0087861390674708398 1 0.0047168620393663345 1 1 0.0052222795307517271 1 1 0.0049261170908765119 0.009536106360978085 0.01241365066913281 1 1 1 0.0086816407451833465 1 1 1 1 1 1 0.010156954803261238 1 1 1 1 1 1 1 0.012754848219927855 1 0.0091561309702724771 1 1 1 1 1 1 1 0.010055606711178319 1 1 1 1 1 1 1 1 1 1 1 0.010226325700047809 1 1 0.0099885580999676451 1 1 1 1 1 1 1 1 1 1 1 1 1 1 1 1 0.0099155898537655798 1 1 1 1 1 1 1 1 1 1 1 1 1 1 1 1 1 1 1 1 1 0.010395678671985924 1 1 1 0.010224959683116434 1 1 1 1 1 1 1 1 1 1 0.010417703711633242 1 1 1 1 1 1 1 1 1 1 0.011366223118058048 1 1 1 1 1 1 0.0083230441667565807 1 1 1 0.0059763941189863827 1 1 1 1 1 1 1 1 1 1 1 1 1 1 1 1 1 1 1 1 1 0.010055710956164539 1 1 1 1 1 0.007040237055560083 1 1 0.0045009695710129857 1 1 1 1 1 1 0.0053664446682016595 1 1 1 1 0.0079711696801795778 1 1 1 1 1 1 1 1 1 1 1 1 1 1 1 1 1 1 0.0082624381716996584 1 1 1 1 1 0.0024585795488372645 1 1 1 0.00089977250306276079 1 0.0079118436289876519 1 1 1 1 1 1 1 0.0044757451444196409 1 1 1 0.0057590414979999663 0.004660851271697357 1 1 1 1 1 0.0098667807240034964 1 1 1 0.0095994864695038481 1 1 1 1 1 1 1 1 1 1 1 1 1 1 1 0.009763453598744861 1 1 1 1 1 1 0.0098605773457129918 1 1 1 1 1 1 1 1 1 1 1 0.010070979697809021 1 1 1 1 1 1 1 1 1 0.0037232083466790826 1 1 1 1 4.8363496558262442e-09 0.0061537291749730492 1 1 1 1 1 1 1 1 0.0017660655803089084 0.0056191725000417558 1 0.0018971025570670534 1 1 1 1 1 0.0098547209879573626 1 1 1 1 1 1 0.0096153269508991619 1 0.0099551191889131214 1 1 1 1 1 1 1 1 1 1 0.0099553613155848632 1 1 1 1 1 1 0.0075918242494714197 1 1 1 1 1 1 1 1 0.0055457405710354259 1 1 1 1 1 4.9814975755513302e-10 1 1 1.4228308930358535e-09 1 1 1 1 1 1 0.008871981876946643 1 1 1 1 1 1 1 1 0.0069646562797145029 1 1 1 1 0.0058908496535479494 1 1 1 1 1 1 1 1 1 1 0.0070414656267898182 1 1 1 1 1 1 1 1 1 0.0059141554710175192 1 1 1 1 0.0067920105208909096 1 1 1 1 1 1 1 1 0.0079910670204310988 1 0.0098942163908962676 1 1 1 0.0098048077259801775 1 1 1 1 1 1 1 1 0.008890436121893391 1 1 1 0.0071835408580868277 1 1 1 0.010189103856322265 1 1 0.0093885297037864142 1 1 1 1 1 1 1 1 1 1 1 1 1 1 1 1 1 1 1 1 1 1 1 1 1 1 1 1 1 1 1 1 1 1 1 1 1 1 1 1 1 1 1 1 1 1 1 1 1 1 1 1 1 0.0091885013749307149 1 1 1 0.009181740945752857 1 1 1 1 1 1 0.010348037383224264 1 0.0092511564793874099 1 1 1 1 0.0092406342861871167 0.0093034360428363508 1 1 1 1 1 1 1 1 1 1 1 1 1 1 1 1 1 1 1 1 1 1 0.0056914579281120096 1 1 0.0071932659332808423 1 1 1 0.0099375078475723126 1 1 1 1 1 1 1 1 1 1 1 1 1 1 0.0098702619884561797 1 0.0074963580144175 1 0.0066645608565848932 1 1 1 1 1 1 1 1 1 1 1 1 1 1 1 1 1 0.0080885886010423694 1 1 1 1 1 1 1 1 1 1 1 1 1 1 1 1 1 1 1 1 1 1 1 1 1 1 1 1 1 1 1 1 1 0.0099754402393113801 1 1 1 1 1 1 0.0078146638746110168 1 1 0.0091446923019731837 1 0.010034296069354381 1 1 0.0076259989706315041 1 1 1 0.0095134691901373521 1 1 1 1 1 1 1 1 1 1 1 1 1 1 1 1 1 1 1 1 1 1 1 1 1 0.009923409397532031 1 1 1 1 0.0099639788488373286 1 1 0.010041506183009877 1 1 1 1 1 1 1 1 1 1 1 1 1 1 1 1 1 1 1 1 1 1 1 1 1 1 1 1 1 1 0.0077670587691854084 1 1 1 0.0089132682882196689 1 1 1 1 0.0047877501374492901 1 1 1 1 1 0.0036227367186010689 1 1 1 1 2.6918839883484716e-05 1 1 1 1 1 1 1 1 1 1 1 1 1 1 0.0085954842751628426 0.0062642076293125959 1 0.00014454675952024418 1 -2.8653798951616682e-10 1 1 1 1 1 1 1 1 1 1 1 1 1 1 1 1 1 1 1 1 1 1 1 1 1 0.010357141299824128 4.1976962565637432e-09 1 1 -2.7879570449126923e-09 1 1 0.0033937104649173922 1 1 1 1 1 1 1 1 1 1 1 0.0045698595161443364 1 1 0.0077234719208393414 1 1 1 1 1 1 1 1 1 1 1 1 1 1 -4.5966245245873671e-09 0.009813367058669524 1 0.009384951198440657 0.0042605690068292512 1 1 1 1 0.0099377450876645054 1 1 1 0.0072030021616835589 0.0056183558016461325 1 1 1 1 1 1 1 0.0078489545275174585 1 1 1 1 1 1 1 1 1 1 1 1 1 1 1 1 0.0069881033189340613 1 1 1 1 0.0063743805054972602 1 1 1 1 1 1 1 0.0057174517724350293 1 1 1 1 1 1 1 0.007067515198413598 1 1 0.0090696060055274787 1 1 1 1 1 1 1 1 1 1 1 1 1 1 1 0.0096408184910914581 1 1 1 1 1 1 1 1 0.0063910772142145751 1 1 1 1 1 1 1 0.0068586695070110785 1 1 1 1 1 0.008694343434303824 1 1 1 1 0.0093512514610485792 1 1 1 1 1 1 1 1 1 1 1 1 0.0088254537613594898 1 1 1 1 1 1 1 1 1 1 1 1 1 1 0.010451879099749761 1 1 1 1 1 1 1 1 1 1 1 1 1 0.0081289258496392465 0.0073274358115379464 1 1 0.012401255704469739 1 1 1 1 0.0028100854296144104 1 1 1 7.015208613367005e-06 1 1 0.0065992445803245772 1 1 1 1 -3.0946095581907418e-09 1 1 1 1 1 1 1 1 1 1 1 1 1 1 1 1 1 1 1 1 1 1 1 1 1 1 1 1 1 1 1 1 1 1 0.0096872144141826183 1 1 1 0.0089395761912593116 1 0.0095883247302107465 1 1 1 1 1 1 1 1 1 1 1 1 1 1 0.0092781284457441916 1 1 1 1 1 1 1 1 0.008204464028665372 1 1 1 0.0096373099546527424 1 1 1 1 1 1 1 0.006393288596957509 1 0.0071345444752783545 1 1 1 1 1 1 1 1 1 1 1 1 1 1 0.009357547173122354 1 1 0.0097941534289355849 1 1 1 1 1 1 1 0.0066237597617559551 1 1 1 1 1 1 1 1 1 1 1 1 1 1 1 1 1 1 1 1 1 1 1 1 1 1 1 0.0092729253193454264 1 1 0.0030297917472908299 1 1 1 0.0053520147498465516 1 1 0.0077026674738245289 1 1 1 1 1 1 1 1 1 1 1 1 1 1 1 1 1 1 1 0.0092020750491184078 1 1 1 1 1 1 1 1 1 1 1 1 1 0.0096386813049316438 1 1 1 1 1 1 1 1 1 1 1 1 1 1 1 1 1 1 1 0.0088622390136941752 1 1 1 1 1 1 1 1 1 1 1 1 1 1 1 1 0.0098406324255881552 1 1 0.010060479142781163 1 1 1 0.0071963755821240066 1 1 0.007751444903365776 1 1 1 1 1 1 1 1 1 1 1 1 1 1 0.0071196929662419792 1 1 0.0062293498963502791 1 1 1 1 1 1 1 1 1 1 1 1 1 1 1 1 1 1 1 1 1 1 1 1 1 1 1 1 1 1 1 1 1 1 1 1 -1.3264882057356653e-09 1 1 1 1 0.0021302021740620975 1 1 1 1 1 1 1 1 1 1 1 1 1 1 1 0.0055495214208600603 1 0.0002249263213236069 0.0062930808632183245 1 1 0.0033137011198510098 1 0.0050382745297062412 1 1 1 1 1 1 1 1 0.012079311086352421 1 1 0.0095639618100053468 1 1 1 1 0.0059334431034828846 0.0024054105741636335 1 0.0029163177466346403 1 1 1 1 1 1 1 1 1 1 1 1 1 1 1 1 1 1 1 1 1 0.0082267511415073224 1 1 1 1 1 1 1 1 1 1 1 1 1 1 1 1 1 1 1 1 1 1 1 1 1 0.0092065080732890592 1 1 1 1 1 0.0095068962819246199 1 1 1 1 1 1 1 1 1 0.0072060373000128177 1 1 1 1 1 1 1 1 1 1 1 1 1 1 1 1 1 0.00983612158082031 0.0092573454028671079 1 1 0.0082508215504856017 1 1 1 0.0088074035465377995 1 1 1 1 1 1 1 1 1 1 0.0075620821438307203 1 1 0.0099418868995838558 1 0.0069701427886099954 1 1 1 1 0.008893364745230635 1 1 1 0.0097966694758045252 1 1 1 1 1 1 0.010018448404031696 1 1 1 1 1 1 0.01001830901854114 1 1 1 1 1 1 1 1 1 1 1 1 1 1 0.0092017538000962081 1 1 0.0077581832549050772 1 1 1 0.010376789954574734 0.010141167538596597 1 1 1 1 1 1 1 1 1 1 0.0061360140388827793 1 1 1 0.0064689998797583794 1 1 1 1 0.010176053767839921 1 1 1 1 1 1 1 1 -3.1052844115531109e-09 1 1 1 1 1 0.00056138389597729099 0.0065758141524223917 1 1 1 0.020490836584952637 1 0.0041996881779127818 0.0078470799016713347 1 1 1 1 1 0.0061942903877066696 1 1 1 1 1 1 0.010236726296071322 1 1 1 1 1 1 1 0.0066273356821373343 1 1 0.0059575564790333895 1 1 0.010001103880093195 1 1 1 1 1 1 1 1 1 1 1 1 1 1 0.0061521933317610503 1 1 1 0.0099447559858295478 1 1 3.4071278957881201e-09 1 1 1 1 0.0098375749654828898 1 1 1 1 1 1 1 1 0.0016032370451269859 1 1 1 1 0.017927438310639445 1 1 1 1 1 1 1 1 0.018491363002771564 1 1 1 1 1 1 1 1 1 0.0083628105768576034 1 1 1 0.0056992965668249546 1 1 0.0038676486874416184 1 1 0.0023522275118152388 1 1 1 1 1 1 1 1 1 0.0063268046385251903 1 1 1 1 1 1 1 1 1 1 1 1 1 1 1 1 0.0091576649191554282 1 1 1 1 1 1 1 1 1 1 1 1 1 1 1 1 1 1 1 1 1 1 1 1 1 1 -9.8995836875226395e-10 1 0.001287846372340494 1 1 1 1 1 1 1 1 1 1 -1.1405914771694947e-09 1 1 0.0089161767250385306 1 1 1 1 1 1 1 1 1 1 1 1 1 1 1 1 1 1 1 1 1 0.0087725253016365488 1 1 1 1 1 1 1 1 1 1.7867271308313892e-09 1 0.0099735411149697237 1 1 1 1 1 1 1 0.010907939698109371 1 0.010547328060197203 1 1 1 1 1 1 1 1 1 1 1 0.012908355214541485 1 1 1 1 0.0098627328159351449 1 0.0054357680124722738 1 1 1 1 1 1 0.01554189846801292 1 1 2.3126609030588163e-09 1 1 0.0007800389369513501 1 1 1 0.0049770636712803545 -1.6657122625662879e-09 0.0031391921674830889 1 1 1 1 1 1 1 1 1 1 1 1 1 0.00890763337012207 1 1 1 1 1 1 1 0.0098632653303848787 1 0.0075430648346302073 1 0.012839501308993941 1 1 0.009901519717909122 0.010001332054024696 1 1 1 1 1 1 0.0027011453701852109 1 1 1 1 0.009856906480287024 1 0.010975055566977032 1 0.0096245410133124765 1 0.01085265305112019 1 1 1 1 0.0048286315784763709 1 1 1 1 1 0.0079527345343440789 1 1 1 1 1 1 1 1 1 1 1 1 1 1 0.010286688802450965 1 1 1 1 1 0.0097362849399720841 1 1 1 0.009317160618138233 1 1 1 1 1 1 1 1 1 1 1 1 1 1 1 1 1 0.011840064988817865 1 1 1 1 0.011530763939147157 1 1 1 1 1 1 0.01009460345863944 1 1 1 1 1 1 1 1 1 1 0.0090532614562108468 1 1 0.0099149472273720937 1 0.010012160360784467 1 1 1 1 1 1 1 1 1 1 1 0.0093717225175556571 1 1 1 1 1 1 0.010185005546022495 1 0.0080462220960556066 0.010195998765413543 1 0.0096497446558639986 1 1 1 1 1 1 1 0.0092987549995024107 1 1 1 1 1 1 1 1 1 1 1 1 1 1 1 1 0.0099461858760595198 1 1 1 1 1 1 1 1 1 1 0.0093462763167330015 1 1 1 1 1 1 1 1 1 1 0.0085782540283117284 1 1 1 1 0.0092311589502086823 1 1 1 1 1 0.0094346788213850383 1 1 1 1 0.0094941742093209783 1 1 1 1 1 1 1 1 1 1 1 1 1 1 1 1 1 1 0.010470031870652714 1 1 1 1 1 1 1 1 0.0085081509150329721 1 0.011504759275501259 0.0099952090591317114 1 1 1 1 1 0.010503719680158972 1 1 1 1 1 1 1 1 1 1 1 1 1 1 0.0095345885890336744 1 1 0.010399834109171772 1 0.0095081341285319504 0.0085831697769682067 1 1 1 1 1 1 0.0087076662792568166 1 1 1 1 0.0097986436150082363 1 0.0098479979113890916 1 1 0.010420818161649935 1 1 1 1 1 1 0.0099369800332725494 0.0063615503687641118 1 1 1 1 1 1 1 1 1 1 1 1 1 1 1 0.0091644304357954877 1 1 1 1 1 1 1 0.010112214418263312 1 0.011014191973419067 1 1 1 0.010346927142615073 1 0.011856741156577668 1 1 1 1 1 1 1 1 0.0097489023589376958 1 1 1 1 1 0.01160783787201115 1 0.0031515760444020477 1 1 1 1 0.0051483942632410962 1 1 1 1 1 0.0081327005775418057 1 1 1 1 1 1 1 1 1 1 1 1 1 1 1 1 1 1 1 1 1 1 1 1 0.003092849084697237 1 1 1 0.005908352387918028 1 0.0053163392919493568 1 1 1 0.0084215997320644248 1 1 1 1 1 1 1 1 1 1 1 1 1 1 1 1 1 0.0099208474215860751 0.010086765473211629 0.010257339584734343 0.0086811863774061051 1 1 1 1 1 1 0.0093550700874669712 1 1 1 0.0083178068378169587 1 1 1 1 1 1 1 1 1 1 0.012566969957503712 0.0078312120288193243 0.0098945648590840381 1 1 0.01671448416734474 0.010087148323783428 1 1 1 1 1 1 1 1 1 0.0072846667285111077 1 1 1 1 1 1 1 1 0.0044512527485786046 0.010365620057022981 1 1 1 0.009932396304340509 1 1 1 1 1 1 1 1 1 1 1 0.0063757075360160349 1 0.0099338750518495195 1 1 1 1 1 0.010002792048709264 0.014337649558305994 1 1 0.0052573572718091384 0.0081702956203535734 1 1 1 1 1 1 1 1 1 1 1 1 1 1 1 1 1 1 1 1 1 1 1 1 1 1 1 1 1 1 1 1 1 1 1 1 1 1 1 1 1 1 0.0032491435825136653 0.0093541794176594216 1 1 1 1 1 1 1 1 1 1 1 1 1 1 1 1 1 1 1 1 0.0085287055801570571 1 1 1 1 1 1 1 1 1 1 1 1 1 1 1 1 0.010131934487168552 1 0.0089984560408441078 1 1 1 1 1 1 1 1 0.0055235427027829145 1 1 1 1 1 1 1 1 1 1 1 0.010004355208750881 1 1 0.0097083278211132044 1 1 0.006986861429887737 1 1 1 1 0.011787766080847653 1 1 1 1 0.0099948596626440803 1 1 0.0090152057638684564 1 0.0081564212649687939 1 1 1 1 1 0.0077835904261331149 1 1 1 1 1 1 1 0.0091809364632392844 1 1 1 1 1 1 1 1 1 1 1 1 1 1 1 1 1 1 1 1 1 1 1 1 0.0080437360995958274 1 1 1 0.009849750371468069 1 1 0.0082162264568255636 1 1 1 0.0090359896631193592 1 1 1 1 0.0090857529499326281 1 0.0088473985808828967 1 1 1 1 1 1 1 1 0.010193879799412643 1 1 1 1 1 1 1 1 1 1 0.001892803794384907 1 1 0.0099662513154526872 1 1 0.0068332822139753058 1 1 0.0035646482489850376 0.010698886961209055 1 1 1 1 1 1 1 0.0099535999763984348 0.0078061516293592356 1 1 1 0.0070994298299385597 1 1 0.0077977647889656831 0.0087210783664929924 1 1 1 0.0097053087914779155 0.0090480129432608455 1 0.0052202742850949793 1 1 0.0099995585120709815 1 1 1 1 0.0080329289882126037 1 0.0088772070248453825 0.0077066276877985999 1 1 1 0.0075991801344614252 1 0.010304349176708399 0.0087849569306076812 1 0.0088086702069459302 0.0076436090561625356 0.010125027964551551 0.0094166630719700051 1 0.0087125526304726239 1 0.0067059787613591229 1 0.0072416057507175974 1 1 1 0.01115391568292301 1 1 0.0057460346443579599 1 0.004687175878855844 0.010539994366824887 1 1 1 1 0.0058309467013626451 1 0.007058062863638026 0.0082515811722076726 1 1 1 0.0090094535538927101 0.0093501638323723046 1 1 0.0096465019678289941 0.008694681767286043 1 1 1 1 0.0099735821025898549 1 1 1 1 0.0099549243253189926 1 1 1 1 0.009956007506481325 1 0.0099561454769055008 1 0.0096451280227081784 1 0.0095387497798574139 1 0.009669183500015912 1 0.010000136484074378 1 1 1 1 1 0.0094370612870422546 1 1 0.0098484035765245351 0.010040697416237365 0.0093311123302818877 1 1 0.0097076737956996381 0.0093123355835628904 1 0.0097426441490546783 1 1 0.0098844171078560986 1 1 1 1 1 1 0.0099353834621019252 1 1 0.0094820770835591164 1 0.0099753954588566521 1 1 1 1 0.0099680199325734038 1 0.0099909670176815471 1 0.010009010689085614 1 1 1 0.0096299889499790667 1 1 0.010046422520977909 1 0.0093051822364226475 1 0.0099970702720989131 1 1 1 1 1 0.0095727696538904367 1 1 1 1 1 1 1 1 1 1 0.0091461059706946859 1 1 1 1 0.0098591443990960273 1 1 0.010680171744180542 1 1 1 1 1 0.0088628813626025656 1 1 0.0064232095697145533 1 1 1 0.00578491540141398 1 0.0095452187407239833 1 1 1 0.0053617328285313071 1 1 1 1 0.0087328505346178503 1 1 1 1 0.0098744124209081546 0.0089692519602563043 1 1 1 1 1 1 0.0089375462091163989 1 1 0.0075446937947018441 1 1 1 1 1 1 1 1 1 1 1 1 1 1 1 1 1 1 1 1 1 1 1 1 1 1 1 1 1 1 1 1 1 1 1 1 1 1 1 1 1 1 1 1 1 1 1 1 1 1 1 1 1 1 1 1 1 1 0.0043690810207404115 1 1 1 1 1 1 1 1 1 1 1 1 0.0035940357327998783 1 1 0.0067999297043944695 1 1 1 0.009837312644138509 1 1 1 1 1 1 1 1 1 1 1 1 1 1 1 0.0058213785116006736 1 1 1 1 1 1 1 1 1 1 1 1 1 1 1 1 0.0070805814594532383 1 1 1 1 1 1 1 1 1 1 1 1 1 0.0043478401421232493 1 1 0.0099396773115805366 1 1 0.010720877971161193 1 0.005168050522913626 1 1 1 1 1 1 1 0.0037262372089679752 1 1 1 1 1 1 1 1 1 1 1 1 0.009434946471181099 1 1 1 0.0099988132139917415 1 1 1 1 1 1 1 1 1 0.0082760583495114851 1 1 1 1 1 1 0.0072734775653847308 1 1 1 1 1 1 0.0044484327335731644 1 1 1 0.0078280141942186215 1 1 1 1 1 1 1 0.0037756599574791591 1 1 1 1 1 1 1 1 1 1 0.010584723660262467 1 1 1 1 1 1 1 1 1 1 1 1 1 1 1 1 0.013398297324221235 1 0.010024877748981181 1 1 1 1 1 1 1 1 1 1 1.9171752657642926e-09 1 0.001710297153969741 1 1 1 1 1 1 1 1 1 1 1 0.011963905273672318 1 1 1 1 1 1 1 1 1 1 1 0.010450373939815832 1 1 1 1 1 1 1 0.0094504083849920439 1 1 1 1 1 1 1 0.009820617966333052 1 1 1 1 1 1 1 1 1 1 1 0.0075885511595485296 1 1 1 1 1 1 1 1 0.013464199829880112 1 0.0037833806828796541 1 1 1 1 1 1 1 1 1 1 0.0096245234245045802 1 1 1 0.0091993197351366122 1 1 1 1 1 1 1 1 1 0.0023498414437209715 1 1 1 1 1 1 1 1 1 1 1 1 1 1 1 1 0.011000578544626707 1 1 1 1 1 1 1 1 1 1 1 1 1 1 1 1 1 1 0.0085961801138316595 1 1 0.0064858435383075303 1 1 0.0086980372325747481 1 1 1 1 1 0.0090582509169448207 1 1 1 1 1 1 1 1 1 1 1 1 1 1 1 1 1 1 1 1 1 1 1 1 1 1 1 1 1 1 1 1 1 1 1 1 1 1 1 1 1 1 1 1 1 1 1 1 1 1 1 1 1 1 1 1 1 1 1 0.0092145826262619718 1 1 0.0089050600268445034 1 1 1 1 1 1 1 1 1 1 1 1 1 1 1 1 1 1 1 1 1 1 1 1 0.0090731396172362231 0.0085357117165923077 1 1 1 1 1 1 1 1 1 1 1 1 1 1 1 1 0.010268304783290346 0.0052812402010209807 1 1 1 1 1 1 1 0.0074106632903648603 1 0.0097126999790686456 1 1 0.0082041237046441718 0.010038880505853338 1 1 1 1 1 1 1 1 1 1 1 0.0099742234404483036 1 0.014156147199948853 1 1 1 0.012049074004677477 1 1 1 0.0043473094880609846 1 0.0054462305786406578 1 1 1 1 1 0.0048507871310771323 0.0054941950288342591 1 1 1 1 1 1 1 1 1 1 1 1 1 1 1 1 1 1 1 1 1 1 1 1 1 1 1 1 1 1 1 1 1 1 1 1 1 1 1 1 1 1 1 1 1 1 1 1 1 1 1 1 1 1 1 1 1 1 1 1 1 1 1 1 1 1 1 1 1 1 1 1 1 1 1 1 1 1 1 1 1 1 1 1 1 1 1 1 1 1 1 1 1 1 1 1 1 1 1 1 1 1 1 1 0.0077909115329371148 0.010759616898543843 1 0.0031396160594389967 1 0.0090945793579442057 1 1 0.0085471949240523495 1 1 1 1 0.0098654503117005469 1 1 1 1 1 1 1 0.00051723939808288356 0.0096215295261132417 0.0092926317314004948 1 1 1 1 1 -9.3881557909625268e-11 0.0083647854072184582 1 1 1 1 1 1 1 1 1 1 1 1 1 1 1 1 1 1 1 1 1 1 1 1 1 1 1 1 1 1 1 1 1 1 0.01208118433039794 1 1 0.010764530505353817 1 1 1 1 1 1 1 1 1 1 1 0.0095906904447142557 1 1 1 1 1 1 1 0.0085818294246786542 1 1 1 1 1 1 1 1 1 1 1 1 1 1 1 1 0.002824639311308573 1 1 0.012252321988136765 1 1 1 1 1 1 1 1 1 1 1 1 1 1 1 1 1 1 1 1 1 1 1 0.0083190079936196846 1 1 0.0090507851804871239 1 1 0.0091633160290685595 1 1 1 1 1 1 1 0.0081544550090329529 1 1 1 1 1 1 0.010327079854648232 1 1 0.010958218186540037 1 1 1 1 0.01030060080276721 1 0.010101762059880871 1 1 0.0016395426364338656 1 1 1 1 0.010746527797012932 1 0.00022742197525051642 1 1 -1.0309755141615917e-09 1 1 1 1 1 1 1 1 1 1 1 1 0.01291950780751897 1 1 1 6.6077809586853609e-10 1 1 0.00053131240409651226 1 1 1 1 0.010208559312250187 1 1 1 1 1 1 1 1 1 1 0.010073521918999434 1 1 1 1 1 1 1 1 1 1 0.0082267411156501345 1 1 1 1 1 1 1 1 1 1 1 1 0.0066053610495792996 1 1 0.0074104509484174234 1 1 1 1 1 1 1 1 1 1 0.0071502017637756835 1 1 1 1 1 0.0070972898830229097 1 0.0087961407378736103 0.006278871856023039 1 1 0.0070602144761163343 1 1 1 1 1 1 1 1 1 0.010197740768106337 0.00564702474927967 1 1 1 1 1 1 0.010175019781245933 1 1 1 1 1 1 1 1 1 1 1 1 1 1 1 1 1 1 1 1 1 1 1 1 1 0.010091261799108709 1 1 1 1 1 1 1 1 1 1 1 1 1 1 1 1 1 1 1 1 1 1 1 1 1 1 1 1 1 1 1 1 1 1 1 1 1 1 1 1 0.0072620922069339781 1 1 1 1 1 1 1 1 1 1 0.010221343771168286 1 1 1 0.0067422558296457904 1 0.0065622100022620505 1 1 1 0.0104729482117355 1 1 1 0.009997467235273616 1 0.0049051347596367201 1 0.0072198652638063299 1 0.0070945447511855039 0.010264527938841368 1 1 0.0081073524020491838 1 1 1 0.0098494777316365922 1 1 1 1 1 0.0099204960205217622 1 1 1 1 0.008116163750353407 1 1 1 0.0069633963384083536 1 1 1 1 0.0068650369052133137 1 0.010050078118608599 1 1 1 1 1 1 1 1 1 1 1 1 1 1 0.010102241872632882 1 1 1 1 0.0019261241566503468 1 1 0.0040855226098586214 1 1 0.0054579728167085152 0.0099680505408426875 1 1 0.0059349565876537589 1 0.0078586929441549023 1 1 1 0.010289033587459688 0.0081377127676969477 0.0072421608534099149 0.006868332991016456 1 1 0.010624098377161596 1 1 1 1 0.0038535429800646004 1 0.011022019982364191 1 1 0.0071291445485203095 0.0010451727963857209 0.010045510423663083 1 0.00047941707145901947 1 1 0.0077040521069941283 0.0022707716209996384 0.00035247613353818832 1 1 1 1 1 1 1 1 1 0.0064711454722461842 0.0096365637134760984 1 1 1 1 0.0088803941402287589 0.0080445482951626429 1 1 1 0.011557576387114545 1 0.0081225596514240966 1 1 1 1 1 1 1 1 1 1 1 0.014928421798080299 1 1 1 1 1 1 1 1 1 1 1 1 1 1 1 1 1 1 1 1 1 1 1 0.0096584610084964155 1 1 1 1 1 1 1 1 1 1 1 1 1 1 1 1 0.013394922970094921 1 1 0.0091564580599446544 1 1 1 1 1 1 1 1 1 2.8797960231752295e-09 1 1 1 0.0074201133211111766 0.0012603929171334672 1 1 0.010006602712403513 1 1 1 1 1 3.8979490399326799e-09 1 0.0097415388009340007 1 1 1 0.00073158115129164092 1 1 1 1 1 1 1 0.00034661461702195639 1 1 0.0098161981375410462 1 1 1 1 0.00099194532013294201 1 1 1 0.0096602063096214909 0.010010935672157871 1 1 0.0015366641415336911 1 1 1 0.0091012520713535904 1 1 1 1 1 1 1 0.0014302682140022727 1 1 0.012115715932071836 1 0.0026808600710771166 0.010034114555809832 0.0052356781154153445 1 0.0033474894548768397 1 0.010229388157437243 0.0097026490246455085 1 1 1 1 1 1 0.011909812329154354 1 1 0.01048000646129846 1 1 1 1 1 1 1 1 1 1 1 1 1 1 1 1 1 1 1 1 1 1 1 1 1 1 1 1 1 1 1 1 1 1 1 0.0099569890220801999 0.011265618919250663 1 1 1 1 1 1 1 1 0.0048589732708499032 0.0053226643014084966 0.016322248956219906 0.011366174485958971 1 1 0.0004321504610717208 1 1 1 1 1 1 1 1 -1.4419154342748541e-09 1 1 0.0096500532659010239 1 1 1 0.0062374949156574358 1 1 1 1 0.0045134255856733767 1 1 1 1 1 1 1 1 1 1 1 1 1 1 0.00032076031602872382 1 1 1 1 1 0.013972145160896345 1 1 1 1 1 1 1 1 0.0082838915880613564 1 1 1 0.0034618376847929452 0.013272873082382878 1 1 0.011648639139875535 0.003536134560531784 1 1 1 1 1 0.0092961189908281078 1 1 1 1 1 1 0.0096753885082819426 1 0.016736997766929041 1 1 1 1 1 1 1 1 0.0029795188766436323 0.0046033440771616665 1 0.015836492005129488 0.0098977491607585392 0.016047338446756772 1 0.0068304524394619641 1 1 1 1 1 1 0.0061265450718056991 1 1 1 1 1 1 1 0.0054988760994335965 1 1 1 1 1 1 1 1 1 1 1 1 1 1 1 1 1 1 1 1 1 1 1 1 1 1 1 1 1 1 1 1 1 1 1 1 1 1 1 1 1 1 1 1 1 1 1 1 1 1 1 1 1 1 1 1 1 0.0095946922582063852 1 1 1 1 1 1 1 0.0087781159684403136 1 1 0.011697461643853295 1 1 1 1.9758135188716053e-10 1 0.010007312377668175 1 1 0.010151042930242771 1 1 1 1 1 1 1 0.0031930313879136845 1 1 1 0.0084132051584320643 1 1 1 1 1 1 1 0.0051922662644295348 1 0.009363437268524389 1 1 1 1 1 1 1 1 1 1 1 1 1 1 1 1 1 1 1 1 1 1 1 1 1 0.010029127409406596 0.0089519514581066044 1 0.01112340740193575 1 1 1 1 1 1 1 0.0047542560576611589 1 0.0065923032495328795 1 0.0079405909687622327 0.0049212928539388683 0.014168772017679836 1 1 0.012244881688760395 1 1 0.0089737631258085884 1 1 1 0.0096757786495094492 1 1 1 1 1 1 1 0.00294871058294732 0.0083596904614190101 1 1 0.0022426005318835875 1 1 1 0.010563015094309125 1 1 1 1 0.0039010239259054079 1 0.0099686365693439707 1 1 1 1 1 1 0.0099855280938759405 1 0.010005180511797553 1 1 1 1 1 0.009982804411644286 1 1 0.0099927906154648489 1 1 1 1 1 1 1 1 1 1 1 1 1 1 1 1 0.0099356485036552009 1 1 0.0092873424237247953 0.010015151972357958 1 0.010025194562469329 1 1 1 1 1 1 1 1 0.0097573806832309748 1 1 1 1 1 1 1 1 1 1 1 1 1 1 1 1 0.011265808477412535 1 1 1 0.0099900032087605201 1 1 0.012161643600342555 1 1 1 1 1 1 0.012742445658804728 1 1 1 1 1 1 1 1 1 1 1 1 1 1 1 1 1 1 1 0.0043380985055075962 0.010034737153339295 1 1 1 1 1 1 1 0.00039149479937710535 1 1 1 0.010066205174106183 1 1 0.0041195822152121434 1 0.006073100040784242 1 1 0.0069321630085877831 1 -1.6163667626578615e-12 0.010670773250062174 1 0.0070541420668380275 1 0.009171115619589618 1 0.0082937681940840613 1 1 1 1 1 1 1 1 1 1 1 1 1 1 1 0.009078992147208911 0.0091165399253371748 1 1 1 1 1 1 1 0.0030132998157119169 1 1 1 1 1 1 1 1 1 1 1 1 1 1 1 0.0069961628111312388 1 0.0097968004652489483 1 1 1 1 1 1 0.0061922194034006312 1 1 1 0.0017136626158072085 1 1 1 0.0096787171184287563 1 1 1 1 1 1 1 1 1 1 1 1 1 1 1 1 1 1 1 1 1 0.010224747553569453 1 1 1 1 0.010335477698269599 1 1 1 1 1 0.012324096376983224 1 1 1 0.011494573071837967 1 1 1 1 1 1 1 1 1 1 1 1 0.010174301645895827 1 1 1 1 0.010658353205874977 1 1 1 1 1 1 1 1 0.010154076348267085 1 1 1 1 1 1 1 0.0090185072683983299 1 1 1 1 0.010047109724444104 1 1 1 1 1 1 1 1 0.010100861202394638 1 1 1 1 1 1 1 1 1 0.008635021147825871 1 1 1 1 1 1 1 1 1 1 1 1 1 1 1 1 1 1 1 1 1 1 1 1 1 1 1 1 0.0093897100333412333 1 1 1 1 1 1 1 0.0082900361969634948 1 1 1 1 1 1 1 1 1 1 1 1 1 1 1 1 1 1 1 1 1 1 1 1 1 1 1 1 1 0.0098819166531798203 1 1 1 1 1 1 1 1 1 1 1 1 1 1 1 1 1 1 1 1 1 1 1 1 1 1 1 1 1 1 1 1 0.0096558838464430273 1 1 0.0098396857089019761 1 1 1 1 0.0091685806456670502 1 1 0.0094388742487689602 1 1 1 1 0.0085917584292993822 1 1 1 0.0086986887807437852 1 1 1 0.0099125465688525947 1 1 1 1 1 1 1 1 1 1 0.0097367590092405157 1 1 0.0023194138702064687 1 1 1 1 1 1 0.0082125703716283815 1 1 1 1 1 0.0018095505766619474 1 1 1 1 0.0013566592922648682 1 1 1 1 1 1 1 1 1 1 0.0010966454504601209 1 1 1 1 1 1 1 1 1 0.0097904444051837881 1 1 1 1 1 1 1 1 1 1 1 1 1 0.007769241499594434 1 1 1 1 1 1 1 0.009604463187186562 1 1 1 1 1 0.0099632577498929356 1 1 1 1 1 1 1 1 1 1 1 1 1 1 0.0098574206813581353 1 1 1 1 1 1 1 1 0.0095374869110122149 1 1 1 1 1 1 1 1 1 1 1 1 1 1 1 1 1 1 1 1 1 1 1 1 1 1 1 1 1 1 1 1 1 0.0083161791281391312 1 1 1 1 0.010089580575796736 0.0057639527428057016 1 1 0.010367149927718113 1 1 0.010021364534228382 1 1 0.0085777722288811684 1 1 1 1 1 1 1 1 1 1 1 1 1 1 1 1 1 1 1 0.0077948987961257883 1 1 1 1 0.0075301547408059277 1 1 1 1 1 1 1 1 1 1 1 1 1 1 1 1 1 1 1 1 1 1 1 1 1 1 1 1 1 1 1 1 1 1 1 1 1 1 1 1 1 1 1 1 1 1 1 1 1 1 1 1 1 1 1 1 1 1 1 1 1 1 1 1 1 1 1 1 1 1 1 0.0094231510370408073 1 1 1 1 -2.2559248913367469e-10 1 0.0029141585014616639 1 1 0.0095376518785432046 1 1 1 1 0.0038932932294695223 1 1 0.0096831163336954587 1 1 1 1 1 1 1 1 1 1 1 1 1 1 1 1 1 1 1 1 1 1 1 1 1 1 1 1 1 1 1 1 1 1 1 1 1 1 1 1 1 1 1 1 1 1 1 1 1 1 1 1 1 1 1 1 1 1 1 1 0.00864775479834708 1 1 1 1 1 1 1 1 1 0.0099108378673243413 1 1 1 1 1 1 1 0.0095261104816483748 1 1 1 1 1 1 1 1 1 1 1 1 1 1 1 1 1 1 1 0.0063083229704357247 0.0078682066648735685 1 1 0.010260328862469373 1 0.0065175468871430647 1 1 1 1 1 1 1 1 1 1 1 1 1 1 1 1 1 1 1 1 1 1 1 1 1 1 1 1 1 1 1 1 1 1 1 1 1 1 1 1 1 1 1 1 1 1 1 1 1 1 1 1 1 1 1 0.0083531693594581027 0.0080913553105778548 1 1 1 1 1 1 1 1 1 1 1 1 1 1 1 1 1 1 1 1 0.004456206482593969 1 1 1 1 1 1 1 1 1 1 0.0075779694383277738 1 1 1 -4.5968258713391386e-10 1 1 1 1 1 1 0.0076664033667552568 1 1 1 1 1 1 1 1 1 1 1 1 1 -8.2728858138980677e-10 1 1 1 1 1 1 0.0019695152227136494 0.0099139613192004566 1 0.01239342310361808 1 1 0.010982542732752013 1 1 1 0.013783330888498296 1 1 1 0.014717938750007502 1 1 1 1 1 0.010393840371486504 1 0.00051320418986652329 1 1 1 1 0.013136429902776732 1 1 1 1 0.0017205724491598587 1 0.0028573512366176258 1 1 0.010572476461819297 0.010203620891900704 1 1 1 1 1 0.0090265850651458021 1 1 1 1 1 0.0077612157474366023 0.0070426686580946848 0.0094703691848185244 1 0.01039569730012271 1 0.0077906638367983318 1 1 1 1 1 0.007739156512339319 1 1 1 1 1 1 1 1 0.0097495572331327413 0.011521362969327438 1 1 0.0094112810097957307 1 1 1 1 0.012191119645898828 1 1 0.0072349332230131312 1 1 0.0062952368001364667 1 1 1 1 1 1 1 1 1 0.0078272953546797107 1 1 1 1 1 1 1 1 0.0062877820688180368 1 1 1 1 1 1 1 1 1 0.010326080479504347 0.0078608807542775022 1 1 1 1 1 1 1 1 1 1 1 1 1 1 1 1 1 1 1 1 1 1 1 1 1 1 1 1 1 1 1 1 1 1 1 -1.7993844608765741e-10 1 1 1 1 0.0093052504582590706 1 1 1 1 1 1 1 1 1 1 1 1 1 1 1 1 -7.9361830301882819e-10 0.016792001065843446 1 1 1 1 1 1 1 1 1 0.013820378232941945 1 1 1 1 0.01118009861111559 1 1 0.0097999192823932952 1 1 1 1 1 1 1 1 1 1 1 1 1 0.0072401563656010956 1 1 1 1 1 1 1 1 1 1 1 1 1 1 1 1 1 1 1 1 1 1 1 1 1 0.010635948047855316 1 1 1 1 1 0.0093865782591092961 1 1 1 0.01214926219354927 1 1 1 0.00021194814281286917 0.002965080072451845 1 1 1 1 1 1 1 1 1 1 1 1 1 1 0.010175311029454862 1 1 1 0.012073696129090454 1 1 1 1 0.010714750382828349 0.010175586282905508 1 1 1 1 1 1 1 1 1 1 1 1 1 1 1 1 1 1 1 1 1 1 1 0.0089443810042653012 1 1 1 1 1 1 1 1 1 0.0011331670851077846 1 1 1 1 0.0096471074506998978 1 0.0023309433698197029 1 1 1 1 0.010131778766044255 1 1 1 1 1 1 1 1 1 1 1 1 1 1 1 0.0087808657011425022 1 1 0.0065246244557348142 1 1 1 1 1 1 1 1 1 1 0.0038144567594133733 0.0033916762805449221 1 1 1 1 0.0086016591009169183 1 1 1 0.0091764276331933736 1 1 1 1 0.0099953679052489069 0.0099719968722023367 1 0.0024448307726577922 1 -8.5762516793125299e-10 1 0.0084228708325598083 1 1 0.0081467653489708143 1 1 0.008343941861353869 1 1 0.0044406349888645637 1 1 1 0.002843664640750667 1 1 0.01000087246016422 1 -5.7062954994871462e-09 1 0.0077014026336073311 1 1 -4.5890709347130116e-09 1 1 1 1 1 1 1 1 1 1 1 1 1 0.0086315466695220562 1 1 1 1 1 1 1 1 1 1 1 1 1 1 1 1 0.00044087174152893961 -4.5306721946185291e-09 1 1 1 1 1 0.0098337099877514079 1 1 1 1 0.0097558249637671283 1 1 -1.7026418573651281e-09 1 1 1 1 0.0099320634699350541 1 1 1 1 1 1 1 1 1 1 1 1 1 1 1 1 1 1 1 1 1 1 1 1 1 1 1 1 1 1 1 1 1 1 1 1 1 1 0.0093162978287361711 1 1 1 1 1 1 1 1 1 1 1 1 1 0.0037896075408480057 1 0.0033200429913839841 1 1 1 1 0.0034254985771869622 1 1 1 1 1 1 1 1 1 1 1 1 1 1 1 1 1 1 0.0056373865526484889 1 0.0084025225057340648 1 1 0.0016486040298295396 1 1 1 -1.6510570757799492e-09 1 1 1 1 1 1 1 1 1 1 1 1 1 1 1 1 1 1 1 1 1 1 1 1 1 1 1 0.0098596382484966022 1 1 0.0090102034427136518 1 1 1 1 1 1 1 1 1 1 1 1 1 1 1 1 1 1 1 1 1 1 1 1 1 1 1 1 1 1 1 1 1 1 1 0.0096939056139774809 1 0.010130682766017841 1 1 1 1 1 1 1 1 1 1 1 1 1 1 1 1 1 0.0096116767080757174 0.0089041070050784564 1 1 1 1 1 0.00885893250891121 1 1 1 1 0.007211323873483836 1 1 1 1 0.0096473248205479964 1 1 1 1 1 1 1 1 1 1 1 1 1 1 1 1 1 1 0.0092924302970027548 1 1 1 1 1 1 0.010113159116921875 1 1 0.011132154738508794 1 1 1 1 1 1 1 1 1 1 1 1 0.00919988719500529 1 1 0.0092504460874679 1 1 1 1 1 1 1 1 0.0095967659280854177 1 1 1 1 1 1 0.008346545340634998 1 1 0.0066989367052076292 1 1 1 1 1 1 1 1 1 1 1 1 1 1 1 1 1 1 1 1 1 1 1 1 1 1 1 1 1 1 1 1 1 1 1 1 0.0087071835787901342 1 1 1 0.0078346213031770581 1 1 0.010447989554963434 1 1 1 1 1 1 0.0031449587328984821 1 1 1 1 1 0.0075348031370712828 1 1 1 1 1 1 0.0031353581545578613 1 1 1 1 0.014742190861589151 1 0.012984262916580183 1 1 0.01145337827935505 1 1 1 0.0091274377243869241 1 1 1 1 1 1 1 1 1 1 1 1 1 0.0051130589869219228 1 1 1 1 1 1 1 1 1 1 1 1 1 1 1 1 1 1 1 1 1 1 1 1 0.0093810369843446758 1 0.0099395558743133241 1 -2.1321460092274536e-10 1 -5.4546437592423169e-10 1 1 1 1 0.008124753650525493 1 1 1 1 0.0099608701243529187 1 1 1 1 1 1 1 1 1 1 1 1 1 1 0.010128940586960081 1 1 1 0.011310148375570761 1 1 1 0.0091787606522092564 1 1 0.0074006714261373348 1 1 1 0.010100892157761944 1 1 1 1 0.0041707259665101342 1 1 1 1 0.0056303420344835219 1 1 1 1 1 1 1 1 1 1 0.013237907120468673 1 1 1 1 1 0.014582775640732836 1 0.0099733192966971595 1 1 1 1 1 0.0082379047453069038 0.013115124757194011 1 1 0.0082624978336385598 1 0.0099795546492303967 1 1 0.010331876909056624 1 1 1 1 1 1 1 1 1 1 1 1 1 0.001631115092331414 1 1 1 1 1 0.011814261256535324 1 1 1 1 1 1 1 1 1 1 0.0027043712386766441 1 1.1272091263864192e-09 1 1 0.014423994218883344 1 1 0.0093328544118208012 1 0.012311856955537112 1 0.0019949889441268753 1 1 1 1 1 0.0023822169129191929 0.0025118737685043153 1 1 1 1 1 1 1 1 1 1 1 0.0086436153083370472 1 1 1 1 1 0.0099917135538087204 1 1 1 0.011580420948985256 1 0.010143649302844173 1 1 1 1 1 1 1 1 1 1 1 1 1 1 1 0.0097619585210446218 1 1 1 1 0.0095130946574433009 1 1 1 1 1 1 1 1 1 1 1 1 1 1 1 1 1 1 1 1 1 1 1 0.0097511361363986811 1 1 0.011524698144850014 1 1 1 1 1 1 1 0.010508202534246638 1 1 0.014730060471606065 1 0.020866540045973575 1 1 1 1 1 1 1 1 1 0.01041151979980463 1 1 0.009820178736663087 1 1 1 0.0078304246846063272 1 1 1 1 1 1 1 0.008901765011008379 1 1 1 1 0.009335616337501294 0.0098187494169763717 1 1 1 1 1 1 1 1 1 0.008041317945024995 1 1 1 1 1 1 1 1 1 1 1 1 1 1 1 1 0.0090935729487011726 1 0.010204015994670822 1 1 1 0.0079123874195924787 1 1 1 1 1 1 1 1 1 1 1 1 1 0.010289126910629033 1 1 1 1 1 0.0099118852175584839 1 1 1 0.0099216573224426684 0.01003738985344951 1 1 1 0.016047488524969983 1 1 0.010436292283238665 1 1 1 1 0.016359171567615183 0.0099469115649920836 1 1 1 0.0048865229705868912 1 1 0.010241328482295982 1 1 1 1 6.8861819767184612e-05 1 0.0027213907768132055 1 1 1 0.0025586904802996119 1 1 1 1 1 1 1 1 1 1 1 1 1 1 1 1 1 1 1 1 1 0.0072555250423913392 1 1 1 1 1 1 1 1 1 0.008509058228636809 1 1 1 0.0065721633887361498 1 0.0070200969951229866 1 1 1 1 1 1 1 1 1 1 1 0.0056672702591494106 1 1 1 1 1 -1.7286247351068484e-09 1 1 1 1 1 0.0025676957787504548 1 1 1 1 1 1 1 1 1 1 1 1 1 1 1 1 0.0049004205525337678 1 1 1 1 1 1 1 1 1 0.00041883789857888667 1 1 1 1 1 1 1 1 1 1 1 1 1 1 1 0.0095484054184161067 1 1 1 1 1 1 1 1 1 1 1 1 1 1 1 1 1 1 1 1 1 1 1 1 1 1 1 1 1 0.011535520361638459 1 1 1 1 0.013828122344262596 1 0.010069692423226828 0.0099843598174179597 1 1 1 1 1 1 0.010468582585930928 1 0.0033656383289335408 1 1 1 0.010013772815242888 1 1 0.0072453848301680425 1 1 1 1 1 1 0.010187416694092379 1 1 1 1 1 1 1 0.0084069423051762477 1 1 1 1 0.0056670344637085677 1 1 1 1 1 1 0.010088595329260602 1 1 1 1 1 1 1 1 1 1 1 1 0.0098921094684919029 1 0.0099877031714986526 1 1 1 1 1 1 1 0.0099523725752973663 0.0098727618260862782 1 1 1 1 1 1 1 1 0.0099539828295746365 1 1 1 0.0094218638276676731 1 1 0.0097227236153968662 1 1 1 1 1 1 1 1 1 1 1 1 1 1 1 1 1 1 1 1 1 1 1 1 1 0.0061819069399646695 1 1 0.0056441761690698145 1 1 1 1 1 0.010084912383449857 1 1 0.010305738742528693 1 0.0087980718292381046 1 1 1 0.010100879072335008 1 1 1 1 0.0098157741608414575 1 1 0.0034795360412655379 0.010003763812584218 1 1 1 1 1 0.0099790093993271517 1 1 0.006147556856777198 1 1 1 1 1 0.0082881428345634861 1 1 1 1 1 1 1 1 1 0.0082469627342845603 1 1 1 1 0.010698370650338594 1 1 1 1 1 1 0.018431779353233348 1 0.018646900790760382 1 1 1 0.00085443898712572047 1 -1.3294750716985604e-11 1 1 0.012532471209966922 1 0.0096128521471943174 1 1 1 0.0076832847196108035 1 1 1 1 1 1 1 1 1 1 1 1 1 0.0060556810088686682 1 1 1 1 0.0047707048944962971 1 1 1 1 1 1 0.010195359548761801 1 1 1 1 1 1 1 0.0092134668827220795 1 1 1 1 1 1 0.0079875748360822493 1 1 1 1 1 1 1 0.0072321381410811944 1 1 0.0010294160181878315 1 1 1 1 1 1 1 1 1 0.0094266429989220794 1.6026277284419965e-09 1 1 1 1 1 1 1 1 1 1 1 1 0.0098877367561273997 1 1 1 1 1 1 1 0.0081423600097628324 1 1 1 0.0092423763559881002 1 0.0069023762958761968 1 1 0.0081343853650715572 1 1 1 1 1 0.00026252646492826159 1 1 1 0.01014795515783253 1 1 1 1 0.010500364669917221 1 1 1 0.010137558063706989 1 1 1 1 1 1 1 0.0049446339841573289 1 1 0.0078042440341815275 1 1 1 0.010934046492133772 1 1 1 0.010296360323058159 1 1 1 1 0.0051429487582755201 1 1 1 0.0059345615005558378 1 1 1 1 1 1 1 1 1 0.0093646734820423145 1 1 1 1 1 1 1 1 1 0.0084373555259945349 1 1 1 1 0.0090497240351323071 1 1 0.0085382465701834918 1 1 1 1 1 1 1 1 1 1 1 1 1 1 1 1 1 1 1 1 1 1 1 1 1 1 0.009116233369396945 1 1 1 1 1 1 1 1 1 1 1 0.0074595510345026386 1 1 1 0.0058723763288640388 1 1 1 1 1 1 0.008182536929510785 1 1 1 1 1 1 1 1 1 1 1 1 1 1 1 1 1 1 1 1 1 1 1 1 1 1 0.0098869504797097496 1 0.0080441538035027418 1 1 0.010043578671631713 0.0089565691299641204 1 1 1 1 1 1 1 1 1 1 1 1 1 1 1 1 1 0.0098114473310063552 1 1 1 1 1 1 1 1 1 1 1 1 1 1 1 1 1 1 1 1 1 1 1 1 1 1 1 1 1 1 1 1 1 1 1 1 1 1 1 1 1 1 1 1 1 1 1 1 1 1 1 1 1 1 1 1 1 1 1 1 1 0.0092870032245685255 1 1 0.0083853619602402077 1 1 1 1 0.0081295812219177727 1 1 1 1 1 1 1 1 1 1 0.0099980104005168123 1 0.0025875906964099521 1 1 1 0.0055999150512178811 1 1 1 0.010044179946431911 1 0.010250227593867602 1 1 1 0.008503968608561922 1 0.0099381683658607105 1 0.0071315634847555149 1 1 1 0.0062330909634184042 1 1 1 1 0.010050431609733299 1 0.0055024241355048943 1 1 1 1 1 2.4738829179637989e-09 1 0.0098035582781921086 0.013673190316765546 1 1 1 1 1 1 0.0014060927931844082 1 1 1 0.0099519540317518206 1 1 1 1 1 1 1 1 1 1 1 1 1 1 1 1 1 1 1 0.0098534028474164953 1 1 1 0.0021230791829166054 0.010273986023047301 1 1 1 1 1 0.011371586660420326 1 1 1 1 1 1 1 1 1 1 1 1 1 1 0.0076530157808119238 1 1 0.001924212624285021 1 0.0074877436641785202 1 1 1 0.011869488658827254 1 0.010490384805133181 1 1 0.0024046069484830249 1 1 1 1 1 1 1 1 1 1 1 0.0039223678085536992 1 1 1 1 1 1 1 1 1 1 0.0014840768787097863 0.0099501110934416687 1 1 1 1 1 1 1 0.0064712657255542663 1 1 1 1 1 1 1 1 1 1 1 1 1 1 0.0088433442624146832 1 1 1 1 1 1 1 1 1 1 0.0086347356477704043 1 1 1 0.0068727123690332584 1 0.006593384808901509 0.0058497711127502208 1 1 1 1 1 1 1 1 0.004567184625367135 1 1 1 1 1 1 1 1 1 0.0046563507647464572 1 0.0061489930502816852 1 0.01097478684887967 1 1 1 1 1 1 1 1 0.0059937425132393848 1 0.0040257602605864862 1 1 1 1 1 1 0.011483273556714416 1 1 2.9049218933097087e-09 1 4.1076949272578211e-09 1 1 1 1 1 1 1 1 1 1 1 1 1 1 0.0089216838680054311 1 1 1 1 1 1 1 1 1 1 0.0096133823987008919 1 1 1 1 1 1 0.010149616143257666 1 1 1 1 1 1 1 1 1 1 1 1 1 1 1 1 1 1 1 1 1 1 1 1 1 0.010165635961564213 1 1 1 1 1 0.010530361485055921 1 1 1 1 1 1 1 1 1 1 1 0.0098999820938495374 1 1 1 1 0.0082362761182778674 1 1 1 1 1 0.0087778939988192948 1 1 1 1 1 0.009565269706929256 1 1 0.010597787053418265 1 1 1 1 1 1 1 1 1 1 1 1 1 1 1 1 1 1 1 1 1 1 1 1 1 1 0.0099116468959559532 1 1 0.0099118284368801823 1 1 1 1 1 1 1 1 1 1 1 1 1 1 1 0.010120927469944091 1 1 1 1 1 1 1 1 1 0.010270543613201726 1 1 1 1 1 1 1 0.01085715429616442 1 1 1 1 1 0.009811456759893155 1 1 1 1 1 1 0.007888557723054258 1 1 1 1 0.0080407490591691607 1 1 1 1 1 1 1 0.0099114746660436213 1 1 0.010976085548042431 1 1 0.010790541744531881 1 1 1 1 0.0087207009454095766 1 1 1 1 1 1 1 1 0.0094531648306066824 1 1 0.0087866931786682451 1 1 1 1 1 1 1 1 1 0.0097270804539074524 1 1 1 1 1 0.010070092205691789 1 1 1 1 0.0095107123857910078 1 1 1 0.010306859692329579 1 1 1 1 1 1 1 1 1 1 1 0.0099820065326113698 0.0099834121846375315 1 1 1 1 1 1 1 1 1 1 1 0.0093884944350869498 1 1 1 1 1 0.009308342815341604 1 0.0083821890838500484 0.0093614478186281186 1 0.0099508688261081418 0.0088333359904849591 1 1 0.0099912915837798363 1 1 1 1 1 1 0.0072738348290633595 1 0.010070131021932853 0.010022859024731535 1 1 1 1 1 0.010036740935745862 1 1 1 1 1 1 1 1 0.0080433073845704705 1 1 1 1 0.009515844849979728 1 1 1 1 1 0.0100468631855819 1 1 0.007507099776132016 1 1 1 1 1 1 1 0.0085432581598711421 1 0.0097458041978068372 1 1 1 1 1 1 1 0.0087497846498273361 0.0097772573502752751 1 1 1 1 1 1 1 0.009897701196959853 1 1 1 1 1 1 0.0095996512973686443 1 1 1 1 1 1 1 1 1 1 1 1 1 1 0.010606145742334348 1 1 0.010199053469482276 1 1 1 1 0.010039760705423256 1 1 1 1 0.005872769620448276 1 1 1 1 1 1 0.006872091104447163 1 1 1 1 1 1 1 0.0099997654265190864 1 1 1 0.010765189862287819 1 1 1 1 0.0078577943885660001 1 1 0.011430422388781759 1 1 1 1 1 1 1 0.010720061729466076 1 1 1 1 0.01124762981639962 1 0.010042655122363534 1 1 1 1 1 1 1 1 1 1 1 1 1 1 0.0093141107103094506 1 1 1 1 1 1 1 0.0090647651497584025 1 1 0.0083497918062676244 1 1 0.010014561992325385 1 1 1 1 1 1 1 1 1 0.013477703727449965 1 1 1 0.012072875835905989 1 1 1 1 1 1 1 1 1 0.010943659862282663 1 1 1 1 1 1 1 1 1 1 1 0.00895098319064732 1 1 1 0.010237941833705097 1 1 1 1 1 1 1 1 1 1 1 0.0071800194913377094 1 1 1 1 1 1 1 1 1 1 0.0058490613737167546 1 1 1 1 1 0.011026037255195985 1 1 1 1 1 1 1 1 0.009785299991360602 1 1 0.01067444998275289 1 1 0.01083567778515393 1 1 1 1 0.010441221148250059 0.0072695097374949474 1 1 1 1 0.010380040828772273 1 1 1 1 0.0082919842066246918 1 1 0.0094036715969748955 1 1 1 1 1.0780861342540859e-09 1 1 0.00056216258704507027 1 1 1 1 1 0.0013065595023705884 1 1 1 1 1 1 1 1 0.0028986254704595135 1 0.010071056915588714 1 1 1 1 1 1 1 1 1 0.012611774045518546 0.003190767077849245 1 1 1 1 1 1 -1.7649485345438976e-10 1 1 0.010561180051821406 1 1 0.010764059205557426 1 0.0096458821984933343 1 1 1 0.0019140866975781087 1 1 0.0098167852792766606 1 1 1 1 1 1 1 1 0.010294813885653786 0.009461108511908168 1 1 0.0015944429271690444 0.013932567248106388 1 1 1 1 0.0029919591895678915 1 1 1 0.013142950413657368 1 0.0031364742349650025 1 0.015136894786169548 0.00020232539846759198 0.0045212094518877893 1 0.0027828671286134667 1 1 1 0.0093502414877324729 1 1 1 1 1 1 1 1 1 0.001172542348947524 1 1 0.001708411406479423 1 1 1 1 1 1 -7.4494076879316751e-10 1 1 1 1 1 1 0.009737669647430551 0.0097708683536457883 0.00073744593631023397 1 1 1 1 1 1 1 1 1 1 1 0.0086273721870232314 1 1 1 1 0.0024676197478906668 1 1 1 1 1 1 1 1 0.00074369086323852209 1 1 0.0040632208688463137 1 1 1 0.01141875281924801 1 1 1 1 1 1 1 1 1 0.010228742676821936 1 1 1 1 1 1 1 1 -1.8043050040161823e-10 1 1 1 2.3445304976957293e-09 1 1 0.0057708534111122088 1 1 1 0.010666270582674667 1 0.0046076863659493435 1 1 0.0056554099680799653 1 0.0032031318156420831 1 1 0.0086359195297933313 1 1 1 1 1 1 0.0055483032147265014 1 1 0.0064510604191410255 1 1 1 1 1 1 1 1 1 1 1 1 1 1 1 1 1 1 1 1 1 1 1 1 1 1 1 1 1 1 1 1 1 1 1 1 1 1 1 1 1 1 1 1 1 1 1 1 1 1 1 1 1 1 1 1 1 1 1 1 1 1 1 1 1 1 1 1 1 1 1 1 1 1 1 1 1 1 1 1 1 1 1 1 1 1 1 1 1 1 1 1 1 1 1 1 0.0088435014362820159 1 1 1 1 2.9177925249534997e-09 1 1 1 1 1 1 1 1 1 1 1 1 0.0063852842081634081 -2.3751482811779079e-09 1 1 1 1 1 1 1 1 1 1 1 1 1 1 1 0.0098913795781991887 1 1 1 0.0089257312652535198 1 1 1 1 1 1 1 1 1 1 0.00215123714941883 1 0.0058955426085763995 1 1 1 1 1 1 1 1 1 1 1 1 1 1 1 1 1 1 1 1 1 1 1 1 0.01009018343492067 1 1 1 1 0.010265311291154192 1 1 1 1 1 1 1 1 0.010015510879962108 1 1 1 1 1 1 1 1 1 1 1 1 1 1 1 1 1 1 1 1 1 1 1 1 1 1 1 1 1 1 1 1 1 1 1 1 1 1 1 1 1 1 1 1 1 1 1 1 1 0.010216444819384848 1 1 1 1 1 1 1 1 1 1 1 1 1 1 1 1 1 1 1 1 1 1 1 1 1 1 1 1 1 1 1 1 0.012092107061770829 1 1 1 1 1 1 0.0094249665361806033 1 1 1 1 1 1 0.0092863433749490777 1 1 0.0096487031496351652 1 0.0079735069978834339 1 0.0065338968907592762 1 1 1 1 0.010793548757650253 1 1 1 1 1 0.01029475841519769 1 1 1 1.6935335373641225e-09 0.0097628716227910212 1 1 1 0.0067357716037317423 1 1 1 1 0.0075553361892085266 0.0022218461208439282 1 1 1 1 1 1 1 1 1 1 1 1 1 1 0.010265482226680622 1 1 0.0086596893374591838 1 1 0.010387222272618171 0.012147554449196581 1 1 1 1 1 1 1 1 1 1 0.015246025787688014 1 0.013790845718209543 1 1 1 1 1 1 1 1 1 1 1 0.007161561330492389 1 1 1 1 1 1 1 0.0077793014344990433 1 1 1 1 1 1 1 1 1 1 1 1 1 1 1 1 1 1 0.010594660310612491 0.0097495749292060476 1 1 1 1 1 1 1 1 1 1 1 1 1 1 1 1 1 0.011950935636667978 1 1 1 1 1 1 1 1 1 0.0088154161825775516 1 1 1 1 1 1 1 1 1 1 1 1 5.6488538152654755e-10 1 1 1 1 0.010026940398160867 1 0.0080008079764467659 1 1 1 1 1 1 1 1 1 0.0090007033975782365 1 1 1 1 0.011339102927781022 1 1 1 1 0.01019711764691642 1 0.0028490148586805854 1 1 1 1 1 1 1 1 1 1 1 1 0.0097093824665707949 1 1 1 1 1 1 1 1 1 1 1 1 1 1 1 0.0093386752227689676 1 0.0069439821280452459 1 1 0.009708669881381457 1 1 1 0.010000828878434582 1 0.0021895387161545987 1 1 1.8096252829558068e-09 1 1 0.0099933313421586081 1 0.01112684479064693 1 1 1 1 1 1 1 8.4528090823918212e-05 0.0015067316153045962 1 1 1 1 0.01002365578592327 0.011877215879698429 1 1 0.006924139482300069 0.0085169402262879612 1 0.0043301694290991261 1 1 0.009338211530765278 0.011565596829139522 1 1 0.011004490370223607 1 1 0.0050200839679707555 1 1 1 1 1 1 1 1 0.0026122880324605927 1 1 0.010304838911677461 1 0.011263348064694256 1 1 1 0.0054690400668374883 1 1 1 1 1 1 1 1 0.009328095489608168 1 1 1 1 1 1 1 1 1 1 1 1 1 1 1 1 1 1 1 1 1 1 0.0082582815401411932 1 1 1 1 1 1 1 1 1 1 1 1 1 1 1 1 1 1 
</DataArray>
</CellData>
</Piece>
</UnstructuredGrid>
</VTKFile>
