<?xml version="1.0"?>
<VTKFile type="UnstructuredGrid" version="0.1" byte_order="LittleEndian">
<UnstructuredGrid>
<Piece NumberOfPoints="30578" NumberOfCells="10723">
<Points>
<DataArray type="Float64" NumberOfComponents="3" format="ascii">
-0.5 -0.5 0 -0.47439485679867832 -0.48072581506667478 0 -0.5 -0.44765434486020428 0 -0.5 -0.5 0 -0.47439485679867832 -0.48072581506667478 0 -0.43702443379937372 -0.49999999999999922 0 -0.47439485679867832 -0.48072581506667478 0 -0.45530669598391149 -0.47718009944797551 0 -0.43702443379937372 -0.49999999999999922 0 -0.47439485679867832 -0.48072581506667478 0 -0.45530669598391149 -0.47718009944797551 0 -0.4597353119515426 -0.45943449384344293 0 -0.45530669598391149 -0.47718009944797551 0 -0.44381084376742141 -0.47114793899167112 0 -0.4597353119515426 -0.45943449384344293 0 -0.45530669598391149 -0.47718009944797551 0 -0.44381084376742141 -0.47114793899167112 0 -0.43702443379937372 -0.49999999999999922 0 -0.44381084376742141 -0.47114793899167112 0 -0.43702443379937372 -0.49999999999999922 0 -0.45059725373546922 -0.44229587798334291 0 -0.4339166039271336 -0.43498117536117131 0 -0.43309128002320102 -0.45351235807576151 0 -0.44381084376742141 -0.47114793899167112 0 -0.45059725373546922 -0.44229587798334291 0 -0.4597353119515426 -0.45943449384344293 0 -0.44381084376742141 -0.47114793899167112 0 -0.45059725373546922 -0.44229587798334291 0 -0.43309128002320102 -0.45351235807576151 0 -0.44381084376742141 -0.47114793899167112 0 -0.45059725373546922 -0.44229587798334291 0 -0.4597353119515426 -0.45943449384344293 0 -0.47505511338101108 -0.44868394208069429 0 -0.46517432262153441 -0.43649963461163338 0 -0.45059725373546922 -0.44229587798334291 0 -0.4597353119515426 -0.45943449384344293 0 -0.46517432262153441 -0.43649963461163338 0 -0.47505511338101108 -0.44868394208069429 0 -0.47820614292347569 -0.42776699273468149 0 -0.46517432262153441 -0.43649963461163338 0 -0.47505511338101108 -0.44868394208069429 0 -0.47820614292347569 -0.42776699273468149 0 -0.47439485679867832 -0.48072581506667478 0 -0.47505511338101108 -0.44868394208069429 0 -0.5 -0.44765434486020428 0 -0.47439485679867832 -0.48072581506667478 0 -0.4597353119515426 -0.45943449384344293 0 -0.47505511338101108 -0.44868394208069429 0 -0.47505511338101108 -0.44868394208069429 0 -0.5 -0.44765434486020428 0 -0.47820614292347569 -0.42776699273468149 0 -0.5 -0.44765434486020428 0 -0.49656450065014057 -0.42151023988558672 0 -0.47820614292347569 -0.42776699273468149 0 -0.5 -0.44765434486020428 0 -0.49656450065014057 -0.42151023988558672 0 -0.50000000000000089 -0.37904661106745707 0 -0.49656450065014057 -0.42151023988558672 0 -0.48135717246594062 -0.40685004338866881 0 -0.47820614292347569 -0.42776699273468149 0 -0.49656450065014057 -0.42151023988558672 0 -0.48135717246594062 -0.40685004338866881 0 -0.48135717246594062 -0.40685004338866881 0 -0.47820614292347569 -0.42776699273468149 0 -0.48135717246594062 -0.40685004338866881 0 -0.47820614292347569 -0.42776699273468149 0 -0.45738366370351707 -0.41344381697501481 0 -0.49656450065014057 -0.42151023988558672 0 -0.48135717246594062 -0.40685004338866881 0 -0.50000000000000089 -0.37904661106745707 0 -0.50000000000000089 -0.37904661106745707 0 -0.48466894952205442 -0.38486603086372417 0 -0.48717439863114548 -0.36823452950912272 0 -0.48135717246594062 -0.40685004338866881 0 -0.50000000000000089 -0.37904661106745707 0 -0.48466894952205442 -0.38486603086372417 0 -0.48466894952205442 -0.38486603086372417 0 -0.48717439863114548 -0.36823452950912272 0 -0.50000000000000089 -0.37904661106745707 0 -0.48466894952205442 -0.38486603086372417 0 -0.48135717246594062 -0.40685004338866881 0 -0.48466894952205442 -0.38486603086372417 0 -0.46593083509403682 -0.39197871725165279 0 -0.48135717246594062 -0.40685004338866881 0 -0.48466894952205442 -0.38486603086372417 0 -0.48135717246594062 -0.40685004338866881 0 -0.46593083509403682 -0.39197871725165279 0 -0.48466894952205442 -0.38486603086372417 0 -0.47195833844942919 -0.37959069520904498 0 -0.46593083509403682 -0.39197871725165279 0 -0.48466894952205442 -0.38486603086372417 0 -0.46593083509403682 -0.39197871725165279 0 -0.48466894952205442 -0.38486603086372417 0 -0.47195833844942919 -0.37959069520904498 0 -0.48717439863114548 -0.36823452950912272 0 -0.46593083509403682 -0.39197871725165279 0 -0.44890944387521442 -0.39029302340116001 0 -0.45132291774153199 -0.37789636588759368 0 -0.47195833844942919 -0.37959069520904498 0 -0.46593083509403682 -0.39197871725165279 0 -0.45132291774153199 -0.37789636588759368 0 -0.46593083509403682 -0.39197871725165279 0 -0.45132291774153199 -0.37789636588759368 0 -0.48135717246594062 -0.40685004338866881 0 -0.46593083509403682 -0.39197871725165279 0 -0.45738366370351707 -0.41344381697501481 0 -0.46593083509403682 -0.39197871725165279 0 -0.44275815558040038 -0.40077469311046232 0 -0.45738366370351707 -0.41344381697501481 0 -0.46593083509403682 -0.39197871725165279 0 -0.44275815558040038 -0.40077469311046232 0 -0.46593083509403682 -0.39197871725165279 0 -0.44275815558040038 -0.40077469311046232 0 -0.44890944387521442 -0.39029302340116001 0 -0.44275815558040038 -0.40077469311046232 0 -0.44064580868350911 -0.39542861624611658 0 -0.44890944387521442 -0.39029302340116001 0 -0.44225344557501872 -0.38376649822575309 0 -0.45132291774153199 -0.37789636588759368 0 -0.43671500038902772 -0.36381401452353412 0 -0.44890944387521442 -0.39029302340116001 0 -0.44225344557501872 -0.38376649822575309 0 -0.45132291774153199 -0.37789636588759368 0 -0.44064580868350911 -0.39542861624611658 0 -0.44225344557501872 -0.38376649822575309 0 -0.43040194378266172 -0.3881600185019185 0 -0.44064580868350911 -0.39542861624611658 0 -0.44890944387521442 -0.39029302340116001 0 -0.44225344557501872 -0.38376649822575309 0 -0.47820614292347569 -0.42776699273468149 0 -0.46517432262153441 -0.43649963461163338 0 -0.45738366370351707 -0.41344381697501481 0 -0.45059725373546922 -0.44229587798334291 0 -0.45738366370351707 -0.41344381697501481 0 -0.45059725373546922 -0.44229587798334291 0 -0.46517432262153441 -0.43649963461163338 0 -0.45738366370351707 -0.41344381697501481 0 -0.44275815558040038 -0.40077469311046232 0 -0.45738366370351707 -0.41344381697501481 0 -0.44164244492799948 -0.42121090558557039 0 -0.45059725373546922 -0.44229587798334291 0 -0.45738366370351707 -0.41344381697501481 0 -0.44164244492799948 -0.42121090558557039 0 -0.45059725373546922 -0.44229587798334291 0 -0.44164244492799948 -0.42121090558557039 0 -0.4339166039271336 -0.43498117536117131 0 -0.4339166039271336 -0.43498117536117131 0 -0.42355654769347711 -0.414558964497861 0 -0.41671115160429401 -0.44095791049380378 0 -0.44164244492799948 -0.42121090558557039 0 -0.4339166039271336 -0.43498117536117131 0 -0.42355654769347711 -0.414558964497861 0 -0.44275815558040038 -0.40077469311046232 0 -0.44164244492799948 -0.42121090558557039 0 -0.42355654769347711 -0.414558964497861 0 -0.42355654769347711 -0.414558964497861 0 -0.41056920252370888 -0.3963363404412637 0 -0.40050668374064252 -0.41734442193795029 0 -0.42355654769347711 -0.414558964497861 0 -0.41671115160429401 -0.44095791049380378 0 -0.42355654769347711 -0.414558964497861 0 -0.40050668374064252 -0.41734442193795029 0 -0.41671115160429401 -0.44095791049380378 0 -0.44225344557501872 -0.38376649822575309 0 -0.43040194378266172 -0.3881600185019185 0 -0.43671500038902772 -0.36381401452353412 0 -0.43040194378266172 -0.3881600185019185 0 -0.43671500038902772 -0.36381401452353412 0 -0.44064580868350911 -0.39542861624611658 0 -0.42355654769347711 -0.414558964497861 0 -0.43040194378266172 -0.3881600185019185 0 -0.42355654769347711 -0.414558964497861 0 -0.43040194378266172 -0.3881600185019185 0 -0.44275815558040038 -0.40077469311046232 0 -0.44064580868350911 -0.39542861624611658 0 -0.42355654769347711 -0.414558964497861 0 -0.44064580868350911 -0.39542861624611658 0 -0.43040194378266172 -0.3881600185019185 0 -0.42355654769347711 -0.414558964497861 0 -0.43040194378266172 -0.3881600185019185 0 -0.41056920252370888 -0.3963363404412637 0 -0.43040194378266172 -0.3881600185019185 0 -0.4079689369259607 -0.37224253963894771 0 -0.43040194378266172 -0.3881600185019185 0 -0.41056920252370888 -0.3963363404412637 0 -0.4079689369259607 -0.37224253963894771 0 -0.41056920252370888 -0.3963363404412637 0 -0.39195929229331972 -0.37982250283040359 0 -0.4079689369259607 -0.37224253963894771 0 -0.41056920252370888 -0.3963363404412637 0 -0.39195929229331972 -0.37982250283040359 0 -0.39357845321732049 -0.39746174547711199 0 -0.41056920252370888 -0.3963363404412637 0 -0.39357845321732049 -0.39746174547711199 0 -0.40050668374064252 -0.41734442193795029 0 -0.39357845321732049 -0.39746174547711199 0 -0.38114412328536468 -0.40833987260765031 0 -0.36544727141479139 -0.39026932065168712 0 -0.39195929229331972 -0.37982250283040359 0 -0.37549160074202448 -0.3732971907138336 0 -0.36544727141479139 -0.39026932065168712 0 -0.39195929229331972 -0.37982250283040359 0 -0.39357845321732049 -0.39746174547711199 0 -0.36544727141479139 -0.39026932065168712 0 -0.40050668374064252 -0.41734442193795029 0 -0.3944977858259317 -0.43926335073686201 0 -0.41671115160429401 -0.44095791049380378 0 -0.40050668374064252 -0.41734442193795029 0 -0.38028594703985957 -0.42392304976487449 0 -0.3944977858259317 -0.43926335073686201 0 -0.39357845321732049 -0.39746174547711199 0 -0.40050668374064252 -0.41734442193795029 0 -0.38114412328536468 -0.40833987260765031 0 -0.40050668374064252 -0.41734442193795029 0 -0.38114412328536468 -0.40833987260765031 0 -0.38028594703985957 -0.42392304976487449 0 -0.38114412328536468 -0.40833987260765031 0 -0.38028594703985957 -0.42392304976487449 0 -0.36590226101420908 -0.41270082520662749 0 -0.38028594703985957 -0.42392304976487449 0 -0.3944977858259317 -0.43926335073686201 0 -0.3723601590800425 -0.44005613486137668 0 -0.3944977858259317 -0.43926335073686201 0 -0.38265619596279349 -0.45813348326120767 0 -0.3723601590800425 -0.44005613486137668 0 -0.40093272222703252 -0.45142790024540502 0 -0.3944977858259317 -0.43926335073686201 0 -0.38265619596279349 -0.45813348326120767 0 -0.40093272222703252 -0.45142790024540502 0 -0.3944977858259317 -0.43926335073686201 0 -0.41671115160429401 -0.44095791049380378 0 -0.38265619596279349 -0.45813348326120767 0 -0.40986575551511062 -0.46735685648974662 0 -0.38265619596279349 -0.45813348326120767 0 -0.39389470715733632 -0.47355095168427308 0 -0.40986575551511062 -0.46735685648974662 0 -0.40093272222703252 -0.45142790024540502 0 -0.38265619596279349 -0.45813348326120767 0 -0.40986575551511062 -0.46735685648974662 0 -0.38265619596279349 -0.45813348326120767 0 -0.38272382101637098 -0.47243968377412587 0 -0.39389470715733632 -0.47355095168427308 0 -0.38272382101637098 -0.47243968377412587 0 -0.38859428369766791 -0.48614630665141417 0 -0.36652141413456929 -0.48474993749143802 0 -0.38272382101637098 -0.47243968377412587 0 -0.38859428369766791 -0.48614630665141417 0 -0.39389470715733632 -0.47355095168427308 0 -0.37500484199342449 -0.5 0 -0.38859428369766791 -0.48614630665141417 0 -0.40140120367436599 -0.49999999999999611 0 -0.37500484199342449 -0.5 0 -0.38859428369766791 -0.48614630665141417 0 -0.36652141413456929 -0.48474993749143802 0 -0.38859428369766791 -0.48614630665141417 0 -0.40140120367436599 -0.49999999999999611 0 -0.40563347959473789 -0.48367842824487117 0 -0.40140120367436599 -0.49999999999999611 0 -0.40563347959473789 -0.48367842824487117 0 -0.40563347959473789 -0.48367842824487117 0 -0.39389470715733632 -0.47355095168427308 0 -0.40986575551511062 -0.46735685648974662 0 -0.38859428369766791 -0.48614630665141417 0 -0.40563347959473789 -0.48367842824487117 0 -0.39389470715733632 -0.47355095168427308 0 -0.40563347959473789 -0.48367842824487117 0 -0.40986575551511062 -0.46735685648974662 0 -0.42809744812538553 -0.47353695305504512 0 -0.40986575551511062 -0.46735685648974662 0 -0.4199949121527507 -0.4855396040697898 0 -0.42809744812538553 -0.47353695305504512 0 -0.40986575551511062 -0.46735685648974662 0 -0.40563347959473789 -0.48367842824487117 0 -0.4199949121527507 -0.4855396040697898 0 -0.40986575551511062 -0.46735685648974662 0 -0.40563347959473789 -0.48367842824487117 0 -0.4199949121527507 -0.4855396040697898 0 -0.41921281873686977 -0.5 0 -0.40140120367436599 -0.49999999999999611 0 -0.40563347959473789 -0.48367842824487117 0 -0.41921281873686977 -0.5 0 -0.4199949121527507 -0.4855396040697898 0 -0.41921281873686977 -0.5 0 -0.43702443379937372 -0.49999999999999922 0 -0.4199949121527507 -0.4855396040697898 0 -0.43702443379937372 -0.49999999999999922 0 -0.42809744812538553 -0.47353695305504512 0 -0.44381084376742141 -0.47114793899167112 0 -0.43702443379937372 -0.49999999999999922 0 -0.42809744812538553 -0.47353695305504512 0 -0.42809744812538553 -0.47353695305504512 0 -0.42194140881699782 -0.45884101952858919 0 -0.43309128002320102 -0.45351235807576151 0 -0.44381084376742141 -0.47114793899167112 0 -0.42809744812538553 -0.47353695305504512 0 -0.43309128002320102 -0.45351235807576151 0 -0.4339166039271336 -0.43498117536117131 0 -0.43309128002320102 -0.45351235807576151 0 -0.41671115160429401 -0.44095791049380378 0 -0.42194140881699782 -0.45884101952858919 0 -0.43309128002320102 -0.45351235807576151 0 -0.41671115160429401 -0.44095791049380378 0 -0.42194140881699782 -0.45884101952858919 0 -0.41671115160429401 -0.44095791049380378 0 -0.40986575551511062 -0.46735685648974662 0 -0.41671115160429401 -0.44095791049380378 0 -0.40986575551511062 -0.46735685648974662 0 -0.40093272222703252 -0.45142790024540502 0 -0.41671115160429401 -0.44095791049380378 0 -0.40986575551511062 -0.46735685648974662 0 -0.42809744812538553 -0.47353695305504512 0 -0.42194140881699782 -0.45884101952858919 0 -0.40986575551511062 -0.46735685648974662 0 -0.45828666285701658 -0.26028432573271792 0 -0.43487007995442373 -0.25384069753834382 0 -0.45658005330295048 -0.2439827770756183 0 -0.43864273500925549 -0.2751587481676856 0 -0.45828666285701658 -0.26028432573271792 0 -0.43487007995442373 -0.25384069753834382 0 -0.43864273500925549 -0.2751587481676856 0 -0.45645423860141388 -0.27827293425430932 0 -0.45828666285701658 -0.26028432573271792 0 -0.43864273500925549 -0.2751587481676856 0 -0.45828666285701658 -0.26028432573271792 0 -0.45645423860141388 -0.27827293425430932 0 -0.47869064668718631 -0.2683854874950159 0 -0.47091363495918082 -0.28947603344621109 0 -0.45645423860141388 -0.27827293425430932 0 -0.45828666285701658 -0.26028432573271792 0 -0.47869064668718631 -0.2683854874950159 0 -0.45828666285701658 -0.26028432573271792 0 -0.47793059070477772 -0.24540990329775009 0 -0.45828666285701658 -0.26028432573271792 0 -0.47869064668718631 -0.2683854874950159 0 -0.47793059070477772 -0.24540990329775009 0 -0.4872249908214738 -0.25598993182963242 0 -0.47869064668718631 -0.2683854874950159 0 -0.47793059070477772 -0.24540990329775009 0 -0.4872249908214738 -0.25598993182963242 0 -0.5 -0.25006354863638108 0 -0.5 -0.27586016112259643 0 -0.4872249908214738 -0.25598993182963242 0 -0.5 -0.25006354863638108 0 -0.49068252501969761 -0.24549971615663649 0 -0.4872249908214738 -0.25598993182963242 0 -0.5 -0.27586016112259643 0 -0.47869064668718631 -0.2683854874950159 0 -0.5 -0.27586016112259643 0 -0.47869064668718631 -0.2683854874950159 0 -0.48721788021035761 -0.2882082846164955 0 -0.47869064668718631 -0.2683854874950159 0 -0.47091363495918082 -0.28947603344621109 0 -0.48721788021035761 -0.2882082846164955 0 -0.47091363495918082 -0.28947603344621109 0 -0.48721788021035761 -0.2882082846164955 0 -0.48161809245015419 -0.30465866835107641 0 -0.5 -0.27586016112259643 0 -0.48721788021035761 -0.2882082846164955 0 -0.5 -0.3016567736088116 0 -0.48721788021035761 -0.2882082846164955 0 -0.5 -0.3016567736088116 0 -0.48161809245015419 -0.30465866835107641 0 -0.5 -0.3016567736088116 0 -0.48161809245015419 -0.30465866835107641 0 -0.5 -0.32745338609502678 0 -0.47091363495918082 -0.28947603344621109 0 -0.48161809245015419 -0.30465866835107641 0 -0.45879166701778518 -0.3036258058313378 0 -0.48161809245015419 -0.30465866835107641 0 -0.45879166701778518 -0.3036258058313378 0 -0.47638885418803739 -0.32253493654140952 0 -0.45645423860141388 -0.27827293425430932 0 -0.47091363495918082 -0.28947603344621109 0 -0.45879166701778518 -0.3036258058313378 0 -0.45645423860141388 -0.27827293425430932 0 -0.45879166701778518 -0.3036258058313378 0 -0.43905227881958647 -0.29505920944709452 0 -0.43864273500925549 -0.2751587481676856 0 -0.45645423860141388 -0.27827293425430932 0 -0.43905227881958647 -0.29505920944709452 0 -0.45879166701778518 -0.3036258058313378 0 -0.43905227881958647 -0.29505920944709452 0 -0.4399695753826649 -0.31139282438396382 0 -0.4399695753826649 -0.31139282438396382 0 -0.45223868162566522 -0.32343332413938758 0 -0.42808850906329299 -0.32433171173736591 0 -0.45879166701778518 -0.3036258058313378 0 -0.4399695753826649 -0.31139282438396382 0 -0.45223868162566522 -0.32343332413938758 0 -0.45223868162566522 -0.32343332413938758 0 -0.42808850906329299 -0.32433171173736591 0 -0.45223868162566522 -0.32343332413938758 0 -0.44207286924452832 -0.33783824796895978 0 -0.46140244920768408 -0.33754740415941759 0 -0.44207286924452832 -0.33783824796895978 0 -0.46140244920768408 -0.33754740415941759 0 -0.45117994904742642 -0.3486532256997657 0 -0.45223868162566522 -0.32343332413938758 0 -0.44207286924452832 -0.33783824796895978 0 -0.42808850906329299 -0.32433171173736591 0 -0.45879166701778518 -0.3036258058313378 0 -0.45223868162566522 -0.32343332413938758 0 -0.47638885418803739 -0.32253493654140952 0 -0.45223868162566522 -0.32343332413938758 0 -0.46140244920768408 -0.33754740415941759 0 -0.47638885418803739 -0.32253493654140952 0 -0.45223868162566522 -0.32343332413938758 0 -0.47638885418803739 -0.32253493654140952 0 -0.48161809245015419 -0.30465866835107641 0 -0.47638885418803739 -0.32253493654140952 0 -0.5 -0.32745338609502678 0 -0.47638885418803739 -0.32253493654140952 0 -0.5 -0.32745338609502678 0 -0.48104103145021149 -0.34129537751375599 0 -0.5 -0.32745338609502678 0 -0.48104103145021149 -0.34129537751375599 0 -0.5 -0.35324999858124201 0 -0.46140244920768408 -0.33754740415941759 0 -0.48104103145021149 -0.34129537751375599 0 -0.46549330969023639 -0.35152931309322771 0 -0.46140244920768408 -0.33754740415941759 0 -0.47638885418803739 -0.32253493654140952 0 -0.48104103145021149 -0.34129537751375599 0 -0.48104103145021149 -0.34129537751375599 0 -0.48025743214923627 -0.35616585996071459 0 -0.46549330969023639 -0.35152931309322771 0 -0.48025743214923627 -0.35616585996071459 0 -0.46757842097458802 -0.36652008110622503 0 -0.46549330969023639 -0.35152931309322771 0 -0.48025743214923627 -0.35616585996071459 0 -0.5 -0.35324999858124201 0 -0.48717439863114548 -0.36823452950912272 0 -0.48104103145021149 -0.34129537751375599 0 -0.48025743214923627 -0.35616585996071459 0 -0.5 -0.35324999858124201 0 -0.50000000000000089 -0.37904661106745707 0 -0.5 -0.35324999858124201 0 -0.48717439863114548 -0.36823452950912272 0 -0.47195833844942919 -0.37959069520904498 0 -0.48717439863114548 -0.36823452950912272 0 -0.46757842097458802 -0.36652008110622503 0 -0.48025743214923627 -0.35616585996071459 0 -0.48717439863114548 -0.36823452950912272 0 -0.46757842097458802 -0.36652008110622503 0 -0.45132291774153199 -0.37789636588759368 0 -0.46757842097458802 -0.36652008110622503 0 -0.45216690816074923 -0.36231126303824313 0 -0.47195833844942919 -0.37959069520904498 0 -0.45132291774153199 -0.37789636588759368 0 -0.46757842097458802 -0.36652008110622503 0 -0.46757842097458802 -0.36652008110622503 0 -0.46549330969023639 -0.35152931309322771 0 -0.45216690816074923 -0.36231126303824313 0 -0.46140244920768408 -0.33754740415941759 0 -0.46549330969023639 -0.35152931309322771 0 -0.45117994904742642 -0.3486532256997657 0 -0.46549330969023639 -0.35152931309322771 0 -0.45117994904742642 -0.3486532256997657 0 -0.45216690816074923 -0.36231126303824313 0 -0.44599028472907742 -0.35554349803526408 0 -0.45117994904742642 -0.3486532256997657 0 -0.45216690816074923 -0.36231126303824313 0 -0.44599028472907742 -0.35554349803526408 0 -0.45117994904742642 -0.3486532256997657 0 -0.44228407783080631 -0.34851364977492799 0 -0.44207286924452832 -0.33783824796895978 0 -0.44228407783080631 -0.34851364977492799 0 -0.43394442261003058 -0.34546672586134508 0 -0.44228407783080631 -0.34851364977492799 0 -0.43858436747801349 -0.35660488883003821 0 -0.43394442261003058 -0.34546672586134508 0 -0.44207286924452832 -0.33783824796895978 0 -0.45117994904742642 -0.3486532256997657 0 -0.44228407783080631 -0.34851364977492799 0 -0.44599028472907742 -0.35554349803526408 0 -0.44228407783080631 -0.34851364977492799 0 -0.43858436747801349 -0.35660488883003821 0 -0.44599028472907742 -0.35554349803526408 0 -0.43858436747801349 -0.35660488883003821 0 -0.43671500038902772 -0.36381401452353412 0 -0.43858436747801349 -0.35660488883003821 0 -0.43671500038902772 -0.36381401452353412 0 -0.44599028472907742 -0.35554349803526408 0 -0.45216690816074923 -0.36231126303824313 0 -0.43671500038902772 -0.36381401452353412 0 -0.45132291774153199 -0.37789636588759368 0 -0.43671500038902772 -0.36381401452353412 0 -0.45132291774153199 -0.37789636588759368 0 -0.45216690816074923 -0.36231126303824313 0 -0.43671500038902772 -0.36381401452353412 0 -0.43040194378266172 -0.3881600185019185 0 -0.43671500038902772 -0.36381401452353412 0 -0.4079689369259607 -0.37224253963894771 0 -0.43858436747801349 -0.35660488883003821 0 -0.43671500038902772 -0.36381401452353412 0 -0.41901032175007979 -0.34674631764622038 0 -0.43671500038902772 -0.36381401452353412 0 -0.41901032175007979 -0.34674631764622038 0 -0.43858436747801349 -0.35660488883003821 0 -0.43394442261003058 -0.34546672586134508 0 -0.41901032175007979 -0.34674631764622038 0 -0.41901032175007979 -0.34674631764622038 0 -0.4079689369259607 -0.37224253963894771 0 -0.40160491304204049 -0.35527610236370899 0 -0.43671500038902772 -0.36381401452353412 0 -0.41901032175007979 -0.34674631764622038 0 -0.4079689369259607 -0.37224253963894771 0 -0.4079689369259607 -0.37224253963894771 0 -0.38553593006925752 -0.3563250607759802 0 -0.4079689369259607 -0.37224253963894771 0 -0.38553593006925752 -0.3563250607759802 0 -0.40160491304204049 -0.35527610236370899 0 -0.39195929229331972 -0.37982250283040359 0 -0.4079689369259607 -0.37224253963894771 0 -0.38553593006925752 -0.3563250607759802 0 -0.39195929229331972 -0.37982250283040359 0 -0.37549160074202448 -0.3732971907138336 0 -0.38553593006925752 -0.3563250607759802 0 -0.37549160074202448 -0.3732971907138336 0 -0.38553593006925752 -0.3563250607759802 0 -0.38553593006925752 -0.3563250607759802 0 -0.36666079927166728 -0.34293209489202431 0 -0.38553593006925752 -0.3563250607759802 0 -0.39342078659019603 -0.34300184077244372 0 -0.38006824781918919 -0.33243312042550199 0 -0.38553593006925752 -0.3563250607759802 0 -0.38006824781918919 -0.33243312042550199 0 -0.36666079927166728 -0.34293209489202431 0 -0.38553593006925752 -0.3563250607759802 0 -0.39342078659019603 -0.34300184077244372 0 -0.41901032175007979 -0.34674631764622038 0 -0.40160491304204049 -0.35527610236370899 0 -0.39342078659019603 -0.34300184077244372 0 -0.38553593006925752 -0.3563250607759802 0 -0.40160491304204049 -0.35527610236370899 0 -0.39342078659019603 -0.34300184077244372 0 -0.41901032175007979 -0.34674631764622038 0 -0.40130564311113259 -0.32967862076890581 0 -0.39342078659019603 -0.34300184077244372 0 -0.40130564311113259 -0.32967862076890581 0 -0.39064670272592411 -0.32967160323888278 0 -0.39342078659019603 -0.34300184077244372 0 -0.40130564311113259 -0.32967862076890581 0 -0.39342078659019603 -0.34300184077244372 0 -0.39064670272592411 -0.32967160323888278 0 -0.39342078659019603 -0.34300184077244372 0 -0.38006824781918919 -0.33243312042550199 0 -0.38006824781918919 -0.33243312042550199 0 -0.38935907146989862 -0.31816186479418052 0 -0.37140736883531977 -0.32183989730859341 0 -0.38935907146989862 -0.31816186479418052 0 -0.38351210912712752 -0.30253866195360818 0 -0.37140736883531977 -0.32183989730859341 0 -0.39064670272592411 -0.32967160323888278 0 -0.38006824781918919 -0.33243312042550199 0 -0.38935907146989862 -0.31816186479418052 0 -0.38935907146989862 -0.31816186479418052 0 -0.401514660155255 -0.31819685637317691 0 -0.39554973675391708 -0.30949047449279188 0 -0.40130564311113259 -0.32967862076890581 0 -0.38935907146989862 -0.31816186479418052 0 -0.40130564311113259 -0.32967862076890581 0 -0.38935907146989862 -0.31816186479418052 0 -0.39962023335203928 -0.32539073298322901 0 -0.38935907146989862 -0.31816186479418052 0 -0.39962023335203928 -0.32539073298322901 0 -0.401514660155255 -0.31819685637317691 0 -0.40130564311113259 -0.32967862076890581 0 -0.39064670272592411 -0.32967160323888278 0 -0.38935907146989862 -0.31816186479418052 0 -0.40130564311113259 -0.32967862076890581 0 -0.39962023335203928 -0.32539073298322901 0 -0.4039383365009207 -0.3252300993353433 0 -0.39962023335203928 -0.32539073298322901 0 -0.4039383365009207 -0.3252300993353433 0 -0.39962023335203928 -0.32539073298322901 0 -0.4039383365009207 -0.3252300993353433 0 -0.401514660155255 -0.31819685637317691 0 -0.40130564311113259 -0.32967862076890581 0 -0.4039383365009207 -0.3252300993353433 0 -0.401514660155255 -0.31819685637317691 0 -0.4088463285069534 -0.31693695448250642 0 -0.4053668684804122 -0.3086126184714344 0 -0.4039383365009207 -0.3252300993353433 0 -0.401514660155255 -0.31819685637317691 0 -0.4088463285069534 -0.31693695448250642 0 -0.4039383365009207 -0.3252300993353433 0 -0.42808850906329299 -0.32433171173736591 0 -0.4088463285069534 -0.31693695448250642 0 -0.42808850906329299 -0.32433171173736591 0 -0.41503252140001728 -0.31110728079830707 0 -0.4039383365009207 -0.3252300993353433 0 -0.4088463285069534 -0.31693695448250642 0 -0.42808850906329299 -0.32433171173736591 0 -0.4039383365009207 -0.3252300993353433 0 -0.41609663568284688 -0.33258428014908531 0 -0.42808850906329299 -0.32433171173736591 0 -0.4039383365009207 -0.3252300993353433 0 -0.4088463285069534 -0.31693695448250642 0 -0.40130564311113259 -0.32967862076890581 0 -0.4039383365009207 -0.3252300993353433 0 -0.41609663568284688 -0.33258428014908531 0 -0.41901032175007979 -0.34674631764622038 0 -0.40130564311113259 -0.32967862076890581 0 -0.41609663568284688 -0.33258428014908531 0 -0.41901032175007979 -0.34674631764622038 0 -0.40130564311113259 -0.32967862076890581 0 -0.41901032175007979 -0.34674631764622038 0 -0.41609663568284688 -0.33258428014908531 0 -0.42777047674672519 -0.33763052508657909 0 -0.41609663568284688 -0.33258428014908531 0 -0.42777047674672519 -0.33763052508657909 0 -0.42808850906329299 -0.32433171173736591 0 -0.43394442261003058 -0.34546672586134508 0 -0.41901032175007979 -0.34674631764622038 0 -0.42777047674672519 -0.33763052508657909 0 -0.44207286924452832 -0.33783824796895978 0 -0.43394442261003058 -0.34546672586134508 0 -0.42777047674672519 -0.33763052508657909 0 -0.44207286924452832 -0.33783824796895978 0 -0.42777047674672519 -0.33763052508657909 0 -0.42808850906329299 -0.32433171173736591 0 -0.4399695753826649 -0.31139282438396382 0 -0.42808850906329299 -0.32433171173736591 0 -0.42349591428063971 -0.31031667424466408 0 -0.42808850906329299 -0.32433171173736591 0 -0.42349591428063971 -0.31031667424466408 0 -0.41503252140001728 -0.31110728079830707 0 -0.43905227881958647 -0.29505920944709452 0 -0.42349591428063971 -0.31031667424466408 0 -0.41899880716149451 -0.29003317060265321 0 -0.43905227881958647 -0.29505920944709452 0 -0.4399695753826649 -0.31139282438396382 0 -0.42349591428063971 -0.31031667424466408 0 -0.43864273500925549 -0.2751587481676856 0 -0.43905227881958647 -0.29505920944709452 0 -0.41899880716149451 -0.29003317060265321 0 -0.43864273500925549 -0.2751587481676856 0 -0.41899880716149451 -0.29003317060265321 0 -0.41649742047364408 -0.2919272257303569 0 -0.41502826726935188 -0.28951283527362931 0 -0.41151645216318689 -0.29124877083691719 0 -0.41899880716149451 -0.29003317060265321 0 -0.41649742047364408 -0.2919272257303569 0 -0.41502826726935188 -0.28951283527362931 0 -0.41899880716149451 -0.29003317060265321 0 -0.41649742047364408 -0.2919272257303569 0 -0.41899880716149451 -0.29003317060265321 0 -0.41502826726935188 -0.28951283527362931 0 -0.41310038927908221 -0.28484217392458988 0 -0.41310038927908221 -0.28484217392458988 0 -0.40629814920556201 -0.2872410904076857 0 -0.40433064532645308 -0.27892106023783952 0 -0.41502826726935188 -0.28951283527362931 0 -0.41310038927908221 -0.28484217392458988 0 -0.41151645216318689 -0.29124877083691719 0 -0.41310038927908221 -0.28484217392458988 0 -0.40629814920556201 -0.2872410904076857 0 -0.41151645216318689 -0.29124877083691719 0 -0.41649742047364408 -0.2919272257303569 0 -0.41151645216318689 -0.29124877083691719 0 -0.41283916949633909 -0.29890888486812428 0 -0.40629814920556201 -0.2872410904076857 0 -0.41151645216318689 -0.29124877083691719 0 -0.4052488046064433 -0.29379102377099447 0 -0.41151645216318689 -0.29124877083691719 0 -0.41283916949633909 -0.29890888486812428 0 -0.4052488046064433 -0.29379102377099447 0 -0.42349591428063971 -0.31031667424466408 0 -0.41899880716149451 -0.29003317060265321 0 -0.42349591428063971 -0.31031667424466408 0 -0.41649742047364408 -0.2919272257303569 0 -0.41283916949633909 -0.29890888486812428 0 -0.42349591428063971 -0.31031667424466408 0 -0.41899880716149451 -0.29003317060265321 0 -0.41649742047364408 -0.2919272257303569 0 -0.40711072979061191 -0.30081998795009107 0 -0.41283916949633909 -0.29890888486812428 0 -0.4052488046064433 -0.29379102377099447 0 -0.40711072979061191 -0.30081998795009107 0 -0.41283916949633909 -0.29890888486812428 0 -0.41256685577174013 -0.30556786269479153 0 -0.42349591428063971 -0.31031667424466408 0 -0.41283916949633909 -0.29890888486812428 0 -0.41256685577174013 -0.30556786269479153 0 -0.42349591428063971 -0.31031667424466408 0 -0.41503252140001728 -0.31110728079830707 0 -0.41256685577174013 -0.30556786269479153 0 -0.4088463285069534 -0.31693695448250642 0 -0.41503252140001728 -0.31110728079830707 0 -0.4053668684804122 -0.3086126184714344 0 -0.41503252140001728 -0.31110728079830707 0 -0.41256685577174013 -0.30556786269479153 0 -0.4053668684804122 -0.3086126184714344 0 -0.40711072979061191 -0.30081998795009107 0 -0.41256685577174013 -0.30556786269479153 0 -0.4053668684804122 -0.3086126184714344 0 -0.401514660155255 -0.31819685637317691 0 -0.4053668684804122 -0.3086126184714344 0 -0.39554973675391708 -0.30949047449279188 0 -0.4053668684804122 -0.3086126184714344 0 -0.39799597453689262 -0.29994237087155962 0 -0.39554973675391708 -0.30949047449279188 0 -0.40711072979061191 -0.30081998795009107 0 -0.4053668684804122 -0.3086126184714344 0 -0.39799597453689262 -0.29994237087155962 0 -0.40711072979061191 -0.30081998795009107 0 -0.39799597453689262 -0.29994237087155962 0 -0.4052488046064433 -0.29379102377099447 0 -0.39799597453689262 -0.29994237087155962 0 -0.39554973675391708 -0.30949047449279188 0 -0.38351210912712752 -0.30253866195360818 0 -0.38935907146989862 -0.31816186479418052 0 -0.39554973675391708 -0.30949047449279188 0 -0.38351210912712752 -0.30253866195360818 0 -0.38351210912712752 -0.30253866195360818 0 -0.3950660262777419 -0.28803976586637831 0 -0.37433096522584453 -0.28132989654828328 0 -0.39799597453689262 -0.29994237087155962 0 -0.38351210912712752 -0.30253866195360818 0 -0.3950660262777419 -0.28803976586637831 0 -0.39799597453689262 -0.29994237087155962 0 -0.3950660262777419 -0.28803976586637831 0 -0.4052488046064433 -0.29379102377099447 0 -0.40629814920556201 -0.2872410904076857 0 -0.3950660262777419 -0.28803976586637831 0 -0.4052488046064433 -0.29379102377099447 0 -0.40629814920556201 -0.2872410904076857 0 -0.3950660262777419 -0.28803976586637831 0 -0.40433064532645308 -0.27892106023783952 0 -0.40433064532645308 -0.27892106023783952 0 -0.39374553591587069 -0.27251425727467649 0 -0.41316010660589619 -0.2636986180010682 0 -0.39374553591587069 -0.27251425727467649 0 -0.41316010660589619 -0.2636986180010682 0 -0.3950660262777419 -0.28803976586637831 0 -0.40433064532645308 -0.27892106023783952 0 -0.39374553591587069 -0.27251425727467649 0 -0.39374553591587069 -0.27251425727467649 0 -0.37433096522584453 -0.28132989654828328 0 -0.3950660262777419 -0.28803976586637831 0 -0.39374553591587069 -0.27251425727467649 0 -0.37433096522584453 -0.28132989654828328 0 -0.39374553591587069 -0.27251425727467649 0 -0.37648826808451968 -0.27741199289956509 0 -0.37433096522584453 -0.28132989654828328 0 -0.39374553591587069 -0.27251425727467649 0 -0.37598097480723441 -0.26745556380373348 0 -0.38363075469537122 -0.26088114511686322 0 -0.39374553591587069 -0.27251425727467649 0 -0.37598097480723441 -0.26745556380373348 0 -0.37648826808451968 -0.27741199289956509 0 -0.37598097480723441 -0.26745556380373348 0 -0.37648826808451968 -0.27741199289956509 0 -0.37277902062147272 -0.27405557492128901 0 -0.37648826808451968 -0.27741199289956509 0 -0.37433096522584453 -0.28132989654828328 0 -0.38363075469537122 -0.26088114511686322 0 -0.37393540655460039 -0.25504906339868932 0 -0.38258347849844832 -0.24967798674395081 0 -0.37598097480723441 -0.26745556380373348 0 -0.38363075469537122 -0.26088114511686322 0 -0.37393540655460039 -0.25504906339868932 0 -0.38363075469537122 -0.26088114511686322 0 -0.3945867816951415 -0.25828321704239809 0 -0.38258347849844832 -0.24967798674395081 0 -0.3945867816951415 -0.25828321704239809 0 -0.3933004523496676 -0.24484402304582939 0 -0.38258347849844832 -0.24967798674395081 0 -0.39374553591587069 -0.27251425727467649 0 -0.3945867816951415 -0.25828321704239809 0 -0.41316010660589619 -0.2636986180010682 0 -0.3945867816951415 -0.25828321704239809 0 -0.41316010660589619 -0.2636986180010682 0 -0.40847937369743209 -0.24258689873782929 0 -0.39374553591587069 -0.27251425727467649 0 -0.38363075469537122 -0.26088114511686322 0 -0.3945867816951415 -0.25828321704239809 0 -0.41316010660589619 -0.2636986180010682 0 -0.42931567121415071 -0.25028064732030619 0 -0.40847937369743209 -0.24258689873782929 0 -0.41316010660589619 -0.2636986180010682 0 -0.40847937369743209 -0.24258689873782929 0 -0.41899880716149451 -0.29003317060265321 0 -0.41310038927908221 -0.28484217392458988 0 -0.41316010660589619 -0.2636986180010682 0 -0.41310038927908221 -0.28484217392458988 0 -0.40433064532645308 -0.27892106023783952 0 -0.41316010660589619 -0.2636986180010682 0 -0.41899880716149451 -0.29003317060265321 0 -0.41316010660589619 -0.2636986180010682 0 -0.42551969657153998 -0.27199364899169498 0 -0.41899880716149451 -0.29003317060265321 0 -0.41316010660589619 -0.2636986180010682 0 -0.43864273500925549 -0.2751587481676856 0 -0.42551969657153998 -0.27199364899169498 0 -0.43487007995442373 -0.25384069753834382 0 -0.43864273500925549 -0.2751587481676856 0 -0.41899880716149451 -0.29003317060265321 0 -0.42551969657153998 -0.27199364899169498 0 -0.41316010660589619 -0.2636986180010682 0 -0.43487007995442373 -0.25384069753834382 0 -0.41316010660589619 -0.2636986180010682 0 -0.42551969657153998 -0.27199364899169498 0 -0.43487007995442373 -0.25384069753834382 0 -0.41316010660589619 -0.2636986180010682 0 -0.43487007995442373 -0.25384069753834382 0 -0.42931567121415071 -0.25028064732030619 0 -0.32316489217708799 -0.25890650528201359 0 -0.32888695585781391 -0.26910619260742191 0 -0.31032083431566337 -0.26180085087236171 0 -0.32316489217708799 -0.25890650528201359 0 -0.32888695585781391 -0.26910619260742191 0 -0.33131030172746923 -0.25321851497678438 0 -0.32888695585781391 -0.26910619260742191 0 -0.31032083431566337 -0.26180085087236171 0 -0.32316489217708799 -0.25890650528201359 0 -0.33131030172746923 -0.25321851497678438 0 -0.32202724095639168 -0.2495658441092535 0 -0.32316489217708799 -0.25890650528201359 0 -0.31032083431566337 -0.26180085087236171 0 -0.32202724095639168 -0.2495658441092535 0 -0.31032083431566337 -0.26180085087236171 0 -0.32202724095639168 -0.2495658441092535 0 -0.31283906540333922 -0.25031215033235238 0 -0.31032083431566337 -0.26180085087236171 0 -0.32202724095639168 -0.2495658441092535 0 -0.31480478096024378 -0.27564718726691712 0 -0.32888695585781391 -0.26910619260742191 0 -0.31032083431566337 -0.26180085087236171 0 -0.31480478096024378 -0.27564718726691712 0 -0.32888695585781391 -0.26910619260742191 0 -0.32507396769595592 -0.29410449247197662 0 -0.32888695585781391 -0.26910619260742191 0 -0.3381311227387106 -0.26238754928509761 0 -0.34453036853746388 -0.27526151563856671 0 -0.32888695585781391 -0.26910619260742191 0 -0.34453036853746388 -0.27526151563856671 0 -0.33279411355556121 -0.28213246275860349 0 -0.32888695585781391 -0.26910619260742191 0 -0.34453036853746388 -0.27526151563856671 0 -0.34453036853746388 -0.27526151563856671 0 -0.34450588037081892 -0.28462367662190302 0 -0.33279411355556121 -0.28213246275860349 0 -0.32888695585781391 -0.26910619260742191 0 -0.33131030172746923 -0.25321851497678438 0 -0.32888695585781391 -0.26910619260742191 0 -0.3381311227387106 -0.26238754928509761 0 -0.33131030172746923 -0.25321851497678438 0 -0.3381311227387106 -0.26238754928509761 0 -0.34897267059429732 -0.25990550268967838 0 -0.3420777495351906 -0.24844208584564559 0 -0.3381311227387106 -0.26238754928509761 0 -0.33131030172746923 -0.25321851497678438 0 -0.3420777495351906 -0.24844208584564559 0 -0.34897267059429732 -0.25990550268967838 0 -0.35255150303394622 -0.24812522560144931 0 -0.3420777495351906 -0.24844208584564559 0 -0.34897267059429732 -0.25990550268967838 0 -0.35751050643918753 -0.2560897164936603 0 -0.35722060467742811 -0.26762499714769428 0 -0.34897267059429732 -0.25990550268967838 0 -0.35751050643918753 -0.2560897164936603 0 -0.35255150303394622 -0.24812522560144931 0 -0.35751050643918753 -0.2560897164936603 0 -0.363557814049559 -0.2486896754833777 0 -0.35255150303394622 -0.24812522560144931 0 -0.35751050643918753 -0.2560897164936603 0 -0.36561260290989678 -0.26128521942254013 0 -0.363557814049559 -0.2486896754833777 0 -0.35751050643918753 -0.2560897164936603 0 -0.36561260290989678 -0.26128521942254013 0 -0.35722060467742811 -0.26762499714769428 0 -0.37598097480723441 -0.26745556380373348 0 -0.36561260290989678 -0.26128521942254013 0 -0.37393540655460039 -0.25504906339868932 0 -0.36561260290989678 -0.26128521942254013 0 -0.37393540655460039 -0.25504906339868932 0 -0.363557814049559 -0.2486896754833777 0 -0.37277902062147272 -0.27405557492128901 0 -0.36654922363893422 -0.27215591673696138 0 -0.37433096522584453 -0.28132989654828328 0 -0.37648826808451968 -0.27741199289956509 0 -0.37277902062147272 -0.27405557492128901 0 -0.37433096522584453 -0.28132989654828328 0 -0.37598097480723441 -0.26745556380373348 0 -0.37277902062147272 -0.27405557492128901 0 -0.36654922363893422 -0.27215591673696138 0 -0.37598097480723441 -0.26745556380373348 0 -0.36561260290989678 -0.26128521942254013 0 -0.36654922363893422 -0.27215591673696138 0 -0.36561260290989678 -0.26128521942254013 0 -0.36654922363893422 -0.27215591673696138 0 -0.35722060467742811 -0.26762499714769428 0 -0.36654922363893422 -0.27215591673696138 0 -0.35722060467742811 -0.26762499714769428 0 -0.36017378121711419 -0.28141683866971062 0 -0.36654922363893422 -0.27215591673696138 0 -0.36017378121711419 -0.28141683866971062 0 -0.37433096522584453 -0.28132989654828328 0 -0.34453036853746388 -0.27526151563856671 0 -0.36017378121711419 -0.28141683866971062 0 -0.35722060467742811 -0.26762499714769428 0 -0.34453036853746388 -0.27526151563856671 0 -0.36017378121711419 -0.28141683866971062 0 -0.34453036853746388 -0.27526151563856671 0 -0.34450588037081892 -0.28462367662190302 0 -0.36017378121711419 -0.28141683866971062 0 -0.34897267059429732 -0.25990550268967838 0 -0.35722060467742811 -0.26762499714769428 0 -0.34453036853746388 -0.27526151563856671 0 -0.3381311227387106 -0.26238754928509761 0 -0.34897267059429732 -0.25990550268967838 0 -0.34453036853746388 -0.27526151563856671 0 -0.34450588037081892 -0.28462367662190302 0 -0.34891652205724832 -0.29286991805537971 0 -0.36017378121711419 -0.28141683866971062 0 -0.37433096522584453 -0.28132989654828328 0 -0.36105831684996031 -0.30543451277817618 0 -0.34891652205724832 -0.29286991805537971 0 -0.37433096522584453 -0.28132989654828328 0 -0.34891652205724832 -0.29286991805537971 0 -0.36017378121711419 -0.28141683866971062 0 -0.37433096522584453 -0.28132989654828328 0 -0.38351210912712752 -0.30253866195360818 0 -0.37433096522584453 -0.28132989654828328 0 -0.36105831684996031 -0.30543451277817618 0 -0.34891652205724832 -0.29286991805537971 0 -0.37433096522584453 -0.28132989654828328 0 -0.36105831684996031 -0.30543451277817618 0 -0.38351210912712752 -0.30253866195360818 0 -0.36105831684996031 -0.30543451277817618 0 -0.37140736883531977 -0.32183989730859341 0 -0.36105831684996031 -0.30543451277817618 0 -0.3496688877197569 -0.30429177800002122 0 -0.34586440994984541 -0.3145735322147622 0 -0.34891652205724832 -0.29286991805537971 0 -0.36105831684996031 -0.30543451277817618 0 -0.3496688877197569 -0.30429177800002122 0 -0.34891652205724832 -0.29286991805537971 0 -0.3496688877197569 -0.30429177800002122 0 -0.33956299038192078 -0.30735077663143923 0 -0.3496688877197569 -0.30429177800002122 0 -0.33956299038192078 -0.30735077663143923 0 -0.34586440994984541 -0.3145735322147622 0 -0.34891652205724832 -0.29286991805537971 0 -0.33956299038192078 -0.30735077663143923 0 -0.32350207888865212 -0.30440993956247547 0 -0.33956299038192078 -0.30735077663143923 0 -0.3301339810941622 -0.31110503031331638 0 -0.32350207888865212 -0.30440993956247547 0 -0.34891652205724832 -0.29286991805537971 0 -0.32350207888865212 -0.30440993956247547 0 -0.33956299038192078 -0.30735077663143923 0 -0.3301339810941622 -0.31110503031331638 0 -0.33675509785737662 -0.31655799101612769 0 -0.34891652205724832 -0.29286991805537971 0 -0.33611461648670682 -0.29143764798725502 0 -0.32350207888865212 -0.30440993956247547 0 -0.32888695585781391 -0.26910619260742191 0 -0.33279411355556121 -0.28213246275860349 0 -0.32507396769595592 -0.29410449247197662 0 -0.34450588037081892 -0.28462367662190302 0 -0.34891652205724832 -0.29286991805537971 0 -0.33611461648670682 -0.29143764798725502 0 -0.34450588037081892 -0.28462367662190302 0 -0.33611461648670682 -0.29143764798725502 0 -0.33279411355556121 -0.28213246275860349 0 -0.33279411355556121 -0.28213246275860349 0 -0.33070524953878982 -0.29012978506972142 0 -0.32507396769595592 -0.29410449247197662 0 -0.33611461648670682 -0.29143764798725502 0 -0.33279411355556121 -0.28213246275860349 0 -0.33070524953878982 -0.29012978506972142 0 -0.33611461648670682 -0.29143764798725502 0 -0.32742439802278828 -0.29462709162158601 0 -0.32350207888865212 -0.30440993956247547 0 -0.33611461648670682 -0.29143764798725502 0 -0.33070524953878982 -0.29012978506972142 0 -0.32742439802278828 -0.29462709162158601 0 -0.32507396769595592 -0.29410449247197662 0 -0.30234930147786221 -0.28905184696057518 0 -0.32507396769595592 -0.29410449247197662 0 -0.32350207888865212 -0.30440993956247547 0 -0.30234930147786221 -0.28905184696057518 0 -0.31480478096024378 -0.27564718726691712 0 -0.32507396769595592 -0.29410449247197662 0 -0.30234930147786221 -0.28905184696057518 0 -0.32888695585781391 -0.26910619260742191 0 -0.32507396769595592 -0.29410449247197662 0 -0.32507396769595592 -0.29410449247197662 0 -0.32742439802278828 -0.29462709162158601 0 -0.33070524953878982 -0.29012978506972142 0 -0.32507396769595592 -0.29410449247197662 0 -0.32742439802278828 -0.29462709162158601 0 -0.32302725724223008 -0.30752291379569302 0 -0.32350207888865212 -0.30440993956247547 0 -0.2999756881373381 -0.31509264677165549 0 -0.3301339810941622 -0.31110503031331638 0 -0.32302725724223008 -0.30752291379569302 0 -0.32422013968378288 -0.31561436227230438 0 -0.32302725724223008 -0.30752291379569302 0 -0.32350207888865212 -0.30440993956247547 0 -0.3301339810941622 -0.31110503031331638 0 -0.32302725724223008 -0.30752291379569302 0 -0.32350207888865212 -0.30440993956247547 0 -0.32507396769595592 -0.29410449247197662 0 -0.32742439802278828 -0.29462709162158601 0 -0.32350207888865212 -0.30440993956247547 0 -0.32507396769595592 -0.29410449247197662 0 -0.32350207888865212 -0.30440993956247547 0 -0.32302725724223008 -0.30752291379569302 0 -0.31656029902357641 -0.31849097864348519 0 -0.2999756881373381 -0.31509264677165549 0 -0.32265466046617669 -0.32198754646013139 0 -0.33127214989488979 -0.33008610863815152 0 -0.32872450059276898 -0.31896534214889599 0 -0.32265466046617669 -0.32198754646013139 0 -0.31892782856615448 -0.32825501756413727 0 -0.33127214989488979 -0.33008610863815152 0 -0.32265466046617669 -0.32198754646013139 0 -0.32422013968378288 -0.31561436227230438 0 -0.32872450059276898 -0.31896534214889599 0 -0.32302725724223008 -0.30752291379569302 0 -0.32422013968378288 -0.31561436227230438 0 -0.31656029902357641 -0.31849097864348519 0 -0.3301339810941622 -0.31110503031331638 0 -0.32422013968378288 -0.31561436227230438 0 -0.32872450059276898 -0.31896534214889599 0 -0.32265466046617669 -0.32198754646013139 0 -0.32422013968378288 -0.31561436227230438 0 -0.31656029902357641 -0.31849097864348519 0 -0.32265466046617669 -0.32198754646013139 0 -0.31656029902357641 -0.31849097864348519 0 -0.31892782856615448 -0.32825501756413727 0 -0.31656029902357641 -0.31849097864348519 0 -0.31892782856615448 -0.32825501756413727 0 -0.30936258926988919 -0.3261434941065412 0 -0.31892782856615448 -0.32825501756413727 0 -0.31208723605418232 -0.33616024018399832 0 -0.30936258926988919 -0.3261434941065412 0 -0.31892782856615448 -0.32825501756413727 0 -0.32183099473442811 -0.33958013728355868 0 -0.31208723605418232 -0.33616024018399832 0 -0.32183099473442811 -0.33958013728355868 0 -0.31234840654553953 -0.34764506024843322 0 -0.31208723605418232 -0.33616024018399832 0 -0.31892782856615448 -0.32825501756413727 0 -0.32183099473442811 -0.33958013728355868 0 -0.33127214989488979 -0.33008610863815152 0 -0.33127214989488979 -0.33008610863815152 0 -0.34778566847407638 -0.32953912900806931 0 -0.33412452318830171 -0.35434929914508079 0 -0.32183099473442811 -0.33958013728355868 0 -0.33127214989488979 -0.33008610863815152 0 -0.33412452318830171 -0.35434929914508079 0 -0.34778566847407638 -0.32953912900806931 0 -0.33412452318830171 -0.35434929914508079 0 -0.33127214989488979 -0.33008610863815152 0 -0.34035549841598117 -0.32426700585474 0 -0.34778566847407638 -0.32953912900806931 0 -0.34035549841598117 -0.32426700585474 0 -0.33427681169025408 -0.32246911191447869 0 -0.33675509785737662 -0.31655799101612769 0 -0.33127214989488979 -0.33008610863815152 0 -0.34035549841598117 -0.32426700585474 0 -0.33427681169025408 -0.32246911191447869 0 -0.33127214989488979 -0.33008610863815152 0 -0.33427681169025408 -0.32246911191447869 0 -0.32872450059276898 -0.31896534214889599 0 -0.33427681169025408 -0.32246911191447869 0 -0.32872450059276898 -0.31896534214889599 0 -0.33675509785737662 -0.31655799101612769 0 -0.3301339810941622 -0.31110503031331638 0 -0.32872450059276898 -0.31896534214889599 0 -0.33675509785737662 -0.31655799101612769 0 -0.33956299038192078 -0.30735077663143923 0 -0.33675509785737662 -0.31655799101612769 0 -0.34586440994984541 -0.3145735322147622 0 -0.34035549841598117 -0.32426700585474 0 -0.33675509785737662 -0.31655799101612769 0 -0.34586440994984541 -0.3145735322147622 0 -0.36105831684996031 -0.30543451277817618 0 -0.34778566847407638 -0.32953912900806931 0 -0.36105831684996031 -0.30543451277817618 0 -0.34586440994984541 -0.3145735322147622 0 -0.34778566847407638 -0.32953912900806931 0 -0.34035549841598117 -0.32426700585474 0 -0.34586440994984541 -0.3145735322147622 0 -0.34778566847407638 -0.32953912900806931 0 -0.34035549841598117 -0.32426700585474 0 -0.34778566847407638 -0.32953912900806931 0 -0.36105831684996031 -0.30543451277817618 0 -0.37140736883531977 -0.32183989730859341 0 -0.34778566847407638 -0.32953912900806931 0 -0.38006824781918919 -0.33243312042550199 0 -0.37140736883531977 -0.32183989730859341 0 -0.36666079927166728 -0.34293209489202431 0 -0.37140736883531977 -0.32183989730859341 0 -0.36666079927166728 -0.34293209489202431 0 -0.34778566847407638 -0.32953912900806931 0 -0.34778566847407638 -0.32953912900806931 0 -0.35170181166344461 -0.34709871950800919 0 -0.33412452318830171 -0.35434929914508079 0 -0.36666079927166728 -0.34293209489202431 0 -0.34778566847407638 -0.32953912900806931 0 -0.36666079927166728 -0.34293209489202431 0 -0.34778566847407638 -0.32953912900806931 0 -0.35170181166344461 -0.34709871950800919 0 -0.36666079927166728 -0.34293209489202431 0 -0.35170181166344461 -0.34709871950800919 0 -0.35823625571973289 -0.36157435498686258 0 -0.35170181166344461 -0.34709871950800919 0 -0.35823625571973289 -0.36157435498686258 0 -0.33412452318830171 -0.35434929914508079 0 -0.38553593006925752 -0.3563250607759802 0 -0.36666079927166728 -0.34293209489202431 0 -0.35823625571973289 -0.36157435498686258 0 -0.37549160074202448 -0.3732971907138336 0 -0.38553593006925752 -0.3563250607759802 0 -0.35823625571973289 -0.36157435498686258 0 -0.37549160074202448 -0.3732971907138336 0 -0.35823625571973289 -0.36157435498686258 0 -0.35302350150803719 -0.38208755235937009 0 -0.35823625571973289 -0.36157435498686258 0 -0.34413293857164062 -0.37054757780120701 0 -0.35302350150803719 -0.38208755235937009 0 -0.35823625571973289 -0.36157435498686258 0 -0.34413293857164062 -0.37054757780120701 0 -0.33412452318830171 -0.35434929914508079 0 -0.34413293857164062 -0.37054757780120701 0 -0.33412452318830171 -0.35434929914508079 0 -0.33519042443293379 -0.3802220457599616 0 -0.33412452318830171 -0.35434929914508079 0 -0.33519042443293379 -0.3802220457599616 0 -0.32046337790252549 -0.37915946928209171 0 -0.32183099473442811 -0.33958013728355868 0 -0.33412452318830171 -0.35434929914508079 0 -0.31234840654553953 -0.34764506024843322 0 -0.33412452318830171 -0.35434929914508079 0 -0.316806384823896 -0.36257585725837499 0 -0.31234840654553953 -0.34764506024843322 0 -0.316806384823896 -0.36257585725837499 0 -0.3002892316592175 -0.36914960035789463 0 -0.32046337790252549 -0.37915946928209171 0 -0.33412452318830171 -0.35434929914508079 0 -0.316806384823896 -0.36257585725837499 0 -0.32046337790252549 -0.37915946928209171 0 -0.33412452318830171 -0.35434929914508079 0 -0.32046337790252549 -0.37915946928209171 0 -0.3002892316592175 -0.36914960035789463 0 -0.32046337790252549 -0.37915946928209171 0 -0.3002892316592175 -0.36914960035789463 0 -0.31234840654553953 -0.34764506024843322 0 -0.29527517448125451 -0.36666176000398298 0 -0.316806384823896 -0.36257585725837499 0 -0.3002892316592175 -0.36914960035789463 0 -0.31234840654553953 -0.34764506024843322 0 -0.3002892316592175 -0.36914960035789463 0 -0.29527517448125451 -0.36666176000398298 0 -0.3002892316592175 -0.36914960035789463 0 -0.29403121103535113 -0.38030922419454549 0 -0.31234840654553953 -0.34764506024843322 0 -0.29527517448125451 -0.36666176000398298 0 -0.2976254313092957 -0.34087720338781918 0 -0.3002892316592175 -0.36914960035789463 0 -0.31234840654553953 -0.34764506024843322 0 -0.29527517448125451 -0.36666176000398298 0 -0.26926364122666091 -0.35375553660024128 0 -0.28048823453243299 -0.34080574413418752 0 -0.29527517448125451 -0.36666176000398298 0 -0.2976254313092957 -0.34087720338781918 0 -0.29527517448125451 -0.36666176000398298 0 -0.28048823453243299 -0.34080574413418752 0 -0.2976254313092957 -0.34087720338781918 0 -0.29527517448125451 -0.36666176000398298 0 -0.26926364122666091 -0.35375553660024128 0 -0.29527517448125451 -0.36666176000398298 0 -0.27994264201103719 -0.36323993691456841 0 -0.26926364122666091 -0.35375553660024128 0 -0.29527517448125451 -0.36666176000398298 0 -0.28588261091775702 -0.37268605543787447 0 -0.29403121103535113 -0.38030922419454549 0 -0.29527517448125451 -0.36666176000398298 0 -0.29403121103535113 -0.38030922419454549 0 -0.3002892316592175 -0.36914960035789463 0 -0.29527517448125451 -0.36666176000398298 0 -0.29403121103535113 -0.38030922419454549 0 -0.29527517448125451 -0.36666176000398298 0 -0.28588261091775702 -0.37268605543787447 0 -0.27994264201103719 -0.36323993691456841 0 -0.28588261091775702 -0.37268605543787447 0 -0.27994264201103719 -0.36323993691456841 0 -0.2742629371717063 -0.37916463673385931 0 -0.27994264201103719 -0.36323993691456841 0 -0.26568404082974961 -0.36651666061706623 0 -0.2742629371717063 -0.37916463673385931 0 -0.27994264201103719 -0.36323993691456841 0 -0.26568404082974961 -0.36651666061706623 0 -0.26017799311385281 -0.35268912854855933 0 -0.26568404082974961 -0.36651666061706623 0 -0.25909124390184018 -0.37475905286733341 0 -0.2742629371717063 -0.37916463673385931 0 -0.26568404082974961 -0.36651666061706623 0 -0.25909124390184018 -0.37475905286733341 0 -0.25494538795031141 -0.36273054802101118 0 -0.26568404082974961 -0.36651666061706623 0 -0.25494538795031141 -0.36273054802101118 0 -0.26017799311385281 -0.35268912854855933 0 -0.25909124390184018 -0.37475905286733341 0 -0.25494538795031141 -0.36273054802101118 0 -0.24748772700216881 -0.3717564301773445 0 -0.26017799311385281 -0.35268912854855933 0 -0.2404133442166683 -0.34213832018255058 0 -0.26926364122666091 -0.35375553660024128 0 -0.24325210797206609 -0.34084931319650169 0 -0.26017799311385281 -0.35268912854855933 0 -0.26926364122666091 -0.35375553660024128 0 -0.24325210797206609 -0.34084931319650169 0 -0.25494538795031141 -0.36273054802101118 0 -0.26017799311385281 -0.35268912854855933 0 -0.24808760514302669 -0.3536558827211943 0 -0.27994264201103719 -0.36323993691456841 0 -0.26017799311385281 -0.35268912854855933 0 -0.27994264201103719 -0.36323993691456841 0 -0.26017799311385281 -0.35268912854855933 0 -0.26926364122666091 -0.35375553660024128 0 -0.28048823453243299 -0.34080574413418752 0 -0.2621599680271573 -0.33226375772155409 0 -0.28106782808224812 -0.3236782022466056 0 -0.26926364122666091 -0.35375553660024128 0 -0.28048823453243299 -0.34080574413418752 0 -0.2621599680271573 -0.33226375772155409 0 -0.2621599680271573 -0.33226375772155409 0 -0.24518994726652291 -0.33234415230164399 0 -0.24308922262768951 -0.32099342612622928 0 -0.2621599680271573 -0.33226375772155409 0 -0.24325210797206609 -0.34084931319650169 0 -0.24518994726652291 -0.33234415230164399 0 -0.2621599680271573 -0.33226375772155409 0 -0.24325210797206609 -0.34084931319650169 0 -0.26926364122666091 -0.35375553660024128 0 -0.2621599680271573 -0.33226375772155409 0 -0.24325210797206609 -0.34084931319650169 0 -0.2621599680271573 -0.33226375772155409 0 -0.25915672867891859 -0.31415112243359272 0 -0.24308922262768951 -0.32099342612622928 0 -0.2621599680271573 -0.33226375772155409 0 -0.28106782808224812 -0.3236782022466056 0 -0.25915672867891859 -0.31415112243359272 0 -0.28106782808224812 -0.3236782022466056 0 -0.2709678639136075 -0.30238435136382452 0 -0.2621599680271573 -0.33226375772155409 0 -0.25915672867891859 -0.31415112243359272 0 -0.28106782808224812 -0.3236782022466056 0 -0.28106782808224812 -0.3236782022466056 0 -0.2999756881373381 -0.31509264677165549 0 -0.28453315598845252 -0.30841843357299598 0 -0.28106782808224812 -0.3236782022466056 0 -0.2976254313092957 -0.34087720338781918 0 -0.2999756881373381 -0.31509264677165549 0 -0.28106782808224812 -0.3236782022466056 0 -0.2999756881373381 -0.31509264677165549 0 -0.28048823453243299 -0.34080574413418752 0 -0.28106782808224812 -0.3236782022466056 0 -0.2976254313092957 -0.34087720338781918 0 -0.31234840654553953 -0.34764506024843322 0 -0.2976254313092957 -0.34087720338781918 0 -0.31208723605418232 -0.33616024018399832 0 -0.2976254313092957 -0.34087720338781918 0 -0.31208723605418232 -0.33616024018399832 0 -0.30936258926988919 -0.3261434941065412 0 -0.2976254313092957 -0.34087720338781918 0 -0.2999756881373381 -0.31509264677165549 0 -0.2976254313092957 -0.34087720338781918 0 -0.30936258926988919 -0.3261434941065412 0 -0.2999756881373381 -0.31509264677165549 0 -0.31656029902357641 -0.31849097864348519 0 -0.30936258926988919 -0.3261434941065412 0 -0.2999756881373381 -0.31509264677165549 0 -0.32350207888865212 -0.30440993956247547 0 -0.2999756881373381 -0.31509264677165549 0 -0.30234930147786221 -0.28905184696057518 0 -0.2999756881373381 -0.31509264677165549 0 -0.30234930147786221 -0.28905184696057518 0 -0.2999756881373381 -0.31509264677165549 0 -0.30234930147786221 -0.28905184696057518 0 -0.29239547880504652 -0.30127313523009702 0 -0.32350207888865212 -0.30440993956247547 0 -0.2999756881373381 -0.31509264677165549 0 -0.30234930147786221 -0.28905184696057518 0 -0.29006270545698909 -0.29189763306700739 0 -0.29239547880504652 -0.30127313523009702 0 -0.30234930147786221 -0.28905184696057518 0 -0.29006270545698909 -0.29189763306700739 0 -0.28742262680475061 -0.28573302172180548 0 -0.30234930147786221 -0.28905184696057518 0 -0.28742262680475061 -0.28573302172180548 0 -0.29006270545698909 -0.29189763306700739 0 -0.28742262680475061 -0.28573302172180548 0 -0.28158089536532038 -0.29680102193740848 0 -0.29006270545698909 -0.29189763306700739 0 -0.28158089536532038 -0.29680102193740848 0 -0.29239547880504652 -0.30127313523009702 0 -0.28158089536532038 -0.29680102193740848 0 -0.29239547880504652 -0.30127313523009702 0 -0.28453315598845252 -0.30841843357299598 0 -0.2999756881373381 -0.31509264677165549 0 -0.29239547880504652 -0.30127313523009702 0 -0.28453315598845252 -0.30841843357299598 0 -0.28106782808224812 -0.3236782022466056 0 -0.28453315598845252 -0.30841843357299598 0 -0.2709678639136075 -0.30238435136382452 0 -0.28158089536532038 -0.29680102193740848 0 -0.28453315598845252 -0.30841843357299598 0 -0.2709678639136075 -0.30238435136382452 0 -0.25915672867891859 -0.31415112243359272 0 -0.25718459078837252 -0.29759752524363881 0 -0.24047089863443691 -0.30798947189970438 0 -0.25915672867891859 -0.31415112243359272 0 -0.2709678639136075 -0.30238435136382452 0 -0.25718459078837252 -0.29759752524363881 0 -0.25718459078837252 -0.29759752524363881 0 -0.25108388684634803 -0.28956965662021522 0 -0.26792751193251091 -0.28139844079955562 0 -0.25108388684634803 -0.28956965662021522 0 -0.26792751193251091 -0.28139844079955562 0 -0.2484323970602714 -0.27706385987730509 0 -0.2709678639136075 -0.30238435136382452 0 -0.25718459078837252 -0.29759752524363881 0 -0.26792751193251091 -0.28139844079955562 0 -0.28742262680475061 -0.28573302172180548 0 -0.26792751193251091 -0.28139844079955562 0 -0.28158089536532038 -0.29680102193740848 0 -0.2709678639136075 -0.30238435136382452 0 -0.26792751193251091 -0.28139844079955562 0 -0.28742262680475061 -0.28573302172180548 0 -0.28158089536532038 -0.29680102193740848 0 -0.26792751193251091 -0.28139844079955562 0 -0.26792751193251091 -0.28139844079955562 0 -0.27965676560653041 -0.27550351800418249 0 -0.27506057922854799 -0.26523935036500679 0 -0.28742262680475061 -0.28573302172180548 0 -0.26792751193251091 -0.28139844079955562 0 -0.27965676560653041 -0.27550351800418249 0 -0.26792751193251091 -0.28139844079955562 0 -0.26170023695288303 -0.26848976391570201 0 -0.27506057922854799 -0.26523935036500679 0 -0.27965676560653041 -0.27550351800418249 0 -0.27506057922854799 -0.26523935036500679 0 -0.28821634446031208 -0.2696432591303618 0 -0.26792751193251091 -0.28139844079955562 0 -0.2484323970602714 -0.27706385987730509 0 -0.26792751193251091 -0.28139844079955562 0 -0.26170023695288303 -0.26848976391570201 0 -0.2484323970602714 -0.27706385987730509 0 -0.26170023695288303 -0.26848976391570201 0 -0.25309751137434572 -0.26289123234143091 0 -0.2484323970602714 -0.27706385987730509 0 -0.2565674865322034 -0.25340195958415102 0 -0.26524553468775469 -0.25886506807255583 0 -0.27383001930629169 -0.24744255459442921 0 -0.2565674865322034 -0.25340195958415102 0 -0.27383001930629169 -0.24744255459442921 0 -0.2565674865322034 -0.25340195958415102 0 -0.25309751137434572 -0.26289123234143091 0 -0.24233717299785959 -0.25960849866204011 0 -0.2565674865322034 -0.25340195958415102 0 -0.25309751137434572 -0.26289123234143091 0 -0.26524553468775469 -0.25886506807255583 0 -0.26170023695288303 -0.26848976391570201 0 -0.25309751137434572 -0.26289123234143091 0 -0.26524553468775469 -0.25886506807255583 0 -0.27506057922854799 -0.26523935036500679 0 -0.28942662192718172 -0.25357945894426132 0 -0.27383001930629169 -0.24744255459442921 0 -0.26524553468775469 -0.25886506807255583 0 -0.27506057922854799 -0.26523935036500679 0 -0.27383001930629169 -0.24744255459442921 0 -0.26170023695288303 -0.26848976391570201 0 -0.26524553468775469 -0.25886506807255583 0 -0.27506057922854799 -0.26523935036500679 0 -0.28942662192718172 -0.25357945894426132 0 -0.29569431645386429 -0.26311293363000732 0 -0.28821634446031208 -0.2696432591303618 0 -0.28942662192718172 -0.25357945894426132 0 -0.27383001930629169 -0.24744255459442921 0 -0.27506057922854799 -0.26523935036500679 0 -0.28942662192718172 -0.25357945894426132 0 -0.28821634446031208 -0.2696432591303618 0 -0.28942662192718172 -0.25357945894426132 0 -0.29569431645386429 -0.26311293363000732 0 -0.30502322454807101 -0.25971636329409542 0 -0.29569431645386429 -0.26311293363000732 0 -0.28821634446031208 -0.2696432591303618 0 -0.30425539613548452 -0.26814017253042433 0 -0.28742262680475061 -0.28573302172180548 0 -0.27965676560653041 -0.27550351800418249 0 -0.28821634446031208 -0.2696432591303618 0 -0.28742262680475061 -0.28573302172180548 0 -0.28821634446031208 -0.2696432591303618 0 -0.30425539613548452 -0.26814017253042433 0 -0.28742262680475061 -0.28573302172180548 0 -0.30425539613548452 -0.26814017253042433 0 -0.31480478096024378 -0.27564718726691712 0 -0.30234930147786221 -0.28905184696057518 0 -0.30425539613548452 -0.26814017253042433 0 -0.30234930147786221 -0.28905184696057518 0 -0.30425539613548452 -0.26814017253042433 0 -0.30234930147786221 -0.28905184696057518 0 -0.28742262680475061 -0.28573302172180548 0 -0.30425539613548452 -0.26814017253042433 0 -0.31480478096024378 -0.27564718726691712 0 -0.30425539613548452 -0.26814017253042433 0 -0.31032083431566337 -0.26180085087236171 0 -0.30425539613548452 -0.26814017253042433 0 -0.31032083431566337 -0.26180085087236171 0 -0.30502322454807101 -0.25971636329409542 0 -0.28942662192718172 -0.25357945894426132 0 -0.30538593138510828 -0.25573712372202267 0 -0.29948497002523827 -0.2483657822867901 0 -0.28942662192718172 -0.25357945894426132 0 -0.30502322454807101 -0.25971636329409542 0 -0.30538593138510828 -0.25573712372202267 0 -0.30425539613548452 -0.26814017253042433 0 -0.31032083431566337 -0.26180085087236171 0 -0.31032083431566337 -0.26180085087236171 0 -0.30502322454807101 -0.25971636329409542 0 -0.31032083431566337 -0.26180085087236171 0 -0.30502322454807101 -0.25971636329409542 0 -0.30538593138510828 -0.25573712372202267 0 -0.31283906540333922 -0.25031215033235238 0 -0.31032083431566337 -0.26180085087236171 0 -0.30538593138510828 -0.25573712372202267 0 -0.31283906540333922 -0.25031215033235238 0 -0.30538593138510828 -0.25573712372202267 0 -0.30623861516307299 -0.24935013043731349 0 -0.30502322454807101 -0.25971636329409542 0 -0.30538593138510828 -0.25573712372202267 0 -0.28942662192718172 -0.25357945894426132 0 -0.30502322454807101 -0.25971636329409542 0 -0.30538593138510828 -0.25573712372202267 0 -0.29948497002523827 -0.2483657822867901 0 -0.30623861516307299 -0.24935013043731349 0 -0.30425539613548452 -0.26814017253042433 0 -0.30502322454807101 -0.25971636329409542 0 -0.29569431645386429 -0.26311293363000732 0 -0.30425539613548452 -0.26814017253042433 0 -0.30502322454807101 -0.25971636329409542 0 -0.33143192801526428 -0.45396038638140679 0 -0.33152258580119082 -0.46633970128806979 0 -0.34296165509457921 -0.45730971557378147 0 -0.34069406563311189 -0.44566521365826578 0 -0.32492704317595772 -0.44077768091168912 0 -0.33812272201467081 -0.43047089330918592 0 -0.33143192801526428 -0.45396038638140679 0 -0.34069406563311189 -0.44566521365826578 0 -0.32492704317595772 -0.44077768091168912 0 -0.33143192801526428 -0.45396038638140679 0 -0.34296165509457921 -0.45730971557378147 0 -0.34069406563311189 -0.44566521365826578 0 -0.33143192801526428 -0.45396038638140679 0 -0.32492704317595772 -0.44077768091168912 0 -0.31987457796333868 -0.4551426725204325 0 -0.32492704317595772 -0.44077768091168912 0 -0.31987457796333868 -0.4551426725204325 0 -0.31015853372433788 -0.44544301337781073 0 -0.33152258580119082 -0.46633970128806979 0 -0.30592196819360068 -0.46328971004504182 0 -0.33152258580119082 -0.46633970128806979 0 -0.31987457796333868 -0.4551426725204325 0 -0.30592196819360068 -0.46328971004504182 0 -0.33152258580119082 -0.46633970128806979 0 -0.32094261384274558 -0.46854088973335889 0 -0.30592196819360068 -0.46328971004504182 0 -0.33143192801526428 -0.45396038638140679 0 -0.33152258580119082 -0.46633970128806979 0 -0.31987457796333868 -0.4551426725204325 0 -0.33152258580119082 -0.46633970128806979 0 -0.32094261384274558 -0.46854088973335889 0 -0.32966732857214198 -0.4835879285261328 0 -0.32094261384274558 -0.46854088973335889 0 -0.32966732857214198 -0.4835879285261328 0 -0.31208929727375578 -0.48491526738579699 0 -0.32221211863154181 -0.5 0 -0.32966732857214198 -0.4835879285261328 0 -0.31208929727375578 -0.48491526738579699 0 -0.32221211863154181 -0.5 0 -0.32966732857214198 -0.4835879285261328 0 -0.34860848031248309 -0.5 0 -0.32966732857214198 -0.4835879285261328 0 -0.34707385437868848 -0.48052394199199022 0 -0.34860848031248309 -0.5 0 -0.33152258580119082 -0.46633970128806979 0 -0.32966732857214198 -0.4835879285261328 0 -0.34707385437868848 -0.48052394199199022 0 -0.33152258580119082 -0.46633970128806979 0 -0.3571232034087809 -0.46938969253109791 0 -0.34707385437868848 -0.48052394199199022 0 -0.3571232034087809 -0.46938969253109791 0 -0.34707385437868848 -0.48052394199199022 0 -0.36652141413456929 -0.48474993749143802 0 -0.34707385437868848 -0.48052394199199022 0 -0.34860848031248309 -0.5 0 -0.36652141413456929 -0.48474993749143802 0 -0.37500484199342449 -0.5 0 -0.34860848031248309 -0.5 0 -0.36652141413456929 -0.48474993749143802 0 -0.38272382101637098 -0.47243968377412587 0 -0.3571232034087809 -0.46938969253109791 0 -0.36652141413456929 -0.48474993749143802 0 -0.38272382101637098 -0.47243968377412587 0 -0.3571232034087809 -0.46938969253109791 0 -0.38265619596279349 -0.45813348326120767 0 -0.38272382101637098 -0.47243968377412587 0 -0.3571232034087809 -0.46938969253109791 0 -0.38265619596279349 -0.45813348326120767 0 -0.3571232034087809 -0.46938969253109791 0 -0.35544663641047641 -0.4489101100326689 0 -0.38265619596279349 -0.45813348326120767 0 -0.35544663641047641 -0.4489101100326689 0 -0.34296165509457921 -0.45730971557378147 0 -0.3571232034087809 -0.46938969253109791 0 -0.35544663641047641 -0.4489101100326689 0 -0.33152258580119082 -0.46633970128806979 0 -0.3571232034087809 -0.46938969253109791 0 -0.33152258580119082 -0.46633970128806979 0 -0.34296165509457921 -0.45730971557378147 0 -0.3571232034087809 -0.46938969253109791 0 -0.34069406563311189 -0.44566521365826578 0 -0.35544663641047641 -0.4489101100326689 0 -0.35372302635176472 -0.43532257313283612 0 -0.34296165509457921 -0.45730971557378147 0 -0.34069406563311189 -0.44566521365826578 0 -0.35544663641047641 -0.4489101100326689 0 -0.35544663641047641 -0.4489101100326689 0 -0.3723601590800425 -0.44005613486137668 0 -0.35372302635176472 -0.43532257313283612 0 -0.38265619596279349 -0.45813348326120767 0 -0.35544663641047641 -0.4489101100326689 0 -0.3723601590800425 -0.44005613486137668 0 -0.38028594703985957 -0.42392304976487449 0 -0.3723601590800425 -0.44005613486137668 0 -0.36423780173753523 -0.4264797532188066 0 -0.3723601590800425 -0.44005613486137668 0 -0.36423780173753523 -0.4264797532188066 0 -0.35372302635176472 -0.43532257313283612 0 -0.38028594703985957 -0.42392304976487449 0 -0.36423780173753523 -0.4264797532188066 0 -0.36590226101420908 -0.41270082520662749 0 -0.36423780173753523 -0.4264797532188066 0 -0.36590226101420908 -0.41270082520662749 0 -0.35147677323475168 -0.42035333371671318 0 -0.36590226101420908 -0.41270082520662749 0 -0.35147677323475168 -0.42035333371671318 0 -0.35184044830027089 -0.40346733636007898 0 -0.35147677323475168 -0.42035333371671318 0 -0.35184044830027089 -0.40346733636007898 0 -0.33675831632547681 -0.41105613646481343 0 -0.35147677323475168 -0.42035333371671318 0 -0.35372302635176472 -0.43532257313283612 0 -0.33812272201467081 -0.43047089330918592 0 -0.34069406563311189 -0.44566521365826578 0 -0.35372302635176472 -0.43532257313283612 0 -0.33812272201467081 -0.43047089330918592 0 -0.36423780173753523 -0.4264797532188066 0 -0.35147677323475168 -0.42035333371671318 0 -0.35372302635176472 -0.43532257313283612 0 -0.37549160074202448 -0.3732971907138336 0 -0.36544727141479139 -0.39026932065168712 0 -0.37549160074202448 -0.3732971907138336 0 -0.36544727141479139 -0.39026932065168712 0 -0.35302350150803719 -0.38208755235937009 0 -0.36590226101420908 -0.41270082520662749 0 -0.36544727141479139 -0.39026932065168712 0 -0.35184044830027089 -0.40346733636007898 0 -0.38114412328536468 -0.40833987260765031 0 -0.36590226101420908 -0.41270082520662749 0 -0.36544727141479139 -0.39026932065168712 0 -0.35184044830027089 -0.40346733636007898 0 -0.35302350150803719 -0.38208755235937009 0 -0.34082557137486691 -0.39523504024196021 0 -0.36544727141479139 -0.39026932065168712 0 -0.35184044830027089 -0.40346733636007898 0 -0.35302350150803719 -0.38208755235937009 0 -0.34413293857164062 -0.37054757780120701 0 -0.35302350150803719 -0.38208755235937009 0 -0.33519042443293379 -0.3802220457599616 0 -0.35302350150803719 -0.38208755235937009 0 -0.33519042443293379 -0.3802220457599616 0 -0.34082557137486691 -0.39523504024196021 0 -0.33519042443293379 -0.3802220457599616 0 -0.32808226850220168 -0.39240284671641351 0 -0.3247168406287716 -0.38559411673624039 0 -0.33519042443293379 -0.3802220457599616 0 -0.34082557137486691 -0.39523504024196021 0 -0.32808226850220168 -0.39240284671641351 0 -0.34082557137486691 -0.39523504024196021 0 -0.32808226850220168 -0.39240284671641351 0 -0.33675831632547681 -0.41105613646481343 0 -0.32808226850220168 -0.39240284671641351 0 -0.33675831632547681 -0.41105613646481343 0 -0.3206477944579052 -0.41019310838576051 0 -0.35184044830027089 -0.40346733636007898 0 -0.34082557137486691 -0.39523504024196021 0 -0.33675831632547681 -0.41105613646481343 0 -0.32808226850220168 -0.39240284671641351 0 -0.31437491003333667 -0.39021680895226152 0 -0.3206477944579052 -0.41019310838576051 0 -0.32808226850220168 -0.39240284671641351 0 -0.3247168406287716 -0.38559411673624039 0 -0.31437491003333667 -0.39021680895226152 0 -0.31437491003333667 -0.39021680895226152 0 -0.32046337790252549 -0.37915946928209171 0 -0.30588070030683939 -0.38181824174751872 0 -0.3247168406287716 -0.38559411673624039 0 -0.31437491003333667 -0.39021680895226152 0 -0.32046337790252549 -0.37915946928209171 0 -0.31437491003333667 -0.39021680895226152 0 -0.32046337790252549 -0.37915946928209171 0 -0.33519042443293379 -0.3802220457599616 0 -0.3247168406287716 -0.38559411673624039 0 -0.32046337790252549 -0.37915946928209171 0 -0.32492704317595772 -0.44077768091168912 0 -0.33812272201467081 -0.43047089330918592 0 -0.32670905357880831 -0.42305010768611329 0 -0.35147677323475168 -0.42035333371671318 0 -0.33812272201467081 -0.43047089330918592 0 -0.33675831632547681 -0.41105613646481343 0 -0.33812272201467081 -0.43047089330918592 0 -0.33675831632547681 -0.41105613646481343 0 -0.32670905357880831 -0.42305010768611329 0 -0.33675831632547681 -0.41105613646481343 0 -0.3206477944579052 -0.41019310838576051 0 -0.32670905357880831 -0.42305010768611329 0 -0.3206477944579052 -0.41019310838576051 0 -0.31307232924124478 -0.42559811140412351 0 -0.32670905357880831 -0.42305010768611329 0 -0.32492704317595772 -0.44077768091168912 0 -0.31307232924124478 -0.42559811140412351 0 -0.31015853372433788 -0.44544301337781073 0 -0.32492704317595772 -0.44077768091168912 0 -0.31307232924124478 -0.42559811140412351 0 -0.32670905357880831 -0.42305010768611329 0 -0.31307232924124478 -0.42559811140412351 0 -0.29907098912325059 -0.43374406761790368 0 -0.29851577765410048 -0.41098608612968202 0 -0.31307232924124478 -0.42559811140412351 0 -0.29907098912325059 -0.43374406761790368 0 -0.31015853372433788 -0.44544301337781073 0 -0.3206477944579052 -0.41019310838576051 0 -0.31307232924124478 -0.42559811140412351 0 -0.29851577765410048 -0.41098608612968202 0 -0.3206477944579052 -0.41019310838576051 0 -0.29851577765410048 -0.41098608612968202 0 -0.29851577765410048 -0.41098608612968202 0 -0.27638376085029581 -0.41177906387360241 0 -0.29851577765410048 -0.41098608612968202 0 -0.28520748594282241 -0.3960441440340734 0 -0.27638376085029581 -0.41177906387360241 0 -0.29851577765410048 -0.41098608612968202 0 -0.28540276919059199 -0.42535658303670731 0 -0.27638376085029581 -0.41177906387360241 0 -0.29907098912325059 -0.43374406761790368 0 -0.29851577765410048 -0.41098608612968202 0 -0.28540276919059199 -0.42535658303670731 0 -0.28540276919059199 -0.42535658303670731 0 -0.27848929033898201 -0.43669604725877897 0 -0.28902284908971709 -0.44016681433255572 0 -0.29907098912325059 -0.43374406761790368 0 -0.28540276919059199 -0.42535658303670731 0 -0.28902284908971709 -0.44016681433255572 0 -0.3002892316592175 -0.36914960035789463 0 -0.32046337790252549 -0.37915946928209171 0 -0.30588070030683939 -0.38181824174751872 0 -0.3002892316592175 -0.36914960035789463 0 -0.29819443980788141 -0.38001079285233907 0 -0.30588070030683939 -0.38181824174751872 0 -0.3002892316592175 -0.36914960035789463 0 -0.29819443980788141 -0.38001079285233907 0 -0.29403121103535113 -0.38030922419454549 0 -0.31437491003333667 -0.39021680895226152 0 -0.30588070030683939 -0.38181824174751872 0 -0.30232780815510779 -0.39560758766926629 0 -0.29819443980788141 -0.38001079285233907 0 -0.30588070030683939 -0.38181824174751872 0 -0.29681739610749358 -0.387616864260033 0 -0.30588070030683939 -0.38181824174751872 0 -0.30232780815510779 -0.39560758766926629 0 -0.29681739610749358 -0.387616864260033 0 -0.31437491003333667 -0.39021680895226152 0 -0.3206477944579052 -0.41019310838576051 0 -0.30232780815510779 -0.39560758766926629 0 -0.3206477944579052 -0.41019310838576051 0 -0.29851577765410048 -0.41098608612968202 0 -0.30232780815510779 -0.39560758766926629 0 -0.30232780815510779 -0.39560758766926629 0 -0.28520748594282241 -0.3960441440340734 0 -0.29681739610749358 -0.387616864260033 0 -0.29851577765410048 -0.41098608612968202 0 -0.30232780815510779 -0.39560758766926629 0 -0.28520748594282241 -0.3960441440340734 0 -0.28520748594282241 -0.3960441440340734 0 -0.28484606126690931 -0.38205101510008821 0 -0.29403121103535113 -0.38030922419454549 0 -0.28520748594282241 -0.3960441440340734 0 -0.29403121103535113 -0.38030922419454549 0 -0.28520748594282241 -0.3960441440340734 0 -0.29681739610749358 -0.387616864260033 0 -0.29403121103535113 -0.38030922419454549 0 -0.28520748594282241 -0.3960441440340734 0 -0.28484606126690931 -0.38205101510008821 0 -0.2742629371717063 -0.37916463673385931 0 -0.28588261091775702 -0.37268605543787447 0 -0.28484606126690931 -0.38205101510008821 0 -0.2742629371717063 -0.37916463673385931 0 -0.28588261091775702 -0.37268605543787447 0 -0.28484606126690931 -0.38205101510008821 0 -0.29403121103535113 -0.38030922419454549 0 -0.29819443980788141 -0.38001079285233907 0 -0.29681739610749358 -0.387616864260033 0 -0.29403121103535113 -0.38030922419454549 0 -0.28520748594282241 -0.3960441440340734 0 -0.2742629371717063 -0.37916463673385931 0 -0.26755910350718881 -0.39582792531461569 0 -0.2742629371717063 -0.37916463673385931 0 -0.26755910350718881 -0.39582792531461569 0 -0.26281209396899169 -0.38517470131063508 0 -0.28520748594282241 -0.3960441440340734 0 -0.27638376085029581 -0.41177906387360241 0 -0.28520748594282241 -0.3960441440340734 0 -0.26755910350718881 -0.39582792531461569 0 -0.27638376085029581 -0.41177906387360241 0 -0.26755910350718881 -0.39582792531461569 0 -0.25033509129523179 -0.39094719032673231 0 -0.25487024651921952 -0.41254988102096568 0 -0.26755910350718881 -0.39582792531461569 0 -0.25033509129523179 -0.39094719032673231 0 -0.26281209396899169 -0.38517470131063508 0 -0.25909124390184018 -0.37475905286733341 0 -0.25033509129523179 -0.39094719032673231 0 -0.26281209396899169 -0.38517470131063508 0 -0.25909124390184018 -0.37475905286733341 0 -0.25033509129523179 -0.39094719032673231 0 -0.24748772700216881 -0.3717564301773445 0 -0.25909124390184018 -0.37475905286733341 0 -0.2742629371717063 -0.37916463673385931 0 -0.26281209396899169 -0.38517470131063508 0 -0.26911429951178012 -0.42474234074800371 0 -0.27848929033898201 -0.43669604725877897 0 -0.26690007516498948 -0.44242471351124879 0 -0.28540276919059199 -0.42535658303670731 0 -0.26911429951178012 -0.42474234074800371 0 -0.27848929033898201 -0.43669604725877897 0 -0.27638376085029581 -0.41177906387360241 0 -0.25487024651921952 -0.41254988102096568 0 -0.28540276919059199 -0.42535658303670731 0 -0.26911429951178012 -0.42474234074800371 0 -0.27638376085029581 -0.41177906387360241 0 -0.26911429951178012 -0.42474234074800371 0 -0.27638376085029581 -0.41177906387360241 0 -0.25487024651921952 -0.41254988102096568 0 -0.26755910350718881 -0.39582792531461569 0 -0.27638376085029581 -0.41177906387360241 0 -0.25487024651921952 -0.41254988102096568 0 -0.26911429951178012 -0.42474234074800371 0 -0.27638376085029581 -0.41177906387360241 0 -0.26911429951178012 -0.42474234074800371 0 -0.25908880606166329 -0.43064529781943001 0 -0.26690007516498948 -0.44242471351124879 0 -0.25487024651921952 -0.41254988102096568 0 -0.25908880606166329 -0.43064529781943001 0 -0.2468605885266735 -0.43014712497011809 0 -0.26911429951178012 -0.42474234074800371 0 -0.25487024651921952 -0.41254988102096568 0 -0.25908880606166329 -0.43064529781943001 0 -0.25908880606166329 -0.43064529781943001 0 -0.25479397652280911 -0.44050862113911837 0 -0.2468605885266735 -0.43014712497011809 0 -0.25479397652280911 -0.44050862113911837 0 -0.2546108597688766 -0.45375703833677078 0 -0.2450571310604201 -0.44414202720417628 0 -0.25479397652280911 -0.44050862113911837 0 -0.2546108597688766 -0.45375703833677078 0 -0.26690007516498948 -0.44242471351124879 0 -0.2546108597688766 -0.45375703833677078 0 -0.26838297633475061 -0.45652413347846638 0 -0.26690007516498948 -0.44242471351124879 0 -0.25908880606166329 -0.43064529781943001 0 -0.25479397652280911 -0.44050862113911837 0 -0.26690007516498948 -0.44242471351124879 0 -0.25109629719050858 -0.46406488014867903 0 -0.2546108597688766 -0.45375703833677078 0 -0.26079873433517492 -0.46936342421069649 0 -0.2546108597688766 -0.45375703833677078 0 -0.26838297633475061 -0.45652413347846638 0 -0.26079873433517492 -0.46936342421069649 0 -0.27799569035848881 -0.46687050799545499 0 -0.26838297633475061 -0.45652413347846638 0 -0.26079873433517492 -0.46936342421069649 0 -0.27799569035848881 -0.46687050799545499 0 -0.26838297633475061 -0.45652413347846638 0 -0.28160952204622303 -0.450204983338161 0 -0.26838297633475061 -0.45652413347846638 0 -0.26690007516498948 -0.44242471351124879 0 -0.28160952204622303 -0.450204983338161 0 -0.27848929033898201 -0.43669604725877897 0 -0.26690007516498948 -0.44242471351124879 0 -0.28160952204622303 -0.450204983338161 0 -0.29907098912325059 -0.43374406761790368 0 -0.28902284908971709 -0.44016681433255572 0 -0.29708038679871529 -0.44973292283788502 0 -0.27848929033898201 -0.43669604725877897 0 -0.28902284908971709 -0.44016681433255572 0 -0.28160952204622303 -0.450204983338161 0 -0.28902284908971709 -0.44016681433255572 0 -0.28160952204622303 -0.450204983338161 0 -0.29708038679871529 -0.44973292283788502 0 -0.27799569035848881 -0.46687050799545499 0 -0.29150619976335518 -0.46129715127825488 0 -0.29492343141974797 -0.47638763217473168 0 -0.27799569035848881 -0.46687050799545499 0 -0.28160952204622303 -0.450204983338161 0 -0.29150619976335518 -0.46129715127825488 0 -0.28160952204622303 -0.450204983338161 0 -0.29150619976335518 -0.46129715127825488 0 -0.29708038679871529 -0.44973292283788502 0 -0.29150619976335518 -0.46129715127825488 0 -0.30592196819360068 -0.46328971004504182 0 -0.29708038679871529 -0.44973292283788502 0 -0.31987457796333868 -0.4551426725204325 0 -0.30592196819360068 -0.46328971004504182 0 -0.31015853372433788 -0.44544301337781073 0 -0.29150619976335518 -0.46129715127825488 0 -0.30592196819360068 -0.46328971004504182 0 -0.29492343141974797 -0.47638763217473168 0 -0.29907098912325059 -0.43374406761790368 0 -0.31015853372433788 -0.44544301337781073 0 -0.29708038679871529 -0.44973292283788502 0 -0.30592196819360068 -0.46328971004504182 0 -0.31015853372433788 -0.44544301337781073 0 -0.29708038679871529 -0.44973292283788502 0 -0.31208929727375578 -0.48491526738579699 0 -0.29492343141974797 -0.47638763217473168 0 -0.29581575695060047 -0.5 0 -0.32221211863154181 -0.5 0 -0.31208929727375578 -0.48491526738579699 0 -0.29581575695060047 -0.5 0 -0.32094261384274558 -0.46854088973335889 0 -0.30592196819360068 -0.46328971004504182 0 -0.29492343141974797 -0.47638763217473168 0 -0.32094261384274558 -0.46854088973335889 0 -0.29492343141974797 -0.47638763217473168 0 -0.32094261384274558 -0.46854088973335889 0 -0.31208929727375578 -0.48491526738579699 0 -0.29492343141974797 -0.47638763217473168 0 -0.29492343141974797 -0.47638763217473168 0 -0.26890424899675031 -0.48423437461610452 0 -0.29492343141974797 -0.47638763217473168 0 -0.28441593737837417 -0.48860776134254891 0 -0.26890424899675031 -0.48423437461610452 0 -0.29492343141974797 -0.47638763217473168 0 -0.28441593737837417 -0.48860776134254891 0 -0.29581575695060047 -0.5 0 -0.28441593737837417 -0.48860776134254891 0 -0.29581575695060047 -0.5 0 -0.26941939526965919 -0.5 0 -0.28441593737837417 -0.48860776134254891 0 -0.26941939526965919 -0.5 0 -0.26890424899675031 -0.48423437461610452 0 -0.27799569035848881 -0.46687050799545499 0 -0.29492343141974797 -0.47638763217473168 0 -0.26890424899675031 -0.48423437461610452 0 -0.27799569035848881 -0.46687050799545499 0 -0.26890424899675031 -0.48423437461610452 0 -0.26079873433517492 -0.46936342421069649 0 -0.26890424899675031 -0.48423437461610452 0 -0.26079873433517492 -0.46936342421069649 0 -0.25379328426056558 -0.48205965705463422 0 -0.26079873433517492 -0.46936342421069649 0 -0.25379328426056558 -0.48205965705463422 0 -0.250874604213362 -0.47391739130808008 0 -0.25109629719050858 -0.46406488014867903 0 -0.26079873433517492 -0.46936342421069649 0 -0.250874604213362 -0.47391739130808008 0 -0.26941939526965919 -0.5 0 -0.26890424899675031 -0.48423437461610452 0 -0.2544134183364497 -0.49413622749019132 0 -0.26941939526965919 -0.5 0 -0.2544134183364497 -0.49413622749019132 0 -0.2430230335887178 -0.5 0 -0.26890424899675031 -0.48423437461610452 0 -0.2544134183364497 -0.49413622749019132 0 -0.24288506657375261 -0.49208111705747781 0 -0.26890424899675031 -0.48423437461610452 0 -0.25379328426056558 -0.48205965705463422 0 -0.24288506657375261 -0.49208111705747781 0 -0.26890424899675031 -0.48423437461610452 0 -0.24288506657375261 -0.49208111705747781 0 -0.2544134183364497 -0.49413622749019132 0 -0.2430230335887178 -0.5 0 -0.24783534725336881 -0.49436564577737419 0 -0.2544134183364497 -0.49413622749019132 0 -0.24783534725336881 -0.49436564577737419 0 -0.24288506657375261 -0.49208111705747781 0 -0.2430230335887178 -0.5 0 -0.24783534725336881 -0.49436564577737419 0 -0.24288506657375261 -0.49208111705747781 0 -0.24783534725336881 -0.49436564577737419 0 -0.24288506657375261 -0.49208111705747781 0 -0.24288506657375261 -0.49208111705747781 0 -0.24429345028001889 -0.4821559175287794 0 -0.23457410743521059 -0.47899140825596259 0 -0.25379328426056558 -0.48205965705463422 0 -0.24288506657375261 -0.49208111705747781 0 -0.24429345028001889 -0.4821559175287794 0 -0.25379328426056558 -0.48205965705463422 0 -0.250874604213362 -0.47391739130808008 0 -0.24429345028001889 -0.4821559175287794 0 -0.24429345028001889 -0.4821559175287794 0 -0.2443912550005416 -0.47194307759761112 0 -0.2395637252682277 -0.47605318874815389 0 -0.25109629719050858 -0.46406488014867903 0 -0.250874604213362 -0.47391739130808008 0 -0.2443912550005416 -0.47194307759761112 0 -0.250874604213362 -0.47391739130808008 0 -0.24429345028001889 -0.4821559175287794 0 -0.2443912550005416 -0.47194307759761112 0 -0.2443912550005416 -0.47194307759761112 0 -0.2395637252682277 -0.47605318874815389 0 -0.23499608835713959 -0.47112235161026261 0 -0.2395637252682277 -0.47605318874815389 0 -0.23499608835713959 -0.47112235161026261 0 -0.23457410743521059 -0.47899140825596259 0 -0.24429345028001889 -0.4821559175287794 0 -0.2395637252682277 -0.47605318874815389 0 -0.23457410743521059 -0.47899140825596259 0 -0.23457410743521059 -0.47899140825596259 0 -0.2250369990674011 -0.47003999804886298 0 -0.2204246459600448 -0.48171575006642248 0 -0.24288506657375261 -0.49208111705747781 0 -0.23457410743521059 -0.47899140825596259 0 -0.2204246459600448 -0.48171575006642248 0 -0.23499608835713959 -0.47112235161026261 0 -0.23457410743521059 -0.47899140825596259 0 -0.2250369990674011 -0.47003999804886298 0 -0.2430230335887178 -0.5 0 -0.24288506657375261 -0.49208111705747781 0 -0.21662667190777651 -0.49999999999999939 0 -0.24288506657375261 -0.49208111705747781 0 -0.21662667190777651 -0.49999999999999939 0 -0.24288506657375261 -0.49208111705747781 0 -0.2204246459600448 -0.48171575006642248 0 -0.24288506657375261 -0.49208111705747781 0 -0.2204246459600448 -0.48171575006642248 0 -0.21662667190777651 -0.49999999999999939 0 -0.2450571310604201 -0.44414202720417628 0 -0.23716380350122879 -0.45645441389937441 0 -0.23280677558438309 -0.43386548686292281 0 -0.2546108597688766 -0.45375703833677078 0 -0.2450571310604201 -0.44414202720417628 0 -0.23716380350122879 -0.45645441389937441 0 -0.25479397652280911 -0.44050862113911837 0 -0.2450571310604201 -0.44414202720417628 0 -0.2468605885266735 -0.43014712497011809 0 -0.25109629719050858 -0.46406488014867903 0 -0.2546108597688766 -0.45375703833677078 0 -0.23716380350122879 -0.45645441389937441 0 -0.25109629719050858 -0.46406488014867903 0 -0.2443912550005416 -0.47194307759761112 0 -0.23716380350122879 -0.45645441389937441 0 -0.2443912550005416 -0.47194307759761112 0 -0.23499608835713959 -0.47112235161026261 0 -0.23716380350122879 -0.45645441389937441 0 -0.2250369990674011 -0.47003999804886298 0 -0.21844010846223411 -0.44206575668227449 0 -0.2250369990674011 -0.47003999804886298 0 -0.23716380350122879 -0.45645441389937441 0 -0.21844010846223411 -0.44206575668227449 0 -0.23499608835713959 -0.47112235161026261 0 -0.2250369990674011 -0.47003999804886298 0 -0.23716380350122879 -0.45645441389937441 0 -0.23716380350122879 -0.45645441389937441 0 -0.21844010846223411 -0.44206575668227449 0 -0.23280677558438309 -0.43386548686292281 0 -0.21844010846223411 -0.44206575668227449 0 -0.21054881561508179 -0.46151962797655111 0 -0.19087809923939161 -0.44242625200982799 0 -0.2250369990674011 -0.47003999804886298 0 -0.21844010846223411 -0.44206575668227449 0 -0.21054881561508179 -0.46151962797655111 0 -0.21054881561508179 -0.46151962797655111 0 -0.19087809923939161 -0.44242625200982799 0 -0.1979642253463372 -0.47135038307536692 0 -0.19087809923939161 -0.44242625200982799 0 -0.1979642253463372 -0.47135038307536692 0 -0.17550380473262961 -0.46098501608431119 0 -0.2039060436575347 -0.48788306012054039 0 -0.21662667190777651 -0.49999999999999939 0 -0.191185415407293 -0.5 0 -0.2204246459600448 -0.48171575006642248 0 -0.2039060436575347 -0.48788306012054039 0 -0.21662667190777651 -0.49999999999999939 0 -0.2250369990674011 -0.47003999804886298 0 -0.2204246459600448 -0.48171575006642248 0 -0.21054881561508179 -0.46151962797655111 0 -0.2204246459600448 -0.48171575006642248 0 -0.2039060436575347 -0.48788306012054039 0 -0.1979642253463372 -0.47135038307536692 0 -0.2204246459600448 -0.48171575006642248 0 -0.1979642253463372 -0.47135038307536692 0 -0.2204246459600448 -0.48171575006642248 0 -0.21054881561508179 -0.46151962797655111 0 -0.1979642253463372 -0.47135038307536692 0 -0.2039060436575347 -0.48788306012054039 0 -0.1979642253463372 -0.47135038307536692 0 -0.18170511770794731 -0.48283447360099019 0 -0.2039060436575347 -0.48788306012054039 0 -0.191185415407293 -0.5 0 -0.18170511770794731 -0.48283447360099019 0 -0.191185415407293 -0.5 0 -0.16574415890680941 -0.5 0 -0.18170511770794731 -0.48283447360099019 0 -0.16574415890680941 -0.5 0 -0.18170511770794731 -0.48283447360099019 0 -0.1559270581970803 -0.47678838232572268 0 -0.18170511770794731 -0.48283447360099019 0 -0.17550380473262961 -0.46098501608431119 0 -0.1559270581970803 -0.47678838232572268 0 -0.1979642253463372 -0.47135038307536692 0 -0.18170511770794731 -0.48283447360099019 0 -0.17550380473262961 -0.46098501608431119 0 -0.1979642253463372 -0.47135038307536692 0 -0.17550380473262961 -0.46098501608431119 0 -0.19087809923939161 -0.44242625200982799 0 -0.17550380473262961 -0.46098501608431119 0 -0.16487953686040341 -0.43668708651363358 0 -0.17550380473262961 -0.46098501608431119 0 -0.15866236735209521 -0.45377864165300308 0 -0.16487953686040341 -0.43668708651363358 0 -0.17550380473262961 -0.46098501608431119 0 -0.15866236735209521 -0.45377864165300308 0 -0.1559270581970803 -0.47678838232572268 0 -0.15866236735209521 -0.45377864165300308 0 -0.14280129841846509 -0.46103953978105727 0 -0.1559270581970803 -0.47678838232572268 0 -0.15866236735209521 -0.45377864165300308 0 -0.14280129841846509 -0.46103953978105727 0 -0.1438484805828521 -0.43705968193712769 0 -0.15866236735209521 -0.45377864165300308 0 -0.1438484805828521 -0.43705968193712769 0 -0.16487953686040341 -0.43668708651363358 0 -0.14280129841846509 -0.46103953978105727 0 -0.13093011984253891 -0.44972195681556543 0 -0.1438484805828521 -0.43705968193712769 0 -0.13093011984253891 -0.44972195681556543 0 -0.1438484805828521 -0.43705968193712769 0 -0.123519809913229 -0.43733662075251151 0 -0.14280129841846509 -0.46103953978105727 0 -0.13093011984253891 -0.44972195681556543 0 -0.12704973474613379 -0.46277216333596533 0 -0.14280129841846509 -0.46103953978105727 0 -0.12704973474613379 -0.46277216333596533 0 -0.13010403334985379 -0.48000251283874379 0 -0.13010403334985379 -0.48000251283874379 0 -0.1403029024063259 -0.5 0 -0.1148616459058424 -0.5 0 -0.16574415890680941 -0.5 0 -0.1403029024063259 -0.5 0 -0.1559270581970803 -0.47678838232572268 0 -0.13010403334985379 -0.48000251283874379 0 -0.1403029024063259 -0.5 0 -0.1559270581970803 -0.47678838232572268 0 -0.14280129841846509 -0.46103953978105727 0 -0.13010403334985379 -0.48000251283874379 0 -0.1559270581970803 -0.47678838232572268 0 -0.13724659116883831 -0.38156720383825199 0 -0.13696324729183901 -0.40051159333262831 0 -0.1562511533772393 -0.40085091578326698 0 -0.13696324729183901 -0.40051159333262831 0 -0.14428023194946249 -0.41611080081516499 0 -0.1562511533772393 -0.40085091578326698 0 -0.13724659116883831 -0.38156720383825199 0 -0.1562511533772393 -0.40085091578326698 0 -0.1663441030446621 -0.37717300760659073 0 -0.13724659116883831 -0.38156720383825199 0 -0.11827115974421661 -0.40327967795429231 0 -0.13724659116883831 -0.38156720383825199 0 -0.13696324729183901 -0.40051159333262831 0 -0.11827115974421661 -0.40327967795429231 0 -0.13696324729183901 -0.40051159333262831 0 -0.12597911368703019 -0.41952469120143437 0 -0.14428023194946249 -0.41611080081516499 0 -0.13696324729183901 -0.40051159333262831 0 -0.12597911368703019 -0.41952469120143437 0 -0.11827115974421661 -0.40327967795429231 0 -0.12597911368703019 -0.41952469120143437 0 -0.1438484805828521 -0.43705968193712769 0 -0.123519809913229 -0.43733662075251151 0 -0.12597911368703019 -0.41952469120143437 0 -0.1438484805828521 -0.43705968193712769 0 -0.14428023194946249 -0.41611080081516499 0 -0.1438484805828521 -0.43705968193712769 0 -0.16487953686040341 -0.43668708651363358 0 -0.1579375607246061 -0.42228606781690858 0 -0.1438484805828521 -0.43705968193712769 0 -0.14428023194946249 -0.41611080081516499 0 -0.1579375607246061 -0.42228606781690858 0 -0.14428023194946249 -0.41611080081516499 0 -0.1579375607246061 -0.42228606781690858 0 -0.1562511533772393 -0.40085091578326698 0 -0.1717517290487513 -0.41486076781395709 0 -0.1579375607246061 -0.42228606781690858 0 -0.1562511533772393 -0.40085091578326698 0 -0.1717517290487513 -0.41486076781395709 0 -0.16487953686040341 -0.43668708651363358 0 -0.1579375607246061 -0.42228606781690858 0 -0.1717517290487513 -0.41486076781395709 0 -0.16487953686040341 -0.43668708651363358 0 -0.19087809923939161 -0.44242625200982799 0 -0.16487953686040341 -0.43668708651363358 0 -0.18049207608238291 -0.42812424827546058 0 -0.1717517290487513 -0.41486076781395709 0 -0.16487953686040341 -0.43668708651363358 0 -0.18049207608238291 -0.42812424827546058 0 -0.1717517290487513 -0.41486076781395709 0 -0.18680736564207029 -0.41498853585306777 0 -0.17862392123709919 -0.39303444911428059 0 -0.1717517290487513 -0.41486076781395709 0 -0.18049207608238291 -0.42812424827546058 0 -0.18680736564207029 -0.41498853585306777 0 -0.18680736564207029 -0.41498853585306777 0 -0.17862392123709919 -0.39303444911428059 0 -0.19656737959219739 -0.40219111980173922 0 -0.1717517290487513 -0.41486076781395709 0 -0.17862392123709919 -0.39303444911428059 0 -0.1717517290487513 -0.41486076781395709 0 -0.17862392123709919 -0.39303444911428059 0 -0.1562511533772393 -0.40085091578326698 0 -0.17862392123709919 -0.39303444911428059 0 -0.1562511533772393 -0.40085091578326698 0 -0.1663441030446621 -0.37717300760659073 0 -0.17862392123709919 -0.39303444911428059 0 -0.1663441030446621 -0.37717300760659073 0 -0.1854961134254472 -0.37120813041460421 0 -0.17862392123709919 -0.39303444911428059 0 -0.1854961134254472 -0.37120813041460421 0 -0.17862392123709919 -0.39303444911428059 0 -0.20527564977482679 -0.38624161667098289 0 -0.1854961134254472 -0.37120813041460421 0 -0.17862392123709919 -0.39303444911428059 0 -0.19656737959219739 -0.40219111980173922 0 -0.20527564977482679 -0.38624161667098289 0 -0.20527564977482679 -0.38624161667098289 0 -0.2118432178570665 -0.41409151531568628 0 -0.2281799985799623 -0.39436158075255778 0 -0.19656737959219739 -0.40219111980173922 0 -0.20527564977482679 -0.38624161667098289 0 -0.2118432178570665 -0.41409151531568628 0 -0.20527564977482679 -0.38624161667098289 0 -0.2118432178570665 -0.41409151531568628 0 -0.20527564977482679 -0.38624161667098289 0 -0.22195794658956111 -0.37463091785279867 0 -0.21168543115216709 -0.36681117402183649 0 -0.20527564977482679 -0.38624161667098289 0 -0.2281799985799623 -0.39436158075255778 0 -0.22195794658956111 -0.37463091785279867 0 -0.18049207608238291 -0.42812424827546058 0 -0.18680736564207029 -0.41498853585306777 0 -0.19899408631087909 -0.4269358685541359 0 -0.19087809923939161 -0.44242625200982799 0 -0.18049207608238291 -0.42812424827546058 0 -0.19899408631087909 -0.4269358685541359 0 -0.21844010846223411 -0.44206575668227449 0 -0.19087809923939161 -0.44242625200982799 0 -0.19899408631087909 -0.4269358685541359 0 -0.18680736564207029 -0.41498853585306777 0 -0.19656737959219739 -0.40219111980173922 0 -0.2118432178570665 -0.41409151531568628 0 -0.18680736564207029 -0.41498853585306777 0 -0.19899408631087909 -0.4269358685541359 0 -0.2118432178570665 -0.41409151531568628 0 -0.18680736564207029 -0.41498853585306777 0 -0.2118432178570665 -0.41409151531568628 0 -0.21844010846223411 -0.44206575668227449 0 -0.19899408631087909 -0.4269358685541359 0 -0.2118432178570665 -0.41409151531568628 0 -0.21844010846223411 -0.44206575668227449 0 -0.2118432178570665 -0.41409151531568628 0 -0.21844010846223411 -0.44206575668227449 0 -0.2118432178570665 -0.41409151531568628 0 -0.23280677558438309 -0.43386548686292281 0 -0.2118432178570665 -0.41409151531568628 0 -0.23335673218814301 -0.41332069816832789 0 -0.2281799985799623 -0.39436158075255778 0 -0.2118432178570665 -0.41409151531568628 0 -0.23335673218814301 -0.41332069816832789 0 -0.2118432178570665 -0.41409151531568628 0 -0.23280677558438309 -0.43386548686292281 0 -0.23335673218814301 -0.41332069816832789 0 -0.25487024651921952 -0.41254988102096568 0 -0.23335673218814301 -0.41332069816832789 0 -0.25487024651921952 -0.41254988102096568 0 -0.23335673218814301 -0.41332069816832789 0 -0.24168551714563921 -0.4027948375671459 0 -0.25487024651921952 -0.41254988102096568 0 -0.23335673218814301 -0.41332069816832789 0 -0.2468605885266735 -0.43014712497011809 0 -0.23280677558438309 -0.43386548686292281 0 -0.23335673218814301 -0.41332069816832789 0 -0.2468605885266735 -0.43014712497011809 0 -0.2450571310604201 -0.44414202720417628 0 -0.23280677558438309 -0.43386548686292281 0 -0.2468605885266735 -0.43014712497011809 0 -0.2281799985799623 -0.39436158075255778 0 -0.2359431282162788 -0.37698905115118858 0 -0.22195794658956111 -0.37463091785279867 0 -0.25033509129523179 -0.39094719032673231 0 -0.2281799985799623 -0.39436158075255778 0 -0.24168551714563921 -0.4027948375671459 0 -0.25033509129523179 -0.39094719032673231 0 -0.25487024651921952 -0.41254988102096568 0 -0.24168551714563921 -0.4027948375671459 0 -0.23335673218814301 -0.41332069816832789 0 -0.2281799985799623 -0.39436158075255778 0 -0.24168551714563921 -0.4027948375671459 0 -0.25033509129523179 -0.39094719032673231 0 -0.2359431282162788 -0.37698905115118858 0 -0.24748772700216881 -0.3717564301773445 0 -0.25033509129523179 -0.39094719032673231 0 -0.2281799985799623 -0.39436158075255778 0 -0.2359431282162788 -0.37698905115118858 0 -0.25494538795031141 -0.36273054802101118 0 -0.24748772700216881 -0.3717564301773445 0 -0.24521251836493849 -0.35951647641646678 0 -0.24748772700216881 -0.3717564301773445 0 -0.24521251836493849 -0.35951647641646678 0 -0.23939899228441261 -0.3655962622813349 0 -0.23939899228441261 -0.3655962622813349 0 -0.23024759562621139 -0.36380396142485888 0 -0.23761117654761921 -0.35850429625613017 0 -0.24521251836493849 -0.35951647641646678 0 -0.23939899228441261 -0.3655962622813349 0 -0.23761117654761921 -0.35850429625613017 0 -0.2359431282162788 -0.37698905115118858 0 -0.23939899228441261 -0.3655962622813349 0 -0.23024759562621139 -0.36380396142485888 0 -0.2359431282162788 -0.37698905115118858 0 -0.24748772700216881 -0.3717564301773445 0 -0.23939899228441261 -0.3655962622813349 0 -0.2359431282162788 -0.37698905115118858 0 -0.23024759562621139 -0.36380396142485888 0 -0.22195794658956111 -0.37463091785279867 0 -0.23024759562621139 -0.36380396142485888 0 -0.22135664398937441 -0.36020929429952131 0 -0.2310785660723691 -0.35440187846705151 0 -0.23024759562621139 -0.36380396142485888 0 -0.22135664398937441 -0.36020929429952131 0 -0.22195794658956111 -0.37463091785279867 0 -0.22135664398937441 -0.36020929429952131 0 -0.22331676928072861 -0.34527245129667988 0 -0.2310785660723691 -0.35440187846705151 0 -0.23024759562621139 -0.36380396142485888 0 -0.2310785660723691 -0.35440187846705151 0 -0.23761117654761921 -0.35850429625613017 0 -0.22331676928072861 -0.34527245129667988 0 -0.2337118992122327 -0.34903918396608452 0 -0.23708401688859529 -0.34365007901650441 0 -0.22331676928072861 -0.34527245129667988 0 -0.2310785660723691 -0.35440187846705151 0 -0.2337118992122327 -0.34903918396608452 0 -0.26017799311385281 -0.35268912854855933 0 -0.24808760514302669 -0.3536558827211943 0 -0.2404133442166683 -0.34213832018255058 0 -0.2310785660723691 -0.35440187846705151 0 -0.2337118992122327 -0.34903918396608452 0 -0.2396887820693627 -0.35120494043738398 0 -0.26017799311385281 -0.35268912854855933 0 -0.24325210797206609 -0.34084931319650169 0 -0.2404133442166683 -0.34213832018255058 0 -0.2396887820693627 -0.35120494043738398 0 -0.23708401688859529 -0.34365007901650441 0 -0.2404133442166683 -0.34213832018255058 0 -0.2337118992122327 -0.34903918396608452 0 -0.2396887820693627 -0.35120494043738398 0 -0.23708401688859529 -0.34365007901650441 0 -0.2310785660723691 -0.35440187846705151 0 -0.2396887820693627 -0.35120494043738398 0 -0.23761117654761921 -0.35850429625613017 0 -0.24521251836493849 -0.35951647641646678 0 -0.2396887820693627 -0.35120494043738398 0 -0.23761117654761921 -0.35850429625613017 0 -0.24521251836493849 -0.35951647641646678 0 -0.2396887820693627 -0.35120494043738398 0 -0.24808760514302669 -0.3536558827211943 0 -0.25494538795031141 -0.36273054802101118 0 -0.24521251836493849 -0.35951647641646678 0 -0.24808760514302669 -0.3536558827211943 0 -0.2396887820693627 -0.35120494043738398 0 -0.24808760514302669 -0.3536558827211943 0 -0.2404133442166683 -0.34213832018255058 0 -0.24325210797206609 -0.34084931319650169 0 -0.24518994726652291 -0.33234415230164399 0 -0.23958942898634211 -0.33903199036576709 0 -0.24518994726652291 -0.33234415230164399 0 -0.23560348244150561 -0.32909319502054812 0 -0.23958942898634211 -0.33903199036576709 0 -0.23708401688859529 -0.34365007901650441 0 -0.2404133442166683 -0.34213832018255058 0 -0.24325210797206609 -0.34084931319650169 0 -0.2404133442166683 -0.34213832018255058 0 -0.23958942898634211 -0.33903199036576709 0 -0.24325210797206609 -0.34084931319650169 0 -0.2404133442166683 -0.34213832018255058 0 -0.24325210797206609 -0.34084931319650169 0 -0.23958942898634211 -0.33903199036576709 0 -0.25915672867891859 -0.31415112243359272 0 -0.24308922262768951 -0.32099342612622928 0 -0.24047089863443691 -0.30798947189970438 0 -0.24518994726652291 -0.33234415230164399 0 -0.23560348244150561 -0.32909319502054812 0 -0.24308922262768951 -0.32099342612622928 0 -0.23560348244150561 -0.32909319502054812 0 -0.24308922262768951 -0.32099342612622928 0 -0.22938765682563561 -0.32144886021699343 0 -0.24308922262768951 -0.32099342612622928 0 -0.22938765682563561 -0.32144886021699343 0 -0.23158309368585001 -0.31181085789310747 0 -0.24308922262768951 -0.32099342612622928 0 -0.24047089863443691 -0.30798947189970438 0 -0.23158309368585001 -0.31181085789310747 0 -0.22938765682563561 -0.32144886021699343 0 -0.23158309368585001 -0.31181085789310747 0 -0.22249387381410951 -0.31123320620709588 0 -0.23560348244150561 -0.32909319502054812 0 -0.22938765682563561 -0.32144886021699343 0 -0.22076115650133771 -0.33164754609210678 0 -0.22938765682563561 -0.32144886021699343 0 -0.22076115650133771 -0.33164754609210678 0 -0.2180259411870723 -0.31620608063285149 0 -0.22938765682563561 -0.32144886021699343 0 -0.2180259411870723 -0.31620608063285149 0 -0.22249387381410951 -0.31123320620709588 0 -0.22331676928072861 -0.34527245129667988 0 -0.23708401688859529 -0.34365007901650441 0 -0.22076115650133771 -0.33164754609210678 0 -0.23560348244150561 -0.32909319502054812 0 -0.23958942898634211 -0.33903199036576709 0 -0.22076115650133771 -0.33164754609210678 0 -0.2404133442166683 -0.34213832018255058 0 -0.22076115650133771 -0.33164754609210678 0 -0.2404133442166683 -0.34213832018255058 0 -0.23958942898634211 -0.33903199036576709 0 -0.22076115650133771 -0.33164754609210678 0 -0.23708401688859529 -0.34365007901650441 0 -0.2404133442166683 -0.34213832018255058 0 -0.22076115650133771 -0.33164754609210678 0 -0.22331676928072861 -0.34527245129667988 0 -0.22076115650133771 -0.33164754609210678 0 -0.20784983644103361 -0.34097302903627591 0 -0.22076115650133771 -0.33164754609210678 0 -0.20348412114368319 -0.33156666209817831 0 -0.20784983644103361 -0.34097302903627591 0 -0.2180259411870723 -0.31620608063285149 0 -0.19974136112887431 -0.31343603927203523 0 -0.20110896878600679 -0.32115677200166343 0 -0.22076115650133771 -0.33164754609210678 0 -0.2180259411870723 -0.31620608063285149 0 -0.20110896878600679 -0.32115677200166343 0 -0.22076115650133771 -0.33164754609210678 0 -0.20348412114368319 -0.33156666209817831 0 -0.20110896878600679 -0.32115677200166343 0 -0.22076115650133771 -0.33164754609210678 0 -0.20110896878600679 -0.32115677200166343 0 -0.2180259411870723 -0.31620608063285149 0 -0.19974136112887431 -0.31343603927203523 0 -0.20904493575850211 -0.30938578927939081 0 -0.2180259411870723 -0.31620608063285149 0 -0.19974136112887431 -0.31343603927203523 0 -0.19974136112887431 -0.31343603927203523 0 -0.20110896878600679 -0.32115677200166343 0 -0.1814567810706762 -0.3106659979112194 0 -0.20110896878600679 -0.32115677200166343 0 -0.1814567810706762 -0.3106659979112194 0 -0.20110896878600679 -0.32115677200166343 0 -0.19214051361034601 -0.33054181938157612 0 -0.1814567810706762 -0.3106659979112194 0 -0.20348412114368319 -0.33156666209817831 0 -0.20110896878600679 -0.32115677200166343 0 -0.19214051361034601 -0.33054181938157612 0 -0.20348412114368319 -0.33156666209817831 0 -0.20784983644103361 -0.34097302903627591 0 -0.19214051361034601 -0.33054181938157612 0 -0.20784983644103361 -0.34097302903627591 0 -0.19214051361034601 -0.33054181938157612 0 -0.20232946575910341 -0.34593351830387509 0 -0.19214051361034601 -0.33054181938157612 0 -0.19236830561379509 -0.34938181171492771 0 -0.18622265824693729 -0.34003474470360739 0 -0.19214051361034601 -0.33054181938157612 0 -0.19236830561379509 -0.34938181171492771 0 -0.19870808169258641 -0.35839171802627962 0 -0.19214051361034601 -0.33054181938157612 0 -0.19870808169258641 -0.35839171802627962 0 -0.19214051361034601 -0.33054181938157612 0 -0.20232946575910341 -0.34593351830387509 0 -0.19870808169258641 -0.35839171802627962 0 -0.19236830561379509 -0.34938181171492771 0 -0.1854961134254472 -0.37120813041460421 0 -0.20527564977482679 -0.38624161667098289 0 -0.19870808169258641 -0.35839171802627962 0 -0.20527564977482679 -0.38624161667098289 0 -0.19870808169258641 -0.35839171802627962 0 -0.1854961134254472 -0.37120813041460421 0 -0.19236830561379509 -0.34938181171492771 0 -0.19870808169258641 -0.35839171802627962 0 -0.1854961134254472 -0.37120813041460421 0 -0.20527564977482679 -0.38624161667098289 0 -0.19870808169258641 -0.35839171802627962 0 -0.21168543115216709 -0.36681117402183649 0 -0.19870808169258641 -0.35839171802627962 0 -0.21168543115216709 -0.36681117402183649 0 -0.21061943129244759 -0.3538275067713687 0 -0.22135664398937441 -0.36020929429952131 0 -0.22195794658956111 -0.37463091785279867 0 -0.21168543115216709 -0.36681117402183649 0 -0.22135664398937441 -0.36020929429952131 0 -0.21168543115216709 -0.36681117402183649 0 -0.21061943129244759 -0.3538275067713687 0 -0.22135664398937441 -0.36020929429952131 0 -0.22331676928072861 -0.34527245129667988 0 -0.21061943129244759 -0.3538275067713687 0 -0.22331676928072861 -0.34527245129667988 0 -0.20784983644103361 -0.34097302903627591 0 -0.21061943129244759 -0.3538275067713687 0 -0.20784983644103361 -0.34097302903627591 0 -0.20232946575910341 -0.34593351830387509 0 -0.21061943129244759 -0.3538275067713687 0 -0.20232946575910341 -0.34593351830387509 0 -0.19870808169258641 -0.35839171802627962 0 -0.21061943129244759 -0.3538275067713687 0 -0.22866545068461799 -0.25948943059043711 0 -0.21759888839251429 -0.26212753750200368 0 -0.22025275826160279 -0.2471257797298928 0 -0.22866545068461799 -0.25948943059043711 0 -0.22398633244919169 -0.27132847136955079 0 -0.21759888839251429 -0.26212753750200368 0 -0.22866545068461799 -0.25948943059043711 0 -0.23442911476228809 -0.24683612341654529 0 -0.22025275826160279 -0.2471257797298928 0 -0.22866545068461799 -0.25948943059043711 0 -0.24233717299785959 -0.25960849866204011 0 -0.23442911476228809 -0.24683612341654529 0 -0.2565674865322034 -0.25340195958415102 0 -0.24233717299785959 -0.25960849866204011 0 -0.25018128361314113 -0.24746468840205441 0 -0.22866545068461799 -0.25948943059043711 0 -0.24233717299785959 -0.25960849866204011 0 -0.2333815926018066 -0.27110706845475141 0 -0.24233717299785959 -0.25960849866204011 0 -0.2333815926018066 -0.27110706845475141 0 -0.24140403581614819 -0.28379898528087227 0 -0.24233717299785959 -0.25960849866204011 0 -0.24140403581614819 -0.28379898528087227 0 -0.24233717299785959 -0.25960849866204011 0 -0.2484323970602714 -0.27706385987730509 0 -0.24140403581614819 -0.28379898528087227 0 -0.25309751137434572 -0.26289123234143091 0 -0.24233717299785959 -0.25960849866204011 0 -0.2484323970602714 -0.27706385987730509 0 -0.2333815926018066 -0.27110706845475141 0 -0.2300547693907766 -0.28178467995593781 0 -0.24140403581614819 -0.28379898528087227 0 -0.2333815926018066 -0.27110706845475141 0 -0.22398633244919169 -0.27132847136955079 0 -0.2300547693907766 -0.28178467995593781 0 -0.22866545068461799 -0.25948943059043711 0 -0.2333815926018066 -0.27110706845475141 0 -0.22398633244919169 -0.27132847136955079 0 -0.22398633244919169 -0.27132847136955079 0 -0.21947311754018139 -0.28174823216008099 0 -0.2300547693907766 -0.28178467995593781 0 -0.21947311754018139 -0.28174823216008099 0 -0.22569627159534009 -0.29064390563822362 0 -0.2300547693907766 -0.28178467995593781 0 -0.21947311754018139 -0.28174823216008099 0 -0.22569627159534009 -0.29064390563822362 0 -0.21595054291829549 -0.29285447433738648 0 -0.22569627159534009 -0.29064390563822362 0 -0.22453607640027501 -0.29842387346705762 0 -0.21595054291829549 -0.29285447433738648 0 -0.22569627159534009 -0.29064390563822362 0 -0.2341156104824163 -0.28973116501788848 0 -0.23104294706112549 -0.29817392722980551 0 -0.22569627159534009 -0.29064390563822362 0 -0.23104294706112549 -0.29817392722980551 0 -0.22453607640027501 -0.29842387346705762 0 -0.22569627159534009 -0.29064390563822362 0 -0.2341156104824163 -0.28973116501788848 0 -0.2300547693907766 -0.28178467995593781 0 -0.25108388684634803 -0.28956965662021522 0 -0.24140403581614819 -0.28379898528087227 0 -0.24047089863443691 -0.30798947189970438 0 -0.2341156104824163 -0.28973116501788848 0 -0.24140403581614819 -0.28379898528087227 0 -0.24047089863443691 -0.30798947189970438 0 -0.24140403581614819 -0.28379898528087227 0 -0.24047089863443691 -0.30798947189970438 0 -0.2341156104824163 -0.28973116501788848 0 -0.2300547693907766 -0.28178467995593781 0 -0.24140403581614819 -0.28379898528087227 0 -0.25108388684634803 -0.28956965662021522 0 -0.2484323970602714 -0.27706385987730509 0 -0.24140403581614819 -0.28379898528087227 0 -0.25718459078837252 -0.29759752524363881 0 -0.25108388684634803 -0.28956965662021522 0 -0.24047089863443691 -0.30798947189970438 0 -0.2341156104824163 -0.28973116501788848 0 -0.24047089863443691 -0.30798947189970438 0 -0.23104294706112549 -0.29817392722980551 0 -0.24047089863443691 -0.30798947189970438 0 -0.23158309368585001 -0.31181085789310747 0 -0.2303958781931594 -0.30408122012615352 0 -0.23158309368585001 -0.31181085789310747 0 -0.2303958781931594 -0.30408122012615352 0 -0.2249978911063876 -0.30539226771637512 0 -0.24047089863443691 -0.30798947189970438 0 -0.23104294706112549 -0.29817392722980551 0 -0.2303958781931594 -0.30408122012615352 0 -0.23104294706112549 -0.29817392722980551 0 -0.2303958781931594 -0.30408122012615352 0 -0.22453607640027501 -0.29842387346705762 0 -0.2303958781931594 -0.30408122012615352 0 -0.22453607640027501 -0.29842387346705762 0 -0.2249978911063876 -0.30539226771637512 0 -0.22453607640027501 -0.29842387346705762 0 -0.2249978911063876 -0.30539226771637512 0 -0.21872282414136721 -0.30136563651957121 0 -0.22453607640027501 -0.29842387346705762 0 -0.21872282414136721 -0.30136563651957121 0 -0.21595054291829549 -0.29285447433738648 0 -0.22249387381410951 -0.31123320620709588 0 -0.2249978911063876 -0.30539226771637512 0 -0.21872282414136721 -0.30136563651957121 0 -0.23158309368585001 -0.31181085789310747 0 -0.22249387381410951 -0.31123320620709588 0 -0.2249978911063876 -0.30539226771637512 0 -0.22249387381410951 -0.31123320620709588 0 -0.20819654573008861 -0.30010144335043992 0 -0.2180259411870723 -0.31620608063285149 0 -0.2144403241224431 -0.30923162986744451 0 -0.20904493575850211 -0.30938578927939081 0 -0.22249387381410951 -0.31123320620709588 0 -0.2144403241224431 -0.30923162986744451 0 -0.20819654573008861 -0.30010144335043992 0 -0.2180259411870723 -0.31620608063285149 0 -0.22249387381410951 -0.31123320620709588 0 -0.2144403241224431 -0.30923162986744451 0 -0.21872282414136721 -0.30136563651957121 0 -0.20819654573008861 -0.30010144335043992 0 -0.21595054291829549 -0.29285447433738648 0 -0.22249387381410951 -0.31123320620709588 0 -0.21872282414136721 -0.30136563651957121 0 -0.20819654573008861 -0.30010144335043992 0 -0.20819654573008861 -0.30010144335043992 0 -0.20288915614788011 -0.30684576889979082 0 -0.200327377448308 -0.30070497350852549 0 -0.19974136112887431 -0.31343603927203523 0 -0.20904493575850211 -0.30938578927939081 0 -0.20288915614788011 -0.30684576889979082 0 -0.2144403241224431 -0.30923162986744451 0 -0.20819654573008861 -0.30010144335043992 0 -0.20904493575850211 -0.30938578927939081 0 -0.20819654573008861 -0.30010144335043992 0 -0.20904493575850211 -0.30938578927939081 0 -0.20288915614788011 -0.30684576889979082 0 -0.19974136112887431 -0.31343603927203523 0 -0.1814567810706762 -0.3106659979112194 0 -0.19974136112887431 -0.31343603927203523 0 -0.20288915614788011 -0.30684576889979082 0 -0.19308950921137841 -0.30535425612401718 0 -0.19974136112887431 -0.31343603927203523 0 -0.19308950921137841 -0.30535425612401718 0 -0.1814567810706762 -0.3106659979112194 0 -0.19308950921137841 -0.30535425612401718 0 -0.1899902243989981 -0.29832565749187118 0 -0.1817779539512053 -0.30255714357571323 0 -0.19308950921137841 -0.30535425612401718 0 -0.1899902243989981 -0.29832565749187118 0 -0.200327377448308 -0.30070497350852549 0 -0.20288915614788011 -0.30684576889979082 0 -0.19308950921137841 -0.30535425612401718 0 -0.200327377448308 -0.30070497350852549 0 -0.20819654573008861 -0.30010144335043992 0 -0.19389921764606771 -0.28896968049378402 0 -0.200327377448308 -0.30070497350852549 0 -0.19389921764606771 -0.28896968049378402 0 -0.20819654573008861 -0.30010144335043992 0 -0.200327377448308 -0.30070497350852549 0 -0.19389921764606771 -0.28896968049378402 0 -0.20819654573008861 -0.30010144335043992 0 -0.19389921764606771 -0.28896968049378402 0 -0.2049502680629153 -0.28953974020436019 0 -0.1899902243989981 -0.29832565749187118 0 -0.19389921764606771 -0.28896968049378402 0 -0.18066470514172869 -0.29420676669921531 0 -0.1899902243989981 -0.29832565749187118 0 -0.200327377448308 -0.30070497350852549 0 -0.19389921764606771 -0.28896968049378402 0 -0.19389921764606771 -0.28896968049378402 0 -0.18643891475010321 -0.2753500999052107 0 -0.19389921764606771 -0.28896968049378402 0 -0.1815972113741586 -0.27939145610981342 0 -0.19389921764606771 -0.28896968049378402 0 -0.2049502680629153 -0.28953974020436019 0 -0.20163083764207049 -0.27816255368004889 0 -0.2099333729274668 -0.28317129254800538 0 -0.2049502680629153 -0.28953974020436019 0 -0.20163083764207049 -0.27816255368004889 0 -0.2099333729274668 -0.28317129254800538 0 -0.2049502680629153 -0.28953974020436019 0 -0.21595054291829549 -0.29285447433738648 0 -0.20819654573008861 -0.30010144335043992 0 -0.2049502680629153 -0.28953974020436019 0 -0.21595054291829549 -0.29285447433738648 0 -0.21947311754018139 -0.28174823216008099 0 -0.2099333729274668 -0.28317129254800538 0 -0.21595054291829549 -0.29285447433738648 0 -0.2117440640613063 -0.2714560660025862 0 -0.20163083764207049 -0.27816255368004889 0 -0.20334583650585281 -0.26123793981755161 0 -0.22398633244919169 -0.27132847136955079 0 -0.21947311754018139 -0.28174823216008099 0 -0.2117440640613063 -0.2714560660025862 0 -0.21947311754018139 -0.28174823216008099 0 -0.2099333729274668 -0.28317129254800538 0 -0.2117440640613063 -0.2714560660025862 0 -0.22398633244919169 -0.27132847136955079 0 -0.2117440640613063 -0.2714560660025862 0 -0.21759888839251429 -0.26212753750200368 0 -0.2099333729274668 -0.28317129254800538 0 -0.2117440640613063 -0.2714560660025862 0 -0.20163083764207049 -0.27816255368004889 0 -0.20163083764207049 -0.27816255368004889 0 -0.20334583650585281 -0.26123793981755161 0 -0.18643891475010321 -0.2753500999052107 0 -0.20334583650585281 -0.26123793981755161 0 -0.18643891475010321 -0.2753500999052107 0 -0.1892261620383611 -0.26071341320317981 0 -0.20334583650585281 -0.26123793981755161 0 -0.18643891475010321 -0.2753500999052107 0 -0.19389921764606771 -0.28896968049378402 0 -0.20163083764207049 -0.27816255368004889 0 -0.18643891475010321 -0.2753500999052107 0 -0.1892261620383611 -0.26071341320317981 0 -0.20334583650585281 -0.26123793981755161 0 -0.1971211098569064 -0.2485562144643311 0 -0.20334583650585281 -0.26123793981755161 0 -0.21759888839251429 -0.26212753750200368 0 -0.22025275826160279 -0.2471257797298928 0 -0.20334583650585281 -0.26123793981755161 0 -0.22025275826160279 -0.2471257797298928 0 -0.20334583650585281 -0.26123793981755161 0 -0.1971211098569064 -0.2485562144643311 0 -0.22025275826160279 -0.2471257797298928 0 -0.2117440640613063 -0.2714560660025862 0 -0.20334583650585281 -0.26123793981755161 0 -0.21759888839251429 -0.26212753750200368 0 -0.15821309250511281 -0.26118480488572993 0 -0.17536452169406261 -0.25513261131262932 0 -0.1815972113741586 -0.27939145610981342 0 -0.15821309250511281 -0.26118480488572993 0 -0.17536452169406261 -0.25513261131262932 0 -0.15566934165753701 -0.24482136105764621 0 -0.1892261620383611 -0.26071341320317981 0 -0.17536452169406261 -0.25513261131262932 0 -0.1971211098569064 -0.2485562144643311 0 -0.1892261620383611 -0.26071341320317981 0 -0.17536452169406261 -0.25513261131262932 0 -0.18643891475010321 -0.2753500999052107 0 -0.17536452169406261 -0.25513261131262932 0 -0.18643891475010321 -0.2753500999052107 0 -0.17536452169406261 -0.25513261131262932 0 -0.18643891475010321 -0.2753500999052107 0 -0.1815972113741586 -0.27939145610981342 0 -0.19389921764606771 -0.28896968049378402 0 -0.18643891475010321 -0.2753500999052107 0 -0.1815972113741586 -0.27939145610981342 0 -0.18643891475010321 -0.2753500999052107 0 -0.1815972113741586 -0.27939145610981342 0 -0.15821309250511281 -0.26118480488572993 0 -0.1815972113741586 -0.27939145610981342 0 -0.1605334253196628 -0.27705414769848019 0 -0.15821309250511281 -0.26118480488572993 0 -0.1815972113741586 -0.27939145610981342 0 -0.1605334253196628 -0.27705414769848019 0 -0.16662117086531369 -0.29189191504570172 0 -0.1460397447830028 -0.28392096720827609 0 -0.1815972113741586 -0.27939145610981342 0 -0.1605334253196628 -0.27705414769848019 0 -0.16662117086531369 -0.29189191504570172 0 -0.16662117086531369 -0.29189191504570172 0 -0.18066470514172869 -0.29420676669921531 0 -0.16807172941449361 -0.30108874618849107 0 -0.1815972113741586 -0.27939145610981342 0 -0.16662117086531369 -0.29189191504570172 0 -0.1815972113741586 -0.27939145610981342 0 -0.16662117086531369 -0.29189191504570172 0 -0.18066470514172869 -0.29420676669921531 0 -0.19389921764606771 -0.28896968049378402 0 -0.1815972113741586 -0.27939145610981342 0 -0.18066470514172869 -0.29420676669921531 0 -0.18066470514172869 -0.29420676669921531 0 -0.1817779539512053 -0.30255714357571323 0 -0.16807172941449361 -0.30108874618849107 0 -0.1817779539512053 -0.30255714357571323 0 -0.17538193411824851 -0.30742310974349601 0 -0.16807172941449361 -0.30108874618849107 0 -0.1899902243989981 -0.29832565749187118 0 -0.18066470514172869 -0.29420676669921531 0 -0.1817779539512053 -0.30255714357571323 0 -0.19308950921137841 -0.30535425612401718 0 -0.1817779539512053 -0.30255714357571323 0 -0.1814567810706762 -0.3106659979112194 0 -0.1817779539512053 -0.30255714357571323 0 -0.1814567810706762 -0.3106659979112194 0 -0.17538193411824851 -0.30742310974349601 0 -0.1814567810706762 -0.3106659979112194 0 -0.17538193411824851 -0.30742310974349601 0 -0.1814567810706762 -0.3106659979112194 0 -0.17538193411824851 -0.30742310974349601 0 -0.1521471234576928 -0.30622570102712859 0 -0.16662117086531369 -0.29189191504570172 0 -0.16807172941449361 -0.30108874618849107 0 -0.15164513035647001 -0.30439237398159158 0 -0.17538193411824851 -0.30742310974349601 0 -0.16807172941449361 -0.30108874618849107 0 -0.1521471234576928 -0.30622570102712859 0 -0.16807172941449361 -0.30108874618849107 0 -0.1521471234576928 -0.30622570102712859 0 -0.15164513035647001 -0.30439237398159158 0 -0.1814567810706762 -0.3106659979112194 0 -0.1521471234576928 -0.30622570102712859 0 -0.16662117086531369 -0.29189191504570172 0 -0.15164513035647001 -0.30439237398159158 0 -0.14986325126998301 -0.30587970344869631 0 -0.1472482395654931 -0.30806244637126978 0 -0.13137693926794269 -0.30307910049847142 0 -0.14986325126998301 -0.30587970344869631 0 -0.13137693926794269 -0.30307910049847142 0 -0.14191197011226919 -0.29595195204747682 0 -0.1521471234576928 -0.30622570102712859 0 -0.15536928910057479 -0.31799335959440589 0 -0.1521471234576928 -0.30622570102712859 0 -0.1472482395654931 -0.30806244637126978 0 -0.1481744133336001 -0.31559103279323952 0 -0.1521471234576928 -0.30622570102712859 0 -0.14986325126998301 -0.30587970344869631 0 -0.1472482395654931 -0.30806244637126978 0 -0.1521471234576928 -0.30622570102712859 0 -0.14986325126998301 -0.30587970344869631 0 -0.15164513035647001 -0.30439237398159158 0 -0.1521471234576928 -0.30622570102712859 0 -0.14986325126998301 -0.30587970344869631 0 -0.1521471234576928 -0.30622570102712859 0 -0.15164513035647001 -0.30439237398159158 0 -0.14986325126998301 -0.30587970344869631 0 -0.15164513035647001 -0.30439237398159158 0 -0.14986325126998301 -0.30587970344869631 0 -0.1472482395654931 -0.30806244637126978 0 -0.14986325126998301 -0.30587970344869631 0 -0.15164513035647001 -0.30439237398159158 0 -0.14191197011226919 -0.29595195204747682 0 -0.1472482395654931 -0.30806244637126978 0 -0.13676428411235661 -0.311985534419285 0 -0.1481744133336001 -0.31559103279323952 0 -0.14986325126998301 -0.30587970344869631 0 -0.13137693926794269 -0.30307910049847142 0 -0.1472482395654931 -0.30806244637126978 0 -0.13676428411235661 -0.311985534419285 0 -0.13137693926794269 -0.30307910049847142 0 -0.13137693926794269 -0.30307910049847142 0 -0.14191197011226919 -0.29595195204747682 0 -0.12354370332633501 -0.29237215235494779 0 -0.13676428411235661 -0.311985534419285 0 -0.13137693926794269 -0.30307910049847142 0 -0.12202825811921469 -0.30947938976295097 0 -0.1460397447830028 -0.28392096720827609 0 -0.14191197011226919 -0.29595195204747682 0 -0.13317406737037779 -0.2802173890703723 0 -0.14191197011226919 -0.29595195204747682 0 -0.13317406737037779 -0.2802173890703723 0 -0.12354370332633501 -0.29237215235494779 0 -0.13317406737037779 -0.2802173890703723 0 -0.121176560474238 -0.27855216134530347 0 -0.12354370332633501 -0.29237215235494779 0 -0.16662117086531369 -0.29189191504570172 0 -0.15164513035647001 -0.30439237398159158 0 -0.1460397447830028 -0.28392096720827609 0 -0.15164513035647001 -0.30439237398159158 0 -0.1460397447830028 -0.28392096720827609 0 -0.14191197011226919 -0.29595195204747682 0 -0.15164513035647001 -0.30439237398159158 0 -0.1460397447830028 -0.28392096720827609 0 -0.1460397447830028 -0.28392096720827609 0 -0.14043435920953651 -0.26344956043496021 0 -0.1605334253196628 -0.27705414769848019 0 -0.1460397447830028 -0.28392096720827609 0 -0.14043435920953651 -0.26344956043496021 0 -0.15821309250511281 -0.26118480488572993 0 -0.1605334253196628 -0.27705414769848019 0 -0.14043435920953651 -0.26344956043496021 0 -0.13317406737037779 -0.2802173890703723 0 -0.1259380663168852 -0.26705754103126977 0 -0.14043435920953651 -0.26344956043496021 0 -0.1460397447830028 -0.28392096720827609 0 -0.13317406737037779 -0.2802173890703723 0 -0.14043435920953651 -0.26344956043496021 0 -0.13317406737037779 -0.2802173890703723 0 -0.1259380663168852 -0.26705754103126977 0 -0.121176560474238 -0.27855216134530347 0 -0.14043435920953651 -0.26344956043496021 0 -0.1283361407779757 -0.25159171728621699 0 -0.13482897363606841 -0.24297815366164491 0 -0.14043435920953651 -0.26344956043496021 0 -0.13482897363606841 -0.24297815366164491 0 -0.1259380663168852 -0.26705754103126977 0 -0.14043435920953651 -0.26344956043496021 0 -0.1283361407779757 -0.25159171728621699 0 -0.15821309250511281 -0.26118480488572993 0 -0.13482897363606841 -0.24297815366164491 0 -0.15821309250511281 -0.26118480488572993 0 -0.14043435920953651 -0.26344956043496021 0 -0.13482897363606841 -0.24297815366164491 0 -0.17697510949039719 -0.35596577996135209 0 -0.17519745401808179 -0.33814225560617162 0 -0.1562220225934601 -0.35985472972221177 0 -0.17519745401808179 -0.33814225560617162 0 -0.1532624182972378 -0.33871633494107939 0 -0.1562220225934601 -0.35985472972221177 0 -0.17519745401808179 -0.33814225560617162 0 -0.1562220225934601 -0.35985472972221177 0 -0.1663441030446621 -0.37717300760659073 0 -0.17697510949039719 -0.35596577996135209 0 -0.1562220225934601 -0.35985472972221177 0 -0.1663441030446621 -0.37717300760659073 0 -0.1854961134254472 -0.37120813041460421 0 -0.17697510949039719 -0.35596577996135209 0 -0.19236830561379509 -0.34938181171492771 0 -0.1854961134254472 -0.37120813041460421 0 -0.17697510949039719 -0.35596577996135209 0 -0.17697510949039719 -0.35596577996135209 0 -0.17519745401808179 -0.33814225560617162 0 -0.18622265824693729 -0.34003474470360739 0 -0.19236830561379509 -0.34938181171492771 0 -0.17697510949039719 -0.35596577996135209 0 -0.18622265824693729 -0.34003474470360739 0 -0.19214051361034601 -0.33054181938157612 0 -0.17519745401808179 -0.33814225560617162 0 -0.18622265824693729 -0.34003474470360739 0 -0.19214051361034601 -0.33054181938157612 0 -0.17519745401808179 -0.33814225560617162 0 -0.17075841890319021 -0.32267991232295651 0 -0.19214051361034601 -0.33054181938157612 0 -0.1814567810706762 -0.3106659979112194 0 -0.17075841890319021 -0.32267991232295651 0 -0.1814567810706762 -0.3106659979112194 0 -0.1521471234576928 -0.30622570102712859 0 -0.17075841890319021 -0.32267991232295651 0 -0.1521471234576928 -0.30622570102712859 0 -0.17075841890319021 -0.32267991232295651 0 -0.15536928910057479 -0.31799335959440589 0 -0.17075841890319021 -0.32267991232295651 0 -0.15536928910057479 -0.31799335959440589 0 -0.15041885550205389 -0.32708722206771829 0 -0.17519745401808179 -0.33814225560617162 0 -0.17075841890319021 -0.32267991232295651 0 -0.1532624182972378 -0.33871633494107939 0 -0.17075841890319021 -0.32267991232295651 0 -0.1532624182972378 -0.33871633494107939 0 -0.15041885550205389 -0.32708722206771829 0 -0.1532624182972378 -0.33871633494107939 0 -0.15041885550205389 -0.32708722206771829 0 -0.13403844172661231 -0.33095488736429202 0 -0.15041885550205389 -0.32708722206771829 0 -0.14028103823900179 -0.32077908792264309 0 -0.13403844172661231 -0.33095488736429202 0 -0.15536928910057479 -0.31799335959440589 0 -0.15041885550205389 -0.32708722206771829 0 -0.1481744133336001 -0.31559103279323952 0 -0.1521471234576928 -0.30622570102712859 0 -0.15536928910057479 -0.31799335959440589 0 -0.1481744133336001 -0.31559103279323952 0 -0.15041885550205389 -0.32708722206771829 0 -0.1481744133336001 -0.31559103279323952 0 -0.14028103823900179 -0.32077908792264309 0 -0.13676428411235661 -0.311985534419285 0 -0.1481744133336001 -0.31559103279323952 0 -0.14028103823900179 -0.32077908792264309 0 -0.13676428411235661 -0.311985534419285 0 -0.14028103823900179 -0.32077908792264309 0 -0.12839564496088529 -0.32005881249807028 0 -0.14028103823900179 -0.32077908792264309 0 -0.12839564496088529 -0.32005881249807028 0 -0.13403844172661231 -0.33095488736429202 0 -0.12839564496088529 -0.32005881249807028 0 -0.13403844172661231 -0.33095488736429202 0 -0.1231279148664025 -0.32697127933959502 0 -0.13676428411235661 -0.311985534419285 0 -0.12839564496088529 -0.32005881249807028 0 -0.12202825811921469 -0.30947938976295097 0 -0.13403844172661231 -0.33095488736429202 0 -0.13290241802702499 -0.35265178330474523 0 -0.1166361947753133 -0.33638206822001748 0 -0.1532624182972378 -0.33871633494107939 0 -0.13403844172661231 -0.33095488736429202 0 -0.13290241802702499 -0.35265178330474523 0 -0.1532624182972378 -0.33871633494107939 0 -0.13290241802702499 -0.35265178330474523 0 -0.1562220225934601 -0.35985472972221177 0 -0.13724659116883831 -0.38156720383825199 0 -0.13290241802702499 -0.35265178330474523 0 -0.1562220225934601 -0.35985472972221177 0 -0.13724659116883831 -0.38156720383825199 0 -0.1663441030446621 -0.37717300760659073 0 -0.1562220225934601 -0.35985472972221177 0 -0.13724659116883831 -0.38156720383825199 0 -0.1562220225934601 -0.35985472972221177 0 -0.13724659116883831 -0.38156720383825199 0 -0.13290241802702499 -0.35265178330474523 0 -0.1192781490478088 -0.36668410834504778 0 -0.1192781490478088 -0.36668410834504778 0 -0.1016352808315869 -0.36700177770792092 0 -0.11220573075163159 -0.38220411347121069 0 -0.1192781490478088 -0.36668410834504778 0 -0.1016352808315869 -0.36700177770792092 0 -0.1099844304083452 -0.35257743562026572 0 -0.1016352808315869 -0.36700177770792092 0 -0.091783481537845241 -0.36974840743822202 0 -0.093334558199797538 -0.36412034719781128 0 -0.1016352808315869 -0.36700177770792092 0 -0.094364811557621053 -0.35389299716276579 0 -0.093334558199797538 -0.36412034719781128 0 -0.1016352808315869 -0.36700177770792092 0 -0.091783481537845241 -0.36974840743822202 0 -0.093814789784828018 -0.38091150164421111 0 -0.094364811557621053 -0.35389299716276579 0 -0.1099844304083452 -0.35257743562026572 0 -0.096042697554356071 -0.3397062417384924 0 -0.1016352808315869 -0.36700177770792092 0 -0.094364811557621053 -0.35389299716276579 0 -0.1099844304083452 -0.35257743562026572 0 -0.13290241802702499 -0.35265178330474523 0 -0.1099844304083452 -0.35257743562026572 0 -0.1166361947753133 -0.33638206822001748 0 -0.13290241802702499 -0.35265178330474523 0 -0.1192781490478088 -0.36668410834504778 0 -0.1099844304083452 -0.35257743562026572 0 -0.13403844172661231 -0.33095488736429202 0 -0.1166361947753133 -0.33638206822001748 0 -0.1231279148664025 -0.32697127933959502 0 -0.1166361947753133 -0.33638206822001748 0 -0.1152881905332649 -0.31967160768574748 0 -0.098893476597157901 -0.32632392269665411 0 -0.1166361947753133 -0.33638206822001748 0 -0.1231279148664025 -0.32697127933959502 0 -0.1152881905332649 -0.31967160768574748 0 -0.12839564496088529 -0.32005881249807028 0 -0.1152881905332649 -0.31967160768574748 0 -0.12202825811921469 -0.30947938976295097 0 -0.12839564496088529 -0.32005881249807028 0 -0.1231279148664025 -0.32697127933959502 0 -0.1152881905332649 -0.31967160768574748 0 -0.1152881905332649 -0.31967160768574748 0 -0.11397155121489801 -0.30848478901155318 0 -0.10823649018657309 -0.3106210867482716 0 -0.1152881905332649 -0.31967160768574748 0 -0.12202825811921469 -0.30947938976295097 0 -0.11397155121489801 -0.30848478901155318 0 -0.1152881905332649 -0.31967160768574748 0 -0.098893476597157901 -0.32632392269665411 0 -0.10823649018657309 -0.3106210867482716 0 -0.1166361947753133 -0.33638206822001748 0 -0.098893476597157901 -0.32632392269665411 0 -0.096042697554356071 -0.3397062417384924 0 -0.1099844304083452 -0.35257743562026572 0 -0.1166361947753133 -0.33638206822001748 0 -0.096042697554356071 -0.3397062417384924 0 -0.081273045807338212 -0.32012122354728773 0 -0.072383893537199012 -0.33396092306611819 0 -0.082523744249277803 -0.34494336359321798 0 -0.081273045807338212 -0.32012122354728773 0 -0.082523744249277803 -0.34494336359321798 0 -0.096042697554356071 -0.3397062417384924 0 -0.081273045807338212 -0.32012122354728773 0 -0.082523744249277803 -0.34494336359321798 0 -0.098893476597157901 -0.32632392269665411 0 -0.096042697554356071 -0.3397062417384924 0 -0.081273045807338212 -0.32012122354728773 0 -0.098893476597157901 -0.32632392269665411 0 -0.081273045807338212 -0.32012122354728773 0 -0.088490963390462057 -0.3073149594937738 0 -0.081273045807338212 -0.32012122354728773 0 -0.06349485352407537 -0.31994243130957151 0 -0.072383893537199012 -0.33396092306611819 0 -0.081273045807338212 -0.32012122354728773 0 -0.06349485352407537 -0.31994243130957151 0 -0.071882199735688629 -0.30989172464331072 0 -0.06349485352407537 -0.31994243130957151 0 -0.072383893537199012 -0.33396092306611819 0 -0.062587044379988993 -0.33886333000968721 0 -0.072383893537199012 -0.33396092306611819 0 -0.072040779725314613 -0.34593426687082662 0 -0.082523744249277803 -0.34494336359321798 0 -0.072383893537199012 -0.33396092306611819 0 -0.062587044379988993 -0.33886333000968721 0 -0.072040779725314613 -0.34593426687082662 0 -0.062587044379988993 -0.33886333000968721 0 -0.072040779725314613 -0.34593426687082662 0 -0.05778126825204781 -0.35817517109810632 0 -0.081484465201393491 -0.35485127927681481 0 -0.05778126825204781 -0.35817517109810632 0 -0.072289445743601369 -0.36429171085611578 0 -0.081484465201393491 -0.35485127927681481 0 -0.05778126825204781 -0.35817517109810632 0 -0.072040779725314613 -0.34593426687082662 0 -0.081484465201393491 -0.35485127927681481 0 -0.05778126825204781 -0.35817517109810632 0 -0.066117606829746781 -0.37437488941039382 0 -0.072289445743601369 -0.36429171085611578 0 -0.05778126825204781 -0.35817517109810632 0 -0.066117606829746781 -0.37437488941039382 0 -0.072289445743601369 -0.36429171085611578 0 -0.083774442691217046 -0.36976550363914829 0 -0.072289445743601369 -0.36429171085611578 0 -0.083774442691217046 -0.36976550363914829 0 -0.081484465201393491 -0.35485127927681481 0 -0.085554658872136979 -0.36583820648233678 0 -0.083774442691217046 -0.36976550363914829 0 -0.082523744249277803 -0.34494336359321798 0 -0.085554658872136979 -0.36583820648233678 0 -0.083774442691217046 -0.36976550363914829 0 -0.083774442691217046 -0.36976550363914829 0 -0.091783481537845241 -0.36974840743822202 0 -0.093814789784828018 -0.38091150164421111 0 -0.085554658872136979 -0.36583820648233678 0 -0.083774442691217046 -0.36976550363914829 0 -0.091783481537845241 -0.36974840743822202 0 -0.094364811557621053 -0.35389299716276579 0 -0.085554658872136979 -0.36583820648233678 0 -0.093334558199797538 -0.36412034719781128 0 -0.085554658872136979 -0.36583820648233678 0 -0.091783481537845241 -0.36974840743822202 0 -0.093334558199797538 -0.36412034719781128 0 -0.094364811557621053 -0.35389299716276579 0 -0.085554658872136979 -0.36583820648233678 0 -0.082523744249277803 -0.34494336359321798 0 -0.083774442691217046 -0.36976550363914829 0 -0.082523744249277803 -0.34494336359321798 0 -0.083774442691217046 -0.36976550363914829 0 -0.082523744249277803 -0.34494336359321798 0 -0.081484465201393491 -0.35485127927681481 0 -0.094364811557621053 -0.35389299716276579 0 -0.096042697554356071 -0.3397062417384924 0 -0.082523744249277803 -0.34494336359321798 0 -0.072040779725314613 -0.34593426687082662 0 -0.082523744249277803 -0.34494336359321798 0 -0.081484465201393491 -0.35485127927681481 0 -0.101475907254733 -0.26829823342826459 0 -0.093680051977193257 -0.25300014610948141 0 -0.1025516661405015 -0.24412656761791199 0 -0.1097432552782682 -0.2572086698476283 0 -0.101475907254733 -0.26829823342826459 0 -0.1025516661405015 -0.24412656761791199 0 -0.101475907254733 -0.26829823342826459 0 -0.1025516661405015 -0.24412656761791199 0 -0.101475907254733 -0.26829823342826459 0 -0.092490388530258719 -0.26367462890309928 0 -0.093680051977193257 -0.25300014610948141 0 -0.1097432552782682 -0.2572086698476283 0 -0.11415052326640381 -0.26847741843797612 0 -0.101475907254733 -0.26829823342826459 0 -0.1097432552782682 -0.2572086698476283 0 -0.1183855941197941 -0.25651062511641259 0 -0.1121525856099083 -0.24863050463757599 0 -0.1283361407779757 -0.25159171728621699 0 -0.1183855941197941 -0.25651062511641259 0 -0.11992695639240671 -0.24305274461581289 0 -0.1259380663168852 -0.26705754103126977 0 -0.1183855941197941 -0.25651062511641259 0 -0.11415052326640381 -0.26847741843797612 0 -0.1259380663168852 -0.26705754103126977 0 -0.1283361407779757 -0.25159171728621699 0 -0.1183855941197941 -0.25651062511641259 0 -0.1097432552782682 -0.2572086698476283 0 -0.1183855941197941 -0.25651062511641259 0 -0.11415052326640381 -0.26847741843797612 0 -0.1259380663168852 -0.26705754103126977 0 -0.11415052326640381 -0.26847741843797612 0 -0.121176560474238 -0.27855216134530347 0 -0.11415052326640381 -0.26847741843797612 0 -0.121176560474238 -0.27855216134530347 0 -0.112272911659429 -0.28340806039222649 0 -0.101475907254733 -0.26829823342826459 0 -0.1004001483689636 -0.29246989923861699 0 -0.089806853404465051 -0.2713401455271785 0 -0.101475907254733 -0.26829823342826459 0 -0.1004001483689636 -0.29246989923861699 0 -0.11415052326640381 -0.26847741843797612 0 -0.101475907254733 -0.26829823342826459 0 -0.112272911659429 -0.28340806039222649 0 -0.101475907254733 -0.26829823342826459 0 -0.089806853404465051 -0.2713401455271785 0 -0.092490388530258719 -0.26367462890309928 0 -0.1004001483689636 -0.29246989923861699 0 -0.112272911659429 -0.28340806039222649 0 -0.11289062726590229 -0.30027849754824781 0 -0.101475907254733 -0.26829823342826459 0 -0.1004001483689636 -0.29246989923861699 0 -0.112272911659429 -0.28340806039222649 0 -0.1004001483689636 -0.29246989923861699 0 -0.10013860532164209 -0.29834661679915908 0 -0.1004001483689636 -0.29246989923861699 0 -0.11289062726590229 -0.30027849754824781 0 -0.112272911659429 -0.28340806039222649 0 -0.12354370332633501 -0.29237215235494779 0 -0.11289062726590229 -0.30027849754824781 0 -0.121176560474238 -0.27855216134530347 0 -0.112272911659429 -0.28340806039222649 0 -0.12354370332633501 -0.29237215235494779 0 -0.13137693926794269 -0.30307910049847142 0 -0.11289062726590229 -0.30027849754824781 0 -0.13137693926794269 -0.30307910049847142 0 -0.11289062726590229 -0.30027849754824781 0 -0.12202825811921469 -0.30947938976295097 0 -0.13137693926794269 -0.30307910049847142 0 -0.12354370332633501 -0.29237215235494779 0 -0.11289062726590229 -0.30027849754824781 0 -0.11289062726590229 -0.30027849754824781 0 -0.11397155121489801 -0.30848478901155318 0 -0.10823649018657309 -0.3106210867482716 0 -0.11289062726590229 -0.30027849754824781 0 -0.12202825811921469 -0.30947938976295097 0 -0.11397155121489801 -0.30848478901155318 0 -0.098893476597157901 -0.32632392269665411 0 -0.10013860532164209 -0.29834661679915908 0 -0.098893476597157901 -0.32632392269665411 0 -0.10013860532164209 -0.29834661679915908 0 -0.088490963390462057 -0.3073149594937738 0 -0.098893476597157901 -0.32632392269665411 0 -0.10823649018657309 -0.3106210867482716 0 -0.10013860532164209 -0.29834661679915908 0 -0.11289062726590229 -0.30027849754824781 0 -0.10013860532164209 -0.29834661679915908 0 -0.1004001483689636 -0.29246989923861699 0 -0.11289062726590229 -0.30027849754824781 0 -0.10013860532164209 -0.29834661679915908 0 -0.11289062726590229 -0.30027849754824781 0 -0.10823649018657309 -0.3106210867482716 0 -0.10013860532164209 -0.29834661679915908 0 -0.081273045807338212 -0.32012122354728773 0 -0.075730545320634307 -0.30237183499028841 0 -0.080022347365398816 -0.29529908350135742 0 -0.081273045807338212 -0.32012122354728773 0 -0.088490963390462057 -0.3073149594937738 0 -0.080022347365398816 -0.29529908350135742 0 -0.10013860532164209 -0.29834661679915908 0 -0.088490963390462057 -0.3073149594937738 0 -0.080022347365398816 -0.29529908350135742 0 -0.081273045807338212 -0.32012122354728773 0 -0.080022347365398816 -0.29529908350135742 0 -0.06349485352407537 -0.31994243130957151 0 -0.067929239438661637 -0.29744245220773302 0 -0.06349485352407537 -0.31994243130957151 0 -0.067929239438661637 -0.29744245220773302 0 -0.05709164511789562 -0.30596989755068921 0 -0.081273045807338212 -0.32012122354728773 0 -0.071882199735688629 -0.30989172464331072 0 -0.075730545320634307 -0.30237183499028841 0 -0.06349485352407537 -0.31994243130957151 0 -0.071882199735688629 -0.30989172464331072 0 -0.067929239438661637 -0.29744245220773302 0 -0.067929239438661637 -0.29744245220773302 0 -0.075730545320634307 -0.30237183499028841 0 -0.074800211398343183 -0.29676828128919502 0 -0.071882199735688629 -0.30989172464331072 0 -0.067929239438661637 -0.29744245220773302 0 -0.075730545320634307 -0.30237183499028841 0 -0.075730545320634307 -0.30237183499028841 0 -0.074800211398343183 -0.29676828128919502 0 -0.080022347365398816 -0.29529908350135742 0 -0.067929239438661637 -0.29744245220773302 0 -0.072363625353247057 -0.27494247310589431 0 -0.074800211398343183 -0.29676828128919502 0 -0.075988861669628593 -0.29203098004520328 0 -0.080022347365398816 -0.29529908350135742 0 -0.067929239438661637 -0.29744245220773302 0 -0.063481929201992804 -0.28659419931659808 0 -0.072363625353247057 -0.27494247310589431 0 -0.067929239438661637 -0.29744245220773302 0 -0.075162920182542767 -0.28731555611229459 0 -0.072363625353247057 -0.27494247310589431 0 -0.075988861669628593 -0.29203098004520328 0 -0.075162920182542767 -0.28731555611229459 0 -0.080022347365398816 -0.29529908350135742 0 -0.067929239438661637 -0.29744245220773302 0 -0.075988861669628593 -0.29203098004520328 0 -0.075162920182542767 -0.28731555611229459 0 -0.067929239438661637 -0.29744245220773302 0 -0.074800211398343183 -0.29676828128919502 0 -0.075988861669628593 -0.29203098004520328 0 -0.067929239438661637 -0.29744245220773302 0 -0.063481929201992804 -0.28659419931659808 0 -0.057157199652218327 -0.29433345841048941 0 -0.1004001483689636 -0.29246989923861699 0 -0.079212385277153408 -0.27922407156230239 0 -0.10013860532164209 -0.29834661679915908 0 -0.080022347365398816 -0.29529908350135742 0 -0.075162920182542767 -0.28731555611229459 0 -0.080022347365398816 -0.29529908350135742 0 -0.079212385277153408 -0.27922407156230239 0 -0.1004001483689636 -0.29246989923861699 0 -0.080022347365398816 -0.29529908350135742 0 -0.079212385277153408 -0.27922407156230239 0 -0.1004001483689636 -0.29246989923861699 0 -0.10013860532164209 -0.29834661679915908 0 -0.080022347365398816 -0.29529908350135742 0 -0.080022347365398816 -0.29529908350135742 0 -0.079212385277153408 -0.27922407156230239 0 -0.1004001483689636 -0.29246989923861699 0 -0.089806853404465051 -0.2713401455271785 0 -0.079212385277153408 -0.27922407156230239 0 -0.089806853404465051 -0.2713401455271785 0 -0.084998741484643592 -0.26205999054747281 0 -0.092490388530258719 -0.26367462890309928 0 -0.089806853404465051 -0.2713401455271785 0 -0.078429256909339093 -0.26368161834739218 0 -0.084998741484643592 -0.26205999054747281 0 -0.079212385277153408 -0.27922407156230239 0 -0.078429256909339093 -0.26368161834739218 0 -0.089806853404465051 -0.2713401455271785 0 -0.079212385277153408 -0.27922407156230239 0 -0.078429256909339093 -0.26368161834739218 0 -0.075162920182542767 -0.28731555611229459 0 -0.079212385277153408 -0.27922407156230239 0 -0.072363625353247057 -0.27494247310589431 0 -0.072363625353247057 -0.27494247310589431 0 -0.052651973256824323 -0.26261945695013877 0 -0.072363625353247057 -0.27494247310589431 0 -0.065594040539757301 -0.27326720108960889 0 -0.052651973256824323 -0.26261945695013877 0 -0.079212385277153408 -0.27922407156230239 0 -0.072363625353247057 -0.27494247310589431 0 -0.072363625353247057 -0.27494247310589431 0 -0.065594040539757301 -0.27326720108960889 0 -0.061663959528748452 -0.27997783588547598 0 -0.063481929201992804 -0.28659419931659808 0 -0.072363625353247057 -0.27494247310589431 0 -0.061663959528748452 -0.27997783588547598 0 -0.079212385277153408 -0.27922407156230239 0 -0.072363625353247057 -0.27494247310589431 0 -0.078429256909339093 -0.26368161834739218 0 -0.072363625353247057 -0.27494247310589431 0 -0.077646128541525 -0.24813916513248199 0 -0.072363625353247057 -0.27494247310589431 0 -0.078429256909339093 -0.26368161834739218 0 -0.077646128541525 -0.24813916513248199 0 -0.072363625353247057 -0.27494247310589431 0 -0.052651973256824323 -0.26261945695013877 0 -0.077646128541525 -0.24813916513248199 0 -0.078429256909339093 -0.26368161834739218 0 -0.077646128541525 -0.24813916513248199 0 -0.084998741484643592 -0.26205999054747281 0 -0.088104632666654803 -0.24175912157342011 0 -0.084998741484643592 -0.26205999054747281 0 -0.093680051977193257 -0.25300014610948141 0 -0.088104632666654803 -0.24175912157342011 0 -0.084998741484643592 -0.26205999054747281 0 -0.088104632666654803 -0.24175912157342011 0 -0.077646128541525 -0.24813916513248199 0 -0.078429256909339093 -0.26368161834739218 0 -0.084998741484643592 -0.26205999054747281 0 -0.077646128541525 -0.24813916513248199 0 -0.084998741484643592 -0.26205999054747281 0 -0.092490388530258719 -0.26367462890309928 0 -0.093680051977193257 -0.25300014610948141 0 -0.032940321160402269 -0.25029644079438251 0 -0.052651973256824323 -0.26261945695013877 0 -0.050902643065861071 -0.24349095896983161 0 -0.032940321160402269 -0.25029644079438251 0 -0.052651973256824323 -0.26261945695013877 0 -0.030801127425925001 -0.25680016795848581 0 -0.032940321160402269 -0.25029644079438251 0 -0.052651973256824323 -0.26261945695013877 0 -0.052651973256824323 -0.26261945695013877 0 -0.048838748996681343 -0.27669498093657302 0 -0.030801127425925001 -0.25680016795848581 0 -0.032940321160402269 -0.25029644079438251 0 -0.030801127425925001 -0.25680016795848581 0 -0.052651973256824323 -0.26261945695013877 0 -0.050902643065861071 -0.24349095896983161 0 -0.077646128541525 -0.24813916513248199 0 -0.065594040539757301 -0.27326720108960889 0 -0.048838748996681343 -0.27669498093657302 0 -0.065594040539757301 -0.27326720108960889 0 -0.052651973256824323 -0.26261945695013877 0 -0.048838748996681343 -0.27669498093657302 0 -0.065594040539757301 -0.27326720108960889 0 -0.061663959528748452 -0.27997783588547598 0 -0.048838748996681343 -0.27669498093657302 0 -0.061663959528748452 -0.27997783588547598 0 -0.048838748996681343 -0.27669498093657302 0 -0.054451087829631463 -0.28288517796522222 0 -0.048838748996681343 -0.27669498093657302 0 -0.054451087829631463 -0.28288517796522222 0 -0.048838748996681343 -0.27669498093657302 0 -0.030801127425925001 -0.25680016795848581 0 -0.048838748996681343 -0.27669498093657302 0 -0.02248395618448398 -0.28208661661419232 0 -0.030801127425925001 -0.25680016795848581 0 -0.048838748996681343 -0.27669498093657302 0 -0.02248395618448398 -0.28208661661419232 0 -0.048838748996681343 -0.27669498093657302 0 -0.041077846387481028 -0.28937070966441081 0 -0.02248395618448398 -0.28208661661419232 0 -0.041077846387481028 -0.28937070966441081 0 -0.037109865356421391 -0.29952186761000271 0 -0.029468436869721851 -0.29252598106650862 0 -0.041077846387481028 -0.28937070966441081 0 -0.04975385330497957 -0.2890306135367654 0 -0.047244383658885593 -0.30186874070713182 0 -0.048838748996681343 -0.27669498093657302 0 -0.041077846387481028 -0.28937070966441081 0 -0.04975385330497957 -0.2890306135367654 0 -0.048838748996681343 -0.27669498093657302 0 -0.04975385330497957 -0.2890306135367654 0 -0.054451087829631463 -0.28288517796522222 0 -0.04975385330497957 -0.2890306135367654 0 -0.054451087829631463 -0.28288517796522222 0 -0.057157199652218327 -0.29433345841048941 0 -0.063481929201992804 -0.28659419931659808 0 -0.054451087829631463 -0.28288517796522222 0 -0.057157199652218327 -0.29433345841048941 0 -0.063481929201992804 -0.28659419931659808 0 -0.061663959528748452 -0.27997783588547598 0 -0.054451087829631463 -0.28288517796522222 0 -0.04975385330497957 -0.2890306135367654 0 -0.057157199652218327 -0.29433345841048941 0 -0.047244383658885593 -0.30186874070713182 0 -0.057157199652218327 -0.29433345841048941 0 -0.047244383658885593 -0.30186874070713182 0 -0.05709164511789562 -0.30596989755068921 0 -0.067929239438661637 -0.29744245220773302 0 -0.057157199652218327 -0.29433345841048941 0 -0.05709164511789562 -0.30596989755068921 0 -0.047244383658885593 -0.30186874070713182 0 -0.05709164511789562 -0.30596989755068921 0 -0.049632549315637188 -0.31626240511852 0 -0.047244383658885593 -0.30186874070713182 0 -0.049632549315637188 -0.31626240511852 0 -0.036505516356473318 -0.31400569198040618 0 -0.047244383658885593 -0.30186874070713182 0 -0.037109865356421391 -0.29952186761000271 0 -0.036505516356473318 -0.31400569198040618 0 -0.041077846387481028 -0.28937070966441081 0 -0.047244383658885593 -0.30186874070713182 0 -0.037109865356421391 -0.29952186761000271 0 -0.037109865356421391 -0.29952186761000271 0 -0.02678144107749017 -0.30078470409936309 0 -0.036505516356473318 -0.31400569198040618 0 -0.02678144107749017 -0.30078470409936309 0 -0.021312585502779081 -0.32213078764647213 0 -0.02678144107749017 -0.30078470409936309 0 -0.036505516356473318 -0.31400569198040618 0 -0.021312585502779081 -0.32213078764647213 0 -0.02678144107749017 -0.30078470409936309 0 -0.01630762940426286 -0.3038502133106713 0 -0.021312585502779081 -0.32213078764647213 0 -0.037109865356421391 -0.29952186761000271 0 -0.02678144107749017 -0.30078470409936309 0 -0.029468436869721851 -0.29252598106650862 0 -0.02678144107749017 -0.30078470409936309 0 -0.01630762940426286 -0.3038502133106713 0 -0.01957434403417008 -0.29093262400193609 0 -0.0063780240591087903 -0.31078717533589839 0 -0.0074917523477661804 -0.29461577546968681 0 0.013051880611257029 -0.30817184754300292 0 -0.01630762940426286 -0.3038502133106713 0 -0.0063780240591087903 -0.31078717533589839 0 -0.021312585502779081 -0.32213078764647213 0 -0.01630762940426286 -0.3038502133106713 0 -0.0063780240591087903 -0.31078717533589839 0 -0.0074917523477661804 -0.29461577546968681 0 -0.02248395618448398 -0.28208661661419232 0 0.0027723556212477219 -0.28725352620772771 0 -0.01075429771457371 -0.28163518560512563 0 -0.02248395618448398 -0.28208661661419232 0 0.0027723556212477219 -0.28725352620772771 0 -0.0074917523477661804 -0.29461577546968681 0 -0.02248395618448398 -0.28208661661419232 0 0.0027723556212477219 -0.28725352620772771 0 -0.01630762940426286 -0.3038502133106713 0 -0.0074917523477661804 -0.29461577546968681 0 -0.01957434403417008 -0.29093262400193609 0 -0.01075429771457371 -0.28163518560512563 0 -0.0017476628817073611 -0.27805551369469472 0 0.0027723556212477219 -0.28725352620772771 0 -0.041077846387481028 -0.28937070966441081 0 -0.02248395618448398 -0.28208661661419232 0 -0.029468436869721851 -0.29252598106650862 0 -0.02248395618448398 -0.28208661661419232 0 -0.01957434403417008 -0.29093262400193609 0 -0.0074917523477661804 -0.29461577546968681 0 -0.02248395618448398 -0.28208661661419232 0 -0.01957434403417008 -0.29093262400193609 0 -0.02678144107749017 -0.30078470409936309 0 -0.01957434403417008 -0.29093262400193609 0 -0.029468436869721851 -0.29252598106650862 0 -0.02248395618448398 -0.28208661661419232 0 -0.01957434403417008 -0.29093262400193609 0 -0.029468436869721851 -0.29252598106650862 0 -0.02248395618448398 -0.28208661661419232 0 -0.030801127425925001 -0.25680016795848581 0 -0.02248395618448398 -0.28208661661419232 0 -0.01520552987642871 -0.27187005660595642 0 -0.030801127425925001 -0.25680016795848581 0 -0.01075429771457371 -0.28163518560512563 0 -0.02248395618448398 -0.28208661661419232 0 -0.01520552987642871 -0.27187005660595642 0 -0.0017476628817073611 -0.27805551369469472 0 -0.01024060517545407 -0.26077279915728391 0 0.0057386521092319797 -0.26220041049146298 0 -0.0017476628817073611 -0.27805551369469472 0 -0.01520552987642871 -0.27187005660595642 0 -0.01024060517545407 -0.26077279915728391 0 -0.0017476628817073611 -0.27805551369469472 0 -0.01024060517545407 -0.26077279915728391 0 -0.01075429771457371 -0.28163518560512563 0 -0.0017476628817073611 -0.27805551369469472 0 -0.01520552987642871 -0.27187005660595642 0 -0.01075429771457371 -0.28163518560512563 0 -0.0017476628817073611 -0.27805551369469472 0 -0.01024060517545407 -0.26077279915728391 0 0.0057386521092319797 -0.26220041049146298 0 0.0025328853753160741 -0.24958102673793139 0 -0.01024060517545407 -0.26077279915728391 0 -0.018733547469201091 -0.24349008461987329 0 -0.01024060517545407 -0.26077279915728391 0 -0.018733547469201091 -0.24349008461987329 0 0.0025328853753160741 -0.24958102673793139 0 -0.01024060517545407 -0.26077279915728391 0 -0.030801127425925001 -0.25680016795848581 0 -0.018733547469201091 -0.24349008461987329 0 -0.01520552987642871 -0.27187005660595642 0 -0.01024060517545407 -0.26077279915728391 0 -0.030801127425925001 -0.25680016795848581 0 -0.032940321160402269 -0.25029644079438251 0 -0.030801127425925001 -0.25680016795848581 0 -0.026871719323301121 -0.24650256912316601 0 -0.030801127425925001 -0.25680016795848581 0 -0.018733547469201091 -0.24349008461987329 0 -0.034078071302702163 -0.36149906291939787 0 -0.05778126825204781 -0.35817517109810632 0 -0.044598414929564491 -0.33459332569111688 0 -0.034078071302702163 -0.36149906291939787 0 -0.044598414929564491 -0.33459332569111688 0 -0.02963630761074966 -0.34409655343526241 0 -0.034078071302702163 -0.36149906291939787 0 -0.05778126825204781 -0.35817517109810632 0 -0.034078071302702163 -0.36149906291939787 0 -0.031733352269984409 -0.37630872523495079 0 -0.04671422923235316 -0.37926911911211442 0 -0.034078071302702163 -0.36149906291939787 0 -0.05778126825204781 -0.35817517109810632 0 -0.04671422923235316 -0.37926911911211442 0 -0.066117606829746781 -0.37437488941039382 0 -0.05778126825204781 -0.35817517109810632 0 -0.04671422923235316 -0.37926911911211442 0 -0.062587044379988993 -0.33886333000968721 0 -0.05778126825204781 -0.35817517109810632 0 -0.044598414929564491 -0.33459332569111688 0 -0.06349485352407537 -0.31994243130957151 0 -0.062587044379988993 -0.33886333000968721 0 -0.044598414929564491 -0.33459332569111688 0 -0.06349485352407537 -0.31994243130957151 0 -0.049632549315637188 -0.31626240511852 0 -0.044598414929564491 -0.33459332569111688 0 -0.06349485352407537 -0.31994243130957151 0 -0.05709164511789562 -0.30596989755068921 0 -0.049632549315637188 -0.31626240511852 0 -0.049632549315637188 -0.31626240511852 0 -0.036505516356473318 -0.31400569198040618 0 -0.044598414929564491 -0.33459332569111688 0 -0.036505516356473318 -0.31400569198040618 0 -0.044598414929564491 -0.33459332569111688 0 -0.021312585502779081 -0.32213078764647213 0 -0.044598414929564491 -0.33459332569111688 0 -0.021312585502779081 -0.32213078764647213 0 -0.02963630761074966 -0.34409655343526241 0 -0.015843729928067991 -0.34347687119358122 0 -0.021312585502779081 -0.32213078764647213 0 -0.02963630761074966 -0.34409655343526241 0 -0.015843729928067991 -0.34347687119358122 0 -0.021312585502779081 -0.32213078764647213 0 -0.0063780240591087903 -0.31078717533589839 0 -0.021312585502779081 -0.32213078764647213 0 3.5896068887442723e-05 -0.32803491845883598 0 -0.015843729928067991 -0.34347687119358122 0 -0.00014080085946228561 -0.35082738964002957 0 3.5896068887442723e-05 -0.32803491845883598 0 -0.015843729928067991 -0.34347687119358122 0 -0.021312585502779081 -0.32213078764647213 0 3.5896068887442723e-05 -0.32803491845883598 0 -0.015843729928067991 -0.34347687119358122 0 -0.00014080085946228561 -0.35082738964002957 0 -0.01037487435335663 -0.3648229547406901 0 -0.015843729928067991 -0.34347687119358122 0 -0.01037487435335663 -0.3648229547406901 0 -0.015843729928067991 -0.34347687119358122 0 -0.02275820373048933 -0.35362182208710219 0 -0.02963630761074966 -0.34409655343526241 0 -0.015843729928067991 -0.34347687119358122 0 -0.02275820373048933 -0.35362182208710219 0 -0.01037487435335663 -0.3648229547406901 0 -0.034078071302702163 -0.36149906291939787 0 -0.02275820373048933 -0.35362182208710219 0 -0.02963630761074966 -0.34409655343526241 0 -0.034078071302702163 -0.36149906291939787 0 -0.02215424893162643 -0.37111505202744122 0 -0.01037487435335663 -0.3648229547406901 0 -0.034078071302702163 -0.36149906291939787 0 -0.01037487435335663 -0.3648229547406901 0 -0.034078071302702163 -0.36149906291939787 0 -0.02275820373048933 -0.35362182208710219 0 -0.01037487435335663 -0.3648229547406901 0 -0.034078071302702163 -0.36149906291939787 0 -0.02215424893162643 -0.37111505202744122 0 -0.031733352269984409 -0.37630872523495079 0 -0.02215424893162643 -0.37111505202744122 0 -0.016772253886492949 -0.37410089839641808 0 -0.01404568160319189 -0.3712617873641948 0 -0.01404568160319189 -0.3712617873641948 0 -0.0094265442937821464 -0.37378457166277412 0 -0.01319259440905524 -0.37623554315916408 0 -0.0078283346885702904 -0.37476262999778609 0 -0.0094265442937821464 -0.37378457166277412 0 -0.01037487435335663 -0.3648229547406901 0 -0.02215424893162643 -0.37111505202744122 0 -0.01404568160319189 -0.3712617873641948 0 -0.01037487435335663 -0.3648229547406901 0 -0.01037487435335663 -0.3648229547406901 0 0.0058490520874761691 -0.36709803082098191 0 -0.016772253886492949 -0.37410089839641808 0 -0.01404568160319189 -0.3712617873641948 0 -0.01319259440905524 -0.37623554315916408 0 -0.00014080085946228561 -0.35082738964002957 0 -0.01037487435335663 -0.3648229547406901 0 0.0058490520874761691 -0.36709803082098191 0 -0.0078283346885702904 -0.37476262999778609 0 -0.01037487435335663 -0.3648229547406901 0 0.0058490520874761691 -0.36709803082098191 0 -0.0078283346885702904 -0.37476262999778609 0 -0.01037487435335663 -0.3648229547406901 0 -0.01404568160319189 -0.3712617873641948 0 -0.0094265442937821464 -0.37378457166277412 0 -0.01037487435335663 -0.3648229547406901 0 -0.0078283346885702904 -0.37476262999778609 0 -0.0094265442937821464 -0.37378457166277412 0 -0.0078283346885702904 -0.37476262999778609 0 -0.0023576536845698339 -0.39611583857600319 0 -0.0078283346885702904 -0.37476262999778609 0 -0.011142097151610131 -0.38172381805447092 0 -0.0023576536845698339 -0.39611583857600319 0 -0.011142097151610131 -0.38172381805447092 0 -0.0023576536845698339 -0.39611583857600319 0 -0.01587325479487519 -0.38723674351337972 0 -0.011142097151610131 -0.38172381805447092 0 -0.01610234460482865 -0.37998891207167063 0 -0.01587325479487519 -0.38723674351337972 0 -0.01319259440905524 -0.37623554315916408 0 -0.011142097151610131 -0.38172381805447092 0 -0.01610234460482865 -0.37998891207167063 0 -0.016772253886492949 -0.37410089839641808 0 -0.01319259440905524 -0.37623554315916408 0 -0.01610234460482865 -0.37998891207167063 0 -0.01319259440905524 -0.37623554315916408 0 -0.010397392635754449 -0.37662664071854879 0 -0.011142097151610131 -0.38172381805447092 0 -0.0078283346885702904 -0.37476262999778609 0 -0.010397392635754449 -0.37662664071854879 0 -0.011142097151610131 -0.38172381805447092 0 -0.0094265442937821464 -0.37378457166277412 0 -0.01319259440905524 -0.37623554315916408 0 -0.010397392635754449 -0.37662664071854879 0 -0.0078283346885702904 -0.37476262999778609 0 -0.0094265442937821464 -0.37378457166277412 0 -0.010397392635754449 -0.37662664071854879 0 -0.0023576536845698339 -0.39611583857600319 0 -0.016854849126784088 -0.39742738565483049 0 -0.01587325479487519 -0.38723674351337972 0 -0.0023576536845698339 -0.39611583857600319 0 -0.016854849126784088 -0.39742738565483049 0 -0.0081630895937607941 -0.41129335178386173 0 -0.016854849126784088 -0.39742738565483049 0 -0.023392714889338931 -0.39064901327928331 0 -0.029305467632274609 -0.40049385546170407 0 -0.016854849126784088 -0.39742738565483049 0 -0.023392714889338931 -0.39064901327928331 0 -0.01587325479487519 -0.38723674351337972 0 -0.023392714889338931 -0.39064901327928331 0 -0.029305467632274609 -0.40049385546170407 0 -0.032188689101130562 -0.38901283488088068 0 -0.02215424893162643 -0.37111505202744122 0 -0.016772253886492949 -0.37410089839641808 0 -0.02353152278210973 -0.38064755723492022 0 -0.016772253886492949 -0.37410089839641808 0 -0.01610234460482865 -0.37998891207167063 0 -0.02353152278210973 -0.38064755723492022 0 -0.01610234460482865 -0.37998891207167063 0 -0.01587325479487519 -0.38723674351337972 0 -0.02353152278210973 -0.38064755723492022 0 -0.023392714889338931 -0.39064901327928331 0 -0.01587325479487519 -0.38723674351337972 0 -0.02353152278210973 -0.38064755723492022 0 -0.023392714889338931 -0.39064901327928331 0 -0.02353152278210973 -0.38064755723492022 0 -0.032188689101130562 -0.38901283488088068 0 -0.02353152278210973 -0.38064755723492022 0 -0.031733352269984409 -0.37630872523495079 0 -0.032188689101130562 -0.38901283488088068 0 -0.02215424893162643 -0.37111505202744122 0 -0.02353152278210973 -0.38064755723492022 0 -0.031733352269984409 -0.37630872523495079 0 -0.031733352269984409 -0.37630872523495079 0 -0.04671422923235316 -0.37926911911211442 0 -0.032188689101130562 -0.38901283488088068 0 -0.04671422923235316 -0.37926911911211442 0 -0.032188689101130562 -0.38901283488088068 0 -0.044289202763444772 -0.39135289085216762 0 -0.032188689101130562 -0.38901283488088068 0 -0.041257957344308177 -0.40487627914437913 0 -0.044289202763444772 -0.39135289085216762 0 -0.029305467632274609 -0.40049385546170407 0 -0.032188689101130562 -0.38901283488088068 0 -0.041257957344308177 -0.40487627914437913 0 -0.056230819367541693 -0.39440183914975269 0 -0.051493530029743613 -0.41277891791385168 0 -0.065747409502729032 -0.40953455918739179 0 -0.041257957344308177 -0.40487627914437913 0 -0.056230819367541693 -0.39440183914975269 0 -0.051493530029743613 -0.41277891791385168 0 -0.041257957344308177 -0.40487627914437913 0 -0.044289202763444772 -0.39135289085216762 0 -0.056230819367541693 -0.39440183914975269 0 -0.056230819367541693 -0.39440183914975269 0 -0.065747409502729032 -0.40953455918739179 0 -0.066117606829746781 -0.37437488941039382 0 -0.04671422923235316 -0.37926911911211442 0 -0.056230819367541693 -0.39440183914975269 0 -0.04671422923235316 -0.37926911911211442 0 -0.044289202763444772 -0.39135289085216762 0 -0.056230819367541693 -0.39440183914975269 0 -0.04671422923235316 -0.37926911911211442 0 -0.056230819367541693 -0.39440183914975269 0 -0.057674512383022389 -0.42734400629007657 0 -0.049601615263317987 -0.44515345339276252 0 -0.057674512383022389 -0.42734400629007657 0 -0.051493530029743613 -0.41277891791385168 0 -0.065747409502729032 -0.40953455918739179 0 -0.057674512383022389 -0.42734400629007657 0 -0.065747409502729032 -0.40953455918739179 0 -0.057674512383022389 -0.42734400629007657 0 -0.051493530029743613 -0.41277891791385168 0 -0.03322823219505102 -0.42129041952379648 0 -0.029305467632274609 -0.40049385546170407 0 -0.041257957344308177 -0.40487627914437913 0 -0.03322823219505102 -0.42129041952379648 0 -0.041257957344308177 -0.40487627914437913 0 -0.051493530029743613 -0.41277891791385168 0 -0.03322823219505102 -0.42129041952379648 0 -0.03322823219505102 -0.42129041952379648 0 -0.02439234541253921 -0.43490569650885758 0 -0.049601615263317987 -0.44515345339276252 0 -0.03322823219505102 -0.42129041952379648 0 -0.049601615263317987 -0.44515345339276252 0 -0.057674512383022389 -0.42734400629007657 0 -0.03322823219505102 -0.42129041952379648 0 -0.049601615263317987 -0.44515345339276252 0 -0.03322823219505102 -0.42129041952379648 0 -0.02439234541253921 -0.43490569650885758 0 -0.010818991714530671 -0.42579448288144173 0 -0.016854849126784088 -0.39742738565483049 0 -0.03322823219505102 -0.42129041952379648 0 -0.03322823219505102 -0.42129041952379648 0 -0.0081630895937607941 -0.41129335178386173 0 -0.010818991714530671 -0.42579448288144173 0 -0.016854849126784088 -0.39742738565483049 0 -0.029305467632274609 -0.40049385546170407 0 -0.03322823219505102 -0.42129041952379648 0 -0.016854849126784088 -0.39742738565483049 0 -0.03322823219505102 -0.42129041952379648 0 -0.0081630895937607941 -0.41129335178386173 0 -0.0081630895937607941 -0.41129335178386173 0 -0.010818991714530671 -0.42579448288144173 0 0.0026957591361241309 -0.41958824334712869 0 -0.02439234541253921 -0.43490569650885758 0 -0.010818991714530671 -0.42579448288144173 0 -0.01027783979290609 -0.4450418277695869 0 -0.010818991714530671 -0.42579448288144173 0 -0.01027783979290609 -0.4450418277695869 0 0.003851027954898749 -0.43172418954792041 0 -0.010818991714530671 -0.42579448288144173 0 0.0026957591361241309 -0.41958824334712869 0 0.003851027954898749 -0.43172418954792041 0 -0.01027783979290609 -0.4450418277695869 0 -0.011038280792740629 -0.46258843223684681 0 0.0031349746952128348 -0.45732154608844711 0 -0.01027783979290609 -0.4450418277695869 0 -0.011038280792740629 -0.46258843223684681 0 -0.02289260566061898 -0.45897742689034388 0 -0.011038280792740629 -0.46258843223684681 0 -0.00094907817261298132 -0.47112804672216879 0 0.0031349746952128348 -0.45732154608844711 0 -0.02289260566061898 -0.45897742689034388 0 -0.029356635895327849 -0.44930438287917762 0 -0.040413005672661102 -0.46542425011239508 0 -0.02289260566061898 -0.45897742689034388 0 -0.023377266149459251 -0.47252824145371342 0 -0.040413005672661102 -0.46542425011239508 0 -0.011038280792740629 -0.46258843223684681 0 -0.02289260566061898 -0.45897742689034388 0 -0.023377266149459251 -0.47252824145371342 0 -0.02439234541253921 -0.43490569650885758 0 -0.01027783979290609 -0.4450418277695869 0 -0.029356635895327849 -0.44930438287917762 0 -0.01027783979290609 -0.4450418277695869 0 -0.02289260566061898 -0.45897742689034388 0 -0.029356635895327849 -0.44930438287917762 0 -0.0023310323066341181 -0.5 0 -0.0043793089323552817 -0.49170101865338262 0 -0.02815109917196898 -0.49861636840837392 0 -0.0043793089323552817 -0.49170101865338262 0 -0.0043176495648967151 -0.48070428616945038 0 0.0053352152350804568 -0.4807791696356124 0 -0.0043793089323552817 -0.49170101865338262 0 -0.0106231170010091 -0.48419136288379427 0 -0.0043176495648967151 -0.48070428616945038 0 -0.0043793089323552817 -0.49170101865338262 0 -0.0106231170010091 -0.48419136288379427 0 -0.017950876149337221 -0.4893641285520216 0 -0.0106231170010091 -0.48419136288379427 0 -0.01097195895358667 -0.47572183295229409 0 -0.019957514846631629 -0.48311391022826639 0 -0.0106231170010091 -0.48419136288379427 0 -0.0043176495648967151 -0.48070428616945038 0 -0.01097195895358667 -0.47572183295229409 0 -0.011038280792740629 -0.46258843223684681 0 -0.00094907817261298132 -0.47112804672216879 0 -0.01097195895358667 -0.47572183295229409 0 -0.0043176495648967151 -0.48070428616945038 0 -0.00094907817261298132 -0.47112804672216879 0 -0.01097195895358667 -0.47572183295229409 0 -0.011038280792740629 -0.46258843223684681 0 -0.01097195895358667 -0.47572183295229409 0 -0.023377266149459251 -0.47252824145371342 0 -0.023377266149459251 -0.47252824145371342 0 -0.019957514846631629 -0.48311391022826639 0 -0.031224396082004221 -0.48569504683202769 0 -0.01097195895358667 -0.47572183295229409 0 -0.023377266149459251 -0.47252824145371342 0 -0.019957514846631629 -0.48311391022826639 0 -0.0023310323066341181 -0.5 0 -0.02815109917196898 -0.49861636840837392 0 -0.031360818006208928 -0.5 0 -0.0043793089323552817 -0.49170101865338262 0 -0.017950876149337221 -0.4893641285520216 0 -0.02815109917196898 -0.49861636840837392 0 -0.0043793089323552817 -0.49170101865338262 0 -0.02815109917196898 -0.49861636840837392 0 -0.0106231170010091 -0.48419136288379427 0 -0.019957514846631629 -0.48311391022826639 0 -0.017950876149337221 -0.4893641285520216 0 -0.019957514846631629 -0.48311391022826639 0 -0.017950876149337221 -0.4893641285520216 0 -0.025597474744393309 -0.49118284869574791 0 -0.019957514846631629 -0.48311391022826639 0 -0.031224396082004221 -0.48569504683202769 0 -0.025597474744393309 -0.49118284869574791 0 -0.025597474744393309 -0.49118284869574791 0 -0.02815109917196898 -0.49861636840837392 0 -0.031360818006208928 -0.5 0 -0.031224396082004221 -0.48569504683202769 0 -0.025597474744393309 -0.49118284869574791 0 -0.031360818006208928 -0.5 0 -0.017950876149337221 -0.4893641285520216 0 -0.025597474744393309 -0.49118284869574791 0 -0.02815109917196898 -0.49861636840837392 0 -0.031360818006208928 -0.5 0 -0.048343055904351132 -0.4819359294639956 0 -0.060390603705783863 -0.5 0 -0.031224396082004221 -0.48569504683202769 0 -0.031360818006208928 -0.5 0 -0.048343055904351132 -0.4819359294639956 0 -0.031224396082004221 -0.48569504683202769 0 -0.040413005672661102 -0.46542425011239508 0 -0.031224396082004221 -0.48569504683202769 0 -0.048343055904351132 -0.4819359294639956 0 -0.040413005672661102 -0.46542425011239508 0 -0.023377266149459251 -0.47252824145371342 0 -0.031224396082004221 -0.48569504683202769 0 -0.040413005672661102 -0.46542425011239508 0 -0.048343055904351132 -0.4819359294639956 0 -0.040413005672661102 -0.46542425011239508 0 -0.061868527913120197 -0.46303160055449383 0 -0.048343055904351132 -0.4819359294639956 0 -0.061868527913120197 -0.46303160055449383 0 -0.067715258758524743 -0.48343239441089819 0 -0.048343055904351132 -0.4819359294639956 0 -0.060390603705783863 -0.5 0 -0.067715258758524743 -0.48343239441089819 0 -0.02439234541253921 -0.43490569650885758 0 -0.029356635895327849 -0.44930438287917762 0 -0.049601615263317987 -0.44515345339276252 0 -0.029356635895327849 -0.44930438287917762 0 -0.040413005672661102 -0.46542425011239508 0 -0.049601615263317987 -0.44515345339276252 0 -0.040413005672661102 -0.46542425011239508 0 -0.049601615263317987 -0.44515345339276252 0 -0.040413005672661102 -0.46542425011239508 0 -0.061868527913120197 -0.46303160055449383 0 -0.049601615263317987 -0.44515345339276252 0 -0.061868527913120197 -0.46303160055449383 0 -0.049601615263317987 -0.44515345339276252 0 -0.057674512383022389 -0.42734400629007657 0 -0.049601615263317987 -0.44515345339276252 0 -0.067687044322660692 -0.44438888407200389 0 -0.061868527913120197 -0.46303160055449383 0 -0.049601615263317987 -0.44515345339276252 0 -0.067687044322660692 -0.44438888407200389 0 -0.067687044322660692 -0.44438888407200389 0 -0.087522951364224152 -0.44416074083195012 0 -0.076635180433477057 -0.42684765000967062 0 -0.067687044322660692 -0.44438888407200389 0 -0.078553716864009776 -0.47219444203600192 0 -0.067687044322660692 -0.44438888407200389 0 -0.080483752515153384 -0.45444307226959779 0 -0.078553716864009776 -0.47219444203600192 0 -0.061868527913120197 -0.46303160055449383 0 -0.067687044322660692 -0.44438888407200389 0 -0.078553716864009776 -0.47219444203600192 0 -0.088171297509719124 -0.45702822213843508 0 -0.078553716864009776 -0.47219444203600192 0 -0.094850460920166413 -0.46755552228499719 0 -0.080483752515153384 -0.45444307226959779 0 -0.088171297509719124 -0.45702822213843508 0 -0.078553716864009776 -0.47219444203600192 0 -0.088171297509719124 -0.45702822213843508 0 -0.092026296169145899 -0.451321693988255 0 -0.09646742034415963 -0.45806785732742278 0 -0.088171297509719124 -0.45702822213843508 0 -0.09646742034415963 -0.45806785732742278 0 -0.094850460920166413 -0.46755552228499719 0 -0.067687044322660692 -0.44438888407200389 0 -0.080483752515153384 -0.45444307226959779 0 -0.087522951364224152 -0.44416074083195012 0 -0.088171297509719124 -0.45702822213843508 0 -0.087522951364224152 -0.44416074083195012 0 -0.088171297509719124 -0.45702822213843508 0 -0.092026296169145899 -0.451321693988255 0 -0.087522951364224152 -0.44416074083195012 0 -0.092026296169145899 -0.451321693988255 0 -0.087522951364224152 -0.44416074083195012 0 -0.080483752515153384 -0.45444307226959779 0 -0.088171297509719124 -0.45702822213843508 0 -0.087522951364224152 -0.44416074083195012 0 -0.060390603705783863 -0.5 0 -0.067715258758524743 -0.48343239441089819 0 -0.089420389405358791 -0.49999999999999978 0 -0.061868527913120197 -0.46303160055449383 0 -0.067715258758524743 -0.48343239441089819 0 -0.078553716864009776 -0.47219444203600192 0 -0.078553716864009776 -0.47219444203600192 0 -0.098208235557426499 -0.48290520710575457 0 -0.094850460920166413 -0.46755552228499719 0 -0.067715258758524743 -0.48343239441089819 0 -0.078553716864009776 -0.47219444203600192 0 -0.089420389405358791 -0.49999999999999978 0 -0.078553716864009776 -0.47219444203600192 0 -0.089420389405358791 -0.49999999999999978 0 -0.078553716864009776 -0.47219444203600192 0 -0.089420389405358791 -0.49999999999999978 0 -0.098208235557426499 -0.48290520710575457 0 -0.098208235557426499 -0.48290520710575457 0 -0.1125398430852395 -0.48112820013538338 0 -0.1148616459058424 -0.5 0 -0.089420389405358791 -0.49999999999999978 0 -0.098208235557426499 -0.48290520710575457 0 -0.1148616459058424 -0.5 0 -0.098208235557426499 -0.48290520710575457 0 -0.1051850434628086 -0.47275710198064308 0 -0.1125398430852395 -0.48112820013538338 0 -0.098208235557426499 -0.48290520710575457 0 -0.1051850434628086 -0.47275710198064308 0 -0.094850460920166413 -0.46755552228499719 0 -0.12704973474613379 -0.46277216333596533 0 -0.13010403334985379 -0.48000251283874379 0 -0.1157083509407465 -0.46985326695645979 0 -0.13010403334985379 -0.48000251283874379 0 -0.1157083509407465 -0.46985326695645979 0 -0.1125398430852395 -0.48112820013538338 0 -0.1051850434628086 -0.47275710198064308 0 -0.1157083509407465 -0.46985326695645979 0 -0.1125398430852395 -0.48112820013538338 0 -0.13010403334985379 -0.48000251283874379 0 -0.1125398430852395 -0.48112820013538338 0 -0.1148616459058424 -0.5 0 -0.10267072031130239 -0.4520905348048061 0 -0.102335674083258 -0.43919792399196639 0 -0.11570487117906469 -0.45324354028800051 0 -0.092026296169145899 -0.451321693988255 0 -0.087522951364224152 -0.44416074083195012 0 -0.102335674083258 -0.43919792399196639 0 -0.092026296169145899 -0.451321693988255 0 -0.10267072031130239 -0.4520905348048061 0 -0.102335674083258 -0.43919792399196639 0 -0.10267072031130239 -0.4520905348048061 0 -0.09646742034415963 -0.45806785732742278 0 -0.1046183268104643 -0.46234331342062063 0 -0.092026296169145899 -0.451321693988255 0 -0.10267072031130239 -0.4520905348048061 0 -0.09646742034415963 -0.45806785732742278 0 -0.1051850434628086 -0.47275710198064308 0 -0.094850460920166413 -0.46755552228499719 0 -0.1046183268104643 -0.46234331342062063 0 -0.09646742034415963 -0.45806785732742278 0 -0.094850460920166413 -0.46755552228499719 0 -0.1046183268104643 -0.46234331342062063 0 -0.1051850434628086 -0.47275710198064308 0 -0.1157083509407465 -0.46985326695645979 0 -0.1046183268104643 -0.46234331342062063 0 -0.10267072031130239 -0.4520905348048061 0 -0.1046183268104643 -0.46234331342062063 0 -0.11570487117906469 -0.45324354028800051 0 -0.12704973474613379 -0.46277216333596533 0 -0.1157083509407465 -0.46985326695645979 0 -0.11570487117906469 -0.45324354028800051 0 -0.1157083509407465 -0.46985326695645979 0 -0.1046183268104643 -0.46234331342062063 0 -0.11570487117906469 -0.45324354028800051 0 -0.13093011984253891 -0.44972195681556543 0 -0.12704973474613379 -0.46277216333596533 0 -0.11570487117906469 -0.45324354028800051 0 -0.13093011984253891 -0.44972195681556543 0 -0.11570487117906469 -0.45324354028800051 0 -0.123519809913229 -0.43733662075251151 0 -0.102335674083258 -0.43919792399196639 0 -0.11570487117906469 -0.45324354028800051 0 -0.123519809913229 -0.43733662075251151 0 -0.102335674083258 -0.43919792399196639 0 -0.123519809913229 -0.43733662075251151 0 -0.1073839645685936 -0.41867419567875119 0 -0.12597911368703019 -0.41952469120143437 0 -0.123519809913229 -0.43733662075251151 0 -0.1073839645685936 -0.41867419567875119 0 -0.102335674083258 -0.43919792399196639 0 -0.1073839645685936 -0.41867419567875119 0 -0.086273448473222103 -0.4193623284343494 0 -0.1073839645685936 -0.41867419567875119 0 -0.1004955064841186 -0.39983262220326049 0 -0.086273448473222103 -0.4193623284343494 0 -0.1073839645685936 -0.41867419567875119 0 -0.11827115974421661 -0.40327967795429231 0 -0.1004955064841186 -0.39983262220326049 0 -0.12597911368703019 -0.41952469120143437 0 -0.1073839645685936 -0.41867419567875119 0 -0.11827115974421661 -0.40327967795429231 0 -0.11827115974421661 -0.40327967795429231 0 -0.11220573075163159 -0.38220411347121069 0 -0.1004955064841186 -0.39983262220326049 0 -0.13724659116883831 -0.38156720383825199 0 -0.1192781490478088 -0.36668410834504778 0 -0.11220573075163159 -0.38220411347121069 0 -0.13724659116883831 -0.38156720383825199 0 -0.11827115974421661 -0.40327967795429231 0 -0.11220573075163159 -0.38220411347121069 0 -0.11220573075163159 -0.38220411347121069 0 -0.093814789784828018 -0.38091150164421111 0 -0.1004955064841186 -0.39983262220326049 0 -0.1016352808315869 -0.36700177770792092 0 -0.11220573075163159 -0.38220411347121069 0 -0.093814789784828018 -0.38091150164421111 0 -0.093814789784828018 -0.38091150164421111 0 -0.1004955064841186 -0.39983262220326049 0 -0.085023945582219762 -0.39456391603674879 0 -0.085023945582219762 -0.39456391603674879 0 -0.074760926096971728 -0.38965003141326948 0 -0.077688182017724178 -0.40799169701628579 0 -0.1004955064841186 -0.39983262220326049 0 -0.085023945582219762 -0.39456391603674879 0 -0.086273448473222103 -0.4193623284343494 0 -0.083774442691217046 -0.36976550363914829 0 -0.093814789784828018 -0.38091150164421111 0 -0.085023945582219762 -0.39456391603674879 0 -0.083774442691217046 -0.36976550363914829 0 -0.085023945582219762 -0.39456391603674879 0 -0.074760926096971728 -0.38965003141326948 0 -0.083774442691217046 -0.36976550363914829 0 -0.085023945582219762 -0.39456391603674879 0 -0.083774442691217046 -0.36976550363914829 0 -0.074760926096971728 -0.38965003141326948 0 -0.066117606829746781 -0.37437488941039382 0 -0.083774442691217046 -0.36976550363914829 0 -0.074760926096971728 -0.38965003141326948 0 -0.066117606829746781 -0.37437488941039382 0 -0.056230819367541693 -0.39440183914975269 0 -0.074760926096971728 -0.38965003141326948 0 -0.074760926096971728 -0.38965003141326948 0 -0.065747409502729032 -0.40953455918739179 0 -0.056230819367541693 -0.39440183914975269 0 -0.074760926096971728 -0.38965003141326948 0 -0.065747409502729032 -0.40953455918739179 0 -0.074760926096971728 -0.38965003141326948 0 -0.077688182017724178 -0.40799169701628579 0 -0.065747409502729032 -0.40953455918739179 0 -0.057674512383022389 -0.42734400629007657 0 -0.065747409502729032 -0.40953455918739179 0 -0.076635180433477057 -0.42684765000967062 0 -0.065747409502729032 -0.40953455918739179 0 -0.076635180433477057 -0.42684765000967062 0 -0.077688182017724178 -0.40799169701628579 0 -0.065747409502729032 -0.40953455918739179 0 -0.076635180433477057 -0.42684765000967062 0 -0.057674512383022389 -0.42734400629007657 0 -0.067687044322660692 -0.44438888407200389 0 -0.076635180433477057 -0.42684765000967062 0 -0.087522951364224152 -0.44416074083195012 0 -0.102335674083258 -0.43919792399196639 0 -0.086273448473222103 -0.4193623284343494 0 -0.087522951364224152 -0.44416074083195012 0 -0.076635180433477057 -0.42684765000967062 0 -0.087522951364224152 -0.44416074083195012 0 -0.086273448473222103 -0.4193623284343494 0 -0.087522951364224152 -0.44416074083195012 0 -0.076635180433477057 -0.42684765000967062 0 -0.086273448473222103 -0.4193623284343494 0 -0.077688182017724178 -0.40799169701628579 0 -0.076635180433477057 -0.42684765000967062 0 -0.086273448473222103 -0.4193623284343494 0 -0.085023945582219762 -0.39456391603674879 0 -0.086273448473222103 -0.4193623284343494 0 -0.085023945582219762 -0.39456391603674879 0 -0.077688182017724178 -0.40799169701628579 0 -0.086273448473222103 -0.4193623284343494 0 -0.088492877882569029 -0.082108210476901852 0 -0.076927128592812144 -0.088910799915979499 0 -0.09750588448509391 -0.094492999713411269 0 -0.088492877882569029 -0.082108210476901852 0 -0.079577064860946206 -0.073577453582062496 0 -0.076927128592812144 -0.088910799915979499 0 -0.079577064860946206 -0.073577453582062496 0 -0.0985919344824224 -0.072778756797164931 0 -0.087769009107716192 -0.046193724725750278 0 -0.088492877882569029 -0.082108210476901852 0 -0.079577064860946206 -0.073577453582062496 0 -0.0985919344824224 -0.072778756797164931 0 -0.079577064860946206 -0.073577453582062496 0 -0.068797467898171552 -0.064113028811232264 0 -0.064240921843242857 -0.078969573753286809 0 -0.068797467898171552 -0.064113028811232264 0 -0.064240921843242857 -0.078969573753286809 0 -0.05461803829180413 -0.069755112608578862 0 -0.064240921843242857 -0.078969573753286809 0 -0.065719917437320752 -0.085301382988547655 0 -0.071622236241637716 -0.082994103557465768 0 -0.079577064860946206 -0.073577453582062496 0 -0.064240921843242857 -0.078969573753286809 0 -0.071622236241637716 -0.082994103557465768 0 -0.079577064860946206 -0.073577453582062496 0 -0.071622236241637716 -0.082994103557465768 0 -0.076927128592812144 -0.088910799915979499 0 -0.076927128592812144 -0.088910799915979499 0 -0.070013937980536456 -0.090181036700446429 0 -0.073360588416105155 -0.101926594449817 0 -0.071622236241637716 -0.082994103557465768 0 -0.076927128592812144 -0.088910799915979499 0 -0.070013937980536456 -0.090181036700446429 0 -0.065719917437320752 -0.085301382988547655 0 -0.070013937980536456 -0.090181036700446429 0 -0.057002573683865979 -0.089060817942991616 0 -0.065719917437320752 -0.085301382988547655 0 -0.071622236241637716 -0.082994103557465768 0 -0.070013937980536456 -0.090181036700446429 0 -0.073360588416105155 -0.101926594449817 0 -0.064648045787775776 -0.1114736180136202 0 -0.083029262804162729 -0.11173362360677321 0 -0.076927128592812144 -0.088910799915979499 0 -0.073360588416105155 -0.101926594449817 0 -0.083029262804162729 -0.11173362360677321 0 -0.070013937980536456 -0.090181036700446429 0 -0.064167586873575405 -0.098824988458513688 0 -0.073360588416105155 -0.101926594449817 0 -0.064167586873575405 -0.098824988458513688 0 -0.073360588416105155 -0.101926594449817 0 -0.064648045787775776 -0.1114736180136202 0 -0.064648045787775776 -0.1114736180136202 0 -0.083029262804162729 -0.11173362360677321 0 -0.072915517223638954 -0.12670463451369329 0 -0.064648045787775776 -0.1114736180136202 0 -0.060928146748241367 -0.123537549367131 0 -0.072915517223638954 -0.12670463451369329 0 -0.083029262804162729 -0.11173362360677321 0 -0.089131397015513494 -0.13455644729756691 0 -0.072915517223638954 -0.12670463451369329 0 -0.083029262804162729 -0.11173362360677321 0 -0.089131397015513494 -0.13455644729756691 0 -0.083029262804162729 -0.11173362360677321 0 -0.099989791654964619 -0.11261170107408 0 -0.089131397015513494 -0.13455644729756691 0 -0.076927128592812144 -0.088910799915979499 0 -0.083029262804162729 -0.11173362360677321 0 -0.076927128592812144 -0.088910799915979499 0 -0.083029262804162729 -0.11173362360677321 0 -0.09750588448509391 -0.094492999713411269 0 -0.083029262804162729 -0.11173362360677321 0 -0.09750588448509391 -0.094492999713411269 0 -0.099989791654964619 -0.11261170107408 0 -0.09750588448509391 -0.094492999713411269 0 -0.099989791654964619 -0.11261170107408 0 -0.11605893441195141 -0.10185107539240761 0 -0.099989791654964619 -0.11261170107408 0 -0.11422347955810171 -0.1204243593602408 0 -0.089131397015513494 -0.13455644729756691 0 -0.11422347955810171 -0.1204243593602408 0 -0.11605893441195141 -0.10185107539240761 0 -0.13931556210068971 -0.10629227142291391 0 -0.099989791654964619 -0.11261170107408 0 -0.11422347955810171 -0.1204243593602408 0 -0.11605893441195141 -0.10185107539240761 0 -0.09750588448509391 -0.094492999713411269 0 -0.11605893441195141 -0.10185107539240761 0 -0.121811479392537 -0.084095963505499416 0 -0.09750588448509391 -0.094492999713411269 0 -0.121811479392537 -0.084095963505499416 0 -0.0985919344824224 -0.072778756797164931 0 -0.088492877882569029 -0.082108210476901852 0 -0.09750588448509391 -0.094492999713411269 0 -0.0985919344824224 -0.072778756797164931 0 -0.121811479392537 -0.084095963505499416 0 -0.0985919344824224 -0.072778756797164931 0 -0.12197003300458489 -0.067133964797042034 0 -0.0985919344824224 -0.072778756797164931 0 -0.12197003300458489 -0.067133964797042034 0 -0.11173313641422659 -0.051099137712197359 0 -0.12197003300458489 -0.067133964797042034 0 -0.11173313641422659 -0.051099137712197359 0 -0.13241258759658719 -0.044529255409706578 0 -0.11719553878173181 -0.037741673539740471 0 -0.12411398995058071 -0.026208981462584841 0 -0.13241258759658719 -0.044529255409706578 0 -0.11173313641422659 -0.051099137712197359 0 -0.11719553878173181 -0.037741673539740471 0 -0.13241258759658719 -0.044529255409706578 0 -0.11719553878173181 -0.037741673539740471 0 -0.1033935341420949 -0.036608907929656417 0 -0.1118019010511415 -0.027957019938586129 0 -0.11173313641422659 -0.051099137712197359 0 -0.11719553878173181 -0.037741673539740471 0 -0.1033935341420949 -0.036608907929656417 0 -0.11173313641422659 -0.051099137712197359 0 -0.1033935341420949 -0.036608907929656417 0 -0.087769009107716192 -0.046193724725750278 0 -0.1033935341420949 -0.036608907929656417 0 -0.091700817231413184 -0.028161456197506499 0 -0.087769009107716192 -0.046193724725750278 0 -0.0985919344824224 -0.072778756797164931 0 -0.11173313641422659 -0.051099137712197359 0 -0.087769009107716192 -0.046193724725750278 0 -0.1152652699767374 -0.0044733142422073097 0 -0.1278640484455188 -0.012334690821253821 0 -0.1273771369441013 0.0023450629401116992 0 -0.1152652699767374 -0.0044733142422073097 0 -0.11303603589243651 -0.016818202060669259 0 -0.1278640484455188 -0.012334690821253821 0 -0.1152652699767374 -0.0044733142422073097 0 -0.11303603589243651 -0.016818202060669259 0 -0.1012139958851531 -0.0082010901258140791 0 -0.11303603589243651 -0.016818202060669259 0 -0.12411398995058071 -0.026208981462584841 0 -0.1278640484455188 -0.012334690821253821 0 -0.11719553878173181 -0.037741673539740471 0 -0.12411398995058071 -0.026208981462584841 0 -0.1118019010511415 -0.027957019938586129 0 -0.11303603589243651 -0.016818202060669259 0 -0.12411398995058071 -0.026208981462584841 0 -0.1118019010511415 -0.027957019938586129 0 -0.1033935341420949 -0.036608907929656417 0 -0.1118019010511415 -0.027957019938586129 0 -0.10074487633177411 -0.021927112774035699 0 -0.1033935341420949 -0.036608907929656417 0 -0.10074487633177411 -0.021927112774035699 0 -0.091700817231413184 -0.028161456197506499 0 -0.10074487633177411 -0.021927112774035699 0 -0.089359217900845153 -0.01537750648633354 0 -0.091700817231413184 -0.028161456197506499 0 -0.11303603589243651 -0.016818202060669259 0 -0.10074487633177411 -0.021927112774035699 0 -0.1012139958851531 -0.0082010901258140791 0 -0.11303603589243651 -0.016818202060669259 0 -0.1118019010511415 -0.027957019938586129 0 -0.10074487633177411 -0.021927112774035699 0 -0.10074487633177411 -0.021927112774035699 0 -0.1012139958851531 -0.0082010901258140791 0 -0.089359217900845153 -0.01537750648633354 0 -0.1012139958851531 -0.0082010901258140791 0 -0.089124004628701792 -0.0040277377021705899 0 -0.097507665945787692 0.0040820149966005574 0 -0.1012139958851531 -0.0082010901258140791 0 -0.097507665945787692 0.0040820149966005574 0 -0.1058521268010089 0.00073384547527136773 0 -0.1152652699767374 -0.0044733142422073097 0 -0.1012139958851531 -0.0082010901258140791 0 -0.1058521268010089 0.00073384547527136773 0 -0.079764572027605563 -0.001208843295517239 0 -0.089124004628701792 -0.0040277377021705899 0 -0.080379206648835008 -0.009775819102595687 0 -0.089124004628701792 -0.0040277377021705899 0 -0.089359217900845153 -0.01537750648633354 0 -0.080379206648835008 -0.009775819102595687 0 -0.1012139958851531 -0.0082010901258140791 0 -0.089124004628701792 -0.0040277377021705899 0 -0.089359217900845153 -0.01537750648633354 0 -0.089359217900845153 -0.01537750648633354 0 -0.080379206648835008 -0.009775819102595687 0 -0.076946083733010012 -0.019608692654335649 0 -0.089359217900845153 -0.01537750648633354 0 -0.091700817231413184 -0.028161456197506499 0 -0.076946083733010012 -0.019608692654335649 0 -0.066439508831189667 -0.02875513821822643 0 -0.076946083733010012 -0.019608692654335649 0 -0.073396792324475907 -0.036549185213838799 0 -0.066439508831189667 -0.02875513821822643 0 -0.068530762808199294 -0.019938962024248611 0 -0.056338296441182101 -0.027044179732367449 0 -0.066439508831189667 -0.02875513821822643 0 -0.068530762808199294 -0.019938962024248611 0 -0.076946083733010012 -0.019608692654335649 0 -0.080379206648835008 -0.009775819102595687 0 -0.076946083733010012 -0.019608692654335649 0 -0.066123158358303874 0.0069763394170788487 0 -0.079764572027605563 -0.001208843295517239 0 -0.080379206648835008 -0.009775819102595687 0 -0.066123158358303874 0.0069763394170788487 0 -0.076946083733010012 -0.019608692654335649 0 -0.059664616745900671 -0.0040500510012267867 0 -0.066123158358303874 0.0069763394170788487 0 -0.068530762808199294 -0.019938962024248611 0 -0.059664616745900671 -0.0040500510012267867 0 -0.068530762808199294 -0.019938962024248611 0 -0.076946083733010012 -0.019608692654335649 0 -0.059664616745900671 -0.0040500510012267867 0 -0.076946083733010012 -0.019608692654335649 0 -0.066123158358303874 0.0069763394170788487 0 -0.079577064860946206 -0.073577453582062496 0 -0.068797467898171552 -0.064113028811232264 0 -0.087769009107716192 -0.046193724725750278 0 -0.0985919344824224 -0.072778756797164931 0 -0.087769009107716192 -0.046193724725750278 0 -0.076946083733010012 -0.019608692654335649 0 -0.087769009107716192 -0.046193724725750278 0 -0.073396792324475907 -0.036549185213838799 0 -0.091700817231413184 -0.028161456197506499 0 -0.076946083733010012 -0.019608692654335649 0 -0.087769009107716192 -0.046193724725750278 0 -0.076946083733010012 -0.019608692654335649 0 -0.087769009107716192 -0.046193724725750278 0 -0.073396792324475907 -0.036549185213838799 0 -0.062271996897588083 -0.052791321925605532 0 -0.056985608849081007 -0.04063467146634165 0 -0.087769009107716192 -0.046193724725750278 0 -0.073396792324475907 -0.036549185213838799 0 -0.062271996897588083 -0.052791321925605532 0 -0.066439508831189667 -0.02875513821822643 0 -0.073396792324475907 -0.036549185213838799 0 -0.056985608849081007 -0.04063467146634165 0 -0.068797467898171552 -0.064113028811232264 0 -0.087769009107716192 -0.046193724725750278 0 -0.062271996897588083 -0.052791321925605532 0 -0.050876123791686781 -0.0557005837010279 0 -0.062271996897588083 -0.052791321925605532 0 -0.05461803829180413 -0.069755112608578862 0 -0.068797467898171552 -0.064113028811232264 0 -0.062271996897588083 -0.052791321925605532 0 -0.05461803829180413 -0.069755112608578862 0 -0.050876123791686781 -0.0557005837010279 0 -0.04125611079489349 -0.061033813963863537 0 -0.05461803829180413 -0.069755112608578862 0 -0.050876123791686781 -0.0557005837010279 0 -0.056985608849081007 -0.04063467146634165 0 -0.043217803893324663 -0.046983348469378128 0 -0.050876123791686781 -0.0557005837010279 0 -0.062271996897588083 -0.052791321925605532 0 -0.056985608849081007 -0.04063467146634165 0 -0.066439508831189667 -0.02875513821822643 0 -0.056985608849081007 -0.04063467146634165 0 -0.056338296441182101 -0.027044179732367449 0 -0.056985608849081007 -0.04063467146634165 0 -0.048013312662868769 -0.034084565957593307 0 -0.056338296441182101 -0.027044179732367449 0 -0.056985608849081007 -0.04063467146634165 0 -0.048013312662868769 -0.034084565957593307 0 -0.043217803893324663 -0.046983348469378128 0 -0.034747022969916552 -0.036023397885302497 0 -0.03178279228815796 -0.053256275703554248 0 -0.043217803893324663 -0.046983348469378128 0 -0.048013312662868769 -0.034084565957593307 0 -0.034747022969916552 -0.036023397885302497 0 -0.043217803893324663 -0.046983348469378128 0 -0.03178279228815796 -0.053256275703554248 0 -0.04125611079489349 -0.061033813963863537 0 -0.027189616291661511 -0.068956488044421491 0 -0.03178279228815796 -0.053256275703554248 0 -0.04125611079489349 -0.061033813963863537 0 -0.043217803893324663 -0.046983348469378128 0 -0.050876123791686781 -0.0557005837010279 0 -0.04125611079489349 -0.061033813963863537 0 -0.043217803893324663 -0.046983348469378128 0 -0.068530762808199294 -0.019938962024248611 0 -0.059664616745900671 -0.0040500510012267867 0 -0.057625718948113309 -0.01560592069947127 0 -0.047617207273071643 -0.0035118018543059538 0 -0.059664616745900671 -0.0040500510012267867 0 -0.057625718948113309 -0.01560592069947127 0 -0.047617207273071643 -0.0035118018543059538 0 -0.057625718948113309 -0.01560592069947127 0 -0.044435943862541481 -0.018862463730406901 0 -0.057625718948113309 -0.01560592069947127 0 -0.056338296441182101 -0.027044179732367449 0 -0.044435943862541481 -0.018862463730406901 0 -0.068530762808199294 -0.019938962024248611 0 -0.057625718948113309 -0.01560592069947127 0 -0.056338296441182101 -0.027044179732367449 0 -0.048013312662868769 -0.034084565957593307 0 -0.056338296441182101 -0.027044179732367449 0 -0.044435943862541481 -0.018862463730406901 0 -0.048013312662868769 -0.034084565957593307 0 -0.034747022969916552 -0.036023397885302497 0 -0.044435943862541481 -0.018862463730406901 0 -0.034747022969916552 -0.036023397885302497 0 -0.044435943862541481 -0.018862463730406901 0 -0.029096019340949839 -0.020089153358083849 0 -0.044435943862541481 -0.018862463730406901 0 -0.037331614038931003 -0.0090830911405071785 0 -0.029096019340949839 -0.020089153358083849 0 -0.047617207273071643 -0.0035118018543059538 0 -0.044435943862541481 -0.018862463730406901 0 -0.037331614038931003 -0.0090830911405071785 0 -0.047617207273071643 -0.0035118018543059538 0 -0.044435943862541481 -0.018862463730406901 0 -0.037331614038931003 -0.0090830911405071785 0 -0.025670282478897081 -0.0054027298625421993 0 -0.03671052455766443 0.0037031618858211421 0 -0.047617207273071643 -0.0035118018543059538 0 -0.037331614038931003 -0.0090830911405071785 0 -0.03671052455766443 0.0037031618858211421 0 -0.025670282478897081 -0.0054027298625421993 0 -0.029096019340949839 -0.020089153358083849 0 -0.01201491237982177 -0.012697106039732861 0 -0.025670282478897081 -0.0054027298625421993 0 -0.01201491237982177 -0.012697106039732861 0 -0.010105069976996849 0.0023765649732562961 0 -0.037331614038931003 -0.0090830911405071785 0 -0.025670282478897081 -0.0054027298625421993 0 -0.029096019340949839 -0.020089153358083849 0 -0.034747022969916552 -0.036023397885302497 0 -0.029096019340949839 -0.020089153358083849 0 -0.01621539074153976 -0.030149579770640821 0 -0.029096019340949839 -0.020089153358083849 0 -0.01621539074153976 -0.030149579770640821 0 -0.01201491237982177 -0.012697106039732861 0 -0.01621539074153976 -0.030149579770640821 0 0.0026421611525163911 -0.019923693291100199 0 0.001114662024295677 -0.034644724797188199 0 -0.01621539074153976 -0.030149579770640821 0 -0.01201491237982177 -0.012697106039732861 0 0.0026421611525163911 -0.019923693291100199 0 -0.01201491237982177 -0.012697106039732861 0 0.0047038114401232534 -0.001040937293712483 0 0.0026421611525163911 -0.019923693291100199 0 -0.01201491237982177 -0.012697106039732861 0 -0.010105069976996849 0.0023765649732562961 0 0.0047038114401232534 -0.001040937293712483 0 -0.03178279228815796 -0.053256275703554248 0 -0.015718878272565229 -0.058792224196781109 0 -0.02130541942185268 -0.044498810144407437 0 -0.03178279228815796 -0.053256275703554248 0 -0.015718878272565229 -0.058792224196781109 0 -0.027189616291661511 -0.068956488044421491 0 -0.034747022969916552 -0.036023397885302497 0 -0.01621539074153976 -0.030149579770640821 0 -0.02130541942185268 -0.044498810144407437 0 -0.034747022969916552 -0.036023397885302497 0 -0.03178279228815796 -0.053256275703554248 0 -0.02130541942185268 -0.044498810144407437 0 -0.01621539074153976 -0.030149579770640821 0 -0.0092606153764647689 -0.044492254616565037 0 0.001114662024295677 -0.034644724797188199 0 -0.0092606153764647689 -0.044492254616565037 0 0.001114662024295677 -0.034644724797188199 0 0.003426744450576454 -0.054815297075420773 0 -0.01621539074153976 -0.030149579770640821 0 -0.02130541942185268 -0.044498810144407437 0 -0.0092606153764647689 -0.044492254616565037 0 -0.015718878272565229 -0.058792224196781109 0 -0.0092606153764647689 -0.044492254616565037 0 0.003426744450576454 -0.054815297075420773 0 -0.015718878272565229 -0.058792224196781109 0 -0.0072319765520409062 -0.068818796064575097 0 0.003426744450576454 -0.054815297075420773 0 -0.015718878272565229 -0.058792224196781109 0 -0.02130541942185268 -0.044498810144407437 0 -0.0092606153764647689 -0.044492254616565037 0 -0.0072319765520409062 -0.068818796064575097 0 -0.0056293594721457006 -0.082036805430144924 0 0.0054575408194632406 -0.073720759659108445 0 -0.0072319765520409062 -0.068818796064575097 0 -0.016531268938654212 -0.068489504758274394 0 -0.015984604638349179 -0.077390510727319894 0 -0.0072319765520409062 -0.068818796064575097 0 -0.0056293594721457006 -0.082036805430144924 0 -0.015984604638349179 -0.077390510727319894 0 -0.015718878272565229 -0.058792224196781109 0 -0.0072319765520409062 -0.068818796064575097 0 -0.016531268938654212 -0.068489504758274394 0 -0.0075898384642912086 -0.092772169897659226 0 -0.0056293594721457006 -0.082036805430144924 0 0.0072012692200917657 -0.09144049599341271 0 -0.0056293594721457006 -0.082036805430144924 0 -0.01562854721774792 -0.088078100238794171 0 -0.015984604638349179 -0.077390510727319894 0 -0.0075898384642912086 -0.092772169897659226 0 -0.0056293594721457006 -0.082036805430144924 0 -0.01562854721774792 -0.088078100238794171 0 -0.0075898384642912086 -0.092772169897659226 0 -0.01562854721774792 -0.088078100238794171 0 -0.015839401072447711 -0.097831294581907868 0 -0.01562854721774792 -0.088078100238794171 0 -0.02305577581672685 -0.083163458542690943 0 -0.024670005891415589 -0.092262667611894875 0 -0.01562854721774792 -0.088078100238794171 0 -0.024670005891415589 -0.092262667611894875 0 -0.015839401072447711 -0.097831294581907868 0 -0.01562854721774792 -0.088078100238794171 0 -0.02305577581672685 -0.083163458542690943 0 -0.015984604638349179 -0.077390510727319894 0 -0.02305577581672685 -0.083163458542690943 0 -0.024670005891415589 -0.092262667611894875 0 -0.031754510724464793 -0.081253108138323094 0 -0.024670005891415589 -0.092262667611894875 0 -0.031754510724464793 -0.081253108138323094 0 -0.03344051123233422 -0.092098432850847969 0 -0.015718878272565229 -0.058792224196781109 0 -0.016531268938654212 -0.068489504758274394 0 -0.027189616291661511 -0.068956488044421491 0 -0.016531268938654212 -0.068489504758274394 0 -0.015984604638349179 -0.077390510727319894 0 -0.027189616291661511 -0.068956488044421491 0 -0.02305577581672685 -0.083163458542690943 0 -0.015984604638349179 -0.077390510727319894 0 -0.027189616291661511 -0.068956488044421491 0 -0.02305577581672685 -0.083163458542690943 0 -0.027189616291661511 -0.068956488044421491 0 -0.031754510724464793 -0.081253108138323094 0 -0.04125611079489349 -0.061033813963863537 0 -0.027189616291661511 -0.068956488044421491 0 -0.04053175759116228 -0.071452392996033218 0 -0.04125611079489349 -0.061033813963863537 0 -0.04053175759116228 -0.071452392996033218 0 -0.05461803829180413 -0.069755112608578862 0 -0.04053175759116228 -0.071452392996033218 0 -0.04331800788480706 -0.080321541169751709 0 -0.05461803829180413 -0.069755112608578862 0 -0.027189616291661511 -0.068956488044421491 0 -0.04053175759116228 -0.071452392996033218 0 -0.031754510724464793 -0.081253108138323094 0 -0.04053175759116228 -0.071452392996033218 0 -0.031754510724464793 -0.081253108138323094 0 -0.04331800788480706 -0.080321541169751709 0 -0.031754510724464793 -0.081253108138323094 0 -0.037920360895102763 -0.086728863392239786 0 -0.04331800788480706 -0.080321541169751709 0 -0.031754510724464793 -0.081253108138323094 0 -0.03344051123233422 -0.092098432850847969 0 -0.037920360895102763 -0.086728863392239786 0 -0.03344051123233422 -0.092098432850847969 0 -0.037920360895102763 -0.086728863392239786 0 -0.039477100495342581 -0.093081883261144749 0 -0.043535591074226332 -0.088659540190963698 0 -0.052607434978589038 -0.084605160310905272 0 -0.044151246104392423 -0.095288874830203096 0 -0.039477100495342581 -0.093081883261144749 0 -0.043535591074226332 -0.088659540190963698 0 -0.044151246104392423 -0.095288874830203096 0 -0.037920360895102763 -0.086728863392239786 0 -0.039477100495342581 -0.093081883261144749 0 -0.043535591074226332 -0.088659540190963698 0 -0.043535591074226332 -0.088659540190963698 0 -0.044151246104392423 -0.095288874830203096 0 -0.037920360895102763 -0.086728863392239786 0 -0.043535591074226332 -0.088659540190963698 0 -0.04331800788480706 -0.080321541169751709 0 -0.043535591074226332 -0.088659540190963698 0 -0.04331800788480706 -0.080321541169751709 0 -0.052607434978589038 -0.084605160310905272 0 -0.04331800788480706 -0.080321541169751709 0 -0.052607434978589038 -0.084605160310905272 0 -0.05461803829180413 -0.069755112608578862 0 -0.070013937980536456 -0.090181036700446429 0 -0.057002573683865979 -0.089060817942991616 0 -0.04460455598339258 -0.10017008709341529 0 -0.052607434978589038 -0.084605160310905272 0 -0.044151246104392423 -0.095288874830203096 0 -0.052607434978589038 -0.084605160310905272 0 -0.057002573683865979 -0.089060817942991616 0 -0.044151246104392423 -0.095288874830203096 0 -0.064240921843242857 -0.078969573753286809 0 -0.065719917437320752 -0.085301382988547655 0 -0.057002573683865979 -0.089060817942991616 0 -0.064240921843242857 -0.078969573753286809 0 -0.052607434978589038 -0.084605160310905272 0 -0.057002573683865979 -0.089060817942991616 0 -0.064240921843242857 -0.078969573753286809 0 -0.052607434978589038 -0.084605160310905272 0 -0.05461803829180413 -0.069755112608578862 0 -0.064648045787775776 -0.1114736180136202 0 -0.054889055151619223 -0.1064960745062641 0 -0.046573596299020338 -0.1213725893565638 0 -0.064648045787775776 -0.1114736180136202 0 -0.060928146748241367 -0.123537549367131 0 -0.046573596299020338 -0.1213725893565638 0 -0.064167586873575405 -0.098824988458513688 0 -0.054889055151619223 -0.1064960745062641 0 -0.04460455598339258 -0.10017008709341529 0 -0.054889055151619223 -0.1064960745062641 0 -0.04460455598339258 -0.10017008709341529 0 -0.046573596299020338 -0.1213725893565638 0 -0.070013937980536456 -0.090181036700446429 0 -0.04460455598339258 -0.10017008709341529 0 -0.070013937980536456 -0.090181036700446429 0 -0.064167586873575405 -0.098824988458513688 0 -0.04460455598339258 -0.10017008709341529 0 -0.064167586873575405 -0.098824988458513688 0 -0.064648045787775776 -0.1114736180136202 0 -0.054889055151619223 -0.1064960745062641 0 -0.057002573683865979 -0.089060817942991616 0 -0.044151246104392423 -0.095288874830203096 0 -0.04460455598339258 -0.10017008709341529 0 -0.04460455598339258 -0.10017008709341529 0 -0.038337793170655582 -0.1026337050414691 0 -0.046573596299020338 -0.1213725893565638 0 -0.039477100495342581 -0.093081883261144749 0 -0.044151246104392423 -0.095288874830203096 0 -0.038337793170655582 -0.1026337050414691 0 -0.044151246104392423 -0.095288874830203096 0 -0.04460455598339258 -0.10017008709341529 0 -0.044151246104392423 -0.095288874830203096 0 -0.038337793170655582 -0.1026337050414691 0 -0.04460455598339258 -0.10017008709341529 0 -0.038337793170655582 -0.1026337050414691 0 -0.044151246104392423 -0.095288874830203096 0 -0.04460455598339258 -0.10017008709341529 0 -0.038337793170655582 -0.1026337050414691 0 -0.03344051123233422 -0.092098432850847969 0 -0.039477100495342581 -0.093081883261144749 0 -0.038337793170655582 -0.1026337050414691 0 -0.03344051123233422 -0.092098432850847969 0 -0.038337793170655582 -0.1026337050414691 0 -0.030143021990877521 -0.097413384547063803 0 -0.038337793170655582 -0.1026337050414691 0 -0.046573596299020338 -0.1213725893565638 0 -0.032898799107638058 -0.1301455039054305 0 -0.04460455598339258 -0.10017008709341529 0 -0.046573596299020338 -0.1213725893565638 0 -0.038337793170655582 -0.1026337050414691 0 -0.02075820173733281 -0.1248441049076035 0 -0.038337793170655582 -0.1026337050414691 0 -0.02075820173733281 -0.1248441049076035 0 -0.032898799107638058 -0.1301455039054305 0 -0.038337793170655582 -0.1026337050414691 0 -0.02075820173733281 -0.1248441049076035 0 -0.013304609286582791 -0.1124748627422944 0 -0.038337793170655582 -0.1026337050414691 0 -0.013304609286582791 -0.1124748627422944 0 -0.038337793170655582 -0.1026337050414691 0 -0.024123777669104458 -0.10265873268404301 0 -0.013304609286582791 -0.1124748627422944 0 -0.038337793170655582 -0.1026337050414691 0 -0.030143021990877521 -0.097413384547063803 0 -0.024123777669104458 -0.10265873268404301 0 -0.024670005891415589 -0.092262667611894875 0 -0.030143021990877521 -0.097413384547063803 0 -0.024123777669104458 -0.10265873268404301 0 -0.024670005891415589 -0.092262667611894875 0 -0.03344051123233422 -0.092098432850847969 0 -0.030143021990877521 -0.097413384547063803 0 -0.024123777669104458 -0.10265873268404301 0 -0.015994782990863529 -0.1079378035875192 0 -0.013304609286582791 -0.1124748627422944 0 -0.024123777669104458 -0.10265873268404301 0 -0.015994782990863529 -0.1079378035875192 0 -0.015839401072447711 -0.097831294581907868 0 -0.024670005891415589 -0.092262667611894875 0 -0.024123777669104458 -0.10265873268404301 0 -0.015839401072447711 -0.097831294581907868 0 -0.0070294542012635762 -0.10327829347153671 0 -0.013304609286582791 -0.1124748627422944 0 0.0046245275045138064 -0.1076828264142336 0 -0.0075898384642912086 -0.092772169897659226 0 -0.015839401072447711 -0.097831294581907868 0 -0.0070294542012635762 -0.10327829347153671 0 -0.015994782990863529 -0.1079378035875192 0 -0.015839401072447711 -0.097831294581907868 0 -0.0070294542012635762 -0.10327829347153671 0 -0.015994782990863529 -0.1079378035875192 0 -0.0070294542012635762 -0.10327829347153671 0 -0.013304609286582791 -0.1124748627422944 0 -0.0075898384642912086 -0.092772169897659226 0 -0.0070294542012635762 -0.10327829347153671 0 0.0072012692200917657 -0.09144049599341271 0 -0.02075820173733281 -0.1248441049076035 0 -0.013304609286582791 -0.1124748627422944 0 -0.00221818493688669 -0.13117245205018849 0 -0.013304609286582791 -0.1124748627422944 0 -0.00221818493688669 -0.13117245205018849 0 0.014197789575412951 -0.12328672932727321 0 -0.013304609286582791 -0.1124748627422944 0 -0.00221818493688669 -0.13117245205018849 0 -0.015994782990863529 -0.1079378035875192 0 -0.013304609286582791 -0.1124748627422944 0 -0.02075820173733281 -0.1248441049076035 0 -0.0137133242766358 -0.14598078836242959 0 -0.0031786103040098569 -0.14705450477373769 0 -0.02075820173733281 -0.1248441049076035 0 -0.0031786103040098569 -0.14705450477373769 0 -0.02075820173733281 -0.1248441049076035 0 -0.00221818493688669 -0.13117245205018849 0 -0.0031786103040098569 -0.14705450477373769 0 -0.02075820173733281 -0.1248441049076035 0 -0.02657462786173766 -0.13400490724319661 0 -0.021326083532184278 -0.14069250208886769 0 -0.02075820173733281 -0.1248441049076035 0 -0.021326083532184278 -0.14069250208886769 0 -0.0137133242766358 -0.14598078836242959 0 -0.02657462786173766 -0.13400490724319661 0 -0.032898799107638058 -0.1301455039054305 0 -0.031315427069795509 -0.14033751807088471 0 -0.02657462786173766 -0.13400490724319661 0 -0.021326083532184278 -0.14069250208886769 0 -0.031315427069795509 -0.14033751807088471 0 -0.02075820173733281 -0.1248441049076035 0 -0.02657462786173766 -0.13400490724319661 0 -0.032898799107638058 -0.1301455039054305 0 -0.026655807174363451 -0.14845120392719069 0 -0.02210874630731275 -0.1561964137015745 0 -0.031495029160766817 -0.15509855920566379 0 -0.026655807174363451 -0.14845120392719069 0 -0.03449156258747036 -0.148917707105098 0 -0.031495029160766817 -0.15509855920566379 0 -0.026655807174363451 -0.14845120392719069 0 -0.021326083532184278 -0.14069250208886769 0 -0.031315427069795509 -0.14033751807088471 0 -0.026655807174363451 -0.14845120392719069 0 -0.031315427069795509 -0.14033751807088471 0 -0.03449156258747036 -0.148917707105098 0 -0.021326083532184278 -0.14069250208886769 0 -0.019449426413567759 -0.15004718796545319 0 -0.0137133242766358 -0.14598078836242959 0 -0.026655807174363451 -0.14845120392719069 0 -0.021326083532184278 -0.14069250208886769 0 -0.019449426413567759 -0.15004718796545319 0 -0.019449426413567759 -0.15004718796545319 0 -0.01542317820397726 -0.15505006264073101 0 -0.0137133242766358 -0.14598078836242959 0 -0.026655807174363451 -0.14845120392719069 0 -0.019449426413567759 -0.15004718796545319 0 -0.02210874630731275 -0.1561964137015745 0 -0.019449426413567759 -0.15004718796545319 0 -0.02210874630731275 -0.1561964137015745 0 -0.01542317820397726 -0.15505006264073101 0 -0.0137133242766358 -0.14598078836242959 0 -0.0031786103040098569 -0.14705450477373769 0 -0.0072073677341612146 -0.1544888065361133 0 -0.01542317820397726 -0.15505006264073101 0 -0.0137133242766358 -0.14598078836242959 0 -0.0072073677341612146 -0.1544888065361133 0 -0.0031786103040098569 -0.14705450477373769 0 -0.0072073677341612146 -0.1544888065361133 0 -0.0025999653858941639 -0.16131422913783491 0 -0.01542317820397726 -0.15505006264073101 0 -0.0084927016390539001 -0.17431231470194719 0 -0.01542317820397726 -0.15505006264073101 0 -0.0025999653858941639 -0.16131422913783491 0 -0.0084927016390539001 -0.17431231470194719 0 -0.01542317820397726 -0.15505006264073101 0 -0.0084927016390539001 -0.17431231470194719 0 -0.018600123305710169 -0.16452936741983731 0 -0.0025999653858941639 -0.16131422913783491 0 -0.0084927016390539001 -0.17431231470194719 0 0.0067086063528142403 -0.16809244781376179 0 -0.0084927016390539001 -0.17431231470194719 0 -0.019446339186483811 -0.17229591455881449 0 -0.018600123305710169 -0.16452936741983731 0 -0.01542317820397726 -0.15505006264073101 0 -0.0072073677341612146 -0.1544888065361133 0 -0.0025999653858941639 -0.16131422913783491 0 -0.0084927016390539001 -0.17431231470194719 0 -0.0015622250741301779 -0.1935745667631632 0 -0.01452589755716127 -0.18854972137590889 0 -0.0084927016390539001 -0.17431231470194719 0 -0.0015622250741301779 -0.1935745667631632 0 -0.0084927016390539001 -0.17431231470194719 0 -0.0015622250741301779 -0.1935745667631632 0 0.0091962193441852118 -0.18107109871456811 0 -0.0084927016390539001 -0.17431231470194719 0 -0.019789997202817391 -0.17944929683230451 0 -0.01452589755716127 -0.18854972137590889 0 -0.019789997202817391 -0.17944929683230451 0 -0.01452589755716127 -0.18854972137590889 0 -0.02459459850908961 -0.18853055632871979 0 -0.0084927016390539001 -0.17431231470194719 0 -0.019789997202817391 -0.17944929683230451 0 -0.019446339186483811 -0.17229591455881449 0 -0.019789997202817391 -0.17944929683230451 0 -0.019446339186483811 -0.17229591455881449 0 -0.025875972540285681 -0.17494695229964419 0 -0.019789997202817391 -0.17944929683230451 0 -0.025875972540285681 -0.17494695229964419 0 -0.028761852805915141 -0.18157091371807699 0 -0.025875972540285681 -0.17494695229964419 0 -0.032240004386850082 -0.17024588421870079 0 -0.032480769472988377 -0.1765838753595764 0 -0.025875972540285681 -0.17494695229964419 0 -0.028761852805915141 -0.18157091371807699 0 -0.032480769472988377 -0.1765838753595764 0 -0.028761852805915141 -0.18157091371807699 0 -0.032920373861235572 -0.18696580359983689 0 -0.02459459850908961 -0.18853055632871979 0 -0.019789997202817391 -0.17944929683230451 0 -0.028761852805915141 -0.18157091371807699 0 -0.02459459850908961 -0.18853055632871979 0 -0.02210874630731275 -0.1561964137015745 0 -0.02334206205745518 -0.16321350683772101 0 -0.018600123305710169 -0.16452936741983731 0 -0.02210874630731275 -0.1561964137015745 0 -0.01542317820397726 -0.15505006264073101 0 -0.018600123305710169 -0.16452936741983731 0 -0.019446339186483811 -0.17229591455881449 0 -0.018600123305710169 -0.16452936741983731 0 -0.024472901244551901 -0.1682416415403396 0 -0.019446339186483811 -0.17229591455881449 0 -0.025875972540285681 -0.17494695229964419 0 -0.024472901244551901 -0.1682416415403396 0 -0.02334206205745518 -0.16321350683772101 0 -0.018600123305710169 -0.16452936741983731 0 -0.024472901244551901 -0.1682416415403396 0 -0.02334206205745518 -0.16321350683772101 0 -0.024472901244551901 -0.1682416415403396 0 -0.028186477372245909 -0.16388660468913291 0 -0.025875972540285681 -0.17494695229964419 0 -0.024472901244551901 -0.1682416415403396 0 -0.032240004386850082 -0.17024588421870079 0 -0.024472901244551901 -0.1682416415403396 0 -0.028186477372245909 -0.16388660468913291 0 -0.032240004386850082 -0.17024588421870079 0 -0.02210874630731275 -0.1561964137015745 0 -0.036601677587355427 -0.1631254910080501 0 -0.02210874630731275 -0.1561964137015745 0 -0.028186477372245909 -0.16388660468913291 0 -0.036601677587355427 -0.1631254910080501 0 -0.02210874630731275 -0.1561964137015745 0 -0.036601677587355427 -0.1631254910080501 0 -0.031495029160766817 -0.15509855920566379 0 -0.02210874630731275 -0.1561964137015745 0 -0.02334206205745518 -0.16321350683772101 0 -0.028186477372245909 -0.16388660468913291 0 -0.036601677587355427 -0.1631254910080501 0 -0.031495029160766817 -0.15509855920566379 0 -0.03757233301838208 -0.1561293615731485 0 -0.036601677587355427 -0.1631254910080501 0 -0.042683024331232992 -0.16071659108817879 0 -0.03757233301838208 -0.1561293615731485 0 -0.036601677587355427 -0.1631254910080501 0 -0.032240004386850082 -0.17024588421870079 0 -0.040990311010288182 -0.1707810542940659 0 -0.028186477372245909 -0.16388660468913291 0 -0.036601677587355427 -0.1631254910080501 0 -0.032240004386850082 -0.17024588421870079 0 -0.036601677587355427 -0.1631254910080501 0 -0.040990311010288182 -0.1707810542940659 0 -0.051094608867397598 -0.17005456831452659 0 -0.036601677587355427 -0.1631254910080501 0 -0.042683024331232992 -0.16071659108817879 0 -0.051094608867397598 -0.17005456831452659 0 -0.036601677587355427 -0.1631254910080501 0 -0.051094608867397598 -0.17005456831452659 0 -0.042683024331232992 -0.16071659108817879 0 -0.03757233301838208 -0.1561293615731485 0 -0.042590371425084809 -0.152788459458752 0 -0.042683024331232992 -0.16071659108817879 0 -0.049852416986034973 -0.1566787242717059 0 -0.042590371425084809 -0.152788459458752 0 -0.042683024331232992 -0.16071659108817879 0 -0.049852416986034973 -0.1566787242717059 0 -0.032920373861235572 -0.18696580359983689 0 -0.035662893679222471 -0.1808176818492459 0 -0.039648887306358682 -0.18457447877016059 0 -0.028761852805915141 -0.18157091371807699 0 -0.032920373861235572 -0.18696580359983689 0 -0.035662893679222471 -0.1808176818492459 0 -0.032240004386850082 -0.17024588421870079 0 -0.040990311010288182 -0.1707810542940659 0 -0.038331319031698619 -0.1753090981098179 0 -0.035662893679222471 -0.1808176818492459 0 -0.038331319031698619 -0.1753090981098179 0 -0.042134054383572032 -0.1794085226548284 0 -0.035662893679222471 -0.1808176818492459 0 -0.032480769472988377 -0.1765838753595764 0 -0.038331319031698619 -0.1753090981098179 0 -0.028761852805915141 -0.18157091371807699 0 -0.035662893679222471 -0.1808176818492459 0 -0.032480769472988377 -0.1765838753595764 0 -0.032240004386850082 -0.17024588421870079 0 -0.032480769472988377 -0.1765838753595764 0 -0.038331319031698619 -0.1753090981098179 0 -0.040990311010288182 -0.1707810542940659 0 -0.045496547127059937 -0.17528527585558801 0 -0.051094608867397598 -0.17005456831452659 0 -0.040990311010288182 -0.1707810542940659 0 -0.038331319031698619 -0.1753090981098179 0 -0.045496547127059937 -0.17528527585558801 0 -0.045496547127059937 -0.17528527585558801 0 -0.042134054383572032 -0.1794085226548284 0 -0.049232931697160941 -0.18142535687920061 0 -0.038331319031698619 -0.1753090981098179 0 -0.045496547127059937 -0.17528527585558801 0 -0.042134054383572032 -0.1794085226548284 0 -0.042134054383572032 -0.1794085226548284 0 -0.039648887306358682 -0.18457447877016059 0 -0.049232931697160941 -0.18142535687920061 0 -0.039648887306358682 -0.18457447877016059 0 -0.049232931697160941 -0.18142535687920061 0 -0.037513132105194948 -0.19164621715467339 0 -0.035662893679222471 -0.1808176818492459 0 -0.042134054383572032 -0.1794085226548284 0 -0.039648887306358682 -0.18457447877016059 0 -0.052530262953744307 -0.18551360121156771 0 -0.064566778430722005 -0.1899668467895553 0 -0.070259181001566293 -0.17921715932508539 0 -0.052530262953744307 -0.18551360121156771 0 -0.051094608867397598 -0.17005456831452659 0 -0.070259181001566293 -0.17921715932508539 0 -0.051094608867397598 -0.17005456831452659 0 -0.070259181001566293 -0.17921715932508539 0 -0.052530262953744307 -0.18551360121156771 0 -0.049232931697160941 -0.18142535687920061 0 -0.051094608867397598 -0.17005456831452659 0 -0.052530262953744307 -0.18551360121156771 0 -0.051094608867397598 -0.17005456831452659 0 -0.045496547127059937 -0.17528527585558801 0 -0.049232931697160941 -0.18142535687920061 0 -0.051094608867397598 -0.17005456831452659 0 -0.051094608867397598 -0.17005456831452659 0 -0.061817946007188637 -0.1647032604190713 0 -0.070259181001566293 -0.17921715932508539 0 -0.049852416986034973 -0.1566787242717059 0 -0.051094608867397598 -0.17005456831452659 0 -0.061817946007188637 -0.1647032604190713 0 -0.042683024331232992 -0.16071659108817879 0 -0.049852416986034973 -0.1566787242717059 0 -0.051094608867397598 -0.17005456831452659 0 -0.049852416986034973 -0.1566787242717059 0 -0.051094608867397598 -0.17005456831452659 0 -0.049852416986034973 -0.1566787242717059 0 -0.061817946007188637 -0.1647032604190713 0 -0.059473492795946999 -0.1512600473178678 0 -0.049852416986034973 -0.1566787242717059 0 -0.059473492795946999 -0.1512600473178678 0 -0.049852416986034973 -0.1566787242717059 0 -0.048542636614648908 -0.14257509161971199 0 -0.042590371425084809 -0.152788459458752 0 -0.049852416986034973 -0.1566787242717059 0 -0.059473492795946999 -0.1512600473178678 0 -0.048542636614648908 -0.14257509161971199 0 -0.049852416986034973 -0.1566787242717059 0 -0.048542636614648908 -0.14257509161971199 0 -0.059473492795946999 -0.1512600473178678 0 -0.048542636614648908 -0.14257509161971199 0 -0.059473492795946999 -0.1512600473178678 0 -0.048542636614648908 -0.14257509161971199 0 -0.061100100412547438 -0.13647315015658409 0 -0.046573596299020338 -0.1213725893565638 0 -0.048542636614648908 -0.14257509161971199 0 -0.061100100412547438 -0.13647315015658409 0 -0.046573596299020338 -0.1213725893565638 0 -0.048542636614648908 -0.14257509161971199 0 -0.060928146748241367 -0.123537549367131 0 -0.046573596299020338 -0.1213725893565638 0 -0.061100100412547438 -0.13647315015658409 0 -0.046573596299020338 -0.1213725893565638 0 -0.048542636614648908 -0.14257509161971199 0 -0.032898799107638058 -0.1301455039054305 0 -0.048542636614648908 -0.14257509161971199 0 -0.032898799107638058 -0.1301455039054305 0 -0.031315427069795509 -0.14033751807088471 0 -0.048542636614648908 -0.14257509161971199 0 -0.032898799107638058 -0.1301455039054305 0 -0.048542636614648908 -0.14257509161971199 0 -0.031315427069795509 -0.14033751807088471 0 -0.03449156258747036 -0.148917707105098 0 -0.03449156258747036 -0.148917707105098 0 -0.03757233301838208 -0.1561293615731485 0 -0.042590371425084809 -0.152788459458752 0 -0.03449156258747036 -0.148917707105098 0 -0.031495029160766817 -0.15509855920566379 0 -0.03757233301838208 -0.1561293615731485 0 -0.048542636614648908 -0.14257509161971199 0 -0.03449156258747036 -0.148917707105098 0 -0.042590371425084809 -0.152788459458752 0 -0.030801127425925001 -0.25680016795848581 0 -0.026871719323301121 -0.24650256912316601 0 -0.018733547469201091 -0.24349008461987329 0 -0.032940321160402269 -0.25029644079438251 0 -0.026871719323301121 -0.24650256912316601 0 -0.030857658388656541 -0.2362056796655021 0 -0.032940321160402269 -0.25029644079438251 0 -0.026871719323301121 -0.24650256912316601 0 -0.026871719323301121 -0.24650256912316601 0 -0.030857658388656541 -0.2362056796655021 0 -0.018733547469201091 -0.24349008461987329 0 -0.018733547469201091 -0.24349008461987329 0 0.0010854142569982001 -0.23807309260292489 0 0.0025328853753160741 -0.24958102673793139 0 -0.018733547469201091 -0.24349008461987329 0 -0.0061584899570064598 -0.22962027277065361 0 0.0010854142569982001 -0.23807309260292489 0 -0.018733547469201091 -0.24349008461987329 0 -0.0061584899570064598 -0.22962027277065361 0 -0.018733547469201091 -0.24349008461987329 0 -0.0061584899570064598 -0.22962027277065361 0 -0.014959502272226489 -0.22084886391346231 0 -0.0061584899570064598 -0.22962027277065361 0 -0.0054289760133702037 -0.21457987404047249 0 0.0064165675551885711 -0.21575046092143421 0 -0.0061584899570064598 -0.22962027277065361 0 -0.014959502272226489 -0.22084886391346231 0 -0.0054289760133702037 -0.21457987404047249 0 -0.018733547469201091 -0.24349008461987329 0 -0.02919644603132129 -0.2221986071991269 0 -0.02714058579554627 -0.22330174697438809 0 -0.018733547469201091 -0.24349008461987329 0 -0.02919644603132129 -0.2221986071991269 0 -0.018733547469201091 -0.24349008461987329 0 -0.014959502272226489 -0.22084886391346231 0 -0.02714058579554627 -0.22330174697438809 0 -0.030857658388656541 -0.2362056796655021 0 -0.018733547469201091 -0.24349008461987329 0 -0.02919644603132129 -0.2221986071991269 0 -0.02919644603132129 -0.2221986071991269 0 -0.02714058579554627 -0.22330174697438809 0 -0.023298310508535151 -0.21367384618425 0 -0.02883797433537726 -0.20835292232393379 0 -0.020914866328615171 -0.2008213059726579 0 -0.039659344593441261 -0.20090712977838049 0 -0.02919644603132129 -0.2221986071991269 0 -0.02883797433537726 -0.20835292232393379 0 -0.023298310508535151 -0.21367384618425 0 -0.02883797433537726 -0.20835292232393379 0 -0.023298310508535151 -0.21367384618425 0 -0.020914866328615171 -0.2008213059726579 0 -0.023298310508535151 -0.21367384618425 0 -0.014351405434837939 -0.2084381568687759 0 -0.020914866328615171 -0.2008213059726579 0 -0.02714058579554627 -0.22330174697438809 0 -0.014351405434837939 -0.2084381568687759 0 -0.014959502272226489 -0.22084886391346231 0 -0.02714058579554627 -0.22330174697438809 0 -0.014351405434837939 -0.2084381568687759 0 -0.02714058579554627 -0.22330174697438809 0 -0.023298310508535151 -0.21367384618425 0 -0.014351405434837939 -0.2084381568687759 0 -0.014959502272226489 -0.22084886391346231 0 -0.0054289760133702037 -0.21457987404047249 0 -0.014351405434837939 -0.2084381568687759 0 -0.0054289760133702037 -0.21457987404047249 0 -0.014351405434837939 -0.2084381568687759 0 -0.0015622250741301779 -0.1935745667631632 0 -0.0054289760133702037 -0.21457987404047249 0 -0.0015622250741301779 -0.1935745667631632 0 0.0064165675551885711 -0.21575046092143421 0 -0.014351405434837939 -0.2084381568687759 0 -0.0015622250741301779 -0.1935745667631632 0 -0.014351405434837939 -0.2084381568687759 0 -0.01223217889679739 -0.19705511845509929 0 -0.0015622250741301779 -0.1935745667631632 0 -0.01223217889679739 -0.19705511845509929 0 -0.0015622250741301779 -0.1935745667631632 0 -0.01452589755716127 -0.18854972137590889 0 -0.020914866328615171 -0.2008213059726579 0 -0.039659344593441261 -0.20090712977838049 0 -0.01452589755716127 -0.18854972137590889 0 -0.020914866328615171 -0.2008213059726579 0 -0.02459459850908961 -0.18853055632871979 0 -0.020914866328615171 -0.2008213059726579 0 -0.030654603298793132 -0.19382629647353339 0 -0.039659344593441261 -0.20090712977838049 0 -0.014351405434837939 -0.2084381568687759 0 -0.01223217889679739 -0.19705511845509929 0 -0.020914866328615171 -0.2008213059726579 0 -0.01223217889679739 -0.19705511845509929 0 -0.01452589755716127 -0.18854972137590889 0 -0.020914866328615171 -0.2008213059726579 0 -0.020914866328615171 -0.2008213059726579 0 -0.030654603298793132 -0.19382629647353339 0 -0.02459459850908961 -0.18853055632871979 0 -0.032920373861235572 -0.18696580359983689 0 -0.030654603298793132 -0.19382629647353339 0 -0.02459459850908961 -0.18853055632871979 0 -0.049232931697160941 -0.18142535687920061 0 -0.037513132105194948 -0.19164621715467339 0 -0.039659344593441261 -0.20090712977838049 0 -0.049232931697160941 -0.18142535687920061 0 -0.039659344593441261 -0.20090712977838049 0 -0.032920373861235572 -0.18696580359983689 0 -0.039648887306358682 -0.18457447877016059 0 -0.037513132105194948 -0.19164621715467339 0 -0.032920373861235572 -0.18696580359983689 0 -0.030654603298793132 -0.19382629647353339 0 -0.037513132105194948 -0.19164621715467339 0 -0.030654603298793132 -0.19382629647353339 0 -0.037513132105194948 -0.19164621715467339 0 -0.039659344593441261 -0.20090712977838049 0 -0.039659344593441261 -0.20090712977838049 0 -0.049171036143441697 -0.20095068018059209 0 -0.052530262953744307 -0.18551360121156771 0 -0.053965917040092279 -0.20097263410860849 0 -0.052530262953744307 -0.18551360121156771 0 -0.049232931697160941 -0.18142535687920061 0 -0.039659344593441261 -0.20090712977838049 0 -0.052530262953744307 -0.18551360121156771 0 -0.053965917040092279 -0.20097263410860849 0 -0.064566778430722005 -0.1899668467895553 0 -0.052530262953744307 -0.18551360121156771 0 -0.039659344593441261 -0.20090712977838049 0 -0.049171036143441697 -0.20095068018059209 0 -0.053965917040092279 -0.20097263410860849 0 -0.049171036143441697 -0.20095068018059209 0 -0.052530262953744307 -0.18551360121156771 0 -0.053965917040092279 -0.20097263410860849 0 -0.049171036143441697 -0.20095068018059209 0 -0.049171036143441697 -0.20095068018059209 0 -0.054685660498906767 -0.208722786400212 0 -0.041055678651922348 -0.2256235604874875 0 -0.053965917040092279 -0.20097263410860849 0 -0.054685660498906767 -0.208722786400212 0 -0.075274492420391248 -0.20107019793555661 0 -0.054685660498906767 -0.208722786400212 0 -0.058782723788501128 -0.22597342721149569 0 -0.066300796797188796 -0.21509277327032089 0 -0.053965917040092279 -0.20097263410860849 0 -0.049171036143441697 -0.20095068018059209 0 -0.054685660498906767 -0.208722786400212 0 -0.053965917040092279 -0.20097263410860849 0 -0.054685660498906767 -0.208722786400212 0 -0.049171036143441697 -0.20095068018059209 0 -0.041055678651922348 -0.2256235604874875 0 -0.02919644603132129 -0.2221986071991269 0 -0.039659344593441261 -0.20090712977838049 0 -0.02919644603132129 -0.2221986071991269 0 -0.02883797433537726 -0.20835292232393379 0 -0.039659344593441261 -0.20090712977838049 0 -0.039659344593441261 -0.20090712977838049 0 -0.049171036143441697 -0.20095068018059209 0 -0.041055678651922348 -0.2256235604874875 0 -0.02919644603132129 -0.2221986071991269 0 -0.039659344593441261 -0.20090712977838049 0 -0.041055678651922348 -0.2256235604874875 0 -0.030857658388656541 -0.2362056796655021 0 -0.02919644603132129 -0.2221986071991269 0 -0.041055678651922348 -0.2256235604874875 0 -0.041055678651922348 -0.2256235604874875 0 -0.058782723788501128 -0.22597342721149569 0 -0.050902643065861071 -0.24349095896983161 0 -0.054685660498906767 -0.208722786400212 0 -0.041055678651922348 -0.2256235604874875 0 -0.058782723788501128 -0.22597342721149569 0 -0.058782723788501128 -0.22597342721149569 0 -0.050902643065861071 -0.24349095896983161 0 -0.077646128541525 -0.24813916513248199 0 -0.032940321160402269 -0.25029644079438251 0 -0.041055678651922348 -0.2256235604874875 0 -0.050902643065861071 -0.24349095896983161 0 -0.032940321160402269 -0.25029644079438251 0 -0.030857658388656541 -0.2362056796655021 0 -0.041055678651922348 -0.2256235604874875 0 -0.032940321160402269 -0.25029644079438251 0 -0.041055678651922348 -0.2256235604874875 0 -0.077646128541525 -0.24813916513248199 0 -0.082279147983734507 -0.22463132376819159 0 -0.088104632666654803 -0.24175912157342011 0 -0.077646128541525 -0.24813916513248199 0 -0.082279147983734507 -0.22463132376819159 0 -0.077646128541525 -0.24813916513248199 0 -0.076460310480956056 -0.22460468153401941 0 -0.058782723788501128 -0.22597342721149569 0 -0.077646128541525 -0.24813916513248199 0 -0.076460310480956056 -0.22460468153401941 0 -0.058782723788501128 -0.22597342721149569 0 -0.076460310480956056 -0.22460468153401941 0 -0.066300796797188796 -0.21509277327032089 0 -0.077646128541525 -0.24813916513248199 0 -0.076460310480956056 -0.22460468153401941 0 -0.082279147983734507 -0.22463132376819159 0 -0.088104632666654803 -0.24175912157342011 0 -0.091210523848666042 -0.22145825259936749 0 -0.096373561920523113 -0.2318247108995648 0 -0.088104632666654803 -0.24175912157342011 0 -0.082279147983734507 -0.22463132376819159 0 -0.091210523848666042 -0.22145825259936749 0 -0.088104632666654803 -0.24175912157342011 0 -0.091210523848666042 -0.22145825259936749 0 -0.082279147983734507 -0.22463132376819159 0 -0.075274492420391248 -0.20107019793555661 0 -0.086912167425944153 -0.20112348240390099 0 -0.082279147983734507 -0.22463132376819159 0 -0.091210523848666042 -0.22145825259936749 0 -0.086912167425944153 -0.20112348240390099 0 -0.091210523848666042 -0.22145825259936749 0 -0.094316415030678002 -0.20115738362531499 0 -0.091210523848666042 -0.22145825259936749 0 -0.086912167425944153 -0.20112348240390099 0 -0.094316415030678002 -0.20115738362531499 0 -0.082279147983734507 -0.22463132376819159 0 -0.086912167425944153 -0.20112348240390099 0 -0.076460310480956056 -0.22460468153401941 0 -0.066300796797188796 -0.21509277327032089 0 -0.075274492420391248 -0.20107019793555661 0 -0.054685660498906767 -0.208722786400212 0 -0.066300796797188796 -0.21509277327032089 0 -0.075274492420391248 -0.20107019793555661 0 -0.076460310480956056 -0.22460468153401941 0 -0.082279147983734507 -0.22463132376819159 0 -0.075274492420391248 -0.20107019793555661 0 -0.076460310480956056 -0.22460468153401941 0 -0.075274492420391248 -0.20107019793555661 0 -0.053965917040092279 -0.20097263410860849 0 -0.075274492420391248 -0.20107019793555661 0 -0.070100108945259781 -0.19629415080948229 0 -0.053965917040092279 -0.20097263410860849 0 -0.070100108945259781 -0.19629415080948229 0 -0.064566778430722005 -0.1899668467895553 0 -0.053965917040092279 -0.20097263410860849 0 -0.075274492420391248 -0.20107019793555661 0 -0.075274492420391248 -0.20107019793555661 0 -0.075113373652805612 -0.19571605274700751 0 -0.079733979793737045 -0.19605477611637959 0 -0.075274492420391248 -0.20107019793555661 0 -0.075113373652805612 -0.19571605274700751 0 -0.070100108945259781 -0.19629415080948229 0 -0.070100108945259781 -0.19629415080948229 0 -0.064566778430722005 -0.1899668467895553 0 -0.075377056328755521 -0.19008301367616509 0 -0.075113373652805612 -0.19571605274700751 0 -0.070100108945259781 -0.19629415080948229 0 -0.075377056328755521 -0.19008301367616509 0 -0.075113373652805612 -0.19571605274700751 0 -0.075377056328755521 -0.19008301367616509 0 -0.079733979793737045 -0.19605477611637959 0 -0.075377056328755521 -0.19008301367616509 0 -0.079733979793737045 -0.19605477611637959 0 -0.089423753135733974 -0.18837975033564619 0 -0.079733979793737045 -0.19605477611637959 0 -0.086912167425944153 -0.20112348240390099 0 -0.089423753135733974 -0.18837975033564619 0 -0.075274492420391248 -0.20107019793555661 0 -0.086912167425944153 -0.20112348240390099 0 -0.075274492420391248 -0.20107019793555661 0 -0.079733979793737045 -0.19605477611637959 0 -0.086912167425944153 -0.20112348240390099 0 -0.086912167425944153 -0.20112348240390099 0 -0.095804572093432044 -0.1914304229002349 0 -0.094316415030678002 -0.20115738362531499 0 -0.086912167425944153 -0.20112348240390099 0 -0.094316415030678002 -0.20115738362531499 0 -0.086912167425944153 -0.20112348240390099 0 -0.089423753135733974 -0.18837975033564619 0 -0.086912167425944153 -0.20112348240390099 0 -0.089423753135733974 -0.18837975033564619 0 -0.095804572093432044 -0.1914304229002349 0 -0.089423753135733974 -0.18837975033564619 0 -0.095804572093432044 -0.1914304229002349 0 -0.090500110278716836 -0.18291833725845449 0 -0.089423753135733974 -0.18837975033564619 0 -0.095804572093432044 -0.1914304229002349 0 -0.095804572093432044 -0.1914304229002349 0 -0.1055884512206339 -0.19610810014299959 0 -0.099028938128851704 -0.1826882615985625 0 -0.095804572093432044 -0.1914304229002349 0 -0.1055884512206339 -0.19610810014299959 0 -0.095804572093432044 -0.1914304229002349 0 -0.099726318276372988 -0.19712665769699661 0 -0.1055884512206339 -0.19610810014299959 0 -0.094316415030678002 -0.20115738362531499 0 -0.099726318276372988 -0.19712665769699661 0 -0.1069539478940484 -0.20121524606085259 0 -0.095804572093432044 -0.1914304229002349 0 -0.094316415030678002 -0.20115738362531499 0 -0.095804572093432044 -0.1914304229002349 0 -0.094316415030678002 -0.20115738362531499 0 -0.099726318276372988 -0.19712665769699661 0 -0.094316415030678002 -0.20115738362531499 0 -0.1069539478940484 -0.20121524606085259 0 -0.1006154135170836 -0.20550376286944089 0 -0.094316415030678002 -0.20115738362531499 0 -0.1069539478940484 -0.20121524606085259 0 -0.099726318276372988 -0.19712665769699661 0 -0.1069539478940484 -0.20121524606085259 0 -0.1055884512206339 -0.19610810014299959 0 -0.1069539478940484 -0.20121524606085259 0 -0.1055884512206339 -0.19610810014299959 0 -0.1143022105317214 -0.19176920984990589 0 -0.1234142843990034 -0.20129061165398179 0 -0.118443644943155 -0.18313735869921541 0 -0.1234142843990034 -0.20129061165398179 0 -0.118443644943155 -0.18313735869921541 0 -0.12836978379805469 -0.19505845874684749 0 -0.1055884512206339 -0.19610810014299959 0 -0.1143022105317214 -0.19176920984990589 0 -0.1095912747331507 -0.1796343382558257 0 -0.1234142843990034 -0.20129061165398179 0 -0.118443644943155 -0.18313735869921541 0 -0.1234142843990034 -0.20129061165398179 0 -0.11636069704563699 -0.20125831597190941 0 -0.12446659453658469 -0.2051337493999616 0 -0.1143022105317214 -0.19176920984990589 0 -0.1234142843990034 -0.20129061165398179 0 -0.11636069704563699 -0.20125831597190941 0 -0.1234142843990034 -0.20129061165398179 0 -0.11636069704563699 -0.20125831597190941 0 -0.1055884512206339 -0.19610810014299959 0 -0.1143022105317214 -0.19176920984990589 0 -0.11636069704563699 -0.20125831597190941 0 -0.1055884512206339 -0.19610810014299959 0 -0.11636069704563699 -0.20125831597190941 0 -0.1069539478940484 -0.20121524606085259 0 -0.11636069704563699 -0.20125831597190941 0 -0.116503442890511 -0.20615462214379501 0 -0.1069539478940484 -0.20121524606085259 0 -0.1055884512206339 -0.19610810014299959 0 -0.11636069704563699 -0.20125831597190941 0 -0.1069539478940484 -0.20121524606085259 0 -0.11636069704563699 -0.20125831597190941 0 -0.1069539478940484 -0.20121524606085259 0 -0.1182325320857732 -0.21701117714245771 0 -0.1146322195844853 -0.229933041338924 0 -0.1069539478940484 -0.20121524606085259 0 -0.1146322195844853 -0.229933041338924 0 -0.12446659453658469 -0.2051337493999616 0 -0.1182325320857732 -0.21701117714245771 0 -0.12964778408632779 -0.2240559515308029 0 -0.1069539478940484 -0.20121524606085259 0 -0.116503442890511 -0.20615462214379501 0 -0.1182325320857732 -0.21701117714245771 0 -0.116503442890511 -0.20615462214379501 0 -0.12446659453658469 -0.2051337493999616 0 -0.1182325320857732 -0.21701117714245771 0 -0.11636069704563699 -0.20125831597190941 0 -0.116503442890511 -0.20615462214379501 0 -0.12446659453658469 -0.2051337493999616 0 -0.11636069704563699 -0.20125831597190941 0 -0.12446659453658469 -0.2051337493999616 0 -0.1234142843990034 -0.20129061165398179 0 -0.12446659453658469 -0.2051337493999616 0 -0.1069539478940484 -0.20121524606085259 0 -0.1039432587622498 -0.21234961129803451 0 -0.1146322195844853 -0.229933041338924 0 -0.091210523848666042 -0.22145825259936749 0 -0.094316415030678002 -0.20115738362531499 0 -0.098742607236989521 -0.21208478243994361 0 -0.1039432587622498 -0.21234961129803451 0 -0.098742607236989521 -0.21208478243994361 0 -0.10362742502627011 -0.2199549018075595 0 -0.1069539478940484 -0.20121524606085259 0 -0.1039432587622498 -0.21234961129803451 0 -0.1006154135170836 -0.20550376286944089 0 -0.1039432587622498 -0.21234961129803451 0 -0.1006154135170836 -0.20550376286944089 0 -0.098742607236989521 -0.21208478243994361 0 -0.094316415030678002 -0.20115738362531499 0 -0.1006154135170836 -0.20550376286944089 0 -0.098742607236989521 -0.21208478243994361 0 -0.091210523848666042 -0.22145825259936749 0 -0.098742607236989521 -0.21208478243994361 0 -0.10362742502627011 -0.2199549018075595 0 -0.096373561920523113 -0.2318247108995648 0 -0.10362742502627011 -0.2199549018075595 0 -0.1025516661405015 -0.24412656761791199 0 -0.1039432587622498 -0.21234961129803451 0 -0.10362742502627011 -0.2199549018075595 0 -0.1146322195844853 -0.229933041338924 0 -0.10362742502627011 -0.2199549018075595 0 -0.1025516661405015 -0.24412656761791199 0 -0.10362742502627011 -0.2199549018075595 0 -0.11057817055071439 -0.23713955200355691 0 -0.1025516661405015 -0.24412656761791199 0 -0.091210523848666042 -0.22145825259936749 0 -0.096373561920523113 -0.2318247108995648 0 -0.10362742502627011 -0.2199549018075595 0 -0.10362742502627011 -0.2199549018075595 0 -0.1146322195844853 -0.229933041338924 0 -0.11057817055071439 -0.23713955200355691 0 -0.1182325320857732 -0.21701117714245771 0 -0.1146322195844853 -0.229933041338924 0 -0.12964778408632779 -0.2240559515308029 0 -0.1146322195844853 -0.229933041338924 0 -0.12594535918601221 -0.23537450645762351 0 -0.12964778408632779 -0.2240559515308029 0 -0.1146322195844853 -0.229933041338924 0 -0.11057817055071439 -0.23713955200355691 0 -0.11992695639240671 -0.24305274461581289 0 -0.1146322195844853 -0.229933041338924 0 -0.11992695639240671 -0.24305274461581289 0 -0.12594535918601221 -0.23537450645762351 0 -0.11992695639240671 -0.24305274461581289 0 -0.12594535918601221 -0.23537450645762351 0 -0.1270777831465402 -0.24161244513161839 0 -0.11057817055071439 -0.23713955200355691 0 -0.11992695639240671 -0.24305274461581289 0 -0.1121525856099083 -0.24863050463757599 0 -0.1183855941197941 -0.25651062511641259 0 -0.11992695639240671 -0.24305274461581289 0 -0.1121525856099083 -0.24863050463757599 0 -0.1097432552782682 -0.2572086698476283 0 -0.1121525856099083 -0.24863050463757599 0 -0.1025516661405015 -0.24412656761791199 0 -0.11057817055071439 -0.23713955200355691 0 -0.1121525856099083 -0.24863050463757599 0 -0.1025516661405015 -0.24412656761791199 0 -0.088104632666654803 -0.24175912157342011 0 -0.096373561920523113 -0.2318247108995648 0 -0.1025516661405015 -0.24412656761791199 0 -0.093680051977193257 -0.25300014610948141 0 -0.088104632666654803 -0.24175912157342011 0 -0.1025516661405015 -0.24412656761791199 0 -0.091208904987890735 -0.14232661368977559 0 -0.087323419063827665 -0.1566704494577609 0 -0.098398678104261977 -0.16921735691638781 0 -0.081276062778159672 -0.14883202435870879 0 -0.08710950077230438 -0.14178266396580899 0 -0.074302444905730333 -0.14290824730771751 0 -0.081276062778159672 -0.14883202435870879 0 -0.091208904987890735 -0.14232661368977559 0 -0.087323419063827665 -0.1566704494577609 0 -0.081276062778159672 -0.14883202435870879 0 -0.08710950077230438 -0.14178266396580899 0 -0.091208904987890735 -0.14232661368977559 0 -0.08710950077230438 -0.14178266396580899 0 -0.091208904987890735 -0.14232661368977559 0 -0.091208904987890735 -0.14232661368977559 0 -0.089131397015513494 -0.13455644729756691 0 -0.089131397015513494 -0.13455644729756691 0 -0.072915517223638954 -0.12670463451369329 0 -0.074302444905730333 -0.14290824730771751 0 -0.08710950077230438 -0.14178266396580899 0 -0.091208904987890735 -0.14232661368977559 0 -0.089131397015513494 -0.13455644729756691 0 -0.08710950077230438 -0.14178266396580899 0 -0.089131397015513494 -0.13455644729756691 0 -0.074302444905730333 -0.14290824730771751 0 -0.089131397015513494 -0.13455644729756691 0 -0.074302444905730333 -0.14290824730771751 0 -0.061100100412547438 -0.13647315015658409 0 -0.072915517223638954 -0.12670463451369329 0 -0.074302444905730333 -0.14290824730771751 0 -0.060928146748241367 -0.123537549367131 0 -0.061100100412547438 -0.13647315015658409 0 -0.072915517223638954 -0.12670463451369329 0 -0.059473492795946999 -0.1512600473178678 0 -0.081276062778159672 -0.14883202435870879 0 -0.074302444905730333 -0.14290824730771751 0 -0.059473492795946999 -0.1512600473178678 0 -0.081276062778159672 -0.14883202435870879 0 -0.078410030384998497 -0.16630580286617139 0 -0.059473492795946999 -0.1512600473178678 0 -0.074302444905730333 -0.14290824730771751 0 -0.059473492795946999 -0.1512600473178678 0 -0.061100100412547438 -0.13647315015658409 0 -0.074302444905730333 -0.14290824730771751 0 -0.061817946007188637 -0.1647032604190713 0 -0.070259181001566293 -0.17921715932508539 0 -0.078410030384998497 -0.16630580286617139 0 -0.059473492795946999 -0.1512600473178678 0 -0.078410030384998497 -0.16630580286617139 0 -0.061817946007188637 -0.1647032604190713 0 -0.059473492795946999 -0.1512600473178678 0 -0.078410030384998497 -0.16630580286617139 0 -0.064566778430722005 -0.1899668467895553 0 -0.075377056328755521 -0.19008301367616509 0 -0.070259181001566293 -0.17921715932508539 0 -0.070259181001566293 -0.17921715932508539 0 -0.08402443889557612 -0.1788939005998389 0 -0.078410030384998497 -0.16630580286617139 0 -0.089423753135733974 -0.18837975033564619 0 -0.070259181001566293 -0.17921715932508539 0 -0.075377056328755521 -0.19008301367616509 0 -0.089423753135733974 -0.18837975033564619 0 -0.070259181001566293 -0.17921715932508539 0 -0.078410030384998497 -0.16630580286617139 0 -0.098398678104261977 -0.16921735691638781 0 -0.097346567974052028 -0.18135155841447259 0 -0.078410030384998497 -0.16630580286617139 0 -0.097346567974052028 -0.18135155841447259 0 -0.08402443889557612 -0.1788939005998389 0 -0.078410030384998497 -0.16630580286617139 0 -0.097346567974052028 -0.18135155841447259 0 -0.089423753135733974 -0.18837975033564619 0 -0.070259181001566293 -0.17921715932508539 0 -0.08402443889557612 -0.1788939005998389 0 -0.089423753135733974 -0.18837975033564619 0 -0.08402443889557612 -0.1788939005998389 0 -0.090500110278716836 -0.18291833725845449 0 -0.08402443889557612 -0.1788939005998389 0 -0.090500110278716836 -0.18291833725845449 0 -0.097346567974052028 -0.18135155841447259 0 -0.089423753135733974 -0.18837975033564619 0 -0.090500110278716836 -0.18291833725845449 0 -0.081276062778159672 -0.14883202435870879 0 -0.078410030384998497 -0.16630580286617139 0 -0.087323419063827665 -0.1566704494577609 0 -0.078410030384998497 -0.16630580286617139 0 -0.087323419063827665 -0.1566704494577609 0 -0.098398678104261977 -0.16921735691638781 0 -0.098398678104261977 -0.16921735691638781 0 -0.1095912747331507 -0.1796343382558257 0 -0.1134730054873082 -0.16498410574444861 0 -0.098398678104261977 -0.16921735691638781 0 -0.1134730054873082 -0.16498410574444861 0 -0.1057127461594554 -0.15566112818699529 0 -0.1055884512206339 -0.19610810014299959 0 -0.098398678104261977 -0.16921735691638781 0 -0.099028938128851704 -0.1826882615985625 0 -0.1055884512206339 -0.19610810014299959 0 -0.098398678104261977 -0.16921735691638781 0 -0.1055884512206339 -0.19610810014299959 0 -0.098398678104261977 -0.16921735691638781 0 -0.1095912747331507 -0.1796343382558257 0 -0.095804572093432044 -0.1914304229002349 0 -0.097346567974052028 -0.18135155841447259 0 -0.099028938128851704 -0.1826882615985625 0 -0.095804572093432044 -0.1914304229002349 0 -0.090500110278716836 -0.18291833725845449 0 -0.097346567974052028 -0.18135155841447259 0 -0.095804572093432044 -0.1914304229002349 0 -0.097346567974052028 -0.18135155841447259 0 -0.097346567974052028 -0.18135155841447259 0 -0.099028938128851704 -0.1826882615985625 0 -0.098398678104261977 -0.16921735691638781 0 -0.097346567974052028 -0.18135155841447259 0 -0.099028938128851704 -0.1826882615985625 0 -0.118443644943155 -0.18313735869921541 0 -0.1134730054873082 -0.16498410574444861 0 -0.1288769000074067 -0.1787922372229141 0 -0.118443644943155 -0.18313735869921541 0 -0.1134730054873082 -0.16498410574444861 0 -0.1095912747331507 -0.1796343382558257 0 -0.118443644943155 -0.18313735869921541 0 -0.1134730054873082 -0.16498410574444861 0 -0.1143022105317214 -0.19176920984990589 0 -0.1095912747331507 -0.1796343382558257 0 -0.118443644943155 -0.18313735869921541 0 -0.1134730054873082 -0.16498410574444861 0 -0.1197703960583608 -0.14611643639736929 0 -0.1290470673658046 -0.1573335562640088 0 -0.1134730054873082 -0.16498410574444861 0 -0.1197703960583608 -0.14611643639736929 0 -0.1057127461594554 -0.15566112818699529 0 -0.091208904987890735 -0.14232661368977559 0 -0.1197703960583608 -0.14611643639736929 0 -0.1055319536065798 -0.13433424813048789 0 -0.091208904987890735 -0.14232661368977559 0 -0.1197703960583608 -0.14611643639736929 0 -0.091208904987890735 -0.14232661368977559 0 -0.098398678104261977 -0.16921735691638781 0 -0.091208904987890735 -0.14232661368977559 0 -0.1197703960583608 -0.14611643639736929 0 -0.1057127461594554 -0.15566112818699529 0 -0.091208904987890735 -0.14232661368977559 0 -0.098398678104261977 -0.16921735691638781 0 -0.1057127461594554 -0.15566112818699529 0 -0.11422347955810171 -0.1204243593602408 0 -0.089131397015513494 -0.13455644729756691 0 -0.1055319536065798 -0.13433424813048789 0 -0.091208904987890735 -0.14232661368977559 0 -0.089131397015513494 -0.13455644729756691 0 -0.1055319536065798 -0.13433424813048789 0 -0.11422347955810171 -0.1204243593602408 0 -0.089131397015513494 -0.13455644729756691 0 -0.11422347955810171 -0.1204243593602408 0 -0.1197703960583608 -0.14611643639736929 0 -0.13445671698849809 -0.1291024538471422 0 -0.11422347955810171 -0.1204243593602408 0 -0.1197703960583608 -0.14611643639736929 0 -0.1055319536065798 -0.13433424813048789 0 -0.1483318871288308 -0.14990625910496369 0 -0.16449988742022109 -0.13664022397910389 0 -0.1531014227808439 -0.1221458571451004 0 -0.13445671698849809 -0.1291024538471422 0 -0.1483318871288308 -0.14990625910496369 0 -0.1531014227808439 -0.1221458571451004 0 -0.1197703960583608 -0.14611643639736929 0 -0.1483318871288308 -0.14990625910496369 0 -0.1197703960583608 -0.14611643639736929 0 -0.13445671698849809 -0.1291024538471422 0 -0.1483318871288308 -0.14990625910496369 0 -0.1197703960583608 -0.14611643639736929 0 -0.1483318871288308 -0.14990625910496369 0 -0.1290470673658046 -0.1573335562640088 0 -0.1134730054873082 -0.16498410574444861 0 -0.13461298078871861 -0.16832742380925381 0 -0.1288769000074067 -0.1787922372229141 0 -0.1134730054873082 -0.16498410574444861 0 -0.1290470673658046 -0.1573335562640088 0 -0.13461298078871861 -0.16832742380925381 0 -0.1483318871288308 -0.14990625910496369 0 -0.1290470673658046 -0.1573335562640088 0 -0.13461298078871861 -0.16832742380925381 0 -0.1288769000074067 -0.1787922372229141 0 -0.13667151748925299 -0.18732448341615179 0 -0.12964513627792831 -0.18854704193980709 0 -0.118443644943155 -0.18313735869921541 0 -0.1288769000074067 -0.1787922372229141 0 -0.12964513627792831 -0.18854704193980709 0 -0.13461298078871861 -0.16832742380925381 0 -0.1288769000074067 -0.1787922372229141 0 -0.13971937495991149 -0.1792470101286355 0 -0.13971937495991149 -0.1792470101286355 0 -0.13667151748925299 -0.18732448341615179 0 -0.14496415935730611 -0.1865433765957375 0 -0.1288769000074067 -0.1787922372229141 0 -0.13971937495991149 -0.1792470101286355 0 -0.13667151748925299 -0.18732448341615179 0 -0.13461298078871861 -0.16832742380925381 0 -0.13971937495991149 -0.1792470101286355 0 -0.15185728900885839 -0.17281716391360821 0 -0.13971937495991149 -0.1792470101286355 0 -0.14496415935730611 -0.1865433765957375 0 -0.15185728900885839 -0.17281716391360821 0 -0.14496415935730611 -0.1865433765957375 0 -0.15185728900885839 -0.17281716391360821 0 -0.15433817598466459 -0.18776234762491931 0 -0.1483318871288308 -0.14990625910496369 0 -0.13461298078871861 -0.16832742380925381 0 -0.15185728900885839 -0.17281716391360821 0 -0.1483318871288308 -0.14990625910496369 0 -0.15185728900885839 -0.17281716391360821 0 -0.1768933781993007 -0.15369608181255809 0 -0.15185728900885839 -0.17281716391360821 0 -0.16517877359736971 -0.18077311964873491 0 -0.1768933781993007 -0.15369608181255809 0 -0.16517877359736971 -0.18077311964873491 0 -0.15433817598466459 -0.18776234762491931 0 -0.16707343948115469 -0.19329854854562631 0 -0.15185728900885839 -0.17281716391360821 0 -0.16517877359736971 -0.18077311964873491 0 -0.15433817598466459 -0.18776234762491931 0 -0.16517877359736971 -0.18077311964873491 0 -0.17993745220376059 -0.17895489523397801 0 -0.16707343948115469 -0.19329854854562631 0 -0.16517877359736971 -0.18077311964873491 0 -0.17993745220376059 -0.17895489523397801 0 -0.1768933781993007 -0.15369608181255809 0 -0.17993745220376059 -0.17895489523397801 0 -0.1768933781993007 -0.15369608181255809 0 -0.19905977422349169 -0.1755558360643551 0 -0.1768933781993007 -0.15369608181255809 0 -0.17856324423929071 -0.13411692648003359 0 -0.16449988742022109 -0.13664022397910389 0 -0.1768933781993007 -0.15369608181255809 0 -0.17856324423929071 -0.13411692648003359 0 -0.1900158864605431 -0.1418606691544825 0 -0.17856324423929071 -0.13411692648003359 0 -0.1912596026832544 -0.12883579632457359 0 -0.1900158864605431 -0.1418606691544825 0 -0.17856324423929071 -0.13411692648003359 0 -0.1912596026832544 -0.12883579632457359 0 -0.18212358698306741 -0.12142770117184561 0 -0.17856324423929071 -0.13411692648003359 0 -0.18212358698306741 -0.12142770117184561 0 -0.16904936396502779 -0.1225698900008125 0 -0.16449988742022109 -0.13664022397910389 0 -0.16904936396502779 -0.1225698900008125 0 -0.1531014227808439 -0.1221458571451004 0 -0.17856324423929071 -0.13411692648003359 0 -0.16449988742022109 -0.13664022397910389 0 -0.16904936396502779 -0.1225698900008125 0 -0.1483318871288308 -0.14990625910496369 0 -0.1768933781993007 -0.15369608181255809 0 -0.1483318871288308 -0.14990625910496369 0 -0.1768933781993007 -0.15369608181255809 0 -0.16449988742022109 -0.13664022397910389 0 -0.15566934165753701 -0.24482136105764621 0 -0.13482897363606841 -0.24297815366164491 0 -0.14564999181442231 -0.22989611270817639 0 -0.15566934165753701 -0.24482136105764621 0 -0.14564999181442231 -0.22989611270817639 0 -0.16429012863802009 -0.23491512272004891 0 -0.15821309250511281 -0.26118480488572993 0 -0.15566934165753701 -0.24482136105764621 0 -0.13482897363606841 -0.24297815366164491 0 -0.1283361407779757 -0.25159171728621699 0 -0.13482897363606841 -0.24297815366164491 0 -0.1310987251445577 -0.2446583467236331 0 -0.1283361407779757 -0.25159171728621699 0 -0.1310987251445577 -0.2446583467236331 0 -0.1270777831465402 -0.24161244513161839 0 -0.1283361407779757 -0.25159171728621699 0 -0.11992695639240671 -0.24305274461581289 0 -0.1270777831465402 -0.24161244513161839 0 -0.13482897363606841 -0.24297815366164491 0 -0.1310987251445577 -0.2446583467236331 0 -0.1270777831465402 -0.24161244513161839 0 -0.13482897363606841 -0.24297815366164491 0 -0.12594535918601221 -0.23537450645762351 0 -0.1270777831465402 -0.24161244513161839 0 -0.13482897363606841 -0.24297815366164491 0 -0.12964778408632779 -0.2240559515308029 0 -0.14564999181442231 -0.22989611270817639 0 -0.13482897363606841 -0.24297815366164491 0 -0.12594535918601221 -0.23537450645762351 0 -0.12964778408632779 -0.2240559515308029 0 -0.13482897363606841 -0.24297815366164491 0 -0.12964778408632779 -0.2240559515308029 0 -0.12964778408632779 -0.2240559515308029 0 -0.14564999181442231 -0.22989611270817639 0 -0.13906082520362789 -0.21424948005767519 0 -0.14564999181442231 -0.22989611270817639 0 -0.1532157355819776 -0.21469763412746851 0 -0.16429012863802009 -0.23491512272004891 0 -0.14564999181442231 -0.22989611270817639 0 -0.1532157355819776 -0.21469763412746851 0 -0.13906082520362789 -0.21424948005767519 0 -0.1532157355819776 -0.21469763412746851 0 -0.1421413425259351 -0.1944801455348881 0 -0.14344356041104711 -0.20138231805780499 0 -0.1532157355819776 -0.21469763412746851 0 -0.1421413425259351 -0.1944801455348881 0 -0.1532157355819776 -0.21469763412746851 0 -0.13906082520362789 -0.21424948005767519 0 -0.14344356041104711 -0.20138231805780499 0 -0.12964778408632779 -0.2240559515308029 0 -0.13906082520362789 -0.21424948005767519 0 -0.12775347419704111 -0.20670520812175669 0 -0.12446659453658469 -0.2051337493999616 0 -0.12964778408632779 -0.2240559515308029 0 -0.12775347419704111 -0.20670520812175669 0 -0.12446659453658469 -0.2051337493999616 0 -0.12964778408632779 -0.2240559515308029 0 -0.1234142843990034 -0.20129061165398179 0 -0.12775347419704111 -0.20670520812175669 0 -0.1342433848347403 -0.2059710501757869 0 -0.1234142843990034 -0.20129061165398179 0 -0.12446659453658469 -0.2051337493999616 0 -0.12775347419704111 -0.20670520812175669 0 -0.12446659453658469 -0.2051337493999616 0 -0.12775347419704111 -0.20670520812175669 0 -0.13906082520362789 -0.21424948005767519 0 -0.12775347419704111 -0.20670520812175669 0 -0.1342433848347403 -0.2059710501757869 0 -0.13906082520362789 -0.21424948005767519 0 -0.1342433848347403 -0.2059710501757869 0 -0.14344356041104711 -0.20138231805780499 0 -0.13448747671815081 -0.19705371152474219 0 -0.1421413425259351 -0.1944801455348881 0 -0.14344356041104711 -0.20138231805780499 0 -0.1234142843990034 -0.20129061165398179 0 -0.1342433848347403 -0.2059710501757869 0 -0.14344356041104711 -0.20138231805780499 0 -0.1234142843990034 -0.20129061165398179 0 -0.13448747671815081 -0.19705371152474219 0 -0.14344356041104711 -0.20138231805780499 0 -0.1234142843990034 -0.20129061165398179 0 -0.14344356041104711 -0.20138231805780499 0 -0.1234142843990034 -0.20129061165398179 0 -0.13448747671815081 -0.19705371152474219 0 -0.12836978379805469 -0.19505845874684749 0 -0.118443644943155 -0.18313735869921541 0 -0.12836978379805469 -0.19505845874684749 0 -0.12964513627792831 -0.18854704193980709 0 -0.12836978379805469 -0.19505845874684749 0 -0.12964513627792831 -0.18854704193980709 0 -0.1350684124567138 -0.19305702363018909 0 -0.13448747671815081 -0.19705371152474219 0 -0.12836978379805469 -0.19505845874684749 0 -0.1350684124567138 -0.19305702363018909 0 -0.13667151748925299 -0.18732448341615179 0 -0.12964513627792831 -0.18854704193980709 0 -0.1350684124567138 -0.19305702363018909 0 -0.13448747671815081 -0.19705371152474219 0 -0.1350684124567138 -0.19305702363018909 0 -0.1421413425259351 -0.1944801455348881 0 -0.13667151748925299 -0.18732448341615179 0 -0.1350684124567138 -0.19305702363018909 0 -0.1421413425259351 -0.1944801455348881 0 -0.1532157355819776 -0.21469763412746851 0 -0.1421413425259351 -0.1944801455348881 0 -0.15666351948114629 -0.1995899832452937 0 -0.13667151748925299 -0.18732448341615179 0 -0.14496415935730611 -0.1865433765957375 0 -0.1421413425259351 -0.1944801455348881 0 -0.14496415935730611 -0.1865433765957375 0 -0.1421413425259351 -0.1944801455348881 0 -0.15433817598466459 -0.18776234762491931 0 -0.1421413425259351 -0.1944801455348881 0 -0.15433817598466459 -0.18776234762491931 0 -0.15666351948114629 -0.1995899832452937 0 -0.15433817598466459 -0.18776234762491931 0 -0.15666351948114629 -0.1995899832452937 0 -0.16707343948115469 -0.19329854854562631 0 -0.15666351948114629 -0.1995899832452937 0 -0.16707343948115469 -0.19329854854562631 0 -0.16732224548458891 -0.20842311436722119 0 -0.16707343948115469 -0.19329854854562631 0 -0.17975878066101059 -0.20042989322362739 0 -0.16732224548458891 -0.20842311436722119 0 -0.17993745220376059 -0.17895489523397801 0 -0.17975878066101059 -0.20042989322362739 0 -0.19266467917721081 -0.1936257676085566 0 -0.17993745220376059 -0.17895489523397801 0 -0.16707343948115469 -0.19329854854562631 0 -0.17975878066101059 -0.20042989322362739 0 -0.17975878066101059 -0.20042989322362739 0 -0.18070391625864071 -0.21863984915545301 0 -0.19253239785726259 -0.2093467412910768 0 -0.17975878066101059 -0.20042989322362739 0 -0.18070391625864071 -0.21863984915545301 0 -0.16732224548458891 -0.20842311436722119 0 -0.1532157355819776 -0.21469763412746851 0 -0.15666351948114629 -0.1995899832452937 0 -0.16732224548458891 -0.20842311436722119 0 -0.1532157355819776 -0.21469763412746851 0 -0.16732224548458891 -0.20842311436722119 0 -0.16429012863802009 -0.23491512272004891 0 -0.1532157355819776 -0.21469763412746851 0 -0.16429012863802009 -0.23491512272004891 0 -0.18070391625864071 -0.21863984915545301 0 -0.16732224548458891 -0.20842311436722119 0 -0.16429012863802009 -0.23491512272004891 0 -0.18070391625864071 -0.21863984915545301 0 -0.18601458812680871 -0.23629827425452701 0 -0.16429012863802009 -0.23491512272004891 0 -0.18070391625864071 -0.21863984915545301 0 -0.18601458812680871 -0.23629827425452701 0 -0.19270158591305361 -0.22296204550849591 0 -0.17536452169406261 -0.25513261131262932 0 -0.18601458812680871 -0.23629827425452701 0 -0.1971211098569064 -0.2485562144643311 0 -0.17536452169406261 -0.25513261131262932 0 -0.18601458812680871 -0.23629827425452701 0 -0.16429012863802009 -0.23491512272004891 0 -0.17536452169406261 -0.25513261131262932 0 -0.16429012863802009 -0.23491512272004891 0 -0.17536452169406261 -0.25513261131262932 0 -0.15566934165753701 -0.24482136105764621 0 -0.16429012863802009 -0.23491512272004891 0 -0.2040044810152343 -0.23377727090047351 0 -0.22181314593257209 -0.22697511150882529 0 -0.22025275826160279 -0.2471257797298928 0 -0.1971211098569064 -0.2485562144643311 0 -0.2040044810152343 -0.23377727090047351 0 -0.22025275826160279 -0.2471257797298928 0 -0.18601458812680871 -0.23629827425452701 0 -0.1971211098569064 -0.2485562144643311 0 -0.2040044810152343 -0.23377727090047351 0 -0.18601458812680871 -0.23629827425452701 0 -0.19270158591305361 -0.22296204550849591 0 -0.2040044810152343 -0.23377727090047351 0 -0.19270158591305361 -0.22296204550849591 0 -0.20646661184779291 -0.2209366033754204 0 -0.2040044810152343 -0.23377727090047351 0 -0.20646661184779291 -0.2209366033754204 0 -0.2040044810152343 -0.23377727090047351 0 -0.22181314593257209 -0.22697511150882529 0 -0.20646661184779291 -0.2209366033754204 0 -0.22181314593257209 -0.22697511150882529 0 -0.20646661184779291 -0.2209366033754204 0 -0.21966781828876961 -0.21222017746694699 0 -0.22181314593257209 -0.22697511150882529 0 -0.20646661184779291 -0.2209366033754204 0 -0.20611948272011121 -0.20304611138236681 0 -0.21966781828876961 -0.21222017746694699 0 -0.20611948272011121 -0.20304611138236681 0 -0.21897926871800019 -0.19669337567287831 0 -0.21966781828876961 -0.21222017746694699 0 -0.20646661184779291 -0.2209366033754204 0 -0.19253239785726259 -0.2093467412910768 0 -0.20611948272011121 -0.20304611138236681 0 -0.19270158591305361 -0.22296204550849591 0 -0.20646661184779291 -0.2209366033754204 0 -0.19253239785726259 -0.2093467412910768 0 -0.18070391625864071 -0.21863984915545301 0 -0.19270158591305361 -0.22296204550849591 0 -0.19253239785726259 -0.2093467412910768 0 -0.19266467917721081 -0.1936257676085566 0 -0.20611948272011121 -0.20304611138236681 0 -0.2083219237785757 -0.1873320277690235 0 -0.17975878066101059 -0.20042989322362739 0 -0.19253239785726259 -0.2093467412910768 0 -0.19266467917721081 -0.1936257676085566 0 -0.19253239785726259 -0.2093467412910768 0 -0.19266467917721081 -0.1936257676085566 0 -0.20611948272011121 -0.20304611138236681 0 -0.20611948272011121 -0.20304611138236681 0 -0.21897926871800019 -0.19669337567287831 0 -0.2083219237785757 -0.1873320277690235 0 -0.21897926871800019 -0.19669337567287831 0 -0.23230424975577199 -0.20503470769258789 0 -0.23313215691775949 -0.18450877018534409 0 -0.2448317244682672 -0.19494017856122331 0 -0.23230424975577199 -0.20503470769258789 0 -0.23313215691775949 -0.18450877018534409 0 -0.2448317244682672 -0.19494017856122331 0 -0.24405101732391901 -0.2151790953022156 0 -0.23230424975577199 -0.20503470769258789 0 -0.2448317244682672 -0.19494017856122331 0 -0.24405101732391901 -0.2151790953022156 0 -0.24405101732391901 -0.2151790953022156 0 -0.23230424975577199 -0.20503470769258789 0 -0.23232415075836929 -0.22063515516960361 0 -0.23230424975577199 -0.20503470769258789 0 -0.21966781828876961 -0.21222017746694699 0 -0.23232415075836929 -0.22063515516960361 0 -0.21897926871800019 -0.19669337567287831 0 -0.23230424975577199 -0.20503470769258789 0 -0.21966781828876961 -0.21222017746694699 0 -0.21966781828876961 -0.21222017746694699 0 -0.22181314593257209 -0.22697511150882529 0 -0.23232415075836929 -0.22063515516960361 0 -0.22181314593257209 -0.22697511150882529 0 -0.23232415075836929 -0.22063515516960361 0 -0.2371596800173508 -0.23301361964223161 0 -0.22181314593257209 -0.22697511150882529 0 -0.2371596800173508 -0.23301361964223161 0 -0.24405101732391901 -0.2151790953022156 0 -0.24327031017957049 -0.23541801204320789 0 -0.24405101732391901 -0.2151790953022156 0 -0.24327031017957049 -0.23541801204320789 0 -0.25588924886857078 -0.22577026586403889 0 -0.24405101732391901 -0.2151790953022156 0 -0.23232415075836929 -0.22063515516960361 0 -0.23916826383476761 -0.23133706037317611 0 -0.24405101732391901 -0.2151790953022156 0 -0.23916826383476761 -0.23133706037317611 0 -0.24327031017957049 -0.23541801204320789 0 -0.23916826383476761 -0.23133706037317611 0 -0.2371596800173508 -0.23301361964223161 0 -0.24327031017957049 -0.23541801204320789 0 -0.2371596800173508 -0.23301361964223161 0 -0.24327031017957049 -0.23541801204320789 0 -0.23232415075836929 -0.22063515516960361 0 -0.23916826383476761 -0.23133706037317611 0 -0.2371596800173508 -0.23301361964223161 0 -0.23916826383476761 -0.23133706037317611 0 -0.2371596800173508 -0.23301361964223161 0 -0.24233717299785959 -0.25960849866204011 0 -0.24327031017957049 -0.23541801204320789 0 -0.23442911476228809 -0.24683612341654529 0 -0.24233717299785959 -0.25960849866204011 0 -0.24327031017957049 -0.23541801204320789 0 -0.25018128361314113 -0.24746468840205441 0 -0.2371596800173508 -0.23301361964223161 0 -0.24327031017957049 -0.23541801204320789 0 -0.23442911476228809 -0.24683612341654529 0 -0.24233717299785959 -0.25960849866204011 0 -0.24327031017957049 -0.23541801204320789 0 -0.2371596800173508 -0.23301361964223161 0 -0.22025275826160279 -0.2471257797298928 0 -0.2371596800173508 -0.23301361964223161 0 -0.23442911476228809 -0.24683612341654529 0 -0.22025275826160279 -0.2471257797298928 0 -0.22181314593257209 -0.22697511150882529 0 -0.2371596800173508 -0.23301361964223161 0 -0.22025275826160279 -0.2471257797298928 0 -0.21260261997950849 -0.1372892749024191 0 -0.20545486926977061 -0.1574859045201529 0 -0.21260261997950849 -0.1372892749024191 0 -0.20545486926977061 -0.1574859045201529 0 -0.22601880180638709 -0.14497793796819641 0 -0.21260261997950849 -0.1372892749024191 0 -0.20085213665154589 -0.13643960324073179 0 -0.20545486926977061 -0.1574859045201529 0 -0.21260261997950849 -0.1372892749024191 0 -0.2197503706892443 -0.1170926452846846 0 -0.20366324778073339 -0.1226314006036201 0 -0.21260261997950849 -0.1372892749024191 0 -0.2197503706892443 -0.1170926452846846 0 -0.21260261997950849 -0.1372892749024191 0 -0.20085213665154589 -0.13643960324073179 0 -0.20366324778073339 -0.1226314006036201 0 -0.20085213665154589 -0.13643960324073179 0 -0.1912596026832544 -0.12883579632457359 0 -0.20366324778073339 -0.1226314006036201 0 -0.20085213665154589 -0.13643960324073179 0 -0.1912596026832544 -0.12883579632457359 0 -0.1900158864605431 -0.1418606691544825 0 -0.1768933781993007 -0.15369608181255809 0 -0.1900158864605431 -0.1418606691544825 0 -0.20545486926977061 -0.1574859045201529 0 -0.1768933781993007 -0.15369608181255809 0 -0.20545486926977061 -0.1574859045201529 0 -0.20085213665154589 -0.13643960324073179 0 -0.1900158864605431 -0.1418606691544825 0 -0.20545486926977061 -0.1574859045201529 0 -0.1768933781993007 -0.15369608181255809 0 -0.19905977422349169 -0.1755558360643551 0 -0.20545486926977061 -0.1574859045201529 0 -0.19905977422349169 -0.1755558360643551 0 -0.20545486926977061 -0.1574859045201529 0 -0.19266467917721081 -0.1936257676085566 0 -0.19905977422349169 -0.1755558360643551 0 -0.19266467917721081 -0.1936257676085566 0 -0.19905977422349169 -0.1755558360643551 0 -0.2083219237785757 -0.1873320277690235 0 -0.17993745220376059 -0.17895489523397801 0 -0.19266467917721081 -0.1936257676085566 0 -0.19905977422349169 -0.1755558360643551 0 -0.21897926871800019 -0.19669337567287831 0 -0.2083219237785757 -0.1873320277690235 0 -0.21860002285518379 -0.17692462022396371 0 -0.19905977422349169 -0.1755558360643551 0 -0.2083219237785757 -0.1873320277690235 0 -0.21860002285518379 -0.17692462022396371 0 -0.19905977422349169 -0.1755558360643551 0 -0.21860002285518379 -0.17692462022396371 0 -0.20545486926977061 -0.1574859045201529 0 -0.21860002285518379 -0.17692462022396371 0 -0.20545486926977061 -0.1574859045201529 0 -0.2334194436613071 -0.16119652238585741 0 -0.20545486926977061 -0.1574859045201529 0 -0.2334194436613071 -0.16119652238585741 0 -0.21860002285518379 -0.17692462022396371 0 -0.2334194436613071 -0.16119652238585741 0 -0.23313215691775949 -0.18450877018534409 0 -0.21897926871800019 -0.19669337567287831 0 -0.21860002285518379 -0.17692462022396371 0 -0.23313215691775949 -0.18450877018534409 0 -0.2448317244682672 -0.19494017856122331 0 -0.24561243161261531 -0.1747012618202311 0 -0.2448317244682672 -0.19494017856122331 0 -0.23313215691775949 -0.18450877018534409 0 -0.24561243161261531 -0.1747012618202311 0 -0.2334194436613071 -0.16119652238585741 0 -0.23313215691775949 -0.18450877018534409 0 -0.24561243161261531 -0.1747012618202311 0 -0.2334194436613071 -0.16119652238585741 0 -0.24768759332024501 -0.15288591991307249 0 -0.26138401805284373 -0.16490714025156239 0 -0.2334194436613071 -0.16119652238585741 0 -0.24561243161261531 -0.1747012618202311 0 -0.26138401805284373 -0.16490714025156239 0 -0.2334194436613071 -0.16119652238585741 0 -0.26138401805284373 -0.16490714025156239 0 -0.24768759332024501 -0.15288591991307249 0 -0.24035206963199701 -0.13773520297616959 0 -0.25066558347885931 -0.13251764995053431 0 -0.23716828236838119 -0.14842713651880179 0 -0.22601880180638709 -0.14497793796819641 0 -0.24035206963199701 -0.13773520297616959 0 -0.24768759332024501 -0.15288591991307249 0 -0.23716828236838119 -0.14842713651880179 0 -0.24035206963199701 -0.13773520297616959 0 -0.2334194436613071 -0.16119652238585741 0 -0.24768759332024501 -0.15288591991307249 0 -0.23716828236838119 -0.14842713651880179 0 -0.20545486926977061 -0.1574859045201529 0 -0.2334194436613071 -0.16119652238585741 0 -0.22601880180638709 -0.14497793796819641 0 -0.2334194436613071 -0.16119652238585741 0 -0.23716828236838119 -0.14842713651880179 0 -0.22601880180638709 -0.14497793796819641 0 -0.21260261997950849 -0.1372892749024191 0 -0.22701037204806629 -0.12800517972509859 0 -0.2197503706892443 -0.1170926452846846 0 -0.22601880180638709 -0.14497793796819641 0 -0.22701037204806629 -0.12800517972509859 0 -0.24035206963199701 -0.13773520297616959 0 -0.21260261997950849 -0.1372892749024191 0 -0.22601880180638709 -0.14497793796819641 0 -0.22701037204806629 -0.12800517972509859 0 -0.22701037204806629 -0.12800517972509859 0 -0.23833475363582929 -0.12699719077821001 0 -0.24035206963199701 -0.13773520297616959 0 -0.23833475363582929 -0.12699719077821001 0 -0.24035206963199701 -0.13773520297616959 0 -0.25066558347885931 -0.13251764995053431 0 -0.23833475363582929 -0.12699719077821001 0 -0.2466021228926524 -0.1215603100838341 0 -0.25066558347885931 -0.13251764995053431 0 -0.2466021228926524 -0.1215603100838341 0 -0.23420880670407421 -0.115344861449812 0 -0.25028307647261949 -0.1119170655065333 0 -0.23833475363582929 -0.12699719077821001 0 -0.2466021228926524 -0.1215603100838341 0 -0.23420880670407421 -0.115344861449812 0 -0.23975108867161321 -0.096745383671773488 0 -0.23420880670407421 -0.115344861449812 0 -0.25028307647261949 -0.1119170655065333 0 -0.23975108867161321 -0.096745383671773488 0 -0.25028307647261949 -0.1119170655065333 0 -0.25454071313255938 -0.097810231909066098 0 -0.23975108867161321 -0.096745383671773488 0 -0.22550089202944229 -0.1008440162637169 0 -0.23125141336964011 -0.084595387242749231 0 -0.23975108867161321 -0.096745383671773488 0 -0.22550089202944229 -0.1008440162637169 0 -0.23420880670407421 -0.115344861449812 0 -0.22550089202944229 -0.1008440162637169 0 -0.23125141336964011 -0.084595387242749231 0 -0.20770402821161371 -0.098985744105056478 0 -0.22550089202944229 -0.1008440162637169 0 -0.2197503706892443 -0.1170926452846846 0 -0.22550089202944229 -0.1008440162637169 0 -0.2197503706892443 -0.1170926452846846 0 -0.23420880670407421 -0.115344861449812 0 -0.22701037204806629 -0.12800517972509859 0 -0.2197503706892443 -0.1170926452846846 0 -0.22701037204806629 -0.12800517972509859 0 -0.2197503706892443 -0.1170926452846846 0 -0.23420880670407421 -0.115344861449812 0 -0.22701037204806629 -0.12800517972509859 0 -0.23833475363582929 -0.12699719077821001 0 -0.23420880670407421 -0.115344861449812 0 -0.24621250417125429 -0.067242688607955695 0 -0.2359213828018043 -0.071399957410672343 0 -0.2460442741291925 -0.056732515276429897 0 -0.24101683233652779 -0.07862751170581421 0 -0.252754029676304 -0.071454636367457428 0 -0.24621250417125429 -0.067242688607955695 0 -0.24101683233652779 -0.07862751170581421 0 -0.252754029676304 -0.071454636367457428 0 -0.2359213828018043 -0.071399957410672343 0 -0.24101683233652779 -0.07862751170581421 0 -0.24621250417125429 -0.067242688607955695 0 -0.2359213828018043 -0.071399957410672343 0 -0.24101683233652779 -0.07862751170581421 0 -0.24101683233652779 -0.07862751170581421 0 -0.25454071313255938 -0.097810231909066098 0 -0.23975108867161321 -0.096745383671773488 0 -0.24101683233652779 -0.07862751170581421 0 -0.25454071313255938 -0.097810231909066098 0 -0.23975108867161321 -0.096745383671773488 0 -0.24101683233652779 -0.07862751170581421 0 -0.23125141336964011 -0.084595387242749231 0 -0.24101683233652779 -0.07862751170581421 0 -0.23125141336964011 -0.084595387242749231 0 -0.2359213828018043 -0.071399957410672343 0 -0.24101683233652779 -0.07862751170581421 0 -0.23125141336964011 -0.084595387242749231 0 -0.23125141336964011 -0.084595387242749231 0 -0.2244703125416819 -0.072794076224461268 0 -0.21310247649950159 -0.079773441579648038 0 -0.23125141336964011 -0.084595387242749231 0 -0.20770402821161371 -0.098985744105056478 0 -0.22550089202944229 -0.1008440162637169 0 -0.23125141336964011 -0.084595387242749231 0 -0.2359213828018043 -0.071399957410672343 0 -0.2235514570548072 -0.053854045248439182 0 -0.2244703125416819 -0.072794076224461268 0 -0.21482267827762841 -0.069082647852091478 0 -0.2235514570548072 -0.053854045248439182 0 -0.2359213828018043 -0.071399957410672343 0 -0.2244703125416819 -0.072794076224461268 0 -0.2235514570548072 -0.053854045248439182 0 -0.2359213828018043 -0.071399957410672343 0 -0.23125141336964011 -0.084595387242749231 0 -0.2244703125416819 -0.072794076224461268 0 -0.2359213828018043 -0.071399957410672343 0 -0.23125141336964011 -0.084595387242749231 0 -0.20472732395068391 -0.070425609547595483 0 -0.21310247649950159 -0.079773441579648038 0 -0.1942101978544846 -0.078703118630565005 0 -0.21482267827762841 -0.069082647852091478 0 -0.20472732395068391 -0.070425609547595483 0 -0.20783277774853701 -0.056374475910446593 0 -0.2244703125416819 -0.072794076224461268 0 -0.21482267827762841 -0.069082647852091478 0 -0.21310247649950159 -0.079773441579648038 0 -0.21482267827762841 -0.069082647852091478 0 -0.20472732395068391 -0.070425609547595483 0 -0.21310247649950159 -0.079773441579648038 0 -0.23125141336964011 -0.084595387242749231 0 -0.21310247649950159 -0.079773441579648038 0 -0.20770402821161371 -0.098985744105056478 0 -0.21310247649950159 -0.079773441579648038 0 -0.1942101978544846 -0.078703118630565005 0 -0.20770402821161371 -0.098985744105056478 0 -0.1942101978544846 -0.078703118630565005 0 -0.20770402821161371 -0.098985744105056478 0 -0.1942101978544846 -0.078703118630565005 0 -0.20770402821161371 -0.098985744105056478 0 -0.19331927689223261 -0.094690670375105077 0 -0.1942101978544846 -0.078703118630565005 0 -0.19331927689223261 -0.094690670375105077 0 -0.1804061946459036 -0.0975656506999769 0 -0.1942101978544846 -0.078703118630565005 0 -0.1807163674973549 -0.058420493156073998 0 -0.19569491766720151 -0.061370611856350392 0 -0.20472732395068391 -0.070425609547595483 0 -0.1942101978544846 -0.078703118630565005 0 -0.19569491766720151 -0.061370611856350392 0 -0.20472732395068391 -0.070425609547595483 0 -0.19569491766720151 -0.061370611856350392 0 -0.20783277774853701 -0.056374475910446593 0 -0.2197503706892443 -0.1170926452846846 0 -0.20366324778073339 -0.1226314006036201 0 -0.20770402821161371 -0.098985744105056478 0 -0.22550089202944229 -0.1008440162637169 0 -0.2197503706892443 -0.1170926452846846 0 -0.20770402821161371 -0.098985744105056478 0 -0.2197503706892443 -0.1170926452846846 0 -0.20770402821161371 -0.098985744105056478 0 -0.20770402821161371 -0.098985744105056478 0 -0.19331927689223261 -0.094690670375105077 0 -0.18400427859456039 -0.1134692144457318 0 -0.20770402821161371 -0.098985744105056478 0 -0.18400427859456039 -0.1134692144457318 0 -0.20770402821161371 -0.098985744105056478 0 -0.19170728544238649 -0.1194909919475228 0 -0.18400427859456039 -0.1134692144457318 0 -0.20366324778073339 -0.1226314006036201 0 -0.20770402821161371 -0.098985744105056478 0 -0.19170728544238649 -0.1194909919475228 0 -0.1912596026832544 -0.12883579632457359 0 -0.20366324778073339 -0.1226314006036201 0 -0.19170728544238649 -0.1194909919475228 0 -0.1912596026832544 -0.12883579632457359 0 -0.19170728544238649 -0.1194909919475228 0 -0.18212358698306741 -0.12142770117184561 0 -0.18212358698306741 -0.12142770117184561 0 -0.18400427859456039 -0.1134692144457318 0 -0.1804061946459036 -0.0975656506999769 0 -0.18212358698306741 -0.12142770117184561 0 -0.17231042801981861 -0.11010941660198729 0 -0.1804061946459036 -0.0975656506999769 0 -0.19170728544238649 -0.1194909919475228 0 -0.18212358698306741 -0.12142770117184561 0 -0.18400427859456039 -0.1134692144457318 0 -0.18212358698306741 -0.12142770117184561 0 -0.1804061946459036 -0.0975656506999769 0 -0.18212358698306741 -0.12142770117184561 0 -0.17231042801981861 -0.11010941660198729 0 -0.16904936396502779 -0.1225698900008125 0 -0.16904936396502779 -0.1225698900008125 0 -0.16303186383997401 -0.11054530689275879 0 -0.1531014227808439 -0.1221458571451004 0 -0.16303186383997401 -0.11054530689275879 0 -0.1531014227808439 -0.1221458571451004 0 -0.15302467802266631 -0.099964594768007481 0 -0.17231042801981861 -0.11010941660198729 0 -0.16904936396502779 -0.1225698900008125 0 -0.16303186383997401 -0.11054530689275879 0 -0.16694113066512001 -0.098438534244542714 0 -0.1583311292500037 -0.086155785580523059 0 -0.15302467802266631 -0.099964594768007481 0 -0.16303186383997401 -0.11054530689275879 0 -0.16694113066512001 -0.098438534244542714 0 -0.15302467802266631 -0.099964594768007481 0 -0.17231042801981861 -0.11010941660198729 0 -0.16303186383997401 -0.11054530689275879 0 -0.16694113066512001 -0.098438534244542714 0 -0.16694113066512001 -0.098438534244542714 0 -0.1804061946459036 -0.0975656506999769 0 -0.1699979234477183 -0.086164615643162509 0 -0.19331927689223261 -0.094690670375105077 0 -0.18400427859456039 -0.1134692144457318 0 -0.1804061946459036 -0.0975656506999769 0 -0.17231042801981861 -0.11010941660198729 0 -0.16694113066512001 -0.098438534244542714 0 -0.1804061946459036 -0.0975656506999769 0 -0.1942101978544846 -0.078703118630565005 0 -0.1804061946459036 -0.0975656506999769 0 -0.17868880230873979 -0.073703600228108263 0 -0.1804061946459036 -0.0975656506999769 0 -0.17868880230873979 -0.073703600228108263 0 -0.1804061946459036 -0.0975656506999769 0 -0.17868880230873979 -0.073703600228108263 0 -0.1699979234477183 -0.086164615643162509 0 -0.1942101978544846 -0.078703118630565005 0 -0.17868880230873979 -0.073703600228108263 0 -0.1807163674973549 -0.058420493156073998 0 -0.1942101978544846 -0.078703118630565005 0 -0.1807163674973549 -0.058420493156073998 0 -0.17868880230873979 -0.073703600228108263 0 -0.16456215259537851 -0.07423447470758808 0 -0.1687761726195266 -0.062055246708151823 0 -0.16456215259537851 -0.07423447470758808 0 -0.1601060057786266 -0.063048208625582775 0 -0.1687761726195266 -0.062055246708151823 0 -0.17868880230873979 -0.073703600228108263 0 -0.16456215259537851 -0.07423447470758808 0 -0.1699979234477183 -0.086164615643162509 0 -0.16456215259537851 -0.07423447470758808 0 -0.1601060057786266 -0.063048208625582775 0 -0.15147288216765581 -0.074279391460000108 0 -0.16694113066512001 -0.098438534244542714 0 -0.1699979234477183 -0.086164615643162509 0 -0.1583311292500037 -0.086155785580523059 0 -0.16456215259537851 -0.07423447470758808 0 -0.1699979234477183 -0.086164615643162509 0 -0.1583311292500037 -0.086155785580523059 0 -0.16456215259537851 -0.07423447470758808 0 -0.1583311292500037 -0.086155785580523059 0 -0.15147288216765581 -0.074279391460000108 0 -0.1583311292500037 -0.086155785580523059 0 -0.1406917504718985 -0.083199174386461974 0 -0.15147288216765581 -0.074279391460000108 0 -0.1583311292500037 -0.086155785580523059 0 -0.1406917504718985 -0.083199174386461974 0 -0.15302467802266631 -0.099964594768007481 0 -0.1601060057786266 -0.063048208625582775 0 -0.15147288216765581 -0.074279391460000108 0 -0.14916280428309589 -0.053864076679432472 0 -0.15147288216765581 -0.074279391460000108 0 -0.13891648936515211 -0.064472249171247775 0 -0.14916280428309589 -0.053864076679432472 0 -0.1406917504718985 -0.083199174386461974 0 -0.15147288216765581 -0.074279391460000108 0 -0.13891648936515211 -0.064472249171247775 0 -0.12197003300458489 -0.067133964797042034 0 -0.1406917504718985 -0.083199174386461974 0 -0.13891648936515211 -0.064472249171247775 0 -0.121811479392537 -0.084095963505499416 0 -0.12197003300458489 -0.067133964797042034 0 -0.1406917504718985 -0.083199174386461974 0 -0.121811479392537 -0.084095963505499416 0 -0.1406917504718985 -0.083199174386461974 0 -0.13931556210068971 -0.10629227142291391 0 -0.11605893441195141 -0.10185107539240761 0 -0.121811479392537 -0.084095963505499416 0 -0.13931556210068971 -0.10629227142291391 0 -0.11422347955810171 -0.1204243593602408 0 -0.13931556210068971 -0.10629227142291391 0 -0.11422347955810171 -0.1204243593602408 0 -0.13445671698849809 -0.1291024538471422 0 -0.13931556210068971 -0.10629227142291391 0 -0.13445671698849809 -0.1291024538471422 0 -0.13931556210068971 -0.10629227142291391 0 -0.1531014227808439 -0.1221458571451004 0 -0.13931556210068971 -0.10629227142291391 0 -0.1531014227808439 -0.1221458571451004 0 -0.15302467802266631 -0.099964594768007481 0 -0.1406917504718985 -0.083199174386461974 0 -0.13931556210068971 -0.10629227142291391 0 -0.15302467802266631 -0.099964594768007481 0 -0.14079925107272581 -0.02334449083682992 0 -0.15349169287978739 -0.035208883327978051 0 -0.15939520176274349 -0.015620398581745401 0 -0.14079925107272581 -0.02334449083682992 0 -0.14275634286812811 -0.006203461430080404 0 -0.15939520176274349 -0.015620398581745401 0 -0.14275634286812811 -0.006203461430080404 0 -0.15939520176274349 -0.015620398581745401 0 -0.15796117991031841 -0.00029962151665172479 0 -0.14079925107272581 -0.02334449083682992 0 -0.14275634286812811 -0.006203461430080404 0 -0.1278640484455188 -0.012334690821253821 0 -0.14275634286812811 -0.006203461430080404 0 -0.1278640484455188 -0.012334690821253821 0 -0.1273771369441013 0.0023450629401116992 0 -0.12411398995058071 -0.026208981462584841 0 -0.14079925107272581 -0.02334449083682992 0 -0.1278640484455188 -0.012334690821253821 0 -0.12411398995058071 -0.026208981462584841 0 -0.14079925107272581 -0.02334449083682992 0 -0.13241258759658719 -0.044529255409706578 0 -0.13891648936515211 -0.064472249171247775 0 -0.13241258759658719 -0.044529255409706578 0 -0.14916280428309589 -0.053864076679432472 0 -0.12197003300458489 -0.067133964797042034 0 -0.13891648936515211 -0.064472249171247775 0 -0.13241258759658719 -0.044529255409706578 0 -0.14079925107272581 -0.02334449083682992 0 -0.13241258759658719 -0.044529255409706578 0 -0.15349169287978739 -0.035208883327978051 0 -0.14916280428309589 -0.053864076679432472 0 -0.15349169287978739 -0.035208883327978051 0 -0.16249228466986629 -0.048723367468166891 0 -0.13241258759658719 -0.044529255409706578 0 -0.14916280428309589 -0.053864076679432472 0 -0.15349169287978739 -0.035208883327978051 0 -0.15349169287978739 -0.035208883327978051 0 -0.16249228466986629 -0.048723367468166891 0 -0.17525401763441231 -0.025979499284370731 0 -0.16249228466986629 -0.048723367468166891 0 -0.17697140997157609 -0.049841549756239563 0 -0.17525401763441231 -0.025979499284370731 0 -0.1601060057786266 -0.063048208625582775 0 -0.14916280428309589 -0.053864076679432472 0 -0.16249228466986629 -0.048723367468166891 0 -0.1601060057786266 -0.063048208625582775 0 -0.16249228466986629 -0.048723367468166891 0 -0.1687761726195266 -0.062055246708151823 0 -0.16249228466986629 -0.048723367468166891 0 -0.1687761726195266 -0.062055246708151823 0 -0.17697140997157609 -0.049841549756239563 0 -0.17868880230873979 -0.073703600228108263 0 -0.17697140997157609 -0.049841549756239563 0 -0.17868880230873979 -0.073703600228108263 0 -0.17697140997157609 -0.049841549756239563 0 -0.1807163674973549 -0.058420493156073998 0 -0.17868880230873979 -0.073703600228108263 0 -0.1687761726195266 -0.062055246708151823 0 -0.17697140997157609 -0.049841549756239563 0 -0.17697140997157609 -0.049841549756239563 0 -0.187061179232277 -0.050545000195171969 0 -0.1807163674973549 -0.058420493156073998 0 -0.17697140997157609 -0.049841549756239563 0 -0.17525401763441231 -0.025979499284370731 0 -0.17697140997157609 -0.049841549756239563 0 -0.1844822702309237 -0.037308153316215523 0 -0.17525401763441231 -0.025979499284370731 0 -0.17697140997157609 -0.049841549756239563 0 -0.187061179232277 -0.050545000195171969 0 -0.1844822702309237 -0.037308153316215523 0 -0.1844822702309237 -0.037308153316215523 0 -0.17525401763441231 -0.025979499284370731 0 -0.19881160556081021 -0.01876222092397466 0 -0.17525401763441231 -0.025979499284370731 0 -0.17967452986780849 -0.0030086181600807401 0 -0.19881160556081021 -0.01876222092397466 0 -0.15349169287978739 -0.035208883327978051 0 -0.17525401763441231 -0.025979499284370731 0 -0.15939520176274349 -0.015620398581745401 0 -0.17525401763441231 -0.025979499284370731 0 -0.15939520176274349 -0.015620398581745401 0 -0.17967452986780849 -0.0030086181600807401 0 -0.15939520176274349 -0.015620398581745401 0 -0.15796117991031841 -0.00029962151665172479 0 -0.17967452986780849 -0.0030086181600807401 0 -0.17967452986780849 -0.0030086181600807401 0 -0.19881160556081021 -0.01876222092397466 0 -0.20680301002479959 -0.0020434230711429339 0 -0.1844822702309237 -0.037308153316215523 0 -0.19881160556081021 -0.01876222092397466 0 -0.19797908447346779 -0.034540675054344362 0 -0.19881160556081021 -0.01876222092397466 0 -0.19797908447346779 -0.034540675054344362 0 -0.2111815313078087 -0.036308133086206937 0 -0.19881160556081021 -0.01876222092397466 0 -0.2111815313078087 -0.036308133086206937 0 -0.19881160556081021 -0.01876222092397466 0 -0.2111815313078087 -0.036308133086206937 0 -0.21993326537292579 -0.016570742696256829 0 -0.19881160556081021 -0.01876222092397466 0 -0.20680301002479959 -0.0020434230711429339 0 -0.21993326537292579 -0.016570742696256829 0 -0.20680301002479959 -0.0020434230711429339 0 -0.21993326537292579 -0.016570742696256829 0 -0.22850437187820721 0.00061554774341724197 0 -0.187061179232277 -0.050545000195171969 0 -0.1807163674973549 -0.058420493156073998 0 -0.19569491766720151 -0.061370611856350392 0 -0.187061179232277 -0.050545000195171969 0 -0.19569491766720151 -0.061370611856350392 0 -0.1974409307943287 -0.045784192890980333 0 -0.19569491766720151 -0.061370611856350392 0 -0.1974409307943287 -0.045784192890980333 0 -0.20783277774853701 -0.056374475910446593 0 -0.187061179232277 -0.050545000195171969 0 -0.1844822702309237 -0.037308153316215523 0 -0.1974409307943287 -0.045784192890980333 0 -0.1844822702309237 -0.037308153316215523 0 -0.1974409307943287 -0.045784192890980333 0 -0.19797908447346779 -0.034540675054344362 0 -0.1974409307943287 -0.045784192890980333 0 -0.19797908447346779 -0.034540675054344362 0 -0.2111815313078087 -0.036308133086206937 0 -0.1974409307943287 -0.045784192890980333 0 -0.2111815313078087 -0.036308133086206937 0 -0.20783277774853701 -0.056374475910446593 0 -0.2111815313078087 -0.036308133086206937 0 -0.2235514570548072 -0.053854045248439182 0 -0.21482267827762841 -0.069082647852091478 0 -0.20783277774853701 -0.056374475910446593 0 -0.2235514570548072 -0.053854045248439182 0 -0.2111815313078087 -0.036308133086206937 0 -0.20783277774853701 -0.056374475910446593 0 -0.2235514570548072 -0.053854045248439182 0 -0.2359213828018043 -0.071399957410672343 0 -0.2235514570548072 -0.053854045248439182 0 -0.23385975453729951 -0.05448316257834377 0 -0.2235514570548072 -0.053854045248439182 0 -0.23385975453729951 -0.05448316257834377 0 -0.23195090370150159 -0.044148728843497582 0 -0.2111815313078087 -0.036308133086206937 0 -0.23195090370150159 -0.044148728843497582 0 -0.2330954250503823 -0.030605580137893669 0 -0.2111815313078087 -0.036308133086206937 0 -0.2235514570548072 -0.053854045248439182 0 -0.23195090370150159 -0.044148728843497582 0 -0.2440152745910836 -0.048529918810766987 0 -0.25210916638036568 -0.025659880210862549 0 -0.23195090370150159 -0.044148728843497582 0 -0.2440152745910836 -0.048529918810766987 0 -0.2330954250503823 -0.030605580137893669 0 -0.2440152745910836 -0.048529918810766987 0 -0.2330954250503823 -0.030605580137893669 0 -0.25210916638036568 -0.025659880210862549 0 -0.2359213828018043 -0.071399957410672343 0 -0.2440152745910836 -0.048529918810766987 0 -0.2460442741291925 -0.056732515276429897 0 -0.2359213828018043 -0.071399957410672343 0 -0.2440152745910836 -0.048529918810766987 0 -0.2359213828018043 -0.071399957410672343 0 -0.23385975453729951 -0.05448316257834377 0 -0.2440152745910836 -0.048529918810766987 0 -0.23385975453729951 -0.05448316257834377 0 -0.23195090370150159 -0.044148728843497582 0 -0.2440152745910836 -0.048529918810766987 0 -0.2440152745910836 -0.048529918810766987 0 -0.2460442741291925 -0.056732515276429897 0 -0.25586239660102372 -0.042106716883949957 0 -0.21993326537292579 -0.016570742696256829 0 -0.2409228609234593 -0.01213331886889705 0 -0.22850437187820721 0.00061554774341724197 0 -0.21993326537292579 -0.016570742696256829 0 -0.2330954250503823 -0.030605580137893669 0 -0.2409228609234593 -0.01213331886889705 0 -0.2111815313078087 -0.036308133086206937 0 -0.21993326537292579 -0.016570742696256829 0 -0.2330954250503823 -0.030605580137893669 0 -0.2330954250503823 -0.030605580137893669 0 -0.2409228609234593 -0.01213331886889705 0 -0.25210916638036568 -0.025659880210862549 0 -0.2409228609234593 -0.01213331886889705 0 -0.25132042997239518 0.0027134119798401068 0 -0.22850437187820721 0.00061554774341724197 0 -0.2409228609234593 -0.01213331886889705 0 -0.26431478179583978 -0.01186883573312463 0 -0.25132042997239518 0.0027134119798401068 0 -0.2409228609234593 -0.01213331886889705 0 -0.26431478179583978 -0.01186883573312463 0 -0.25210916638036568 -0.025659880210862549 0 -0.26431478179583978 -0.01186883573312463 0 -0.25210916638036568 -0.025659880210862549 0 -0.26885463380623098 -0.032431385670777198 0 -0.26431478179583978 -0.01186883573312463 0 -0.28272693982295583 -0.022072801118422261 0 -0.26885463380623098 -0.032431385670777198 0 -0.26431478179583978 -0.01186883573312463 0 -0.2820771903446922 -0.0013122005201030101 0 -0.28272693982295583 -0.022072801118422261 0 -0.26431478179583978 -0.01186883573312463 0 -0.2820771903446922 -0.0013122005201030101 0 -0.26646431581863778 0.01029557754540468 0 -0.2820771903446922 -0.0013122005201030101 0 -0.29531588189047731 -0.01459302740547606 0 -0.28272693982295583 -0.022072801118422261 0 -0.2820771903446922 -0.0013122005201030101 0 -0.29531588189047731 -0.01459302740547606 0 -0.30047775033007851 -0.00039401612408775783 0 -0.28272693982295583 -0.022072801118422261 0 -0.29548818451705972 -0.026431314805352931 0 -0.29006158744840338 -0.043009214960059237 0 -0.29531588189047731 -0.01459302740547606 0 -0.28272693982295583 -0.022072801118422261 0 -0.29548818451705972 -0.026431314805352931 0 -0.30546101391149699 -0.021623392358951481 0 -0.31536924438116293 -0.015921951660718081 0 -0.31269309410946189 -0.035953378537937578 0 -0.29531588189047731 -0.01459302740547606 0 -0.29548818451705972 -0.026431314805352931 0 -0.30546101391149699 -0.021623392358951481 0 -0.29548818451705972 -0.026431314805352931 0 -0.30546101391149699 -0.021623392358951481 0 -0.30306546886548719 -0.032455918975325043 0 -0.30546101391149699 -0.021623392358951481 0 -0.31269309410946189 -0.035953378537937578 0 -0.30546101391149699 -0.021623392358951481 0 -0.30306546886548719 -0.032455918975325043 0 -0.31269309410946189 -0.035953378537937578 0 -0.30546101391149699 -0.021623392358951481 0 -0.30702321298661528 -0.0098616365840560535 0 -0.31536924438116293 -0.015921951660718081 0 -0.30702321298661528 -0.0098616365840560535 0 -0.30047775033007851 -0.00039401612408775783 0 -0.31849217441985911 0.0032242046289520012 0 -0.29531588189047731 -0.01459302740547606 0 -0.30702321298661528 -0.0098616365840560535 0 -0.30047775033007851 -0.00039401612408775783 0 -0.29531588189047731 -0.01459302740547606 0 -0.30546101391149699 -0.021623392358951481 0 -0.30702321298661528 -0.0098616365840560535 0 -0.30785263576887473 -0.062005008750064983 0 -0.31269309410946189 -0.035953378537937578 0 -0.30785263576887473 -0.062005008750064983 0 -0.29006158744840338 -0.043009214960059237 0 -0.31269309410946189 -0.035953378537937578 0 -0.30306546886548719 -0.032455918975325043 0 -0.29006158744840338 -0.043009214960059237 0 -0.31269309410946189 -0.035953378537937578 0 -0.29006158744840338 -0.043009214960059237 0 -0.31269309410946189 -0.035953378537937578 0 -0.29548818451705972 -0.026431314805352931 0 -0.30306546886548719 -0.032455918975325043 0 -0.29006158744840338 -0.043009214960059237 0 -0.30785263576887473 -0.062005008750064983 0 -0.29006158744840338 -0.043009214960059237 0 -0.29043964680931811 -0.063340758069959313 0 -0.29006158744840338 -0.043009214960059237 0 -0.27571433008302992 -0.061323808156972907 0 -0.29043964680931811 -0.063340758069959313 0 -0.27571433008302992 -0.061323808156972907 0 -0.26805293078879788 -0.049870865118244581 0 -0.25908974683711639 -0.062912752445689821 0 -0.29006158744840338 -0.043009214960059237 0 -0.27571433008302992 -0.061323808156972907 0 -0.26805293078879788 -0.049870865118244581 0 -0.28272693982295583 -0.022072801118422261 0 -0.29006158744840338 -0.043009214960059237 0 -0.26885463380623098 -0.032431385670777198 0 -0.29006158744840338 -0.043009214960059237 0 -0.26805293078879788 -0.049870865118244581 0 -0.29006158744840338 -0.043009214960059237 0 -0.26805293078879788 -0.049870865118244581 0 -0.26885463380623098 -0.032431385670777198 0 -0.2440152745910836 -0.048529918810766987 0 -0.25210916638036568 -0.025659880210862549 0 -0.25586239660102372 -0.042106716883949957 0 -0.26805293078879788 -0.049870865118244581 0 -0.26885463380623098 -0.032431385670777198 0 -0.25586239660102372 -0.042106716883949957 0 -0.25210916638036568 -0.025659880210862549 0 -0.26885463380623098 -0.032431385670777198 0 -0.25586239660102372 -0.042106716883949957 0 -0.2460442741291925 -0.056732515276429897 0 -0.26805293078879788 -0.049870865118244581 0 -0.2460442741291925 -0.056732515276429897 0 -0.26805293078879788 -0.049870865118244581 0 -0.25908974683711639 -0.062912752445689821 0 -0.2460442741291925 -0.056732515276429897 0 -0.26805293078879788 -0.049870865118244581 0 -0.25586239660102372 -0.042106716883949957 0 -0.24621250417125429 -0.067242688607955695 0 -0.2460442741291925 -0.056732515276429897 0 -0.25908974683711639 -0.062912752445689821 0 -0.24621250417125429 -0.067242688607955695 0 -0.25908974683711639 -0.062912752445689821 0 -0.252754029676304 -0.071454636367457428 0 -0.24101683233652779 -0.07862751170581421 0 -0.252754029676304 -0.071454636367457428 0 -0.26402766811367417 -0.083484384069295273 0 -0.25908974683711639 -0.062912752445689821 0 -0.252754029676304 -0.071454636367457428 0 -0.26621243399467659 -0.070844567870559746 0 -0.252754029676304 -0.071454636367457428 0 -0.26402766811367417 -0.083484384069295273 0 -0.26621243399467659 -0.070844567870559746 0 -0.24101683233652779 -0.07862751170581421 0 -0.26402766811367417 -0.083484384069295273 0 -0.25454071313255938 -0.097810231909066098 0 -0.26402766811367417 -0.083484384069295273 0 -0.27094601368544552 -0.10060299140421709 0 -0.28369928052750421 -0.089996057638050242 0 -0.26402766811367417 -0.083484384069295273 0 -0.27947639526325851 -0.075047258313383283 0 -0.28369928052750421 -0.089996057638050242 0 -0.27571433008302992 -0.061323808156972907 0 -0.25908974683711639 -0.062912752445689821 0 -0.26621243399467659 -0.070844567870559746 0 -0.27571433008302992 -0.061323808156972907 0 -0.27947639526325851 -0.075047258313383283 0 -0.26621243399467659 -0.070844567870559746 0 -0.26402766811367417 -0.083484384069295273 0 -0.27947639526325851 -0.075047258313383283 0 -0.26621243399467659 -0.070844567870559746 0 -0.25700205454408459 -0.1228995308742117 0 -0.25028307647261949 -0.1119170655065333 0 -0.26806459392859111 -0.11699295211231781 0 -0.25700205454408459 -0.1228995308742117 0 -0.26806459392859111 -0.11699295211231781 0 -0.26633673802341562 -0.13121143084146969 0 -0.2466021228926524 -0.1215603100838341 0 -0.25700205454408459 -0.1228995308742117 0 -0.25028307647261949 -0.1119170655065333 0 -0.25454071313255938 -0.097810231909066098 0 -0.27094601368544552 -0.10060299140421709 0 -0.26806459392859111 -0.11699295211231781 0 -0.25028307647261949 -0.1119170655065333 0 -0.25454071313255938 -0.097810231909066098 0 -0.26806459392859111 -0.11699295211231781 0 -0.25454071313255938 -0.097810231909066098 0 -0.26806459392859111 -0.11699295211231781 0 -0.26402766811367417 -0.083484384069295273 0 -0.25454071313255938 -0.097810231909066098 0 -0.27094601368544552 -0.10060299140421709 0 -0.27094601368544552 -0.10060299140421709 0 -0.28498588272658609 -0.10953694176986691 0 -0.28369928052750421 -0.089996057638050242 0 -0.27094601368544552 -0.10060299140421709 0 -0.26806459392859111 -0.11699295211231781 0 -0.28498588272658609 -0.10953694176986691 0 -0.26806459392859111 -0.11699295211231781 0 -0.28498588272658609 -0.10953694176986691 0 -0.26633673802341562 -0.13121143084146969 0 -0.28498588272658609 -0.10953694176986691 0 -0.26633673802341562 -0.13121143084146969 0 -0.28390483366507108 -0.12795146285425149 0 -0.28498588272658609 -0.10953694176986691 0 -0.26633673802341562 -0.13121143084146969 0 -0.28498588272658609 -0.10953694176986691 0 -0.29939047470698632 -0.1138850881088251 0 -0.28390483366507108 -0.12795146285425149 0 -0.28498588272658609 -0.10953694176986691 0 -0.29939047470698632 -0.1138850881088251 0 -0.30363502742975002 -0.087862452698258112 0 -0.28498588272658609 -0.10953694176986691 0 -0.28369928052750421 -0.089996057638050242 0 -0.30363502742975002 -0.087862452698258112 0 -0.28498588272658609 -0.10953694176986691 0 -0.30363502742975002 -0.087862452698258112 0 -0.31112038415555038 -0.105912916312301 0 -0.30363502742975002 -0.087862452698258112 0 -0.31872509099925939 -0.09489525911115787 0 -0.29939047470698632 -0.1138850881088251 0 -0.30363502742975002 -0.087862452698258112 0 -0.31112038415555038 -0.105912916312301 0 -0.29939047470698632 -0.1138850881088251 0 -0.30363502742975002 -0.087862452698258112 0 -0.31112038415555038 -0.105912916312301 0 -0.29939047470698632 -0.1138850881088251 0 -0.3108150907057583 -0.123289039988229 0 -0.27571433008302992 -0.061323808156972907 0 -0.27947639526325851 -0.075047258313383283 0 -0.29043964680931811 -0.063340758069959313 0 -0.27947639526325851 -0.075047258313383283 0 -0.29326350469267087 -0.075637034816957854 0 -0.29043964680931811 -0.063340758069959313 0 -0.27947639526325851 -0.075047258313383283 0 -0.29326350469267087 -0.075637034816957854 0 -0.28369928052750421 -0.089996057638050242 0 -0.29326350469267087 -0.075637034816957854 0 -0.28369928052750421 -0.089996057638050242 0 -0.30363502742975002 -0.087862452698258112 0 -0.30363502742975002 -0.087862452698258112 0 -0.3147457864693044 -0.074949258596716542 0 -0.31872509099925939 -0.09489525911115787 0 -0.30363502742975002 -0.087862452698258112 0 -0.3147457864693044 -0.074949258596716542 0 -0.30785263576887473 -0.062005008750064983 0 -0.29326350469267087 -0.075637034816957854 0 -0.30363502742975002 -0.087862452698258112 0 -0.30785263576887473 -0.062005008750064983 0 -0.30363502742975002 -0.087862452698258112 0 -0.3147457864693044 -0.074949258596716542 0 -0.30785263576887473 -0.062005008750064983 0 -0.29326350469267087 -0.075637034816957854 0 -0.29043964680931811 -0.063340758069959313 0 -0.30785263576887473 -0.062005008750064983 0 -0.30363502742975002 -0.087862452698258112 0 -0.3147457864693044 -0.074949258596716542 0 -0.3258565455088529 -0.062036064495169851 0 -0.3147457864693044 -0.074949258596716542 0 -0.33306166037992252 -0.0763126202985034 0 -0.3258565455088529 -0.062036064495169851 0 -0.30785263576887473 -0.062005008750064983 0 -0.3147457864693044 -0.074949258596716542 0 -0.3258565455088529 -0.062036064495169851 0 -0.3147457864693044 -0.074949258596716542 0 -0.32890001459834822 -0.087516828956376788 0 -0.31872509099925939 -0.09489525911115787 0 -0.3147457864693044 -0.074949258596716542 0 -0.32890001459834822 -0.087516828956376788 0 -0.33306166037992252 -0.0763126202985034 0 -0.32890001459834822 -0.087516828956376788 0 -0.34026677525099192 -0.090589176101837157 0 -0.33306166037992252 -0.0763126202985034 0 -0.34026677525099192 -0.090589176101837157 0 -0.33306166037992252 -0.0763126202985034 0 -0.34026677525099192 -0.090589176101837157 0 -0.33306166037992252 -0.0763126202985034 0 -0.34512097989852569 -0.077376017677512551 0 -0.3363426704622316 -0.065040097883454634 0 -0.33306166037992252 -0.0763126202985034 0 -0.34512097989852569 -0.077376017677512551 0 -0.3363426704622316 -0.065040097883454634 0 -0.34775082305034588 -0.06364522302323769 0 -0.34512097989852569 -0.077376017677512551 0 -0.33306166037992252 -0.0763126202985034 0 -0.3258565455088529 -0.062036064495169851 0 -0.3363426704622316 -0.065040097883454634 0 -0.33306166037992252 -0.0763126202985034 0 -0.3258565455088529 -0.062036064495169851 0 -0.31112038415555038 -0.105912916312301 0 -0.3108150907057583 -0.123289039988229 0 -0.32269556115348802 -0.1134475374517785 0 -0.32269556115348802 -0.1134475374517785 0 -0.33213803149032362 -0.1206207689722909 0 -0.32288905220234743 -0.1288405143651869 0 -0.3108150907057583 -0.123289039988229 0 -0.32269556115348802 -0.1134475374517785 0 -0.32288905220234743 -0.1288405143651869 0 -0.32269556115348802 -0.1134475374517785 0 -0.31872509099925939 -0.09489525911115787 0 -0.33360553934550968 -0.1041906416325506 0 -0.31112038415555038 -0.105912916312301 0 -0.32269556115348802 -0.1134475374517785 0 -0.31872509099925939 -0.09489525911115787 0 -0.32890001459834822 -0.087516828956376788 0 -0.31872509099925939 -0.09489525911115787 0 -0.33360553934550968 -0.1041906416325506 0 -0.3434725512788051 -0.1026137903417853 0 -0.33360553934550968 -0.1041906416325506 0 -0.3466874303271234 -0.11958926053505441 0 -0.32890001459834822 -0.087516828956376788 0 -0.34026677525099192 -0.090589176101837157 0 -0.33360553934550968 -0.1041906416325506 0 -0.34026677525099192 -0.090589176101837157 0 -0.3434725512788051 -0.1026137903417853 0 -0.33360553934550968 -0.1041906416325506 0 -0.33360553934550968 -0.1041906416325506 0 -0.33213803149032362 -0.1206207689722909 0 -0.3466874303271234 -0.11958926053505441 0 -0.32269556115348802 -0.1134475374517785 0 -0.33360553934550968 -0.1041906416325506 0 -0.33213803149032362 -0.1206207689722909 0 -0.3466874303271234 -0.11958926053505441 0 -0.36980343247362518 -0.1100922289949047 0 -0.35999293180258313 -0.1258522389537349 0 -0.3466874303271234 -0.11958926053505441 0 -0.35333046019159542 -0.096086083097699004 0 -0.36980343247362518 -0.1100922289949047 0 -0.3434725512788051 -0.1026137903417853 0 -0.3466874303271234 -0.11958926053505441 0 -0.35333046019159542 -0.096086083097699004 0 -0.3466874303271234 -0.11958926053505441 0 -0.35333046019159542 -0.096086083097699004 0 -0.34026677525099192 -0.090589176101837157 0 -0.3434725512788051 -0.1026137903417853 0 -0.35333046019159542 -0.096086083097699004 0 -0.35333046019159542 -0.096086083097699004 0 -0.36980343247362518 -0.1100922289949047 0 -0.37347114863240299 -0.089088331268139143 0 -0.36980343247362518 -0.1100922289949047 0 -0.35999293180258313 -0.1258522389537349 0 -0.37152802352755399 -0.13164580699010159 0 -0.36980343247362518 -0.1100922289949047 0 -0.37152802352755399 -0.13164580699010159 0 -0.38235470820745771 -0.123978498660336 0 -0.34775082305034588 -0.06364522302323769 0 -0.35997349005606738 -0.07258290566034345 0 -0.36099236519079719 -0.058965157594587259 0 -0.34775082305034588 -0.06364522302323769 0 -0.34512097989852569 -0.077376017677512551 0 -0.35997349005606738 -0.07258290566034345 0 -0.35333046019159542 -0.096086083097699004 0 -0.35997349005606738 -0.07258290566034345 0 -0.35333046019159542 -0.096086083097699004 0 -0.34512097989852569 -0.077376017677512551 0 -0.35997349005606738 -0.07258290566034345 0 -0.34026677525099192 -0.090589176101837157 0 -0.35333046019159542 -0.096086083097699004 0 -0.34512097989852569 -0.077376017677512551 0 -0.35333046019159542 -0.096086083097699004 0 -0.37347114863240299 -0.089088331268139143 0 -0.35997349005606738 -0.07258290566034345 0 -0.37347114863240299 -0.089088331268139143 0 -0.35997349005606738 -0.07258290566034345 0 -0.37513495807632252 -0.068027960422620465 0 -0.35997349005606738 -0.07258290566034345 0 -0.36099236519079719 -0.058965157594587259 0 -0.37513495807632252 -0.068027960422620465 0 -0.37357085562444819 -0.050327950541553881 0 -0.36099236519079719 -0.058965157594587259 0 -0.37513495807632252 -0.068027960422620465 0 -0.37357085562444819 -0.050327950541553881 0 -0.36080282922430701 -0.047544586661118063 0 -0.36099236519079719 -0.058965157594587259 0 -0.34775082305034588 -0.06364522302323769 0 -0.36099236519079719 -0.058965157594587259 0 -0.34872123511329239 -0.051662319258650009 0 -0.36080282922430701 -0.047544586661118063 0 -0.36099236519079719 -0.058965157594587259 0 -0.34872123511329239 -0.051662319258650009 0 -0.34775082305034588 -0.06364522302323769 0 -0.34872123511329239 -0.051662319258650009 0 -0.33906118872719399 -0.055758100993783748 0 -0.35023980363822049 -0.040197400203048239 0 -0.3638826905141766 -0.035463803005797899 0 -0.34258176142245139 -0.029723406047678591 0 -0.35023980363822049 -0.040197400203048239 0 -0.34258176142245139 -0.029723406047678591 0 -0.35023980363822049 -0.040197400203048239 0 -0.34258176142245139 -0.029723406047678591 0 -0.33960488145915169 -0.038902248398748569 0 -0.34872123511329239 -0.051662319258650009 0 -0.35023980363822049 -0.040197400203048239 0 -0.33950963895876157 -0.046563850177851397 0 -0.36080282922430701 -0.047544586661118063 0 -0.35023980363822049 -0.040197400203048239 0 -0.3638826905141766 -0.035463803005797899 0 -0.36080282922430701 -0.047544586661118063 0 -0.34872123511329239 -0.051662319258650009 0 -0.35023980363822049 -0.040197400203048239 0 -0.37357085562444819 -0.050327950541553881 0 -0.3638826905141766 -0.035463803005797899 0 -0.38712728366555788 -0.02974425569958293 0 -0.37357085562444819 -0.050327950541553881 0 -0.36080282922430701 -0.047544586661118063 0 -0.3638826905141766 -0.035463803005797899 0 -0.3638826905141766 -0.035463803005797899 0 -0.36897360951007507 -0.015245218881805699 0 -0.38712728366555788 -0.02974425569958293 0 -0.36897360951007507 -0.015245218881805699 0 -0.38465333842141641 -0.0066435457767305304 0 -0.36979036210562988 0.0025511841975563729 0 -0.36897360951007507 -0.015245218881805699 0 -0.35319748844548088 -0.0026450940697062141 0 -0.36979036210562988 0.0025511841975563729 0 -0.36897360951007507 -0.015245218881805699 0 -0.35319748844548088 -0.0026450940697062141 0 -0.36897360951007507 -0.015245218881805699 0 -0.35319748844548088 -0.0026450940697062141 0 -0.34557514790129729 -0.01385186480739395 0 -0.35319748844548088 -0.0026450940697062141 0 -0.34557514790129729 -0.01385186480739395 0 -0.33742136738088668 0.0099550307423931228 0 -0.36897360951007507 -0.015245218881805699 0 -0.34557514790129729 -0.01385186480739395 0 -0.34258176142245139 -0.029723406047678591 0 -0.3638826905141766 -0.035463803005797899 0 -0.36897360951007507 -0.015245218881805699 0 -0.34258176142245139 -0.029723406047678591 0 -0.36897360951007507 -0.015245218881805699 0 -0.34258176142245139 -0.029723406047678591 0 -0.34258176142245139 -0.029723406047678591 0 -0.33053696792115572 -0.013249600709362951 0 -0.34557514790129729 -0.01385186480739395 0 -0.34258176142245139 -0.029723406047678591 0 -0.33053696792115572 -0.013249600709362951 0 -0.34258176142245139 -0.029723406047678591 0 -0.33123792958382192 -0.02655418191443467 0 -0.33053696792115572 -0.013249600709362951 0 -0.33123792958382192 -0.02655418191443467 0 -0.33053696792115572 -0.013249600709362951 0 -0.32518110448499649 -0.02265309324021984 0 -0.33123792958382192 -0.02655418191443467 0 -0.32494971957893121 -0.032132124138264453 0 -0.33294009451157502 -0.035012685436647553 0 -0.34258176142245139 -0.029723406047678591 0 -0.33123792958382192 -0.02655418191443467 0 -0.33294009451157502 -0.035012685436647553 0 -0.33053696792115572 -0.013249600709362951 0 -0.31849217441985911 0.0032242046289520012 0 -0.33742136738088668 0.0099550307423931228 0 -0.34557514790129729 -0.01385186480739395 0 -0.33053696792115572 -0.013249600709362951 0 -0.33742136738088668 0.0099550307423931228 0 -0.30702321298661528 -0.0098616365840560535 0 -0.31536924438116293 -0.015921951660718081 0 -0.31849217441985911 0.0032242046289520012 0 -0.31536924438116293 -0.015921951660718081 0 -0.31849217441985911 0.0032242046289520012 0 -0.33053696792115572 -0.013249600709362951 0 -0.31849217441985911 0.0032242046289520012 0 -0.33053696792115572 -0.013249600709362951 0 -0.31536924438116293 -0.015921951660718081 0 -0.31849217441985911 0.0032242046289520012 0 -0.31536924438116293 -0.015921951660718081 0 -0.31269309410946189 -0.035953378537937578 0 -0.31536924438116293 -0.015921951660718081 0 -0.3196636581113782 -0.026330909640423061 0 -0.31269309410946189 -0.035953378537937578 0 -0.33123792958382192 -0.02655418191443467 0 -0.32518110448499649 -0.02265309324021984 0 -0.32494971957893121 -0.032132124138264453 0 -0.32518110448499649 -0.02265309324021984 0 -0.3196636581113782 -0.026330909640423061 0 -0.32494971957893121 -0.032132124138264453 0 -0.33053696792115572 -0.013249600709362951 0 -0.32518110448499649 -0.02265309324021984 0 -0.31536924438116293 -0.015921951660718081 0 -0.32518110448499649 -0.02265309324021984 0 -0.31536924438116293 -0.015921951660718081 0 -0.3196636581113782 -0.026330909640423061 0 -0.31269309410946189 -0.035953378537937578 0 -0.32494971957893121 -0.032132124138264453 0 -0.3196636581113782 -0.026330909640423061 0 -0.31269309410946189 -0.035953378537937578 0 -0.32494971957893121 -0.032132124138264453 0 -0.32589239144387999 -0.038804272667940308 0 -0.32494971957893121 -0.032132124138264453 0 -0.33294009451157502 -0.035012685436647553 0 -0.31269309410946189 -0.035953378537937578 0 -0.32589239144387999 -0.038804272667940308 0 -0.32494971957893121 -0.032132124138264453 0 -0.31269309410946189 -0.035953378537937578 0 -0.32589239144387999 -0.038804272667940308 0 -0.32612594025468172 -0.0479092750983348 0 -0.31269309410946189 -0.035953378537937578 0 -0.3258565455088529 -0.062036064495169851 0 -0.32612594025468172 -0.0479092750983348 0 -0.30785263576887473 -0.062005008750064983 0 -0.31269309410946189 -0.035953378537937578 0 -0.3258565455088529 -0.062036064495169851 0 -0.31269309410946189 -0.035953378537937578 0 -0.3258565455088529 -0.062036064495169851 0 -0.3258565455088529 -0.062036064495169851 0 -0.32612594025468172 -0.0479092750983348 0 -0.32948021068586231 -0.057824552786275359 0 -0.3258565455088529 -0.062036064495169851 0 -0.32948021068586231 -0.057824552786275359 0 -0.33273312926745618 -0.050000536382928867 0 -0.32948021068586231 -0.057824552786275359 0 -0.33906118872719399 -0.055758100993783748 0 -0.32612594025468172 -0.0479092750983348 0 -0.33273312926745618 -0.050000536382928867 0 -0.32948021068586231 -0.057824552786275359 0 -0.32612594025468172 -0.0479092750983348 0 -0.33273312926745618 -0.050000536382928867 0 -0.33275310876475001 -0.043013900128517107 0 -0.3363426704622316 -0.065040097883454634 0 -0.32948021068586231 -0.057824552786275359 0 -0.33906118872719399 -0.055758100993783748 0 -0.3363426704622316 -0.065040097883454634 0 -0.3258565455088529 -0.062036064495169851 0 -0.32948021068586231 -0.057824552786275359 0 -0.3363426704622316 -0.065040097883454634 0 -0.34775082305034588 -0.06364522302323769 0 -0.33906118872719399 -0.055758100993783748 0 -0.34872123511329239 -0.051662319258650009 0 -0.33906118872719399 -0.055758100993783748 0 -0.33950963895876157 -0.046563850177851397 0 -0.33273312926745618 -0.050000536382928867 0 -0.33906118872719399 -0.055758100993783748 0 -0.33950963895876157 -0.046563850177851397 0 -0.35023980363822049 -0.040197400203048239 0 -0.33950963895876157 -0.046563850177851397 0 -0.33960488145915169 -0.038902248398748569 0 -0.33950963895876157 -0.046563850177851397 0 -0.33960488145915169 -0.038902248398748569 0 -0.33275310876475001 -0.043013900128517107 0 -0.34258176142245139 -0.029723406047678591 0 -0.33294009451157502 -0.035012685436647553 0 -0.34258176142245139 -0.029723406047678591 0 -0.33960488145915169 -0.038902248398748569 0 -0.33294009451157502 -0.035012685436647553 0 -0.32589239144387999 -0.038804272667940308 0 -0.33294009451157502 -0.035012685436647553 0 -0.33275310876475001 -0.043013900128517107 0 -0.33960488145915169 -0.038902248398748569 0 -0.33294009451157502 -0.035012685436647553 0 -0.33275310876475001 -0.043013900128517107 0 -0.32589239144387999 -0.038804272667940308 0 -0.32612594025468172 -0.0479092750983348 0 -0.33275310876475001 -0.043013900128517107 0 -0.33273312926745618 -0.050000536382928867 0 -0.33950963895876157 -0.046563850177851397 0 -0.33275310876475001 -0.043013900128517107 0 -0.3072444938386063 -0.24298546540808871 0 -0.29465074886808879 -0.2402547820199166 0 -0.31547147842988582 -0.2330670094454039 0 -0.29465074886808879 -0.2402547820199166 0 -0.31547147842988582 -0.2330670094454039 0 -0.31283906540333922 -0.25031215033235238 0 -0.3072444938386063 -0.24298546540808871 0 -0.31547147842988582 -0.2330670094454039 0 -0.29948497002523827 -0.2483657822867901 0 -0.3072444938386063 -0.24298546540808871 0 -0.29465074886808879 -0.2402547820199166 0 -0.29948497002523827 -0.2483657822867901 0 -0.3072444938386063 -0.24298546540808871 0 -0.30623861516307299 -0.24935013043731349 0 -0.31283906540333922 -0.25031215033235238 0 -0.3072444938386063 -0.24298546540808871 0 -0.30623861516307299 -0.24935013043731349 0 -0.30340245666429422 -0.2199120115188499 0 -0.29465074886808879 -0.2402547820199166 0 -0.31547147842988582 -0.2330670094454039 0 -0.30340245666429422 -0.2199120115188499 0 -0.31790591229007997 -0.21133065133653661 0 -0.31547147842988582 -0.2330670094454039 0 -0.30340245666429422 -0.2199120115188499 0 -0.29465074886808879 -0.2402547820199166 0 -0.28241226381596191 -0.21797562975109799 0 -0.29465074886808879 -0.2402547820199166 0 -0.27816771109320582 -0.2439982651616662 0 -0.28241226381596191 -0.21797562975109799 0 -0.29465074886808879 -0.2402547820199166 0 -0.27383001930629169 -0.24744255459442921 0 -0.28942662192718172 -0.25357945894426132 0 -0.29465074886808879 -0.2402547820199166 0 -0.27383001930629169 -0.24744255459442921 0 -0.29465074886808879 -0.2402547820199166 0 -0.27816771109320582 -0.2439982651616662 0 -0.27383001930629169 -0.24744255459442921 0 -0.28942662192718172 -0.25357945894426132 0 -0.29948497002523827 -0.2483657822867901 0 -0.29465074886808879 -0.2402547820199166 0 -0.27816771109320582 -0.2439982651616662 0 -0.27383001930629169 -0.24744255459442921 0 -0.26926560585898118 -0.2360615599669478 0 -0.27383001930629169 -0.24744255459442921 0 -0.26926560585898118 -0.2360615599669478 0 -0.25855016474293108 -0.24143028331881861 0 -0.27383001930629169 -0.24744255459442921 0 -0.25855016474293108 -0.24143028331881861 0 -0.2565674865322034 -0.25340195958415102 0 -0.27383001930629169 -0.24744255459442921 0 -0.25855016474293108 -0.24143028331881861 0 -0.26926560585898118 -0.2360615599669478 0 -0.25855016474293108 -0.24143028331881861 0 -0.25588924886857078 -0.22577026586403889 0 -0.24327031017957049 -0.23541801204320789 0 -0.25855016474293108 -0.24143028331881861 0 -0.24327031017957049 -0.23541801204320789 0 -0.25855016474293108 -0.24143028331881861 0 -0.25018128361314113 -0.24746468840205441 0 -0.2565674865322034 -0.25340195958415102 0 -0.25855016474293108 -0.24143028331881861 0 -0.25018128361314113 -0.24746468840205441 0 -0.24327031017957049 -0.23541801204320789 0 -0.25855016474293108 -0.24143028331881861 0 -0.25588924886857078 -0.22577026586403889 0 -0.26926560585898118 -0.2360615599669478 0 -0.25588924886857078 -0.22577026586403889 0 -0.26783798195298542 -0.22189041659364681 0 -0.27816771109320582 -0.2439982651616662 0 -0.26926560585898118 -0.2360615599669478 0 -0.28241226381596191 -0.21797562975109799 0 -0.26926560585898118 -0.2360615599669478 0 -0.26783798195298542 -0.22189041659364681 0 -0.28241226381596191 -0.21797562975109799 0 -0.27816771109320582 -0.2439982651616662 0 -0.28241226381596191 -0.21797562975109799 0 -0.26378480926842768 -0.2077542107925027 0 -0.286656816538718 -0.19195299434052959 0 -0.28241226381596191 -0.21797562975109799 0 -0.26783798195298542 -0.22189041659364681 0 -0.26378480926842768 -0.2077542107925027 0 -0.28241226381596191 -0.21797562975109799 0 -0.25588924886857078 -0.22577026586403889 0 -0.26783798195298542 -0.22189041659364681 0 -0.26378480926842768 -0.2077542107925027 0 -0.2448317244682672 -0.19494017856122331 0 -0.24405101732391901 -0.2151790953022156 0 -0.26378480926842768 -0.2077542107925027 0 -0.24405101732391901 -0.2151790953022156 0 -0.25588924886857078 -0.22577026586403889 0 -0.26378480926842768 -0.2077542107925027 0 -0.2448317244682672 -0.19494017856122331 0 -0.26378480926842768 -0.2077542107925027 0 -0.26312512204060101 -0.18530650416748581 0 -0.26378480926842768 -0.2077542107925027 0 -0.286656816538718 -0.19195299434052959 0 -0.26312512204060101 -0.18530650416748581 0 -0.286656816538718 -0.19195299434052959 0 -0.28241226381596191 -0.21797562975109799 0 -0.30591086076688379 -0.19847336016990141 0 -0.286656816538718 -0.19195299434052959 0 -0.28241226381596191 -0.21797562975109799 0 -0.30340245666429422 -0.2199120115188499 0 -0.28241226381596191 -0.21797562975109799 0 -0.30591086076688379 -0.19847336016990141 0 -0.30340245666429422 -0.2199120115188499 0 -0.30591086076688379 -0.19847336016990141 0 -0.31790591229007997 -0.21133065133653661 0 -0.286656816538718 -0.19195299434052959 0 -0.30591086076688379 -0.19847336016990141 0 -0.31180552805921091 -0.17430838359622669 0 -0.31180552805921091 -0.17430838359622669 0 -0.29090136926147409 -0.16593035892996141 0 -0.30878195228896921 -0.15303576335633209 0 -0.286656816538718 -0.19195299434052959 0 -0.29090136926147409 -0.16593035892996141 0 -0.286656816538718 -0.19195299434052959 0 -0.31180552805921091 -0.17430838359622669 0 -0.29090136926147409 -0.16593035892996141 0 -0.286656816538718 -0.19195299434052959 0 -0.29090136926147409 -0.16593035892996141 0 -0.27584707269233227 -0.1739466899300364 0 -0.27584707269233227 -0.1739466899300364 0 -0.26312512204060101 -0.18530650416748581 0 -0.26138401805284373 -0.16490714025156239 0 -0.286656816538718 -0.19195299434052959 0 -0.27584707269233227 -0.1739466899300364 0 -0.26312512204060101 -0.18530650416748581 0 -0.2448317244682672 -0.19494017856122331 0 -0.24561243161261531 -0.1747012618202311 0 -0.26312512204060101 -0.18530650416748581 0 -0.24561243161261531 -0.1747012618202311 0 -0.26312512204060101 -0.18530650416748581 0 -0.26138401805284373 -0.16490714025156239 0 -0.27584707269233227 -0.1739466899300364 0 -0.26138401805284373 -0.16490714025156239 0 -0.27641132505293098 -0.14990407015019561 0 -0.29090136926147409 -0.16593035892996141 0 -0.27584707269233227 -0.1739466899300364 0 -0.27641132505293098 -0.14990407015019561 0 -0.27641132505293098 -0.14990407015019561 0 -0.26295491861235881 -0.14972714028907499 0 -0.26633673802341562 -0.13121143084146969 0 -0.26138401805284373 -0.16490714025156239 0 -0.27641132505293098 -0.14990407015019561 0 -0.26295491861235881 -0.14972714028907499 0 -0.24768759332024501 -0.15288591991307249 0 -0.26633673802341562 -0.13121143084146969 0 -0.24768759332024501 -0.15288591991307249 0 -0.26295491861235881 -0.14972714028907499 0 -0.26633673802341562 -0.13121143084146969 0 -0.24768759332024501 -0.15288591991307249 0 -0.26138401805284373 -0.16490714025156239 0 -0.26295491861235881 -0.14972714028907499 0 -0.25700205454408459 -0.1228995308742117 0 -0.25066558347885931 -0.13251764995053431 0 -0.26633673802341562 -0.13121143084146969 0 -0.24768759332024501 -0.15288591991307249 0 -0.25066558347885931 -0.13251764995053431 0 -0.26633673802341562 -0.13121143084146969 0 -0.2466021228926524 -0.1215603100838341 0 -0.25700205454408459 -0.1228995308742117 0 -0.25066558347885931 -0.13251764995053431 0 -0.27641132505293098 -0.14990407015019561 0 -0.26633673802341562 -0.13121143084146969 0 -0.28390483366507108 -0.12795146285425149 0 -0.27641132505293098 -0.14990407015019561 0 -0.29514592198423018 -0.13990772351939329 0 -0.28390483366507108 -0.12795146285425149 0 -0.29939047470698632 -0.1138850881088251 0 -0.29514592198423018 -0.13990772351939329 0 -0.28390483366507108 -0.12795146285425149 0 -0.29090136926147409 -0.16593035892996141 0 -0.27641132505293098 -0.14990407015019561 0 -0.29514592198423018 -0.13990772351939329 0 -0.29090136926147409 -0.16593035892996141 0 -0.29514592198423018 -0.13990772351939329 0 -0.29514592198423018 -0.13990772351939329 0 -0.30878195228896921 -0.15303576335633209 0 -0.31204687939749698 -0.1371714365216575 0 -0.29090136926147409 -0.16593035892996141 0 -0.29514592198423018 -0.13990772351939329 0 -0.30878195228896921 -0.15303576335633209 0 -0.3108150907057583 -0.123289039988229 0 -0.29514592198423018 -0.13990772351939329 0 -0.31204687939749698 -0.1371714365216575 0 -0.29939047470698632 -0.1138850881088251 0 -0.3108150907057583 -0.123289039988229 0 -0.29514592198423018 -0.13990772351939329 0 -0.29939047470698632 -0.1138850881088251 0 -0.29514592198423018 -0.13990772351939329 0 -0.32288905220234743 -0.1288405143651869 0 -0.32258299715563782 -0.14068177926995709 0 -0.33321030378869931 -0.13646686722665249 0 -0.3108150907057583 -0.123289039988229 0 -0.31204687939749698 -0.1371714365216575 0 -0.32288905220234743 -0.1288405143651869 0 -0.31204687939749698 -0.1371714365216575 0 -0.32288905220234743 -0.1288405143651869 0 -0.32258299715563782 -0.14068177926995709 0 -0.30878195228896921 -0.15303576335633209 0 -0.32482557091518699 -0.15217937608711771 0 -0.32258299715563782 -0.14068177926995709 0 -0.30878195228896921 -0.15303576335633209 0 -0.31204687939749698 -0.1371714365216575 0 -0.32258299715563782 -0.14068177926995709 0 -0.32482557091518699 -0.15217937608711771 0 -0.32258299715563782 -0.14068177926995709 0 -0.33321030378869931 -0.13646686722665249 0 -0.32482557091518699 -0.15217937608711771 0 -0.34004440046265172 -0.14309243797241011 0 -0.33321030378869931 -0.13646686722665249 0 -0.34004440046265172 -0.14309243797241011 0 -0.35498504575946821 -0.15757720561970059 0 -0.3332048416520596 -0.1672909388971599 0 -0.34004440046265172 -0.14309243797241011 0 -0.3332048416520596 -0.1672909388971599 0 -0.32482557091518699 -0.15217937608711771 0 -0.34004440046265172 -0.14309243797241011 0 -0.3332048416520596 -0.1672909388971599 0 -0.3466874303271234 -0.11958926053505441 0 -0.34004440046265172 -0.14309243797241011 0 -0.33213803149032362 -0.1206207689722909 0 -0.32288905220234743 -0.1288405143651869 0 -0.33321030378869931 -0.13646686722665249 0 -0.33213803149032362 -0.1206207689722909 0 -0.3466874303271234 -0.11958926053505441 0 -0.33321030378869931 -0.13646686722665249 0 -0.3466874303271234 -0.11958926053505441 0 -0.34004440046265172 -0.14309243797241011 0 -0.33321030378869931 -0.13646686722665249 0 -0.34004440046265172 -0.14309243797241011 0 -0.33321030378869931 -0.13646686722665249 0 -0.3466874303271234 -0.11958926053505441 0 -0.35676717686891291 -0.14006723761877321 0 -0.35999293180258313 -0.1258522389537349 0 -0.3466874303271234 -0.11958926053505441 0 -0.34004440046265172 -0.14309243797241011 0 -0.35676717686891291 -0.14006723761877321 0 -0.35676717686891291 -0.14006723761877321 0 -0.37152802352755399 -0.13164580699010159 0 -0.37069541475874412 -0.1487336244607225 0 -0.35676717686891291 -0.14006723761877321 0 -0.35999293180258313 -0.1258522389537349 0 -0.37152802352755399 -0.13164580699010159 0 -0.35676717686891291 -0.14006723761877321 0 -0.37069541475874412 -0.1487336244607225 0 -0.35498504575946821 -0.15757720561970059 0 -0.37069541475874412 -0.1487336244607225 0 -0.35498504575946821 -0.15757720561970059 0 -0.37692746124962329 -0.16011968929401549 0 -0.37152802352755399 -0.13164580699010159 0 -0.37069541475874412 -0.1487336244607225 0 -0.38190833683646341 -0.1417380771930716 0 -0.34004440046265172 -0.14309243797241011 0 -0.35676717686891291 -0.14006723761877321 0 -0.35498504575946821 -0.15757720561970059 0 -0.34004440046265172 -0.14309243797241011 0 -0.35498504575946821 -0.15757720561970059 0 -0.35102499454429859 -0.17065527247529391 0 -0.35498504575946821 -0.15757720561970059 0 -0.36992569105628492 -0.1720619732669908 0 -0.35102499454429859 -0.17065527247529391 0 -0.35498504575946821 -0.15757720561970059 0 -0.3332048416520596 -0.1672909388971599 0 -0.35498504575946821 -0.15757720561970059 0 -0.36992569105628492 -0.1720619732669908 0 -0.37692746124962329 -0.16011968929401549 0 -0.35498504575946821 -0.15757720561970059 0 -0.36992569105628492 -0.1720619732669908 0 -0.36802329911298681 -0.18587483615006681 0 -0.36992569105628492 -0.1720619732669908 0 -0.38452179946839471 -0.1862127167391712 0 -0.36802329911298681 -0.18587483615006681 0 -0.36992569105628492 -0.1720619732669908 0 -0.34598439970938172 -0.18569097211732419 0 -0.35102499454429859 -0.17065527247529391 0 -0.36992569105628492 -0.1720619732669908 0 -0.34598439970938172 -0.18569097211732419 0 -0.36992569105628492 -0.1720619732669908 0 -0.34598439970938172 -0.18569097211732419 0 -0.35102499454429859 -0.17065527247529391 0 -0.34598439970938172 -0.18569097211732419 0 -0.3332048416520596 -0.1672909388971599 0 -0.34598439970938172 -0.18569097211732419 0 -0.3332048416520596 -0.1672909388971599 0 -0.32636528284146782 -0.19148943982190991 0 -0.3332048416520596 -0.1672909388971599 0 -0.32636528284146782 -0.19148943982190991 0 -0.31180552805921091 -0.17430838359622669 0 -0.32482557091518699 -0.15217937608711771 0 -0.3332048416520596 -0.1672909388971599 0 -0.31180552805921091 -0.17430838359622669 0 -0.30878195228896921 -0.15303576335633209 0 -0.32482557091518699 -0.15217937608711771 0 -0.31180552805921091 -0.17430838359622669 0 -0.3332048416520596 -0.1672909388971599 0 -0.32636528284146782 -0.19148943982190991 0 -0.30591086076688379 -0.19847336016990141 0 -0.32636528284146782 -0.19148943982190991 0 -0.31790591229007997 -0.21133065133653661 0 -0.30591086076688379 -0.19847336016990141 0 -0.31180552805921091 -0.17430838359622669 0 -0.32636528284146782 -0.19148943982190991 0 -0.32636528284146782 -0.19148943982190991 0 -0.31790591229007997 -0.21133065133653661 0 -0.33039187961118982 -0.20742389982875531 0 -0.31790591229007997 -0.21133065133653661 0 -0.33039187961118982 -0.20742389982875531 0 -0.32870803705144969 -0.21844997174213321 0 -0.33039187961118982 -0.20742389982875531 0 -0.32870803705144969 -0.21844997174213321 0 -0.33850246058748812 -0.21389845468103499 0 -0.32870803705144969 -0.21844997174213321 0 -0.33850246058748812 -0.21389845468103499 0 -0.33596699493009807 -0.21993263715474329 0 -0.33850246058748812 -0.21389845468103499 0 -0.34687159193856038 -0.2183762197826761 0 -0.3403652740897718 -0.22150288532491411 0 -0.33850246058748812 -0.21389845468103499 0 -0.3403652740897718 -0.22150288532491411 0 -0.33596699493009807 -0.21993263715474329 0 -0.33039187961118982 -0.20742389982875531 0 -0.33850246058748812 -0.21389845468103499 0 -0.34047770528546362 -0.2019509815621614 0 -0.33850246058748812 -0.21389845468103499 0 -0.34047770528546362 -0.2019509815621614 0 -0.34737571748628571 -0.2101963969508848 0 -0.34598439970938172 -0.18569097211732419 0 -0.32636528284146782 -0.19148943982190991 0 -0.34047770528546362 -0.2019509815621614 0 -0.32636528284146782 -0.19148943982190991 0 -0.33039187961118982 -0.20742389982875531 0 -0.34047770528546362 -0.2019509815621614 0 -0.34598439970938172 -0.18569097211732419 0 -0.35303310702934909 -0.20231631441727971 0 -0.36343771537771569 -0.19566750525459251 0 -0.34598439970938172 -0.18569097211732419 0 -0.34047770528546362 -0.2019509815621614 0 -0.35303310702934909 -0.20231631441727971 0 -0.36802329911298681 -0.18587483615006681 0 -0.34598439970938172 -0.18569097211732419 0 -0.36343771537771569 -0.19566750525459251 0 -0.35303310702934909 -0.20231631441727971 0 -0.36343771537771569 -0.19566750525459251 0 -0.36388592792924168 -0.20758305467352059 0 -0.36343771537771569 -0.19566750525459251 0 -0.37301156641091737 -0.20337184000283479 0 -0.36388592792924168 -0.20758305467352059 0 -0.36343771537771569 -0.19566750525459251 0 -0.37438048369549509 -0.19384422148204511 0 -0.37301156641091737 -0.20337184000283479 0 -0.36802329911298681 -0.18587483615006681 0 -0.36343771537771569 -0.19566750525459251 0 -0.37438048369549509 -0.19384422148204511 0 -0.37273312771996808 -0.21396345107145709 0 -0.37301156641091737 -0.20337184000283479 0 -0.36388592792924168 -0.20758305467352059 0 -0.37273312771996808 -0.21396345107145709 0 -0.36388592792924168 -0.20758305467352059 0 -0.36460053442081081 -0.21946742083422599 0 -0.36388592792924168 -0.20758305467352059 0 -0.35626724818121019 -0.21440977701126371 0 -0.36460053442081081 -0.21946742083422599 0 -0.35626724818121019 -0.21440977701126371 0 -0.34687159193856038 -0.2183762197826761 0 -0.35361393690670712 -0.22275298964725909 0 -0.35303310702934909 -0.20231631441727971 0 -0.36388592792924168 -0.20758305467352059 0 -0.35626724818121019 -0.21440977701126371 0 -0.35303310702934909 -0.20231631441727971 0 -0.35626724818121019 -0.21440977701126371 0 -0.34737571748628571 -0.2101963969508848 0 -0.34047770528546362 -0.2019509815621614 0 -0.35303310702934909 -0.20231631441727971 0 -0.34737571748628571 -0.2101963969508848 0 -0.33850246058748812 -0.21389845468103499 0 -0.34737571748628571 -0.2101963969508848 0 -0.34687159193856038 -0.2183762197826761 0 -0.35626724818121019 -0.21440977701126371 0 -0.34737571748628571 -0.2101963969508848 0 -0.34687159193856038 -0.2183762197826761 0 -0.34687159193856038 -0.2183762197826761 0 -0.3448729074691318 -0.22568858673477191 0 -0.3403652740897718 -0.22150288532491411 0 -0.34687159193856038 -0.2183762197826761 0 -0.3448729074691318 -0.22568858673477191 0 -0.35361393690670712 -0.22275298964725909 0 -0.3448729074691318 -0.22568858673477191 0 -0.35311939258201253 -0.23120947699362049 0 -0.35361393690670712 -0.22275298964725909 0 -0.3448729074691318 -0.22568858673477191 0 -0.35311939258201253 -0.23120947699362049 0 -0.3466300329275056 -0.23782645962689411 0 -0.35311939258201253 -0.23120947699362049 0 -0.35361393690670712 -0.22275298964725909 0 -0.36278739720748587 -0.22937453583313699 0 -0.35311939258201253 -0.23120947699362049 0 -0.36278739720748587 -0.22937453583313699 0 -0.35743223323550471 -0.2390192939344549 0 -0.35626724818121019 -0.21440977701126371 0 -0.35361393690670712 -0.22275298964725909 0 -0.36460053442081081 -0.21946742083422599 0 -0.36460053442081081 -0.21946742083422599 0 -0.36278739720748587 -0.22937453583313699 0 -0.37306962678156358 -0.22430756502184571 0 -0.35361393690670712 -0.22275298964725909 0 -0.36460053442081081 -0.21946742083422599 0 -0.36278739720748587 -0.22937453583313699 0 -0.36278739720748587 -0.22937453583313699 0 -0.37393716339703942 -0.23401667981853819 0 -0.37306962678156358 -0.22430756502184571 0 -0.36278739720748587 -0.22937453583313699 0 -0.37393716339703942 -0.23401667981853819 0 -0.36594725961251939 -0.23889039006825119 0 -0.37273312771996808 -0.21396345107145709 0 -0.36460053442081081 -0.21946742083422599 0 -0.37306962678156358 -0.22430756502184571 0 -0.37393540655460039 -0.25504906339868932 0 -0.37362469669529808 -0.24416340610428999 0 -0.363557814049559 -0.2486896754833777 0 -0.37362469669529808 -0.24416340610428999 0 -0.36594725961251939 -0.23889039006825119 0 -0.363557814049559 -0.2486896754833777 0 -0.37393716339703942 -0.23401667981853819 0 -0.37362469669529808 -0.24416340610428999 0 -0.36594725961251939 -0.23889039006825119 0 -0.36278739720748587 -0.22937453583313699 0 -0.36594725961251939 -0.23889039006825119 0 -0.35743223323550471 -0.2390192939344549 0 -0.36594725961251939 -0.23889039006825119 0 -0.363557814049559 -0.2486896754833777 0 -0.35743223323550471 -0.2390192939344549 0 -0.363557814049559 -0.2486896754833777 0 -0.35255150303394622 -0.24812522560144931 0 -0.35743223323550471 -0.2390192939344549 0 -0.35311939258201253 -0.23120947699362049 0 -0.35743223323550471 -0.2390192939344549 0 -0.3466300329275056 -0.23782645962689411 0 -0.35255150303394622 -0.24812522560144931 0 -0.35743223323550471 -0.2390192939344549 0 -0.3466300329275056 -0.23782645962689411 0 -0.35255150303394622 -0.24812522560144931 0 -0.3466300329275056 -0.23782645962689411 0 -0.3420777495351906 -0.24844208584564559 0 -0.33131030172746923 -0.25321851497678438 0 -0.33373364759712132 -0.2373308373461466 0 -0.32202724095639168 -0.2495658441092535 0 -0.33131030172746923 -0.25321851497678438 0 -0.33373364759712132 -0.2373308373461466 0 -0.33131030172746923 -0.25321851497678438 0 -0.3420777495351906 -0.24844208584564559 0 -0.33373364759712132 -0.2373308373461466 0 -0.3466300329275056 -0.23782645962689411 0 -0.3420777495351906 -0.24844208584564559 0 -0.33373364759712132 -0.2373308373461466 0 -0.3448729074691318 -0.22568858673477191 0 -0.33373364759712132 -0.2373308373461466 0 -0.33513500532203722 -0.22814340766163391 0 -0.3448729074691318 -0.22568858673477191 0 -0.33373364759712132 -0.2373308373461466 0 -0.3448729074691318 -0.22568858673477191 0 -0.3466300329275056 -0.23782645962689411 0 -0.33373364759712132 -0.2373308373461466 0 -0.3362922079916828 -0.22587923687089109 0 -0.33513500532203722 -0.22814340766163391 0 -0.31547147842988582 -0.2330670094454039 0 -0.3448729074691318 -0.22568858673477191 0 -0.3362922079916828 -0.22587923687089109 0 -0.33513500532203722 -0.22814340766163391 0 -0.3448729074691318 -0.22568858673477191 0 -0.3403652740897718 -0.22150288532491411 0 -0.3362922079916828 -0.22587923687089109 0 -0.3403652740897718 -0.22150288532491411 0 -0.3362922079916828 -0.22587923687089109 0 -0.33596699493009807 -0.21993263715474329 0 -0.32870803705144969 -0.21844997174213321 0 -0.3362922079916828 -0.22587923687089109 0 -0.33596699493009807 -0.21993263715474329 0 -0.33373364759712132 -0.2373308373461466 0 -0.33513500532203722 -0.22814340766163391 0 -0.31790591229007997 -0.21133065133653661 0 -0.32870803705144969 -0.21844997174213321 0 -0.31547147842988582 -0.2330670094454039 0 -0.3362922079916828 -0.22587923687089109 0 -0.31547147842988582 -0.2330670094454039 0 -0.32870803705144969 -0.21844997174213321 0 -0.3362922079916828 -0.22587923687089109 0 -0.31547147842988582 -0.2330670094454039 0 -0.33373364759712132 -0.2373308373461466 0 -0.33513500532203722 -0.22814340766163391 0 -0.31547147842988582 -0.2330670094454039 0 -0.33373364759712132 -0.2373308373461466 0 -0.31547147842988582 -0.2330670094454039 0 -0.32202724095639168 -0.2495658441092535 0 -0.31283906540333922 -0.25031215033235238 0 -0.31547147842988582 -0.2330670094454039 0 -0.32202724095639168 -0.2495658441092535 0 -0.33373364759712132 -0.2373308373461466 0 -0.32202724095639168 -0.2495658441092535 0 -0.42931567121415071 -0.25028064732030619 0 -0.41974440223132548 -0.2277223948390894 0 -0.42931567121415071 -0.25028064732030619 0 -0.43665732485841618 -0.24137016429136929 0 -0.41974440223132548 -0.2277223948390894 0 -0.43487007995442373 -0.25384069753834382 0 -0.42931567121415071 -0.25028064732030619 0 -0.43665732485841618 -0.24137016429136929 0 -0.43665732485841618 -0.24137016429136929 0 -0.41974440223132548 -0.2277223948390894 0 -0.44277641758923081 -0.23102430468348881 0 -0.43377720402095787 -0.21991138490827611 0 -0.41974440223132548 -0.2277223948390894 0 -0.44277641758923081 -0.23102430468348881 0 -0.43377720402095787 -0.21991138490827611 0 -0.41974440223132548 -0.2277223948390894 0 -0.42075205755079043 -0.21398522646416529 0 -0.41974440223132548 -0.2277223948390894 0 -0.40847937369743209 -0.24258689873782929 0 -0.40379864078896821 -0.22147517947459039 0 -0.42931567121415071 -0.25028064732030619 0 -0.41974440223132548 -0.2277223948390894 0 -0.40847937369743209 -0.24258689873782929 0 -0.3945867816951415 -0.25828321704239809 0 -0.40847937369743209 -0.24258689873782929 0 -0.3933004523496676 -0.24484402304582939 0 -0.40847937369743209 -0.24258689873782929 0 -0.3933004523496676 -0.24484402304582939 0 -0.39478669289115392 -0.23309544567896751 0 -0.3933004523496676 -0.24484402304582939 0 -0.38349803953804651 -0.2389949919606586 0 -0.38258347849844832 -0.24967798674395081 0 -0.3933004523496676 -0.24484402304582939 0 -0.38349803953804651 -0.2389949919606586 0 -0.39478669289115392 -0.23309544567896751 0 -0.37393716339703942 -0.23401667981853819 0 -0.37362469669529808 -0.24416340610428999 0 -0.38349803953804651 -0.2389949919606586 0 -0.37393540655460039 -0.25504906339868932 0 -0.37362469669529808 -0.24416340610428999 0 -0.38258347849844832 -0.24967798674395081 0 -0.37362469669529808 -0.24416340610428999 0 -0.38349803953804651 -0.2389949919606586 0 -0.38258347849844832 -0.24967798674395081 0 -0.37306962678156358 -0.22430756502184571 0 -0.38469596054732291 -0.22836918992304631 0 -0.38295547739377761 -0.21861943378263729 0 -0.37273312771996808 -0.21396345107145709 0 -0.37306962678156358 -0.22430756502184571 0 -0.38295547739377761 -0.21861943378263729 0 -0.37393716339703942 -0.23401667981853819 0 -0.38349803953804651 -0.2389949919606586 0 -0.38469596054732291 -0.22836918992304631 0 -0.37393716339703942 -0.23401667981853819 0 -0.37306962678156358 -0.22430756502184571 0 -0.38469596054732291 -0.22836918992304631 0 -0.38349803953804651 -0.2389949919606586 0 -0.38469596054732291 -0.22836918992304631 0 -0.39478669289115392 -0.23309544567896751 0 -0.38469596054732291 -0.22836918992304631 0 -0.39264909581396568 -0.2229573829789786 0 -0.38295547739377761 -0.21861943378263729 0 -0.39264909581396568 -0.2229573829789786 0 -0.39478669289115392 -0.23309544567896751 0 -0.40379864078896821 -0.22147517947459039 0 -0.40847937369743209 -0.24258689873782929 0 -0.39478669289115392 -0.23309544567896751 0 -0.40379864078896821 -0.22147517947459039 0 -0.40847937369743209 -0.24258689873782929 0 -0.40379864078896821 -0.22147517947459039 0 -0.39264909581396568 -0.2229573829789786 0 -0.40379864078896821 -0.22147517947459039 0 -0.39247153470499518 -0.2129117927155128 0 -0.38469596054732291 -0.22836918992304631 0 -0.39264909581396568 -0.2229573829789786 0 -0.39478669289115392 -0.23309544567896751 0 -0.40379864078896821 -0.22147517947459039 0 -0.39911790788050461 -0.2003634602113514 0 -0.40379864078896821 -0.22147517947459039 0 -0.39247153470499518 -0.2129117927155128 0 -0.39911790788050461 -0.2003634602113514 0 -0.40379864078896821 -0.22147517947459039 0 -0.40520524043689871 -0.20626505254016059 0 -0.39911790788050461 -0.2003634602113514 0 -0.40520524043689871 -0.20626505254016059 0 -0.39911790788050461 -0.2003634602113514 0 -0.41017313324850019 -0.2051641423578727 0 -0.40520524043689871 -0.20626505254016059 0 -0.39911790788050461 -0.2003634602113514 0 -0.39247153470499518 -0.2129117927155128 0 -0.38971867217429529 -0.20303686442097379 0 -0.39911790788050461 -0.2003634602113514 0 -0.39247153470499518 -0.2129117927155128 0 -0.38295547739377761 -0.21861943378263729 0 -0.38211351879485039 -0.2092072209849834 0 -0.39264909581396568 -0.2229573829789786 0 -0.39247153470499518 -0.2129117927155128 0 -0.38295547739377761 -0.21861943378263729 0 -0.38211351879485039 -0.2092072209849834 0 -0.38151862494823319 -0.19996558655041019 0 -0.38971867217429529 -0.20303686442097379 0 -0.39247153470499518 -0.2129117927155128 0 -0.38211351879485039 -0.2092072209849834 0 -0.38971867217429529 -0.20303686442097379 0 -0.37273312771996808 -0.21396345107145709 0 -0.37301156641091737 -0.20337184000283479 0 -0.38211351879485039 -0.2092072209849834 0 -0.37301156641091737 -0.20337184000283479 0 -0.38211351879485039 -0.2092072209849834 0 -0.38151862494823319 -0.19996558655041019 0 -0.37273312771996808 -0.21396345107145709 0 -0.38295547739377761 -0.21861943378263729 0 -0.38211351879485039 -0.2092072209849834 0 -0.36802329911298681 -0.18587483615006681 0 -0.37438048369549509 -0.19384422148204511 0 -0.38452179946839471 -0.1862127167391712 0 -0.38151862494823319 -0.19996558655041019 0 -0.38971867217429529 -0.20303686442097379 0 -0.38452179946839471 -0.1862127167391712 0 -0.37438048369549509 -0.19384422148204511 0 -0.38151862494823319 -0.19996558655041019 0 -0.38452179946839471 -0.1862127167391712 0 -0.37438048369549509 -0.19384422148204511 0 -0.37301156641091737 -0.20337184000283479 0 -0.38151862494823319 -0.19996558655041019 0 -0.39911790788050461 -0.2003634602113514 0 -0.39550730918059213 -0.18407841519480589 0 -0.38452179946839471 -0.1862127167391712 0 -0.39911790788050461 -0.2003634602113514 0 -0.40135005364381798 -0.19305297691017151 0 -0.39550730918059213 -0.18407841519480589 0 -0.39911790788050461 -0.2003634602113514 0 -0.39550730918059213 -0.18407841519480589 0 -0.38971867217429529 -0.20303686442097379 0 -0.39911790788050461 -0.2003634602113514 0 -0.38452179946839471 -0.1862127167391712 0 -0.41017313324850019 -0.2051641423578727 0 -0.40060186426567512 -0.18260588987665591 0 -0.40135005364381798 -0.19305297691017151 0 -0.41017313324850019 -0.2051641423578727 0 -0.40060186426567512 -0.18260588987665591 0 -0.39911790788050461 -0.2003634602113514 0 -0.38452179946839471 -0.1862127167391712 0 -0.39911790788050461 -0.2003634602113514 0 -0.40135005364381798 -0.19305297691017151 0 -0.41017313324850019 -0.2051641423578727 0 -0.40882722491020068 -0.19324634934951379 0 -0.40670914653930851 -0.1871811045826946 0 -0.40060186426567512 -0.18260588987665591 0 -0.40882722491020068 -0.19324634934951379 0 -0.41182634361573828 -0.18846823012601879 0 -0.40670914653930851 -0.1871811045826946 0 -0.40882722491020068 -0.19324634934951379 0 -0.41017313324850019 -0.2051641423578727 0 -0.40060186426567512 -0.18260588987665591 0 -0.40882722491020068 -0.19324634934951379 0 -0.41332632127240471 -0.19520135196246871 0 -0.41182634361573828 -0.18846823012601879 0 -0.41182634361573828 -0.18846823012601879 0 -0.42015528071935893 -0.19373976728588371 0 -0.42086010939994178 -0.18624419393877539 0 -0.41332632127240471 -0.19520135196246871 0 -0.41182634361573828 -0.18846823012601879 0 -0.42015528071935893 -0.19373976728588371 0 -0.42015528071935893 -0.19373976728588371 0 -0.41596892406105851 -0.2005599774501266 0 -0.4250272884910265 -0.2012921483654643 0 -0.41596892406105851 -0.2005599774501266 0 -0.41798035083784391 -0.20525037365940721 0 -0.4250272884910265 -0.2012921483654643 0 -0.41332632127240471 -0.19520135196246871 0 -0.42015528071935893 -0.19373976728588371 0 -0.41596892406105851 -0.2005599774501266 0 -0.41596892406105851 -0.2005599774501266 0 -0.41190905555667651 -0.19876129696974801 0 -0.41017313324850019 -0.2051641423578727 0 -0.40882722491020068 -0.19324634934951379 0 -0.41190905555667651 -0.19876129696974801 0 -0.41017313324850019 -0.2051641423578727 0 -0.40882722491020068 -0.19324634934951379 0 -0.41332632127240471 -0.19520135196246871 0 -0.41190905555667651 -0.19876129696974801 0 -0.41332632127240471 -0.19520135196246871 0 -0.41596892406105851 -0.2005599774501266 0 -0.41190905555667651 -0.19876129696974801 0 -0.41974440223132548 -0.2277223948390894 0 -0.40379864078896821 -0.22147517947459039 0 -0.41017313324850019 -0.2051641423578727 0 -0.41974440223132548 -0.2277223948390894 0 -0.41017313324850019 -0.2051641423578727 0 -0.42075205755079043 -0.21398522646416529 0 -0.40379864078896821 -0.22147517947459039 0 -0.40520524043689871 -0.20626505254016059 0 -0.41017313324850019 -0.2051641423578727 0 -0.41974440223132548 -0.2277223948390894 0 -0.41017313324850019 -0.2051641423578727 0 -0.41017313324850019 -0.2051641423578727 0 -0.42075205755079043 -0.21398522646416529 0 -0.41798035083784391 -0.20525037365940721 0 -0.42075205755079043 -0.21398522646416529 0 -0.41798035083784391 -0.20525037365940721 0 -0.4250272884910265 -0.2012921483654643 0 -0.41596892406105851 -0.2005599774501266 0 -0.41017313324850019 -0.2051641423578727 0 -0.41798035083784391 -0.20525037365940721 0 -0.42075205755079043 -0.21398522646416529 0 -0.43601245252430942 -0.20793643678791121 0 -0.4250272884910265 -0.2012921483654643 0 -0.43377720402095787 -0.21991138490827611 0 -0.42075205755079043 -0.21398522646416529 0 -0.43601245252430942 -0.20793643678791121 0 -0.42704416580793209 -0.1915833167308334 0 -0.4250272884910265 -0.2012921483654643 0 -0.43829012180726529 -0.19322062900912909 0 -0.43601245252430942 -0.20793643678791121 0 -0.4250272884910265 -0.2012921483654643 0 -0.43829012180726529 -0.19322062900912909 0 -0.42704416580793209 -0.1915833167308334 0 -0.43088802862206788 -0.18341984505491449 0 -0.43829012180726529 -0.19322062900912909 0 -0.42015528071935893 -0.19373976728588371 0 -0.42704416580793209 -0.1915833167308334 0 -0.42086010939994178 -0.18624419393877539 0 -0.42015528071935893 -0.19373976728588371 0 -0.42704416580793209 -0.1915833167308334 0 -0.4250272884910265 -0.2012921483654643 0 -0.4285734277027195 -0.1734756855885477 0 -0.43088802862206788 -0.18341984505491449 0 -0.41995474680429618 -0.17713819565942951 0 -0.42704416580793209 -0.1915833167308334 0 -0.43088802862206788 -0.18341984505491449 0 -0.42086010939994178 -0.18624419393877539 0 -0.43088802862206788 -0.18341984505491449 0 -0.41995474680429618 -0.17713819565942951 0 -0.42086010939994178 -0.18624419393877539 0 -0.43088802862206788 -0.18341984505491449 0 -0.44104422433457419 -0.1777922577957152 0 -0.43829012180726529 -0.19322062900912909 0 -0.4285734277027195 -0.1734756855885477 0 -0.43088802862206788 -0.18341984505491449 0 -0.44104422433457419 -0.1777922577957152 0 -0.4285734277027195 -0.1734756855885477 0 -0.4344270590450659 -0.1609053943072484 0 -0.44104422433457419 -0.1777922577957152 0 -0.4285734277027195 -0.1734756855885477 0 -0.4344270590450659 -0.1609053943072484 0 -0.4151480566294905 -0.1680004084026471 0 -0.4151480566294905 -0.1680004084026471 0 -0.40323096316088519 -0.16793215078578741 0 -0.41306883257355248 -0.1475019853524365 0 -0.4344270590450659 -0.1609053943072484 0 -0.4151480566294905 -0.1680004084026471 0 -0.41306883257355248 -0.1475019853524365 0 -0.4151480566294905 -0.1680004084026471 0 -0.40690801218449152 -0.1762036959065488 0 -0.40323096316088519 -0.16793215078578741 0 -0.4151480566294905 -0.1680004084026471 0 -0.40690801218449152 -0.1762036959065488 0 -0.4136865446123984 -0.1757543503219206 0 -0.40690801218449152 -0.1762036959065488 0 -0.4136865446123984 -0.1757543503219206 0 -0.41273536283131562 -0.1816751013190569 0 -0.4151480566294905 -0.1680004084026471 0 -0.4136865446123984 -0.1757543503219206 0 -0.41995474680429618 -0.17713819565942951 0 -0.4285734277027195 -0.1734756855885477 0 -0.4151480566294905 -0.1680004084026471 0 -0.41995474680429618 -0.17713819565942951 0 -0.4136865446123984 -0.1757543503219206 0 -0.41995474680429618 -0.17713819565942951 0 -0.41273536283131562 -0.1816751013190569 0 -0.41995474680429618 -0.17713819565942951 0 -0.42086010939994178 -0.18624419393877539 0 -0.41273536283131562 -0.1816751013190569 0 -0.41182634361573828 -0.18846823012601879 0 -0.42086010939994178 -0.18624419393877539 0 -0.41273536283131562 -0.1816751013190569 0 -0.41182634361573828 -0.18846823012601879 0 -0.41273536283131562 -0.1816751013190569 0 -0.4077561458873058 -0.18322680436219499 0 -0.40690801218449152 -0.1762036959065488 0 -0.41273536283131562 -0.1816751013190569 0 -0.4077561458873058 -0.18322680436219499 0 -0.41182634361573828 -0.18846823012601879 0 -0.4077561458873058 -0.18322680436219499 0 -0.40670914653930851 -0.1871811045826946 0 -0.39550730918059213 -0.18407841519480589 0 -0.38736231178750308 -0.177259124355894 0 -0.39189671048067998 -0.1677933701782604 0 -0.40135005364381798 -0.19305297691017151 0 -0.40060186426567512 -0.18260588987665591 0 -0.39550730918059213 -0.18407841519480589 0 -0.4077561458873058 -0.18322680436219499 0 -0.40670914653930851 -0.1871811045826946 0 -0.40060186426567512 -0.18260588987665591 0 -0.39550730918059213 -0.18407841519480589 0 -0.39189671048067998 -0.1677933701782604 0 -0.40060186426567512 -0.18260588987665591 0 -0.39550730918059213 -0.18407841519480589 0 -0.39189671048067998 -0.1677933701782604 0 -0.40690801218449152 -0.1762036959065488 0 -0.4077561458873058 -0.18322680436219499 0 -0.40060186426567512 -0.18260588987665591 0 -0.40690801218449152 -0.1762036959065488 0 -0.40060186426567512 -0.18260588987665591 0 -0.40323096316088519 -0.16793215078578741 0 -0.36992569105628492 -0.1720619732669908 0 -0.38736231178750308 -0.177259124355894 0 -0.39189671048067998 -0.1677933701782604 0 -0.36992569105628492 -0.1720619732669908 0 -0.38452179946839471 -0.1862127167391712 0 -0.38736231178750308 -0.177259124355894 0 -0.39550730918059213 -0.18407841519480589 0 -0.38452179946839471 -0.1862127167391712 0 -0.38736231178750308 -0.177259124355894 0 -0.36992569105628492 -0.1720619732669908 0 -0.38452179946839471 -0.1862127167391712 0 -0.36992569105628492 -0.1720619732669908 0 -0.37692746124962329 -0.16011968929401549 0 -0.39103059528285172 -0.16004763739543851 0 -0.36992569105628492 -0.1720619732669908 0 -0.39189671048067998 -0.1677933701782604 0 -0.39103059528285172 -0.16004763739543851 0 -0.36992569105628492 -0.1720619732669908 0 -0.39103059528285172 -0.16004763739543851 0 -0.37692746124962329 -0.16011968929401549 0 -0.39103059528285172 -0.16004763739543851 0 -0.38828980922767731 -0.15358795645443499 0 -0.39103059528285172 -0.16004763739543851 0 -0.38828980922767731 -0.15358795645443499 0 -0.40060186426567512 -0.18260588987665591 0 -0.39103059528285172 -0.16004763739543851 0 -0.40323096316088519 -0.16793215078578741 0 -0.40060186426567512 -0.18260588987665591 0 -0.39189671048067998 -0.1677933701782604 0 -0.39103059528285172 -0.16004763739543851 0 -0.40060186426567512 -0.18260588987665591 0 -0.39103059528285172 -0.16004763739543851 0 -0.39103059528285172 -0.16004763739543851 0 -0.40323096316088519 -0.16793215078578741 0 -0.41306883257355248 -0.1475019853524365 0 -0.39103059528285172 -0.16004763739543851 0 -0.39795981207507403 -0.14502431583870179 0 -0.41306883257355248 -0.1475019853524365 0 -0.39795981207507403 -0.14502431583870179 0 -0.40633267592073652 -0.13102661860532899 0 -0.41306883257355248 -0.1475019853524365 0 -0.39103059528285172 -0.16004763739543851 0 -0.41306883257355248 -0.1475019853524365 0 -0.39103059528285172 -0.16004763739543851 0 -0.39795981207507403 -0.14502431583870179 0 -0.38828980922767731 -0.15358795645443499 0 -0.39795981207507403 -0.14502431583870179 0 -0.38828980922767731 -0.15358795645443499 0 -0.38190833683646341 -0.1417380771930716 0 -0.38828980922767731 -0.15358795645443499 0 -0.38190833683646341 -0.1417380771930716 0 -0.37945525551812698 -0.15104483685056111 0 -0.37069541475874412 -0.1487336244607225 0 -0.38190833683646341 -0.1417380771930716 0 -0.37945525551812698 -0.15104483685056111 0 -0.37692746124962329 -0.16011968929401549 0 -0.38828980922767731 -0.15358795645443499 0 -0.37945525551812698 -0.15104483685056111 0 -0.37069541475874412 -0.1487336244607225 0 -0.37692746124962329 -0.16011968929401549 0 -0.37945525551812698 -0.15104483685056111 0 -0.37152802352755399 -0.13164580699010159 0 -0.38190833683646341 -0.1417380771930716 0 -0.38235470820745771 -0.123978498660336 0 -0.38190833683646341 -0.1417380771930716 0 -0.39228294530364349 -0.13316426080004001 0 -0.38235470820745771 -0.123978498660336 0 -0.39228294530364349 -0.13316426080004001 0 -0.40633267592073652 -0.13102661860532899 0 -0.39306930808202878 -0.1142539450673672 0 -0.39795981207507403 -0.14502431583870179 0 -0.38190833683646341 -0.1417380771930716 0 -0.39228294530364349 -0.13316426080004001 0 -0.39795981207507403 -0.14502431583870179 0 -0.39228294530364349 -0.13316426080004001 0 -0.40633267592073652 -0.13102661860532899 0 -0.40633267592073652 -0.13102661860532899 0 -0.42371591628165239 -0.12841039464220819 0 -0.41294233195137359 -0.116724400289887 0 -0.40633267592073652 -0.13102661860532899 0 -0.41306883257355248 -0.1475019853524365 0 -0.42371591628165239 -0.12841039464220819 0 -0.4344270590450659 -0.1609053943072484 0 -0.41306883257355248 -0.1475019853524365 0 -0.43782831476482847 -0.1415704877041897 0 -0.41306883257355248 -0.1475019853524365 0 -0.42371591628165239 -0.12841039464220819 0 -0.43782831476482847 -0.1415704877041897 0 -0.42371591628165239 -0.12841039464220819 0 -0.43782831476482847 -0.1415704877041897 0 -0.44295770465017009 -0.12292285668534771 0 -0.43782831476482847 -0.1415704877041897 0 -0.45407528277834919 -0.1346042898317954 0 -0.44295770465017009 -0.12292285668534771 0 -0.43782831476482847 -0.1415704877041897 0 -0.45305184803309972 -0.15210272433296521 0 -0.45407528277834919 -0.1346042898317954 0 -0.4344270590450659 -0.1609053943072484 0 -0.43782831476482847 -0.1415704877041897 0 -0.45305184803309972 -0.15210272433296521 0 -0.45305184803309972 -0.15210272433296521 0 -0.45407528277834919 -0.1346042898317954 0 -0.47213782278640881 -0.13623393318828281 0 -0.45305184803309972 -0.15210272433296521 0 -0.47213782278640881 -0.13623393318828281 0 -0.46702369577757719 -0.16066454859793791 0 -0.45407528277834919 -0.1346042898317954 0 -0.47213782278640881 -0.13623393318828281 0 -0.46296805171726468 -0.11640170438458371 0 -0.47213782278640881 -0.13623393318828281 0 -0.5 -0.14556247672259531 0 -0.48245330698995931 -0.121898764666846 0 -0.5 -0.14556247672259531 0 -0.48245330698995931 -0.121898764666846 0 -0.50000000000000089 -0.1198938119733675 0 -0.47213782278640881 -0.13623393318828281 0 -0.5 -0.14556247672259531 0 -0.48142521519093828 -0.15645589086587239 0 -0.47213782278640881 -0.13623393318828281 0 -0.48142521519093828 -0.15645589086587239 0 -0.47213782278640881 -0.13623393318828281 0 -0.48142521519093828 -0.15645589086587239 0 -0.46702369577757719 -0.16066454859793791 0 -0.48142521519093828 -0.15645589086587239 0 -0.47632052375980027 -0.17461649056753861 0 -0.46702369577757719 -0.16066454859793791 0 -0.48142521519093828 -0.15645589086587239 0 -0.49071260759546798 -0.17667784854346191 0 -0.47632052375980027 -0.17461649056753861 0 -0.47632052375980027 -0.17461649056753861 0 -0.46570520523623959 -0.1757931846103527 0 -0.46702369577757719 -0.16066454859793791 0 -0.48142521519093828 -0.15645589086587239 0 -0.49071260759546798 -0.17667784854346191 0 -0.5 -0.14556247672259531 0 -0.48142521519093828 -0.15645589086587239 0 -0.5 -0.17123114147182319 0 -0.48142521519093828 -0.15645589086587239 0 -0.5 -0.17123114147182319 0 -0.49071260759546798 -0.17667784854346191 0 -0.49071260759546798 -0.17667784854346191 0 -0.49999999999999861 -0.19689980622105099 0 -0.5 -0.17123114147182319 0 -0.49071260759546798 -0.17667784854346191 0 -0.49999999999999861 -0.19689980622105099 0 -0.49071260759546798 -0.17667784854346191 0 -0.47632052375980027 -0.17461649056753861 0 -0.47993034859498662 -0.18922987045237161 0 -0.47632052375980027 -0.17461649056753861 0 -0.46763136520864318 -0.18653340036078911 0 -0.46570520523623959 -0.1757931846103527 0 -0.47632052375980027 -0.17461649056753861 0 -0.46763136520864318 -0.18653340036078911 0 -0.47993034859498662 -0.18922987045237161 0 -0.46570520523623959 -0.1757931846103527 0 -0.45350155965897682 -0.1687850680226157 0 -0.45596312027128949 -0.18794868189772959 0 -0.46763136520864318 -0.18653340036078911 0 -0.46570520523623959 -0.1757931846103527 0 -0.45596312027128949 -0.18794868189772959 0 -0.45305184803309972 -0.15210272433296521 0 -0.46702369577757719 -0.16066454859793791 0 -0.45350155965897682 -0.1687850680226157 0 -0.46570520523623959 -0.1757931846103527 0 -0.46702369577757719 -0.16066454859793791 0 -0.45350155965897682 -0.1687850680226157 0 -0.4344270590450659 -0.1609053943072484 0 -0.45305184803309972 -0.15210272433296521 0 -0.45350155965897682 -0.1687850680226157 0 -0.4344270590450659 -0.1609053943072484 0 -0.45350155965897682 -0.1687850680226157 0 -0.44104422433457419 -0.1777922577957152 0 -0.45350155965897682 -0.1687850680226157 0 -0.44104422433457419 -0.1777922577957152 0 -0.45596312027128949 -0.18794868189772959 0 -0.44104422433457419 -0.1777922577957152 0 -0.43829012180726529 -0.19322062900912909 0 -0.45596312027128949 -0.18794868189772959 0 -0.45013906333809789 -0.2009404811944836 0 -0.43829012180726529 -0.19322062900912909 0 -0.45596312027128949 -0.18794868189772959 0 -0.43601245252430942 -0.20793643678791121 0 -0.45013906333809789 -0.2009404811944836 0 -0.43829012180726529 -0.19322062900912909 0 -0.43377720402095787 -0.21991138490827611 0 -0.43601245252430942 -0.20793643678791121 0 -0.45297794936819918 -0.2159919965998246 0 -0.43601245252430942 -0.20793643678791121 0 -0.45013906333809789 -0.2009404811944836 0 -0.45297794936819918 -0.2159919965998246 0 -0.45013906333809789 -0.2009404811944836 0 -0.45297794936819918 -0.2159919965998246 0 -0.46745167271942573 -0.1996046616778234 0 -0.45297794936819918 -0.2159919965998246 0 -0.46745167271942573 -0.1996046616778234 0 -0.46956062781061803 -0.21704188818370149 0 -0.45013906333809789 -0.2009404811944836 0 -0.46745167271942573 -0.1996046616778234 0 -0.45596312027128949 -0.18794868189772959 0 -0.46763136520864318 -0.18653340036078911 0 -0.46745167271942573 -0.1996046616778234 0 -0.45596312027128949 -0.18794868189772959 0 -0.46745167271942573 -0.1996046616778234 0 -0.47993034859498662 -0.18922987045237161 0 -0.48475058775642699 -0.21058337118561141 0 -0.46763136520864318 -0.18653340036078911 0 -0.46745167271942573 -0.1996046616778234 0 -0.47993034859498662 -0.18922987045237161 0 -0.47993034859498662 -0.18922987045237161 0 -0.49999999999999861 -0.19689980622105099 0 -0.48475058775642699 -0.21058337118561141 0 -0.49071260759546798 -0.17667784854346191 0 -0.47993034859498662 -0.18922987045237161 0 -0.49999999999999861 -0.19689980622105099 0 -0.49999999999999861 -0.19689980622105099 0 -0.48475058775642699 -0.21058337118561141 0 -0.50000000000000355 -0.22426693615016591 0 -0.46745167271942573 -0.1996046616778234 0 -0.48475058775642699 -0.21058337118561141 0 -0.46956062781061803 -0.21704188818370149 0 -0.46956062781061803 -0.21704188818370149 0 -0.47829002665147741 -0.2341248566128927 0 -0.46279731583591321 -0.22891002208815581 0 -0.48475058775642699 -0.21058337118561141 0 -0.46956062781061803 -0.21704188818370149 0 -0.47829002665147741 -0.2341248566128927 0 -0.47829002665147741 -0.2341248566128927 0 -0.49757451855253881 -0.23053548086278239 0 -0.50000000000000355 -0.22426693615016591 0 -0.48475058775642699 -0.21058337118561141 0 -0.47829002665147741 -0.2341248566128927 0 -0.50000000000000355 -0.22426693615016591 0 -0.47829002665147741 -0.2341248566128927 0 -0.50000000000000355 -0.22426693615016591 0 -0.47829002665147741 -0.2341248566128927 0 -0.49757451855253881 -0.23053548086278239 0 -0.47793059070477772 -0.24540990329775009 0 -0.5 -0.25006354863638108 0 -0.49757451855253881 -0.23053548086278239 0 -0.49068252501969761 -0.24549971615663649 0 -0.49757451855253881 -0.23053548086278239 0 -0.49068252501969761 -0.24549971615663649 0 -0.47793059070477772 -0.24540990329775009 0 -0.49757451855253881 -0.23053548086278239 0 -0.47793059070477772 -0.24540990329775009 0 -0.5 -0.25006354863638108 0 -0.49757451855253881 -0.23053548086278239 0 -0.50000000000000355 -0.22426693615016591 0 -0.4872249908214738 -0.25598993182963242 0 -0.49068252501969761 -0.24549971615663649 0 -0.47793059070477772 -0.24540990329775009 0 -0.47829002665147741 -0.2341248566128927 0 -0.47793059070477772 -0.24540990329775009 0 -0.45658005330295048 -0.2439827770756183 0 -0.45658005330295048 -0.2439827770756183 0 -0.46279731583591321 -0.22891002208815581 0 -0.44277641758923081 -0.23102430468348881 0 -0.47829002665147741 -0.2341248566128927 0 -0.45658005330295048 -0.2439827770756183 0 -0.45828666285701658 -0.26028432573271792 0 -0.47793059070477772 -0.24540990329775009 0 -0.45658005330295048 -0.2439827770756183 0 -0.47829002665147741 -0.2341248566128927 0 -0.45658005330295048 -0.2439827770756183 0 -0.46279731583591321 -0.22891002208815581 0 -0.45297794936819918 -0.2159919965998246 0 -0.46956062781061803 -0.21704188818370149 0 -0.46279731583591321 -0.22891002208815581 0 -0.45297794936819918 -0.2159919965998246 0 -0.46279731583591321 -0.22891002208815581 0 -0.44277641758923081 -0.23102430468348881 0 -0.43377720402095787 -0.21991138490827611 0 -0.45297794936819918 -0.2159919965998246 0 -0.44277641758923081 -0.23102430468348881 0 -0.43487007995442373 -0.25384069753834382 0 -0.45658005330295048 -0.2439827770756183 0 -0.43487007995442373 -0.25384069753834382 0 -0.43665732485841618 -0.24137016429136929 0 -0.45658005330295048 -0.2439827770756183 0 -0.43665732485841618 -0.24137016429136929 0 -0.45658005330295048 -0.2439827770756183 0 -0.44277641758923081 -0.23102430468348881 0 -0.42837915354319411 -0.040827216461995969 0 -0.4199205163048339 -0.024265820886729 0 -0.40528095782104068 -0.044243292517360297 0 -0.42343463197652342 -0.05874232933513765 0 -0.42837915354319411 -0.040827216461995969 0 -0.40528095782104068 -0.044243292517360297 0 -0.42343463197652342 -0.05874232933513765 0 -0.40528095782104068 -0.044243292517360297 0 -0.42343463197652342 -0.05874232933513765 0 -0.40528095782104068 -0.044243292517360297 0 -0.40670414160736479 -0.063195666982337848 0 -0.42343463197652342 -0.05874232933513765 0 -0.42837915354319411 -0.040827216461995969 0 -0.44094154444346079 -0.04995238034171972 0 -0.42343463197652342 -0.05874232933513765 0 -0.44158830613200611 -0.073241366152915127 0 -0.44094154444346079 -0.04995238034171972 0 -0.42837915354319411 -0.040827216461995969 0 -0.4342900889778567 -0.026770694848987801 0 -0.4453801544960031 -0.037531923181514312 0 -0.4342900889778567 -0.026770694848987801 0 -0.43033724725149269 -0.0037964727450953309 0 -0.4199205163048339 -0.024265820886729 0 -0.4342900889778567 -0.026770694848987801 0 -0.43033724725149269 -0.0037964727450953309 0 -0.44743337329375982 -0.027432040969604381 0 -0.42837915354319411 -0.040827216461995969 0 -0.4342900889778567 -0.026770694848987801 0 -0.4199205163048339 -0.024265820886729 0 -0.43033724725149269 -0.0037964727450953309 0 -0.4131572459017161 -0.004875649818797438 0 -0.4199205163048339 -0.024265820886729 0 -0.4131572459017161 -0.004875649818797438 0 -0.4199205163048339 -0.024265820886729 0 -0.40195427741026962 -0.018113178269922089 0 -0.4199205163048339 -0.024265820886729 0 -0.40195427741026962 -0.018113178269922089 0 -0.40528095782104068 -0.044243292517360297 0 -0.40195427741026962 -0.018113178269922089 0 -0.38465333842141641 -0.0066435457767305304 0 -0.38712728366555788 -0.02974425569958293 0 -0.40195427741026962 -0.018113178269922089 0 -0.38712728366555788 -0.02974425569958293 0 -0.40528095782104068 -0.044243292517360297 0 -0.40195427741026962 -0.018113178269922089 0 -0.38465333842141641 -0.0066435457767305304 0 -0.40033306733275759 0.0019581273283447299 0 -0.4131572459017161 -0.004875649818797438 0 -0.40195427741026962 -0.018113178269922089 0 -0.40033306733275759 0.0019581273283447299 0 -0.38465333842141641 -0.0066435457767305304 0 -0.40033306733275759 0.0019581273283447299 0 -0.36897360951007507 -0.015245218881805699 0 -0.38465333842141641 -0.0066435457767305304 0 -0.36897360951007507 -0.015245218881805699 0 -0.38465333842141641 -0.0066435457767305304 0 -0.38712728366555788 -0.02974425569958293 0 -0.36897360951007507 -0.015245218881805699 0 -0.38712728366555788 -0.02974425569958293 0 -0.37357085562444819 -0.050327950541553881 0 -0.38712728366555788 -0.02974425569958293 0 -0.39147992867528753 -0.058279446621744307 0 -0.38712728366555788 -0.02974425569958293 0 -0.40528095782104068 -0.044243292517360297 0 -0.38712728366555788 -0.02974425569958293 0 -0.40528095782104068 -0.044243292517360297 0 -0.39147992867528753 -0.058279446621744307 0 -0.40528095782104068 -0.044243292517360297 0 -0.39147992867528753 -0.058279446621744307 0 -0.40670414160736479 -0.063195666982337848 0 -0.37357085562444819 -0.050327950541553881 0 -0.39147992867528753 -0.058279446621744307 0 -0.37513495807632252 -0.068027960422620465 0 -0.39147992867528753 -0.058279446621744307 0 -0.37513495807632252 -0.068027960422620465 0 -0.3944429598887787 -0.078419500118194568 0 -0.37347114863240299 -0.089088331268139143 0 -0.37513495807632252 -0.068027960422620465 0 -0.3944429598887787 -0.078419500118194568 0 -0.37347114863240299 -0.089088331268139143 0 -0.3944429598887787 -0.078419500118194568 0 -0.38844874713165228 -0.097169733216879689 0 -0.3944429598887787 -0.078419500118194568 0 -0.38844874713165228 -0.097169733216879689 0 -0.40907098738890341 -0.097978282768044114 0 -0.39147992867528753 -0.058279446621744307 0 -0.3944429598887787 -0.078419500118194568 0 -0.40670414160736479 -0.063195666982337848 0 -0.3944429598887787 -0.078419500118194568 0 -0.41749625226094061 -0.077358517460495352 0 -0.40670414160736479 -0.063195666982337848 0 -0.39228294530364349 -0.13316426080004001 0 -0.38235470820745771 -0.123978498660336 0 -0.39306930808202878 -0.1142539450673672 0 -0.36980343247362518 -0.1100922289949047 0 -0.38235470820745771 -0.123978498660336 0 -0.39306930808202878 -0.1142539450673672 0 -0.36980343247362518 -0.1100922289949047 0 -0.37347114863240299 -0.089088331268139143 0 -0.38844874713165228 -0.097169733216879689 0 -0.36980343247362518 -0.1100922289949047 0 -0.38844874713165228 -0.097169733216879689 0 -0.39306930808202878 -0.1142539450673672 0 -0.38844874713165228 -0.097169733216879689 0 -0.39306930808202878 -0.1142539450673672 0 -0.40907098738890341 -0.097978282768044114 0 -0.39306930808202878 -0.1142539450673672 0 -0.41294233195137359 -0.116724400289887 0 -0.40907098738890341 -0.097978282768044114 0 -0.40633267592073652 -0.13102661860532899 0 -0.39306930808202878 -0.1142539450673672 0 -0.41294233195137359 -0.116724400289887 0 -0.41294233195137359 -0.116724400289887 0 -0.40907098738890341 -0.097978282768044114 0 -0.42916563782925382 -0.1107160192160596 0 -0.42916563782925382 -0.1107160192160596 0 -0.42904349786494111 -0.093106334976964328 0 -0.44668080241849201 -0.10304266906569499 0 -0.40907098738890341 -0.097978282768044114 0 -0.42916563782925382 -0.1107160192160596 0 -0.42904349786494111 -0.093106334976964328 0 -0.42371591628165239 -0.12841039464220819 0 -0.42916563782925382 -0.1107160192160596 0 -0.44295770465017009 -0.12292285668534771 0 -0.42371591628165239 -0.12841039464220819 0 -0.41294233195137359 -0.116724400289887 0 -0.42916563782925382 -0.1107160192160596 0 -0.42343463197652342 -0.05874232933513765 0 -0.41749625226094061 -0.077358517460495352 0 -0.40670414160736479 -0.063195666982337848 0 -0.40907098738890341 -0.097978282768044114 0 -0.41749625226094061 -0.077358517460495352 0 -0.42904349786494111 -0.093106334976964328 0 -0.3944429598887787 -0.078419500118194568 0 -0.40907098738890341 -0.097978282768044114 0 -0.41749625226094061 -0.077358517460495352 0 -0.41749625226094061 -0.077358517460495352 0 -0.42904349786494111 -0.093106334976964328 0 -0.44158830613200611 -0.073241366152915127 0 -0.42904349786494111 -0.093106334976964328 0 -0.44158830613200611 -0.073241366152915127 0 -0.42343463197652342 -0.05874232933513765 0 -0.44158830613200611 -0.073241366152915127 0 -0.42343463197652342 -0.05874232933513765 0 -0.41749625226094061 -0.077358517460495352 0 -0.44158830613200611 -0.073241366152915127 0 -0.44158830613200611 -0.073241366152915127 0 -0.46118581313569179 -0.071431252447136412 0 -0.45067286806919349 -0.058855770468984832 0 -0.44158830613200611 -0.073241366152915127 0 -0.45067286806919349 -0.058855770468984832 0 -0.44158830613200611 -0.073241366152915127 0 -0.44459286929252761 -0.089545637905493386 0 -0.46105887075467122 -0.088792181426399025 0 -0.42904349786494111 -0.093106334976964328 0 -0.44158830613200611 -0.073241366152915127 0 -0.44459286929252761 -0.089545637905493386 0 -0.44158830613200611 -0.073241366152915127 0 -0.46105887075467122 -0.088792181426399025 0 -0.46105887075467122 -0.088792181426399025 0 -0.46118581313569179 -0.071431252447136412 0 -0.48115195350555812 -0.076249636056848105 0 -0.44158830613200611 -0.073241366152915127 0 -0.46105887075467122 -0.088792181426399025 0 -0.46118581313569179 -0.071431252447136412 0 -0.44295770465017009 -0.12292285668534771 0 -0.44668080241849201 -0.10304266906569499 0 -0.46296805171726468 -0.11640170438458371 0 -0.42916563782925382 -0.1107160192160596 0 -0.44295770465017009 -0.12292285668534771 0 -0.44668080241849201 -0.10304266906569499 0 -0.44459286929252761 -0.089545637905493386 0 -0.46105887075467122 -0.088792181426399025 0 -0.44668080241849201 -0.10304266906569499 0 -0.42904349786494111 -0.093106334976964328 0 -0.44459286929252761 -0.089545637905493386 0 -0.44668080241849201 -0.10304266906569499 0 -0.46105887075467122 -0.088792181426399025 0 -0.46296805171726468 -0.11640170438458371 0 -0.48052943537733628 -0.1043429966998831 0 -0.46105887075467122 -0.088792181426399025 0 -0.44668080241849201 -0.10304266906569499 0 -0.46296805171726468 -0.11640170438458371 0 -0.45407528277834919 -0.1346042898317954 0 -0.44295770465017009 -0.12292285668534771 0 -0.46296805171726468 -0.11640170438458371 0 -0.46296805171726468 -0.11640170438458371 0 -0.48245330698995931 -0.121898764666846 0 -0.48052943537733628 -0.1043429966998831 0 -0.47213782278640881 -0.13623393318828281 0 -0.46296805171726468 -0.11640170438458371 0 -0.48245330698995931 -0.121898764666846 0 -0.46105887075467122 -0.088792181426399025 0 -0.48052943537733628 -0.1043429966998831 0 -0.48052943537733628 -0.1043429966998831 0 -0.50000000000000089 -0.1198938119733675 0 -0.5 -0.090898883536528308 0 -0.48245330698995931 -0.121898764666846 0 -0.48052943537733628 -0.1043429966998831 0 -0.50000000000000089 -0.1198938119733675 0 -0.48052943537733628 -0.1043429966998831 0 -0.50000000000000089 -0.1198938119733675 0 -0.46118581313569179 -0.071431252447136412 0 -0.48115195350555812 -0.076249636056848105 0 -0.46833584839527592 -0.05632992550213807 0 -0.48115195350555812 -0.076249636056848105 0 -0.48490864188954641 -0.055044389119401932 0 -0.46833584839527592 -0.05632992550213807 0 -0.46105887075467122 -0.088792181426399025 0 -0.48052943537733628 -0.1043429966998831 0 -0.48115195350555812 -0.076249636056848105 0 -0.48052943537733628 -0.1043429966998831 0 -0.48115195350555812 -0.076249636056848105 0 -0.5 -0.090898883536528308 0 -0.48115195350555812 -0.076249636056848105 0 -0.5 -0.090898883536528308 0 -0.5 -0.061903955099689163 0 -0.48115195350555812 -0.076249636056848105 0 -0.5 -0.061903955099689163 0 -0.48490864188954641 -0.055044389119401932 0 -0.5 -0.061903955099689163 0 -0.48490864188954641 -0.055044389119401932 0 -0.5 -0.032909026662849998 0 -0.48490864188954641 -0.055044389119401932 0 -0.5 -0.032909026662849998 0 -0.47623700986288742 -0.042296174380792313 0 -0.47623700986288742 -0.042296174380792313 0 -0.45975743000638192 -0.044470174785055258 0 -0.47133789178420182 -0.026132268992706809 0 -0.5 -0.032909026662849998 0 -0.47623700986288742 -0.042296174380792313 0 -0.47133789178420182 -0.026132268992706809 0 -0.48490864188954641 -0.055044389119401932 0 -0.47623700986288742 -0.042296174380792313 0 -0.46833584839527592 -0.05632992550213807 0 -0.46118581313569179 -0.071431252447136412 0 -0.46833584839527592 -0.05632992550213807 0 -0.45067286806919349 -0.058855770468984832 0 -0.47623700986288742 -0.042296174380792313 0 -0.46833584839527592 -0.05632992550213807 0 -0.45975743000638192 -0.044470174785055258 0 -0.46833584839527592 -0.05632992550213807 0 -0.45975743000638192 -0.044470174785055258 0 -0.45067286806919349 -0.058855770468984832 0 -0.45975743000638192 -0.044470174785055258 0 -0.45067286806919349 -0.058855770468984832 0 -0.46833584839527592 -0.05632992550213807 0 -0.45975743000638192 -0.044470174785055258 0 -0.45964620516156041 -0.031574428691672249 0 -0.45975743000638192 -0.044470174785055258 0 -0.44743337329375982 -0.027432040969604381 0 -0.45975743000638192 -0.044470174785055258 0 -0.44743337329375982 -0.027432040969604381 0 -0.45975743000638192 -0.044470174785055258 0 -0.47133789178420182 -0.026132268992706809 0 -0.45964620516156041 -0.031574428691672249 0 -0.45975743000638192 -0.044470174785055258 0 -0.47133789178420182 -0.026132268992706809 0 -0.45975743000638192 -0.044470174785055258 0 -0.4453801544960031 -0.037531923181514312 0 -0.44743337329375982 -0.027432040969604381 0 -0.45975743000638192 -0.044470174785055258 0 -0.4453801544960031 -0.037531923181514312 0 -0.44094154444346079 -0.04995238034171972 0 -0.42837915354319411 -0.040827216461995969 0 -0.4453801544960031 -0.037531923181514312 0 -0.44094154444346079 -0.04995238034171972 0 -0.4453801544960031 -0.037531923181514312 0 -0.44743337329375982 -0.027432040969604381 0 -0.44158830613200611 -0.073241366152915127 0 -0.44094154444346079 -0.04995238034171972 0 -0.45067286806919349 -0.058855770468984832 0 -0.45975743000638192 -0.044470174785055258 0 -0.44094154444346079 -0.04995238034171972 0 -0.45067286806919349 -0.058855770468984832 0 -0.43033724725149269 -0.0037964727450953309 0 -0.45268467479845531 -0.00160063580491273 0 -0.44743337329375982 -0.027432040969604381 0 -0.45268467479845531 -0.00160063580491273 0 -0.44743337329375982 -0.027432040969604381 0 -0.43033724725149269 -0.0037964727450953309 0 -0.44743337329375982 -0.027432040969604381 0 -0.4342900889778567 -0.026770694848987801 0 -0.4453801544960031 -0.037531923181514312 0 -0.44743337329375982 -0.027432040969604381 0 -0.45964620516156041 -0.031574428691672249 0 -0.44743337329375982 -0.027432040969604381 0 -0.46065164258955998 -0.015998841515816709 0 -0.45964620516156041 -0.031574428691672249 0 -0.46065164258955998 -0.015998841515816709 0 -0.47133789178420182 -0.026132268992706809 0 -0.45268467479845531 -0.00160063580491273 0 -0.46065164258955998 -0.015998841515816709 0 -0.47044579822050858 0.003730308873902122 0 -0.45268467479845531 -0.00160063580491273 0 -0.44743337329375982 -0.027432040969604381 0 -0.46065164258955998 -0.015998841515816709 0 -0.46065164258955998 -0.015998841515816709 0 -0.48291835356202167 -0.0077943632003582772 0 -0.47044579822050858 0.003730308873902122 0 -0.46065164258955998 -0.015998841515816709 0 -0.48291835356202167 -0.0077943632003582772 0 -0.47133789178420182 -0.026132268992706809 0 -0.48291835356202167 -0.0077943632003582772 0 -0.47133789178420182 -0.026132268992706809 0 -0.5 -0.032909026662849998 0 -0.48291835356202167 -0.0077943632003582772 0 -0.47133789178420182 -0.026132268992706809 0 -0.5 -0.032909026662849998 0 -0.48291835356202167 -0.0077943632003582772 0 -0.5 -0.0039140982260107426 0 -0.48291835356202167 -0.0077943632003582772 0 -0.5 -0.0039140982260107426 0 -0.48656778433615411 0.0071434676601368312 0 -0.5 -0.0039140982260107426 0 -0.48656778433615411 0.0071434676601368312 0 -0.5 0.02508083021082835 0 -0.5 0.02508083021082835 0 -0.47947476989823978 0.0186146606423227 0 -0.48053744464613157 0.038241937480116027 0 -0.48656778433615411 0.0071434676601368312 0 -0.5 0.02508083021082835 0 -0.47947476989823978 0.0186146606423227 0 -0.47947476989823978 0.0186146606423227 0 -0.48053744464613157 0.038241937480116027 0 -0.45793597630314969 0.024230769359779091 0 -0.48656778433615411 0.0071434676601368312 0 -0.47947476989823978 0.0186146606423227 0 -0.47044579822050858 0.003730308873902122 0 -0.48291835356202167 -0.0077943632003582772 0 -0.48656778433615411 0.0071434676601368312 0 -0.47044579822050858 0.003730308873902122 0 -0.47947476989823978 0.0186146606423227 0 -0.47044579822050858 0.003730308873902122 0 -0.45793597630314969 0.024230769359779091 0 -0.5 0.05407575864766756 0 -0.48053744464613157 0.038241937480116027 0 -0.48160115767747708 0.06010989829645641 0 -0.5 0.02508083021082835 0 -0.5 0.05407575864766756 0 -0.48053744464613157 0.038241937480116027 0 -0.48053744464613157 0.038241937480116027 0 -0.48160115767747708 0.06010989829645641 0 -0.4631872778078443 0.050062174524471058 0 -0.48160115767747708 0.06010989829645641 0 -0.4631872778078443 0.050062174524471058 0 -0.46843857931253879 0.07589357968916309 0 -0.4631872778078443 0.050062174524471058 0 -0.4467001814262947 0.061097152827744368 0 -0.46843857931253879 0.07589357968916309 0 -0.48053744464613157 0.038241937480116027 0 -0.4631872778078443 0.050062174524471058 0 -0.45793597630314969 0.024230769359779091 0 -0.4631872778078443 0.050062174524471058 0 -0.45793597630314969 0.024230769359779091 0 -0.4631872778078443 0.050062174524471058 0 -0.44755765064800451 0.039790068000500847 0 -0.45793597630314969 0.024230769359779091 0 -0.44755765064800451 0.039790068000500847 0 -0.43523671041618939 0.023434885238954581 0 -0.43070758581248142 0.047053180835022322 0 -0.4631872778078443 0.050062174524471058 0 -0.44755765064800451 0.039790068000500847 0 -0.4467001814262947 0.061097152827744368 0 -0.44755765064800451 0.039790068000500847 0 -0.4467001814262947 0.061097152827744368 0 -0.43070758581248142 0.047053180835022322 0 -0.45268467479845531 -0.00160063580491273 0 -0.45793597630314969 0.024230769359779091 0 -0.45268467479845531 -0.00160063580491273 0 -0.47044579822050858 0.003730308873902122 0 -0.45793597630314969 0.024230769359779091 0 -0.44755765064800451 0.039790068000500847 0 -0.45793597630314969 0.024230769359779091 0 -0.43523671041618939 0.023434885238954581 0 -0.45268467479845531 -0.00160063580491273 0 -0.45793597630314969 0.024230769359779091 0 -0.43523671041618939 0.023434885238954581 0 -0.43033724725149269 -0.0037964727450953309 0 -0.45268467479845531 -0.00160063580491273 0 -0.43523671041618939 0.023434885238954581 0 -0.43033724725149269 -0.0037964727450953309 0 -0.41324112120922679 0.019839095479414509 0 -0.43523671041618939 0.023434885238954581 0 -0.4131572459017161 -0.004875649818797438 0 -0.41324112120922679 0.019839095479414509 0 -0.40033306733275759 0.0019581273283447299 0 -0.43033724725149269 -0.0037964727450953309 0 -0.4131572459017161 -0.004875649818797438 0 -0.41324112120922679 0.019839095479414509 0 -0.43033724725149269 -0.0037964727450953309 0 -0.41324112120922679 0.019839095479414509 0 -0.41324112120922679 0.019839095479414509 0 -0.43523671041618939 0.023434885238954581 0 -0.4159879611894004 0.038538653043845933 0 -0.43523671041618939 0.023434885238954581 0 -0.43070758581248142 0.047053180835022322 0 -0.4159879611894004 0.038538653043845933 0 -0.4467001814262947 0.061097152827744368 0 -0.43070758581248142 0.047053180835022322 0 -0.43187545736445182 0.065921103617004775 0 -0.43070758581248142 0.047053180835022322 0 -0.41322656597679058 0.058941655142102069 0 -0.43187545736445182 0.065921103617004775 0 -0.43070758581248142 0.047053180835022322 0 -0.41322656597679058 0.058941655142102069 0 -0.4159879611894004 0.038538653043845933 0 -0.41322656597679058 0.058941655142102069 0 -0.4159879611894004 0.038538653043845933 0 -0.39614499516696089 0.04347466370392436 0 -0.41324112120922679 0.019839095479414509 0 -0.4159879611894004 0.038538653043845933 0 -0.39614499516696089 0.04347466370392436 0 -0.41324112120922679 0.019839095479414509 0 -0.39614499516696089 0.04347466370392436 0 -0.39614499516696089 0.04347466370392436 0 -0.37904886912469499 0.067110231928434197 0 -0.39695674231957478 0.074929810419583368 0 -0.41322656597679058 0.058941655142102069 0 -0.39614499516696089 0.04347466370392436 0 -0.39695674231957478 0.074929810419583368 0 -0.39614499516696089 0.04347466370392436 0 -0.37904886912469499 0.067110231928434197 0 -0.39614499516696089 0.04347466370392436 0 -0.37830855690199738 0.048851891747440382 0 -0.37904886912469499 0.067110231928434197 0 -0.37830855690199738 0.048851891747440382 0 -0.37904886912469499 0.067110231928434197 0 -0.37119345183321822 0.058853827639881867 0 -0.39614499516696089 0.04347466370392436 0 -0.37753126207020948 0.034899308803226177 0 -0.39262774316901877 0.02112007510405265 0 -0.39614499516696089 0.04347466370392436 0 -0.37830855690199738 0.048851891747440382 0 -0.37753126207020948 0.034899308803226177 0 -0.38389636562500351 0.0078670615218947963 0 -0.39262774316901877 0.02112007510405265 0 -0.37274578052696178 0.01868977009819147 0 -0.37753126207020948 0.034899308803226177 0 -0.39262774316901877 0.02112007510405265 0 -0.37274578052696178 0.01868977009819147 0 -0.38465333842141641 -0.0066435457767305304 0 -0.38389636562500351 0.0078670615218947963 0 -0.40033306733275759 0.0019581273283447299 0 -0.38389636562500351 0.0078670615218947963 0 -0.37274578052696178 0.01868977009819147 0 -0.36979036210562988 0.0025511841975563729 0 -0.38465333842141641 -0.0066435457767305304 0 -0.38389636562500351 0.0078670615218947963 0 -0.36979036210562988 0.0025511841975563729 0 -0.38389636562500351 0.0078670615218947963 0 -0.40033306733275759 0.0019581273283447299 0 -0.39262774316901877 0.02112007510405265 0 -0.41324112120922679 0.019839095479414509 0 -0.40033306733275759 0.0019581273283447299 0 -0.39262774316901877 0.02112007510405265 0 -0.41324112120922679 0.019839095479414509 0 -0.39614499516696089 0.04347466370392436 0 -0.39262774316901877 0.02112007510405265 0 -0.38940712396436111 0.098535478259042519 0 -0.39976920250104669 0.086913075381088473 0 -0.40655062222011962 0.096340958868671334 0 -0.39063101314785642 0.1199442217017349 0 -0.40655062222011962 0.096340958868671334 0 -0.40795026737523371 0.1101441825861223 0 -0.39063101314785642 0.1199442217017349 0 -0.38940712396436111 0.098535478259042519 0 -0.40655062222011962 0.096340958868671334 0 -0.39063101314785642 0.1199442217017349 0 -0.40655062222011962 0.096340958868671334 0 -0.39063101314785642 0.1199442217017349 0 -0.40795026737523371 0.1101441825861223 0 -0.40406865080306442 0.1250183431131778 0 -0.39063101314785642 0.1199442217017349 0 -0.37896648635229202 0.10715504183998489 0 -0.36716541190589658 0.118616890008602 0 -0.39063101314785642 0.1199442217017349 0 -0.37896648635229202 0.10715504183998489 0 -0.38940712396436111 0.098535478259042519 0 -0.37896648635229202 0.10715504183998489 0 -0.38940712396436111 0.098535478259042519 0 -0.37643332436138899 0.09558572737664002 0 -0.38119130922167832 0.078766060501995444 0 -0.3856317933390121 0.08567132342606161 0 -0.39695674231957478 0.074929810419583368 0 -0.37643332436138899 0.09558572737664002 0 -0.3856317933390121 0.08567132342606161 0 -0.37016311523106599 0.083751267223082917 0 -0.38119130922167832 0.078766060501995444 0 -0.3856317933390121 0.08567132342606161 0 -0.37016311523106599 0.083751267223082917 0 -0.38940712396436111 0.098535478259042519 0 -0.37643332436138899 0.09558572737664002 0 -0.3856317933390121 0.08567132342606161 0 -0.39695674231957478 0.074929810419583368 0 -0.37201358599706058 0.070711840939253895 0 -0.38119130922167832 0.078766060501995444 0 -0.39695674231957478 0.074929810419583368 0 -0.37201358599706058 0.070711840939253895 0 -0.37904886912469499 0.067110231928434197 0 -0.39695674231957478 0.074929810419583368 0 -0.37201358599706058 0.070711840939253895 0 -0.39695674231957478 0.074929810419583368 0 -0.39976920250104669 0.086913075381088473 0 -0.42189989864208899 0.079147779899912826 0 -0.38940712396436111 0.098535478259042519 0 -0.3856317933390121 0.08567132342606161 0 -0.39976920250104669 0.086913075381088473 0 -0.3856317933390121 0.08567132342606161 0 -0.39695674231957478 0.074929810419583368 0 -0.39976920250104669 0.086913075381088473 0 -0.42189989864208899 0.079147779899912826 0 -0.41823283762125668 0.10021421029095 0 -0.40655062222011962 0.096340958868671334 0 -0.39976920250104669 0.086913075381088473 0 -0.42189989864208899 0.079147779899912826 0 -0.40655062222011962 0.096340958868671334 0 -0.39695674231957478 0.074929810419583368 0 -0.42189989864208899 0.079147779899912826 0 -0.41322656597679058 0.058941655142102069 0 -0.39695674231957478 0.074929810419583368 0 -0.42189989864208899 0.079147779899912826 0 -0.43187545736445182 0.065921103617004775 0 -0.42189989864208899 0.079147779899912826 0 -0.44684305496460319 0.083365749380242285 0 -0.41322656597679058 0.058941655142102069 0 -0.43187545736445182 0.065921103617004775 0 -0.42189989864208899 0.079147779899912826 0 -0.42189989864208899 0.079147779899912826 0 -0.43230900050581528 0.10074033507248679 0 -0.44684305496460319 0.083365749380242285 0 -0.42189989864208899 0.079147779899912826 0 -0.43230900050581528 0.10074033507248679 0 -0.41823283762125668 0.10021421029095 0 -0.42189989864208899 0.079147779899912826 0 -0.44684305496460319 0.083365749380242285 0 -0.43230900050581528 0.10074033507248679 0 -0.41823283762125668 0.10021421029095 0 -0.42245439936302609 0.1146977950275566 0 -0.41823283762125668 0.10021421029095 0 -0.40795026737523371 0.1101441825861223 0 -0.42245439936302609 0.1146977950275566 0 -0.41823283762125668 0.10021421029095 0 -0.40655062222011962 0.096340958868671334 0 -0.40795026737523371 0.1101441825861223 0 -0.40795026737523371 0.1101441825861223 0 -0.42245439936302609 0.1146977950275566 0 -0.41854804079657681 0.1335618185962307 0 -0.40795026737523371 0.1101441825861223 0 -0.41854804079657681 0.1335618185962307 0 -0.40795026737523371 0.1101441825861223 0 -0.41854804079657681 0.1335618185962307 0 -0.40406865080306442 0.1250183431131778 0 -0.4361514068569779 0.1212930370016405 0 -0.42245439936302609 0.1146977950275566 0 -0.41854804079657681 0.1335618185962307 0 -0.43230900050581528 0.10074033507248679 0 -0.4361514068569779 0.1212930370016405 0 -0.42245439936302609 0.1146977950275566 0 -0.4361514068569779 0.1212930370016405 0 -0.45131059104818438 0.10389771754541841 0 -0.45603072582896947 0.12415654782577901 0 -0.43230900050581528 0.10074033507248679 0 -0.4361514068569779 0.1212930370016405 0 -0.45131059104818438 0.10389771754541841 0 -0.43230900050581528 0.10074033507248679 0 -0.45131059104818438 0.10389771754541841 0 -0.44684305496460319 0.083365749380242285 0 -0.45131059104818438 0.10389771754541841 0 -0.46040635620489312 0.091287960740373597 0 -0.47503319949424611 0.10199479634667059 0 -0.45131059104818438 0.10389771754541841 0 -0.45603072582896947 0.12415654782577901 0 -0.47503319949424611 0.10199479634667059 0 -0.4467001814262947 0.061097152827744368 0 -0.43187545736445182 0.065921103617004775 0 -0.44684305496460319 0.083365749380242285 0 -0.45131059104818438 0.10389771754541841 0 -0.44684305496460319 0.083365749380242285 0 -0.46040635620489312 0.091287960740373597 0 -0.46040635620489312 0.091287960740373597 0 -0.46843857931253879 0.07589357968916309 0 -0.47503319949424611 0.10199479634667059 0 -0.44684305496460319 0.083365749380242285 0 -0.46040635620489312 0.091287960740373597 0 -0.46843857931253879 0.07589357968916309 0 -0.4631872778078443 0.050062174524471058 0 -0.46843857931253879 0.07589357968916309 0 -0.4467001814262947 0.061097152827744368 0 -0.44684305496460319 0.083365749380242285 0 -0.46843857931253879 0.07589357968916309 0 -0.48160115767747708 0.06010989829645641 0 -0.46843857931253879 0.07589357968916309 0 -0.5 0.083070687084506711 0 -0.46843857931253879 0.07589357968916309 0 -0.5 0.083070687084506711 0 -0.47503319949424611 0.10199479634667059 0 -0.5 0.05407575864766756 0 -0.48160115767747708 0.06010989829645641 0 -0.5 0.083070687084506711 0 -0.45603072582896947 0.12415654782577901 0 -0.47503319949424611 0.10199479634667059 0 -0.47840746745339868 0.1318715347448986 0 -0.5 0.083070687084506711 0 -0.47503319949424611 0.10199479634667059 0 -0.5 0.11206561552134579 0 -0.47503319949424611 0.10199479634667059 0 -0.5 0.11206561552134579 0 -0.47840746745339868 0.1318715347448986 0 -0.5 0.11206561552134579 0 -0.47840746745339868 0.1318715347448986 0 -0.5 0.14106054395818479 0 -0.47840746745339868 0.1318715347448986 0 -0.4813713775429343 0.15534342778339541 0 -0.45584990199199521 0.14839652371063539 0 -0.47840746745339868 0.1318715347448986 0 -0.4813713775429343 0.15534342778339541 0 -0.5 0.14106054395818479 0 -0.4813713775429343 0.15534342778339541 0 -0.5 0.14106054395818479 0 -0.5 0.17005547239502389 0 -0.4813713775429343 0.15534342778339541 0 -0.5 0.17005547239502389 0 -0.47888983910924399 0.1833910978263659 0 -0.5 0.17005547239502389 0 -0.47888983910924399 0.1833910978263659 0 -0.49999999999999639 0.19905040083186301 0 -0.4813713775429343 0.15534342778339541 0 -0.47888983910924399 0.1833910978263659 0 -0.46013732273498392 0.17116473448995881 0 -0.4813713775429343 0.15534342778339541 0 -0.47888983910924399 0.1833910978263659 0 -0.4813713775429343 0.15534342778339541 0 -0.46013732273498392 0.17116473448995881 0 -0.45584990199199521 0.14839652371063539 0 -0.47888983910924399 0.1833910978263659 0 -0.46013732273498392 0.17116473448995881 0 -0.4553652866229031 0.19812390853730849 0 -0.46013732273498392 0.17116473448995881 0 -0.43974358763926291 0.18039709061644729 0 -0.4553652866229031 0.19812390853730849 0 -0.46013732273498392 0.17116473448995881 0 -0.45584990199199521 0.14839652371063539 0 -0.42914581421791992 0.156979454606339 0 -0.46013732273498392 0.17116473448995881 0 -0.43974358763926291 0.18039709061644729 0 -0.42914581421791992 0.156979454606339 0 -0.43890233478009338 0.1378395493323826 0 -0.45584990199199521 0.14839652371063539 0 -0.42914581421791992 0.156979454606339 0 -0.4361514068569779 0.1212930370016405 0 -0.45603072582896947 0.12415654782577901 0 -0.43890233478009338 0.1378395493323826 0 -0.45603072582896947 0.12415654782577901 0 -0.43890233478009338 0.1378395493323826 0 -0.45584990199199521 0.14839652371063539 0 -0.45603072582896947 0.12415654782577901 0 -0.47840746745339868 0.1318715347448986 0 -0.45584990199199521 0.14839652371063539 0 -0.48510068849613291 0.2464952989699998 0 -0.5 0.22952651967534751 0 -0.5 0.27058277969487637 0 -0.48510068849613291 0.2464952989699998 0 -0.47450648191078398 0.23293413722231679 0 -0.4662317729600568 0.24711617116125539 0 -0.48510068849613291 0.2464952989699998 0 -0.5 0.22952651967534751 0 -0.47450648191078398 0.23293413722231679 0 -0.5 0.22952651967534751 0 -0.47450648191078398 0.23293413722231679 0 -0.47640830067555312 0.21143876786933641 0 -0.47450648191078398 0.23293413722231679 0 -0.47640830067555312 0.21143876786933641 0 -0.47640830067555312 0.21143876786933641 0 -0.49999999999999639 0.19905040083186301 0 -0.5 0.22952651967534751 0 -0.47640830067555312 0.21143876786933641 0 -0.49999999999999639 0.19905040083186301 0 -0.47888983910924399 0.1833910978263659 0 -0.47640830067555312 0.21143876786933641 0 -0.49999999999999639 0.19905040083186301 0 -0.47888983910924399 0.1833910978263659 0 -0.47640830067555312 0.21143876786933641 0 -0.47888983910924399 0.1833910978263659 0 -0.47640830067555312 0.21143876786933641 0 -0.4553652866229031 0.19812390853730849 0 -0.43974358763926291 0.18039709061644729 0 -0.4553652866229031 0.19812390853730849 0 -0.43067986422853077 0.20940139548392031 0 -0.4553652866229031 0.19812390853730849 0 -0.45283971357182312 0.22381499832142371 0 -0.43067986422853077 0.20940139548392031 0 -0.47640830067555312 0.21143876786933641 0 -0.4553652866229031 0.19812390853730849 0 -0.45283971357182312 0.22381499832142371 0 -0.47640830067555312 0.21143876786933641 0 -0.45283971357182312 0.22381499832142371 0 -0.47450648191078398 0.23293413722231679 0 -0.45283971357182312 0.22381499832142371 0 -0.45078000859246359 0.24156244513336969 0 -0.47450648191078398 0.23293413722231679 0 -0.47640830067555312 0.21143876786933641 0 -0.45283971357182312 0.22381499832142371 0 -0.45283971357182312 0.22381499832142371 0 -0.43294786837480398 0.2404538296894207 0 -0.42927112646809362 0.23619122877351181 0 -0.45283971357182312 0.22381499832142371 0 -0.42927112646809362 0.23619122877351181 0 -0.45283971357182312 0.22381499832142371 0 -0.42927112646809362 0.23619122877351181 0 -0.43067986422853077 0.20940139548392031 0 -0.45283971357182312 0.22381499832142371 0 -0.45078000859246359 0.24156244513336969 0 -0.43294786837480398 0.2404538296894207 0 -0.43294786837480398 0.2404538296894207 0 -0.44957601688056159 0.25938839971938082 0 -0.45078000859246359 0.24156244513336969 0 -0.43294786837480398 0.2404538296894207 0 -0.44957601688056159 0.25938839971938082 0 -0.45078000859246359 0.24156244513336969 0 -0.4662317729600568 0.24711617116125539 0 -0.44957601688056159 0.25938839971938082 0 -0.47450648191078398 0.23293413722231679 0 -0.45078000859246359 0.24156244513336969 0 -0.4662317729600568 0.24711617116125539 0 -0.42927112646809362 0.23619122877351181 0 -0.40439403923729561 0.237116777479636 0 -0.40570253936436479 0.24856745922560119 0 -0.42927112646809362 0.23619122877351181 0 -0.40570253936436479 0.24856745922560119 0 -0.43294786837480398 0.2404538296894207 0 -0.42927112646809362 0.23619122877351181 0 -0.40570253936436479 0.24856745922560119 0 -0.42927112646809362 0.23619122877351181 0 -0.41099867150134572 0.22378265931279079 0 -0.43067986422853077 0.20940139548392031 0 -0.42927112646809362 0.23619122877351181 0 -0.41099867150134572 0.22378265931279079 0 -0.40439403923729561 0.237116777479636 0 -0.40693149157881192 0.20854646138297669 0 -0.43067986422853077 0.20940139548392031 0 -0.41468845130467291 0.19268004053423909 0 -0.41099867150134572 0.22378265931279079 0 -0.40693149157881192 0.20854646138297669 0 -0.43067986422853077 0.20940139548392031 0 -0.43974358763926291 0.18039709061644729 0 -0.43067986422853077 0.20940139548392031 0 -0.41468845130467291 0.19268004053423909 0 -0.40693149157881192 0.20854646138297669 0 -0.41468845130467291 0.19268004053423909 0 -0.3971577940731173 0.19827573187671929 0 -0.41468845130467291 0.19268004053423909 0 -0.3971577940731173 0.19827573187671929 0 -0.39721082993519219 0.18448993107768991 0 -0.3971577940731173 0.19827573187671929 0 -0.38589476142810619 0.19424352100093389 0 -0.39721082993519219 0.18448993107768991 0 -0.38589476142810619 0.19424352100093389 0 -0.37633455857784293 0.18261391494179069 0 -0.37360736010814782 0.20134128663860251 0 -0.38589476142810619 0.19424352100093389 0 -0.388204088430469 0.2080493245121296 0 -0.37360736010814782 0.20134128663860251 0 -0.3971577940731173 0.19827573187671929 0 -0.38589476142810619 0.19424352100093389 0 -0.388204088430469 0.2080493245121296 0 -0.388204088430469 0.2080493245121296 0 -0.37752279527241261 0.21261086987475841 0 -0.37360736010814782 0.20134128663860251 0 -0.388204088430469 0.2080493245121296 0 -0.39698893960476778 0.22105750592270679 0 -0.38334950790794681 0.2216260941536595 0 -0.388204088430469 0.2080493245121296 0 -0.37752279527241261 0.21261086987475841 0 -0.38334950790794681 0.2216260941536595 0 -0.40693149157881192 0.20854646138297669 0 -0.3971577940731173 0.19827573187671929 0 -0.388204088430469 0.2080493245121296 0 -0.40693149157881192 0.20854646138297669 0 -0.388204088430469 0.2080493245121296 0 -0.39698893960476778 0.22105750592270679 0 -0.41099867150134572 0.22378265931279079 0 -0.40693149157881192 0.20854646138297669 0 -0.39698893960476778 0.22105750592270679 0 -0.41099867150134572 0.22378265931279079 0 -0.39817935363044121 0.2307605800777236 0 -0.39698893960476778 0.22105750592270679 0 -0.41099867150134572 0.22378265931279079 0 -0.39817935363044121 0.2307605800777236 0 -0.40439403923729561 0.237116777479636 0 -0.39817935363044121 0.2307605800777236 0 -0.39698893960476778 0.22105750592270679 0 -0.38938082192181989 0.23429513208400299 0 -0.39698893960476778 0.22105750592270679 0 -0.38334950790794681 0.2216260941536595 0 -0.38938082192181989 0.23429513208400299 0 -0.37752279527241261 0.21261086987475841 0 -0.38334950790794681 0.2216260941536595 0 -0.37349668708843092 0.2226496950895116 0 -0.38334950790794681 0.2216260941536595 0 -0.37780308712422273 0.23309721308500589 0 -0.37349668708843092 0.2226496950895116 0 -0.38334950790794681 0.2216260941536595 0 -0.37780308712422273 0.23309721308500589 0 -0.38938082192181989 0.23429513208400299 0 -0.37780308712422273 0.23309721308500589 0 -0.38938082192181989 0.23429513208400299 0 -0.38455494932564349 0.24416718140159829 0 -0.38938082192181989 0.23429513208400299 0 -0.38455494932564349 0.24416718140159829 0 -0.39556747567899392 0.24292135359640349 0 -0.37780308712422273 0.23309721308500589 0 -0.37552267705158737 0.2431978490864326 0 -0.38455494932564349 0.24416718140159829 0 -0.37552267705158737 0.2431978490864326 0 -0.38455494932564349 0.24416718140159829 0 -0.37675611103540763 0.25409865512553548 0 -0.38455494932564349 0.24416718140159829 0 -0.39556747567899392 0.24292135359640349 0 -0.38900306751682168 0.25733661077056619 0 -0.39556747567899392 0.24292135359640349 0 -0.40570253936436479 0.24856745922560119 0 -0.38900306751682168 0.25733661077056619 0 -0.39817935363044121 0.2307605800777236 0 -0.38938082192181989 0.23429513208400299 0 -0.39556747567899392 0.24292135359640349 0 -0.39817935363044121 0.2307605800777236 0 -0.39556747567899392 0.24292135359640349 0 -0.40439403923729561 0.237116777479636 0 -0.39556747567899392 0.24292135359640349 0 -0.40439403923729561 0.237116777479636 0 -0.40570253936436479 0.24856745922560119 0 -0.40439403923729561 0.237116777479636 0 -0.40570253936436479 0.24856745922560119 0 -0.41854804079657681 0.1335618185962307 0 -0.42914581421791992 0.156979454606339 0 -0.40043471814444209 0.15516303321545699 0 -0.41854804079657681 0.1335618185962307 0 -0.39914528189259102 0.13642314956862331 0 -0.40406865080306442 0.1250183431131778 0 -0.4361514068569779 0.1212930370016405 0 -0.43890233478009338 0.1378395493323826 0 -0.41854804079657681 0.1335618185962307 0 -0.41854804079657681 0.1335618185962307 0 -0.42914581421791992 0.156979454606339 0 -0.43890233478009338 0.1378395493323826 0 -0.41854804079657681 0.1335618185962307 0 -0.42914581421791992 0.156979454606339 0 -0.43974358763926291 0.18039709061644729 0 -0.42914581421791992 0.156979454606339 0 -0.43974358763926291 0.18039709061644729 0 -0.42914581421791992 0.156979454606339 0 -0.41320507520050959 0.17295104721716609 0 -0.43974358763926291 0.18039709061644729 0 -0.41468845130467291 0.19268004053423909 0 -0.41320507520050959 0.17295104721716609 0 -0.41468845130467291 0.19268004053423909 0 -0.41320507520050959 0.17295104721716609 0 -0.39721082993519219 0.18448993107768991 0 -0.42914581421791992 0.156979454606339 0 -0.41320507520050959 0.17295104721716609 0 -0.40043471814444209 0.15516303321545699 0 -0.41320507520050959 0.17295104721716609 0 -0.39020731289493082 0.17075062011690681 0 -0.40043471814444209 0.15516303321545699 0 -0.41320507520050959 0.17295104721716609 0 -0.39721082993519219 0.18448993107768991 0 -0.39020731289493082 0.17075062011690681 0 -0.38589476142810619 0.19424352100093389 0 -0.39721082993519219 0.18448993107768991 0 -0.37633455857784293 0.18261391494179069 0 -0.39721082993519219 0.18448993107768991 0 -0.37633455857784293 0.18261391494179069 0 -0.39020731289493082 0.17075062011690681 0 -0.37604315808934557 0.1616159605326225 0 -0.39020731289493082 0.17075062011690681 0 -0.40043471814444209 0.15516303321545699 0 -0.37633455857784293 0.18261391494179069 0 -0.37604315808934557 0.1616159605326225 0 -0.39020731289493082 0.17075062011690681 0 -0.37604315808934557 0.1616159605326225 0 -0.40043471814444209 0.15516303321545699 0 -0.37471140407559322 0.1435474845347986 0 -0.40043471814444209 0.15516303321545699 0 -0.39914528189259102 0.13642314956862331 0 -0.37471140407559322 0.1435474845347986 0 -0.41854804079657681 0.1335618185962307 0 -0.40043471814444209 0.15516303321545699 0 -0.39914528189259102 0.13642314956862331 0 -0.39063101314785642 0.1199442217017349 0 -0.39914528189259102 0.13642314956862331 0 -0.40406865080306442 0.1250183431131778 0 -0.39063101314785642 0.1199442217017349 0 -0.37471140407559322 0.1435474845347986 0 -0.39063101314785642 0.1199442217017349 0 -0.39914528189259102 0.13642314956862331 0 -0.37471140407559322 0.1435474845347986 0 -0.39063101314785642 0.1199442217017349 0 -0.37471140407559322 0.1435474845347986 0 -0.36716541190589658 0.118616890008602 0 -0.35994195951422209 0.1344452768815545 0 -0.37471140407559322 0.1435474845347986 0 -0.36716541190589658 0.118616890008602 0 -0.35994195951422209 0.1344452768815545 0 -0.36716541190589658 0.118616890008602 0 -0.35352278934268327 0.12307152153672141 0 -0.34641309729257957 0.13731862859844601 0 -0.34013489564456101 0.1359120708212119 0 -0.34492978578452338 0.1096826786703838 0 -0.35994195951422209 0.1344452768815545 0 -0.34641309729257957 0.13731862859844601 0 -0.35352278934268327 0.12307152153672141 0 -0.35994195951422209 0.1344452768815545 0 -0.34641309729257957 0.13731862859844601 0 -0.35789709495435779 0.14967185972920441 0 -0.34641309729257957 0.13731862859844601 0 -0.34789640880063583 0.16495457852650819 0 -0.34475730797662613 0.16425129963789131 0 -0.34641309729257957 0.13731862859844601 0 -0.34789640880063583 0.16495457852650819 0 -0.34641309729257957 0.13731862859844601 0 -0.35789709495435779 0.14967185972920441 0 -0.34789640880063583 0.16495457852650819 0 -0.34641309729257957 0.13731862859844601 0 -0.34475730797662613 0.16425129963789131 0 -0.34013489564456101 0.1359120708212119 0 -0.35994195951422209 0.1344452768815545 0 -0.35789709495435779 0.14967185972920441 0 -0.37471140407559322 0.1435474845347986 0 -0.37471140407559322 0.1435474845347986 0 -0.35879179500333003 0.16715074736786231 0 -0.35789709495435779 0.14967185972920441 0 -0.37471140407559322 0.1435474845347986 0 -0.35879179500333003 0.16715074736786231 0 -0.37604315808934557 0.1616159605326225 0 -0.37471140407559322 0.1435474845347986 0 -0.35879179500333003 0.16715074736786231 0 -0.37604315808934557 0.1616159605326225 0 -0.36770080355277779 0.17295393471821821 0 -0.35879179500333003 0.16715074736786231 0 -0.37633455857784293 0.18261391494179069 0 -0.37604315808934557 0.1616159605326225 0 -0.36770080355277779 0.17295393471821821 0 -0.37633455857784293 0.18261391494179069 0 -0.36024484160731629 0.17922248672973989 0 -0.36412185028301147 0.19234279238731111 0 -0.37633455857784293 0.18261391494179069 0 -0.36770080355277779 0.17295393471821821 0 -0.36024484160731629 0.17922248672973989 0 -0.36770080355277779 0.17295393471821821 0 -0.36024484160731629 0.17922248672973989 0 -0.35879179500333003 0.16715074736786231 0 -0.34475730797662613 0.16425129963789131 0 -0.34937972030869158 0.1925905284545705 0 -0.34475730797662613 0.16425129963789131 0 -0.33955964773429331 0.17429409395644799 0 -0.34937972030869158 0.1925905284545705 0 -0.34789640880063583 0.16495457852650819 0 -0.34937972030869158 0.1925905284545705 0 -0.36024484160731629 0.17922248672973989 0 -0.34789640880063583 0.16495457852650819 0 -0.34937972030869158 0.1925905284545705 0 -0.34789640880063583 0.16495457852650819 0 -0.34475730797662613 0.16425129963789131 0 -0.34937972030869158 0.1925905284545705 0 -0.35789709495435779 0.14967185972920441 0 -0.35879179500333003 0.16715074736786231 0 -0.34789640880063583 0.16495457852650819 0 -0.36024484160731629 0.17922248672973989 0 -0.35879179500333003 0.16715074736786231 0 -0.34789640880063583 0.16495457852650819 0 -0.34475730797662613 0.16425129963789131 0 -0.33718479128260948 0.15937809544746401 0 -0.33738994680948231 0.15124435901621999 0 -0.34475730797662613 0.16425129963789131 0 -0.33718479128260948 0.15937809544746401 0 -0.33813633189250208 0.16634522180797001 0 -0.34475730797662613 0.16425129963789131 0 -0.33813633189250208 0.16634522180797001 0 -0.33955964773429331 0.17429409395644799 0 -0.33813633189250208 0.16634522180797001 0 -0.33104358057647992 0.16745739819007679 0 -0.33955964773429331 0.17429409395644799 0 -0.33718479128260948 0.15937809544746401 0 -0.33813633189250208 0.16634522180797001 0 -0.33104358057647992 0.16745739819007679 0 -0.33718479128260948 0.15937809544746401 0 -0.33104358057647992 0.16745739819007679 0 -0.33026858376101731 0.15190637449176561 0 -0.33104358057647992 0.16745739819007679 0 -0.33403331992976748 0.18227938602527921 0 -0.31962491903722229 0.18594758427241961 0 -0.33955964773429331 0.17429409395644799 0 -0.33403331992976748 0.18227938602527921 0 -0.34937972030869158 0.1925905284545705 0 -0.33104358057647992 0.16745739819007679 0 -0.33955964773429331 0.17429409395644799 0 -0.33403331992976748 0.18227938602527921 0 -0.31962491903722229 0.18594758427241961 0 -0.31796283648197832 0.1633337389314328 0 -0.30596240671843039 0.18080678990447141 0 -0.31962491903722229 0.18594758427241961 0 -0.31796283648197832 0.1633337389314328 0 -0.33104358057647992 0.16745739819007679 0 -0.31962491903722229 0.18594758427241961 0 -0.31796283648197832 0.1633337389314328 0 -0.33104358057647992 0.16745739819007679 0 -0.31796283648197832 0.1633337389314328 0 -0.33026858376101731 0.15190637449176561 0 -0.31796283648197832 0.1633337389314328 0 -0.31630075392673418 0.14071989359044609 0 -0.31796283648197832 0.1633337389314328 0 -0.31630075392673418 0.14071989359044609 0 -0.33026858376101731 0.15190637449176561 0 -0.31630075392673418 0.14071989359044609 0 -0.32855297285770901 0.13997743418302819 0 -0.33026858376101731 0.15190637449176561 0 -0.31630075392673418 0.14071989359044609 0 -0.30835875028686138 0.12836861128214669 0 -0.32196666651361477 0.12487749701900901 0 -0.31630075392673418 0.14071989359044609 0 -0.32855297285770901 0.13997743418302819 0 -0.32196666651361477 0.12487749701900901 0 -0.32855297285770901 0.13997743418302819 0 -0.33106980320980312 0.1246503866679774 0 -0.32196666651361477 0.12487749701900901 0 -0.32855297285770901 0.13997743418302819 0 -0.34013489564456101 0.1359120708212119 0 -0.3346041553825978 0.14477395468276741 0 -0.32855297285770901 0.13997743418302819 0 -0.34013489564456101 0.1359120708212119 0 -0.33106980320980312 0.1246503866679774 0 -0.34475730797662613 0.16425129963789131 0 -0.34013489564456101 0.1359120708212119 0 -0.34013489564456101 0.1359120708212119 0 -0.33738994680948231 0.15124435901621999 0 -0.3346041553825978 0.14477395468276741 0 -0.34475730797662613 0.16425129963789131 0 -0.34013489564456101 0.1359120708212119 0 -0.33738994680948231 0.15124435901621999 0 -0.33718479128260948 0.15937809544746401 0 -0.33738994680948231 0.15124435901621999 0 -0.33026858376101731 0.15190637449176561 0 -0.33738994680948231 0.15124435901621999 0 -0.33026858376101731 0.15190637449176561 0 -0.3346041553825978 0.14477395468276741 0 -0.32855297285770901 0.13997743418302819 0 -0.33026858376101731 0.15190637449176561 0 -0.3346041553825978 0.14477395468276741 0 -0.35208907389890948 0.24306917690434299 0 -0.33787454055877381 0.24529314191448051 0 -0.34142207509263922 0.25572960106260723 0 -0.35208907389890948 0.24306917690434299 0 -0.34508884738596168 0.2342440782649087 0 -0.33787454055877381 0.24529314191448051 0 -0.35689366634974828 0.23865726176967661 0 -0.35926376548055328 0.2486735779402334 0 -0.35208907389890948 0.24306917690434299 0 -0.35926376548055328 0.2486735779402334 0 -0.36665925593476811 0.2402392529692276 0 -0.36723308052532222 0.25309369692869038 0 -0.35689366634974828 0.23865726176967661 0 -0.35926376548055328 0.2486735779402334 0 -0.36665925593476811 0.2402392529692276 0 -0.37552267705158737 0.2431978490864326 0 -0.36665925593476811 0.2402392529692276 0 -0.36723308052532222 0.25309369692869038 0 -0.37780308712422273 0.23309721308500589 0 -0.37552267705158737 0.2431978490864326 0 -0.36665925593476811 0.2402392529692276 0 -0.37780308712422273 0.23309721308500589 0 -0.36665925593476811 0.2402392529692276 0 -0.36843053074319038 0.2307028505946831 0 -0.3637449320256837 0.23462317477255459 0 -0.36665925593476811 0.2402392529692276 0 -0.36843053074319038 0.2307028505946831 0 -0.35689366634974828 0.23865726176967661 0 -0.3637449320256837 0.23462317477255459 0 -0.36304404037139409 0.23042929735762199 0 -0.35689366634974828 0.23865726176967661 0 -0.3637449320256837 0.23462317477255459 0 -0.36665925593476811 0.2402392529692276 0 -0.35689366634974828 0.23865726176967661 0 -0.36304404037139409 0.23042929735762199 0 -0.36041387714694573 0.22521835140317789 0 -0.36304404037139409 0.23042929735762199 0 -0.36843053074319038 0.2307028505946831 0 -0.36573719559140289 0.222944848248018 0 -0.3637449320256837 0.23462317477255459 0 -0.36304404037139409 0.23042929735762199 0 -0.36843053074319038 0.2307028505946831 0 -0.37780308712422273 0.23309721308500589 0 -0.36843053074319038 0.2307028505946831 0 -0.37349668708843092 0.2226496950895116 0 -0.36843053074319038 0.2307028505946831 0 -0.37349668708843092 0.2226496950895116 0 -0.36573719559140289 0.222944848248018 0 -0.37349668708843092 0.2226496950895116 0 -0.36573719559140289 0.222944848248018 0 -0.36813700589141007 0.21491629458094519 0 -0.36304404037139409 0.23042929735762199 0 -0.36573719559140289 0.222944848248018 0 -0.36041387714694573 0.22521835140317789 0 -0.36573719559140289 0.222944848248018 0 -0.36041387714694573 0.22521835140317789 0 -0.36096209089537368 0.21759825830877291 0 -0.36041387714694573 0.22521835140317789 0 -0.35785158193032179 0.22427444164843771 0 -0.36096209089537368 0.21759825830877291 0 -0.35689366634974828 0.23865726176967661 0 -0.35785158193032179 0.22427444164843771 0 -0.35313669332921982 0.21562389511212349 0 -0.35785158193032179 0.22427444164843771 0 -0.35313669332921982 0.21562389511212349 0 -0.36096209089537368 0.21759825830877291 0 -0.35689366634974828 0.23865726176967661 0 -0.35313669332921982 0.21562389511212349 0 -0.35208907389890948 0.24306917690434299 0 -0.34508884738596168 0.2342440782649087 0 -0.35073439710380072 0.2178298526794567 0 -0.34508884738596168 0.2342440782649087 0 -0.35073439710380072 0.2178298526794567 0 -0.33965737798236312 0.2307841415613546 0 -0.35208907389890948 0.24306917690434299 0 -0.35073439710380072 0.2178298526794567 0 -0.35689366634974828 0.23865726176967661 0 -0.35073439710380072 0.2178298526794567 0 -0.35313669332921982 0.21562389511212349 0 -0.35689366634974828 0.23865726176967661 0 -0.35208907389890948 0.24306917690434299 0 -0.35073439710380072 0.2178298526794567 0 -0.35689366634974828 0.23865726176967661 0 -0.36041387714694573 0.22521835140317789 0 -0.35785158193032179 0.22427444164843771 0 -0.35073439710380072 0.2178298526794567 0 -0.34937972030869158 0.1925905284545705 0 -0.35313669332921982 0.21562389511212349 0 -0.36104277081305908 0.20594574517185199 0 -0.34937972030869158 0.1925905284545705 0 -0.35073439710380072 0.2178298526794567 0 -0.35313669332921982 0.21562389511212349 0 -0.34937972030869158 0.1925905284545705 0 -0.35313669332921982 0.21562389511212349 0 -0.34937972030869158 0.1925905284545705 0 -0.35073439710380072 0.2178298526794567 0 -0.34937972030869158 0.1925905284545705 0 -0.34310613959102931 0.2055031457500841 0 -0.35073439710380072 0.2178298526794567 0 -0.34310613959102931 0.2055031457500841 0 -0.34102096872395049 0.21330790674795511 0 -0.35073439710380072 0.2178298526794567 0 -0.34102096872395049 0.21330790674795511 0 -0.34050958406480097 0.2204489809667724 0 -0.35313669332921982 0.21562389511212349 0 -0.36096209089537368 0.21759825830877291 0 -0.36104277081305908 0.20594574517185199 0 -0.36573719559140289 0.222944848248018 0 -0.36096209089537368 0.21759825830877291 0 -0.36813700589141007 0.21491629458094519 0 -0.36096209089537368 0.21759825830877291 0 -0.36813700589141007 0.21491629458094519 0 -0.36104277081305908 0.20594574517185199 0 -0.37752279527241261 0.21261086987475841 0 -0.37349668708843092 0.2226496950895116 0 -0.36813700589141007 0.21491629458094519 0 -0.37752279527241261 0.21261086987475841 0 -0.36813700589141007 0.21491629458094519 0 -0.37360736010814782 0.20134128663860251 0 -0.36813700589141007 0.21491629458094519 0 -0.36104277081305908 0.20594574517185199 0 -0.37360736010814782 0.20134128663860251 0 -0.37633455857784293 0.18261391494179069 0 -0.37360736010814782 0.20134128663860251 0 -0.36412185028301147 0.19234279238731111 0 -0.36104277081305908 0.20594574517185199 0 -0.37360736010814782 0.20134128663860251 0 -0.36412185028301147 0.19234279238731111 0 -0.36024484160731629 0.17922248672973989 0 -0.36412185028301147 0.19234279238731111 0 -0.34937972030869158 0.1925905284545705 0 -0.36104277081305908 0.20594574517185199 0 -0.36412185028301147 0.19234279238731111 0 -0.34937972030869158 0.1925905284545705 0 -0.33403331992976748 0.18227938602527921 0 -0.34937972030869158 0.1925905284545705 0 -0.33132558757267788 0.19645560619981381 0 -0.34937972030869158 0.1925905284545705 0 -0.33132558757267788 0.19645560619981381 0 -0.34310613959102931 0.2055031457500841 0 -0.33132558757267788 0.19645560619981381 0 -0.33206760714527173 0.20694684499318661 0 -0.34310613959102931 0.2055031457500841 0 -0.33403331992976748 0.18227938602527921 0 -0.31962491903722229 0.18594758427241961 0 -0.33132558757267788 0.19645560619981381 0 -0.31962491903722229 0.18594758427241961 0 -0.33132558757267788 0.19645560619981381 0 -0.32128700159246643 0.2085614296134064 0 -0.31962491903722229 0.18594758427241961 0 -0.32128700159246643 0.2085614296134064 0 -0.31094130810426679 0.20146887601233149 0 -0.31962491903722229 0.18594758427241961 0 -0.32128700159246643 0.2085614296134064 0 -0.32128700159246643 0.2085614296134064 0 -0.30991457648112369 0.2265504040794763 0 -0.30833129431909739 0.21334832502430981 0 -0.32128700159246643 0.2085614296134064 0 -0.30833129431909739 0.21334832502430981 0 -0.31094130810426679 0.20146887601233149 0 -0.32128700159246643 0.2085614296134064 0 -0.334517009846864 0.21514148884522391 0 -0.33414886994078158 0.22469785659874761 0 -0.334517009846864 0.21514148884522391 0 -0.33206760714527173 0.20694684499318661 0 -0.34102096872395049 0.21330790674795511 0 -0.33132558757267788 0.19645560619981381 0 -0.32128700159246643 0.2085614296134064 0 -0.33206760714527173 0.20694684499318661 0 -0.32128700159246643 0.2085614296134064 0 -0.334517009846864 0.21514148884522391 0 -0.33206760714527173 0.20694684499318661 0 -0.33206760714527173 0.20694684499318661 0 -0.34310613959102931 0.2055031457500841 0 -0.34102096872395049 0.21330790674795511 0 -0.334517009846864 0.21514148884522391 0 -0.34102096872395049 0.21330790674795511 0 -0.34050958406480097 0.2204489809667724 0 -0.33965737798236312 0.2307841415613546 0 -0.33414886994078158 0.22469785659874761 0 -0.32294908414771051 0.231175274954393 0 -0.34050958406480097 0.2204489809667724 0 -0.33965737798236312 0.2307841415613546 0 -0.33414886994078158 0.22469785659874761 0 -0.334517009846864 0.21514148884522391 0 -0.34050958406480097 0.2204489809667724 0 -0.33414886994078158 0.22469785659874761 0 -0.35073439710380072 0.2178298526794567 0 -0.34050958406480097 0.2204489809667724 0 -0.33965737798236312 0.2307841415613546 0 -0.32128700159246643 0.2085614296134064 0 -0.33414886994078158 0.22469785659874761 0 -0.32294908414771051 0.231175274954393 0 -0.32128700159246643 0.2085614296134064 0 -0.32294908414771051 0.231175274954393 0 -0.32128700159246643 0.2085614296134064 0 -0.32294908414771051 0.231175274954393 0 -0.30991457648112369 0.2265504040794763 0 -0.32294908414771051 0.231175274954393 0 -0.30659471691689572 0.242716670786389 0 -0.30991457648112369 0.2265504040794763 0 -0.32294908414771051 0.231175274954393 0 -0.30659471691689572 0.242716670786389 0 -0.32493898666941562 0.25370598596143412 0 -0.33965737798236312 0.2307841415613546 0 -0.32294908414771051 0.231175274954393 0 -0.33787454055877381 0.24529314191448051 0 -0.32294908414771051 0.231175274954393 0 -0.33787454055877381 0.24529314191448051 0 -0.32493898666941562 0.25370598596143412 0 -0.34508884738596168 0.2342440782649087 0 -0.33965737798236312 0.2307841415613546 0 -0.33787454055877381 0.24529314191448051 0 -0.28392805579818597 0.24584677119781029 0 -0.30659471691689572 0.242716670786389 0 -0.29475597619187288 0.23283261746471121 0 -0.28392805579818597 0.24584677119781029 0 -0.29475597619187288 0.23283261746471121 0 -0.28109078806307641 0.23123665432302171 0 -0.30991457648112369 0.2265504040794763 0 -0.2995127007984647 0.22240216811521779 0 -0.29475597619187288 0.23283261746471121 0 -0.30659471691689572 0.242716670786389 0 -0.30991457648112369 0.2265504040794763 0 -0.29475597619187288 0.23283261746471121 0 -0.30991457648112369 0.2265504040794763 0 -0.2995127007984647 0.22240216811521779 0 -0.30833129431909739 0.21334832502430981 0 -0.2995127007984647 0.22240216811521779 0 -0.29475597619187288 0.23283261746471121 0 -0.28658767146556752 0.2208426317688808 0 -0.29475597619187288 0.23283261746471121 0 -0.28658767146556752 0.2208426317688808 0 -0.28109078806307641 0.23123665432302171 0 -0.28658767146556752 0.2208426317688808 0 -0.28549164962408852 0.20589081089837991 0 -0.27599235506858921 0.213338138612501 0 -0.2995127007984647 0.22240216811521779 0 -0.28658767146556752 0.2208426317688808 0 -0.29782091388006071 0.2077851852193662 0 -0.28658767146556752 0.2208426317688808 0 -0.28549164962408852 0.20589081089837991 0 -0.29782091388006071 0.2077851852193662 0 -0.2995127007984647 0.22240216811521779 0 -0.30833129431909739 0.21334832502430981 0 -0.29782091388006071 0.2077851852193662 0 -0.30833129431909739 0.21334832502430981 0 -0.29782091388006071 0.2077851852193662 0 -0.31094130810426679 0.20146887601233149 0 -0.31094130810426679 0.20146887601233149 0 -0.28918285092023371 0.18809301854234381 0 -0.30596240671843039 0.18080678990447141 0 -0.31094130810426679 0.20146887601233149 0 -0.28918285092023371 0.18809301854234381 0 -0.31962491903722229 0.18594758427241961 0 -0.31094130810426679 0.20146887601233149 0 -0.30596240671843039 0.18080678990447141 0 -0.29782091388006071 0.2077851852193662 0 -0.31094130810426679 0.20146887601233149 0 -0.28918285092023371 0.18809301854234381 0 -0.28549164962408852 0.20589081089837991 0 -0.28918285092023371 0.18809301854234381 0 -0.27469451239495962 0.19856643751398209 0 -0.28549164962408852 0.20589081089837991 0 -0.29782091388006071 0.2077851852193662 0 -0.28918285092023371 0.18809301854234381 0 -0.27469451239495962 0.19856643751398209 0 -0.25846339158769432 0.19477026040294029 0 -0.26742439373620053 0.1747171610723561 0 -0.27469451239495962 0.19856643751398209 0 -0.25846339158769432 0.19477026040294029 0 -0.26373521695980739 0.20854805576629271 0 -0.25846339158769432 0.19477026040294029 0 -0.25264776582176801 0.2054066783297176 0 -0.24512564856919611 0.1966003761625241 0 -0.25846339158769432 0.19477026040294029 0 -0.26373521695980739 0.20854805576629271 0 -0.25264776582176801 0.2054066783297176 0 -0.26373521695980739 0.20854805576629271 0 -0.25264776582176801 0.2054066783297176 0 -0.25326648915379463 0.21765104414027969 0 -0.26373521695980739 0.20854805576629271 0 -0.25326648915379463 0.21765104414027969 0 -0.26696116117740232 0.2188897629996385 0 -0.26373521695980739 0.20854805576629271 0 -0.27599235506858921 0.213338138612501 0 -0.26696116117740232 0.2188897629996385 0 -0.27469451239495962 0.19856643751398209 0 -0.26373521695980739 0.20854805576629271 0 -0.27599235506858921 0.213338138612501 0 -0.28549164962408852 0.20589081089837991 0 -0.27469451239495962 0.19856643751398209 0 -0.27599235506858921 0.213338138612501 0 -0.28658767146556752 0.2208426317688808 0 -0.27599235506858921 0.213338138612501 0 -0.27366575233363138 0.22408994750137051 0 -0.28658767146556752 0.2208426317688808 0 -0.27366575233363138 0.22408994750137051 0 -0.28109078806307641 0.23123665432302171 0 -0.27366575233363138 0.22408994750137051 0 -0.28109078806307641 0.23123665432302171 0 -0.26613842301448931 0.22948780180005629 0 -0.27366575233363138 0.22408994750137051 0 -0.26613842301448931 0.22948780180005629 0 -0.27599235506858921 0.213338138612501 0 -0.27366575233363138 0.22408994750137051 0 -0.26696116117740232 0.2188897629996385 0 -0.27366575233363138 0.22408994750137051 0 -0.26613842301448931 0.22948780180005629 0 -0.26696116117740232 0.2188897629996385 0 -0.25326648915379463 0.21765104414027969 0 -0.26613842301448931 0.22948780180005629 0 -0.25326648915379463 0.21765104414027969 0 -0.26613842301448931 0.22948780180005629 0 -0.26696116117740232 0.2188897629996385 0 -0.26613842301448931 0.22948780180005629 0 -0.25250373055295899 0.22903132158689779 0 -0.2468893326351202 0.24329134098969171 0 -0.25326648915379463 0.21765104414027969 0 -0.26613842301448931 0.22948780180005629 0 -0.25250373055295899 0.22903132158689779 0 -0.26613842301448931 0.22948780180005629 0 -0.2468893326351202 0.24329134098969171 0 -0.26613842301448931 0.22948780180005629 0 -0.26514282027817931 0.24842266601513599 0 -0.2468893326351202 0.24329134098969171 0 -0.28392805579818597 0.24584677119781029 0 -0.26613842301448931 0.22948780180005629 0 -0.26514282027817931 0.24842266601513599 0 -0.28392805579818597 0.24584677119781029 0 -0.26613842301448931 0.22948780180005629 0 -0.28392805579818597 0.24584677119781029 0 -0.28109078806307641 0.23123665432302171 0 -0.26613842301448931 0.22948780180005629 0 -0.29674228528268098 0.14167201189203629 0 -0.29210011904845101 0.16519073176382951 0 -0.2788144627000812 0.14703818685698561 0 -0.29674228528268098 0.14167201189203629 0 -0.2788144627000812 0.14703818685698561 0 -0.2804226891664876 0.12940513594623221 0 -0.29674228528268098 0.14167201189203629 0 -0.2804226891664876 0.12940513594623221 0 -0.29563289833704792 0.1211109261551389 0 -0.29674228528268098 0.14167201189203629 0 -0.30835875028686138 0.12836861128214669 0 -0.29563289833704792 0.1211109261551389 0 -0.31630075392673418 0.14071989359044609 0 -0.29674228528268098 0.14167201189203629 0 -0.30835875028686138 0.12836861128214669 0 -0.31796283648197832 0.1633337389314328 0 -0.31630075392673418 0.14071989359044609 0 -0.29674228528268098 0.14167201189203629 0 -0.31796283648197832 0.1633337389314328 0 -0.30596240671843039 0.18080678990447141 0 -0.29210011904845101 0.16519073176382951 0 -0.31796283648197832 0.1633337389314328 0 -0.29674228528268098 0.14167201189203629 0 -0.29210011904845101 0.16519073176382951 0 -0.28918285092023371 0.18809301854234381 0 -0.30596240671843039 0.18080678990447141 0 -0.29210011904845101 0.16519073176382951 0 -0.28918285092023371 0.18809301854234381 0 -0.29210011904845101 0.16519073176382951 0 -0.26742439373620053 0.1747171610723561 0 -0.29210011904845101 0.16519073176382951 0 -0.26645859331151961 0.15770478106228089 0 -0.2788144627000812 0.14703818685698561 0 -0.29210011904845101 0.16519073176382951 0 -0.26645859331151961 0.15770478106228089 0 -0.26742439373620053 0.1747171610723561 0 -0.28918285092023371 0.18809301854234381 0 -0.27469451239495962 0.19856643751398209 0 -0.26742439373620053 0.1747171610723561 0 -0.28918285092023371 0.18809301854234381 0 -0.26742439373620053 0.1747171610723561 0 -0.25846339158769432 0.19477026040294029 0 -0.26742439373620053 0.1747171610723561 0 -0.2425545525554833 0.18325607046718431 0 -0.26742439373620053 0.1747171610723561 0 -0.24566593655216731 0.1613413036023684 0 -0.2425545525554833 0.18325607046718431 0 -0.26742439373620053 0.1747171610723561 0 -0.24566593655216731 0.1613413036023684 0 -0.26645859331151961 0.15770478106228089 0 -0.26742439373620053 0.1747171610723561 0 -0.24566593655216731 0.1613413036023684 0 -0.26645859331151961 0.15770478106228089 0 -0.26077588748637798 0.14053443996503889 0 -0.24566593655216731 0.1613413036023684 0 -0.26645859331151961 0.15770478106228089 0 -0.2788144627000812 0.14703818685698561 0 -0.26077588748637798 0.14053443996503889 0 -0.2788144627000812 0.14703818685698561 0 -0.2804226891664876 0.12940513594623221 0 -0.26077588748637798 0.14053443996503889 0 -0.2804226891664876 0.12940513594623221 0 -0.26077588748637798 0.14053443996503889 0 -0.26620622488190782 0.1187168322113534 0 -0.26077588748637798 0.14053443996503889 0 -0.25033803458298193 0.12914144363467839 0 -0.2394413917758374 0.14053574488666021 0 -0.26077588748637798 0.14053443996503889 0 -0.25033803458298193 0.12914144363467839 0 -0.26620622488190782 0.1187168322113534 0 -0.25033803458298193 0.12914144363467839 0 -0.25364395357421121 0.10678394025260531 0 -0.26620622488190782 0.1187168322113534 0 -0.25364395357421121 0.10678394025260531 0 -0.26910496068450029 0.10059928658519129 0 -0.26340159681891351 0.087305486383429762 0 -0.25364395357421121 0.10678394025260531 0 -0.26910496068450029 0.10059928658519129 0 -0.26620622488190782 0.1187168322113534 0 -0.26910496068450029 0.10059928658519129 0 -0.28436437631082973 0.10735841859683989 0 -0.28176033911896858 0.090840469038767704 0 -0.26910496068450029 0.10059928658519129 0 -0.26620622488190782 0.1187168322113534 0 -0.28436437631082973 0.10735841859683989 0 -0.2804226891664876 0.12940513594623221 0 -0.26620622488190782 0.1187168322113534 0 -0.28436437631082973 0.10735841859683989 0 -0.2804226891664876 0.12940513594623221 0 -0.29563289833704792 0.1211109261551389 0 -0.28436437631082973 0.10735841859683989 0 -0.29563289833704792 0.1211109261551389 0 -0.28436437631082973 0.10735841859683989 0 -0.30333203744139958 0.1018092028156232 0 -0.28436437631082973 0.10735841859683989 0 -0.30333203744139958 0.1018092028156232 0 -0.29505738772415852 0.092466809089677027 0 -0.28436437631082973 0.10735841859683989 0 -0.29505738772415852 0.092466809089677027 0 -0.28176033911896858 0.090840469038767704 0 -0.30333203744139958 0.1018092028156232 0 -0.31115114737422961 0.1134627277541034 0 -0.31621893882499519 0.096173217231134644 0 -0.29563289833704792 0.1211109261551389 0 -0.30333203744139958 0.1018092028156232 0 -0.31115114737422961 0.1134627277541034 0 -0.30835875028686138 0.12836861128214669 0 -0.29563289833704792 0.1211109261551389 0 -0.31115114737422961 0.1134627277541034 0 -0.2988364877494265 0.069896585727329402 0 -0.3095990562077543 0.082833834969606807 0 -0.31708477734686968 0.066938799678275263 0 -0.2988364877494265 0.069896585727329402 0 -0.30266664287706341 0.054708362279179482 0 -0.31708477734686968 0.066938799678275263 0 -0.2988364877494265 0.069896585727329402 0 -0.28935545939309398 0.062964548691125152 0 -0.30266664287706341 0.054708362279179482 0 -0.30333203744139958 0.1018092028156232 0 -0.3095990562077543 0.082833834969606807 0 -0.31621893882499519 0.096173217231134644 0 -0.30333203744139958 0.1018092028156232 0 -0.3095990562077543 0.082833834969606807 0 -0.29505738772415852 0.092466809089677027 0 -0.3095990562077543 0.082833834969606807 0 -0.29687345717375091 0.081902945336330912 0 -0.29505738772415852 0.092466809089677027 0 -0.2988364877494265 0.069896585727329402 0 -0.3095990562077543 0.082833834969606807 0 -0.29687345717375091 0.081902945336330912 0 -0.29687345717375091 0.081902945336330912 0 -0.28176033911896858 0.090840469038767704 0 -0.2804463735768567 0.075556206852953223 0 -0.29687345717375091 0.081902945336330912 0 -0.29505738772415852 0.092466809089677027 0 -0.28176033911896858 0.090840469038767704 0 -0.2988364877494265 0.069896585727329402 0 -0.28935545939309398 0.062964548691125152 0 -0.2804463735768567 0.075556206852953223 0 -0.2988364877494265 0.069896585727329402 0 -0.29687345717375091 0.081902945336330912 0 -0.2804463735768567 0.075556206852953223 0 -0.28935545939309398 0.062964548691125152 0 -0.28020443427428848 0.065937434716272045 0 -0.28232948387749679 0.060243429622273227 0 -0.28935545939309398 0.062964548691125152 0 -0.28020443427428848 0.065937434716272045 0 -0.2804463735768567 0.075556206852953223 0 -0.2804463735768567 0.075556206852953223 0 -0.26340159681891351 0.087305486383429762 0 -0.26195798501385009 0.070226375813507561 0 -0.28020443427428848 0.065937434716272045 0 -0.26195798501385009 0.070226375813507561 0 -0.2800946942601637 0.055740888585776333 0 -0.28020443427428848 0.065937434716272045 0 -0.2804463735768567 0.075556206852953223 0 -0.26195798501385009 0.070226375813507561 0 -0.26195798501385009 0.070226375813507561 0 -0.2800946942601637 0.055740888585776333 0 -0.26910496068450029 0.10059928658519129 0 -0.28176033911896858 0.090840469038767704 0 -0.26340159681891351 0.087305486383429762 0 -0.28176033911896858 0.090840469038767704 0 -0.2804463735768567 0.075556206852953223 0 -0.26340159681891351 0.087305486383429762 0 -0.26340159681891351 0.087305486383429762 0 -0.26195798501385009 0.070226375813507561 0 -0.24382127576753621 0.084711863041238192 0 -0.25364395357421121 0.10678394025260531 0 -0.26340159681891351 0.087305486383429762 0 -0.24382127576753621 0.084711863041238192 0 -0.26195798501385009 0.070226375813507561 0 -0.24382127576753621 0.084711863041238192 0 -0.26195798501385009 0.070226375813507561 0 -0.26253060434091768 0.04486583530805522 0 -0.24534917185526489 0.049526218608574313 0 -0.26253060434091768 0.04486583530805522 0 -0.25642639863326749 0.02710060176493858 0 -0.24534917185526489 0.049526218608574313 0 -0.26253060434091768 0.04486583530805522 0 -0.27431483662099609 0.037465275048419483 0 -0.25642639863326749 0.02710060176493858 0 -0.26253060434091768 0.04486583530805522 0 -0.27431483662099609 0.037465275048419483 0 -0.2800946942601637 0.055740888585776333 0 -0.26195798501385009 0.070226375813507561 0 -0.26253060434091768 0.04486583530805522 0 -0.2800946942601637 0.055740888585776333 0 -0.28020443427428848 0.065937434716272045 0 -0.2800946942601637 0.055740888585776333 0 -0.28232948387749679 0.060243429622273227 0 -0.26431478179583978 -0.01186883573312463 0 -0.25132042997239518 0.0027134119798401068 0 -0.26646431581863778 0.01029557754540468 0 -0.25132042997239518 0.0027134119798401068 0 -0.25642639863326749 0.02710060176493858 0 -0.26646431581863778 0.01029557754540468 0 -0.27431483662099609 0.037465275048419483 0 -0.25642639863326749 0.02710060176493858 0 -0.27962863155723588 0.021383722316491719 0 -0.25642639863326749 0.02710060176493858 0 -0.27962863155723588 0.021383722316491719 0 -0.26646431581863778 0.01029557754540468 0 -0.2820771903446922 -0.0013122005201030101 0 -0.27962863155723588 0.021383722316491719 0 -0.26646431581863778 0.01029557754540468 0 -0.2820771903446922 -0.0013122005201030101 0 -0.30047775033007851 -0.00039401612408775783 0 -0.29196914664965867 0.01010181790504874 0 -0.2820771903446922 -0.0013122005201030101 0 -0.27962863155723588 0.021383722316491719 0 -0.29196914664965867 0.01010181790504874 0 -0.27962863155723588 0.021383722316491719 0 -0.29196914664965867 0.01010181790504874 0 -0.3056930143666281 0.020729765947894 0 -0.27962863155723588 0.021383722316491719 0 -0.3056930143666281 0.020729765947894 0 -0.2928938543133956 0.038235327266834943 0 -0.3056930143666281 0.020729765947894 0 -0.2928938543133956 0.038235327266834943 0 -0.3056930143666281 0.020729765947894 0 -0.30086997028822832 0.039148022070134687 0 -0.32164524631629432 0.022555155554494829 0 -0.30086997028822832 0.039148022070134687 0 -0.32164524631629432 0.022555155554494829 0 -0.3056930143666281 0.020729765947894 0 -0.31849217441985911 0.0032242046289520012 0 -0.30047775033007851 -0.00039401612408775783 0 -0.3056930143666281 0.020729765947894 0 -0.31849217441985911 0.0032242046289520012 0 -0.30047775033007851 -0.00039401612408775783 0 -0.29196914664965867 0.01010181790504874 0 -0.3056930143666281 0.020729765947894 0 -0.2800946942601637 0.055740888585776333 0 -0.30086997028822832 0.039148022070134687 0 -0.28935545939309398 0.062964548691125152 0 -0.2800946942601637 0.055740888585776333 0 -0.30266664287706341 0.054708362279179482 0 -0.2800946942601637 0.055740888585776333 0 -0.2928938543133956 0.038235327266834943 0 -0.2800946942601637 0.055740888585776333 0 -0.30086997028822832 0.039148022070134687 0 -0.30266664287706341 0.054708362279179482 0 -0.28935545939309398 0.062964548691125152 0 -0.2800946942601637 0.055740888585776333 0 -0.28232948387749679 0.060243429622273227 0 -0.2800946942601637 0.055740888585776333 0 -0.2928938543133956 0.038235327266834943 0 -0.30086997028822832 0.039148022070134687 0 -0.27431483662099609 0.037465275048419483 0 -0.27962863155723588 0.021383722316491719 0 -0.2928938543133956 0.038235327266834943 0 -0.27431483662099609 0.037465275048419483 0 -0.2800946942601637 0.055740888585776333 0 -0.2928938543133956 0.038235327266834943 0 -0.3056930143666281 0.020729765947894 0 -0.2928938543133956 0.038235327266834943 0 -0.30086997028822832 0.039148022070134687 0 -0.30086997028822832 0.039148022070134687 0 -0.30266664287706341 0.054708362279179482 0 -0.3262676586483656 0.050894384371173287 0 -0.30266664287706341 0.054708362279179482 0 -0.3262676586483656 0.050894384371173287 0 -0.31708477734686968 0.066938799678275263 0 -0.3262676586483656 0.050894384371173287 0 -0.32164524631629432 0.022555155554494829 0 -0.30086997028822832 0.039148022070134687 0 -0.3262676586483656 0.050894384371173287 0 -0.32164524631629432 0.022555155554494829 0 -0.3262676586483656 0.050894384371173287 0 -0.32164524631629432 0.022555155554494829 0 -0.34047985126035502 0.026774828886197279 0 -0.3419631627684111 0.054410778814259472 0 -0.34047985126035502 0.026774828886197279 0 -0.3262676586483656 0.050894384371173287 0 -0.3419631627684111 0.054410778814259472 0 -0.34047985126035502 0.026774828886197279 0 -0.3262676586483656 0.050894384371173287 0 -0.3419631627684111 0.054410778814259472 0 -0.33089007098043072 0.079233613187852742 0 -0.3056930143666281 0.020729765947894 0 -0.31849217441985911 0.0032242046289520012 0 -0.32164524631629432 0.022555155554494829 0 -0.31849217441985911 0.0032242046289520012 0 -0.32164524631629432 0.022555155554494829 0 -0.33742136738088668 0.0099550307423931228 0 -0.31849217441985911 0.0032242046289520012 0 -0.32164524631629432 0.022555155554494829 0 -0.32164524631629432 0.022555155554494829 0 -0.33742136738088668 0.0099550307423931228 0 -0.32164524631629432 0.022555155554494829 0 -0.34047985126035502 0.026774828886197279 0 -0.33742136738088668 0.0099550307423931228 0 -0.35319748844548088 -0.0026450940697062141 0 -0.33742136738088668 0.0099550307423931228 0 -0.35319748844548088 -0.0026450940697062141 0 -0.33742136738088668 0.0099550307423931228 0 -0.35568472126330458 0.01398178967161531 0 -0.34047985126035502 0.026774828886197279 0 -0.35568472126330458 0.01398178967161531 0 -0.36050468596179641 0.029201478886372499 0 -0.34047985126035502 0.026774828886197279 0 -0.33742136738088668 0.0099550307423931228 0 -0.35568472126330458 0.01398178967161531 0 -0.35568472126330458 0.01398178967161531 0 -0.36050468596179641 0.029201478886372499 0 -0.37274578052696178 0.01868977009819147 0 -0.37753126207020948 0.034899308803226177 0 -0.36050468596179641 0.029201478886372499 0 -0.37274578052696178 0.01868977009819147 0 -0.35319748844548088 -0.0026450940697062141 0 -0.35568472126330458 0.01398178967161531 0 -0.36979036210562988 0.0025511841975563729 0 -0.35568472126330458 0.01398178967161531 0 -0.37274578052696178 0.01868977009819147 0 -0.36979036210562988 0.0025511841975563729 0 -0.35367539322405089 0.052192583201526178 0 -0.35229578078182711 0.042127528613546239 0 -0.36485581069452189 0.048057973279375742 0 -0.35367539322405089 0.052192583201526178 0 -0.36174043644781612 0.059537200304905107 0 -0.34707042967454638 0.066493871458924422 0 -0.3419631627684111 0.054410778814259472 0 -0.35367539322405089 0.052192583201526178 0 -0.34707042967454638 0.066493871458924422 0 -0.3419631627684111 0.054410778814259472 0 -0.35367539322405089 0.052192583201526178 0 -0.35229578078182711 0.042127528613546239 0 -0.34047985126035502 0.026774828886197279 0 -0.36050468596179641 0.029201478886372499 0 -0.35229578078182711 0.042127528613546239 0 -0.3419631627684111 0.054410778814259472 0 -0.34047985126035502 0.026774828886197279 0 -0.35229578078182711 0.042127528613546239 0 -0.36050468596179641 0.029201478886372499 0 -0.35229578078182711 0.042127528613546239 0 -0.36485581069452189 0.048057973279375742 0 -0.37753126207020948 0.034899308803226177 0 -0.36050468596179641 0.029201478886372499 0 -0.36485581069452189 0.048057973279375742 0 -0.37830855690199738 0.048851891747440382 0 -0.37753126207020948 0.034899308803226177 0 -0.36485581069452189 0.048057973279375742 0 -0.37830855690199738 0.048851891747440382 0 -0.36485581069452189 0.048057973279375742 0 -0.37119345183321822 0.058853827639881867 0 -0.35367539322405089 0.052192583201526178 0 -0.36485581069452189 0.048057973279375742 0 -0.36174043644781612 0.059537200304905107 0 -0.36485581069452189 0.048057973279375742 0 -0.36174043644781612 0.059537200304905107 0 -0.37119345183321822 0.058853827639881867 0 -0.37201358599706058 0.070711840939253895 0 -0.36026946930678239 0.075913175113325196 0 -0.34707042967454638 0.066493871458924422 0 -0.37904886912469499 0.067110231928434197 0 -0.37119345183321822 0.058853827639881867 0 -0.37201358599706058 0.070711840939253895 0 -0.37201358599706058 0.070711840939253895 0 -0.34707042967454638 0.066493871458924422 0 -0.36174043644781612 0.059537200304905107 0 -0.37119345183321822 0.058853827639881867 0 -0.37201358599706058 0.070711840939253895 0 -0.36174043644781612 0.059537200304905107 0 -0.37201358599706058 0.070711840939253895 0 -0.34707042967454638 0.066493871458924422 0 -0.37201358599706058 0.070711840939253895 0 -0.36026946930678239 0.075913175113325196 0 -0.37016311523106599 0.083751267223082917 0 -0.38119130922167832 0.078766060501995444 0 -0.37201358599706058 0.070711840939253895 0 -0.37016311523106599 0.083751267223082917 0 -0.3419631627684111 0.054410778814259472 0 -0.34707042967454638 0.066493871458924422 0 -0.34344647427646718 0.082046728742321648 0 -0.36026946930678239 0.075913175113325196 0 -0.35274187612612162 0.077211514003190262 0 -0.34707042967454638 0.066493871458924422 0 -0.35274187612612162 0.077211514003190262 0 -0.34707042967454638 0.066493871458924422 0 -0.34344647427646718 0.082046728742321648 0 -0.35295667425925747 0.085123838591775802 0 -0.35001973748798287 0.095551702326820934 0 -0.34344647427646718 0.082046728742321648 0 -0.35274187612612162 0.077211514003190262 0 -0.35295667425925747 0.085123838591775802 0 -0.34344647427646718 0.082046728742321648 0 -0.35274187612612162 0.077211514003190262 0 -0.35295667425925747 0.085123838591775802 0 -0.35935833950511731 0.08139738194217451 0 -0.35295667425925747 0.085123838591775802 0 -0.35935833950511731 0.08139738194217451 0 -0.35921694390059838 0.089411865944371699 0 -0.36026946930678239 0.075913175113325196 0 -0.35274187612612162 0.077211514003190262 0 -0.35935833950511731 0.08139738194217451 0 -0.35295667425925747 0.085123838591775802 0 -0.35921694390059838 0.089411865944371699 0 -0.35001973748798287 0.095551702326820934 0 -0.35921694390059838 0.089411865944371699 0 -0.37016311523106599 0.083751267223082917 0 -0.36611800641667808 0.094109198156665408 0 -0.36026946930678239 0.075913175113325196 0 -0.35935833950511731 0.08139738194217451 0 -0.37016311523106599 0.083751267223082917 0 -0.35935833950511731 0.08139738194217451 0 -0.35921694390059838 0.089411865944371699 0 -0.37016311523106599 0.083751267223082917 0 -0.37643332436138899 0.09558572737664002 0 -0.37016311523106599 0.083751267223082917 0 -0.36611800641667808 0.094109198156665408 0 -0.37643332436138899 0.09558572737664002 0 -0.36831342086492491 0.1042920553550029 0 -0.36611800641667808 0.094109198156665408 0 -0.37896648635229202 0.10715504183998489 0 -0.37643332436138899 0.09558572737664002 0 -0.36831342086492491 0.1042920553550029 0 -0.36831342086492491 0.1042920553550029 0 -0.35948680904503588 0.10793893666500461 0 -0.35938862515943509 0.099383552161339872 0 -0.35921694390059838 0.089411865944371699 0 -0.35938862515943509 0.099383552161339872 0 -0.36611800641667808 0.094109198156665408 0 -0.36831342086492491 0.1042920553550029 0 -0.35938862515943509 0.099383552161339872 0 -0.36611800641667808 0.094109198156665408 0 -0.37896648635229202 0.10715504183998489 0 -0.36831342086492491 0.1042920553550029 0 -0.36716541190589658 0.118616890008602 0 -0.36831342086492491 0.1042920553550029 0 -0.35948680904503588 0.10793893666500461 0 -0.36716541190589658 0.118616890008602 0 -0.35948680904503588 0.10793893666500461 0 -0.36716541190589658 0.118616890008602 0 -0.35375916145188291 0.11350041634001019 0 -0.34641309729257957 0.13731862859844601 0 -0.34492978578452338 0.1096826786703838 0 -0.34641309729257957 0.13731862859844601 0 -0.35352278934268327 0.12307152153672141 0 -0.34492978578452338 0.1096826786703838 0 -0.36716541190589658 0.118616890008602 0 -0.35352278934268327 0.12307152153672141 0 -0.35375916145188291 0.11350041634001019 0 -0.35375916145188291 0.11350041634001019 0 -0.34492978578452338 0.1096826786703838 0 -0.35317683324139082 0.10499755452017361 0 -0.35352278934268327 0.12307152153672141 0 -0.35375916145188291 0.11350041634001019 0 -0.34492978578452338 0.1096826786703838 0 -0.34492978578452338 0.1096826786703838 0 -0.35001973748798287 0.095551702326820934 0 -0.34344647427646718 0.082046728742321648 0 -0.34492978578452338 0.1096826786703838 0 -0.34344647427646718 0.082046728742321648 0 -0.35921694390059838 0.089411865944371699 0 -0.35938862515943509 0.099383552161339872 0 -0.35001973748798287 0.095551702326820934 0 -0.35938862515943509 0.099383552161339872 0 -0.35317683324139082 0.10499755452017361 0 -0.35001973748798287 0.095551702326820934 0 -0.35948680904503588 0.10793893666500461 0 -0.35938862515943509 0.099383552161339872 0 -0.35317683324139082 0.10499755452017361 0 -0.35948680904503588 0.10793893666500461 0 -0.35375916145188291 0.11350041634001019 0 -0.35317683324139082 0.10499755452017361 0 -0.34492978578452338 0.1096826786703838 0 -0.35317683324139082 0.10499755452017361 0 -0.35001973748798287 0.095551702326820934 0 -0.33551248331249578 0.10757284200453231 0 -0.32636827877939262 0.096437598311714251 0 -0.33089007098043072 0.079233613187852742 0 -0.34492978578452338 0.1096826786703838 0 -0.33551248331249578 0.10757284200453231 0 -0.34344647427646718 0.082046728742321648 0 -0.34013489564456101 0.1359120708212119 0 -0.33551248331249578 0.10757284200453231 0 -0.33106980320980312 0.1246503866679774 0 -0.33551248331249578 0.10757284200453231 0 -0.33106980320980312 0.1246503866679774 0 -0.3276422557938925 0.11637059862038419 0 -0.34013489564456101 0.1359120708212119 0 -0.33551248331249578 0.10757284200453231 0 -0.34013489564456101 0.1359120708212119 0 -0.34492978578452338 0.1096826786703838 0 -0.33551248331249578 0.10757284200453231 0 -0.33551248331249578 0.10757284200453231 0 -0.3276422557938925 0.11637059862038419 0 -0.32202007013965611 0.108381668790018 0 -0.31115114737422961 0.1134627277541034 0 -0.32196666651361477 0.12487749701900901 0 -0.32202007013965611 0.108381668790018 0 -0.32196666651361477 0.12487749701900901 0 -0.3276422557938925 0.11637059862038419 0 -0.32202007013965611 0.108381668790018 0 -0.33106980320980312 0.1246503866679774 0 -0.32196666651361477 0.12487749701900901 0 -0.3276422557938925 0.11637059862038419 0 -0.30835875028686138 0.12836861128214669 0 -0.31115114737422961 0.1134627277541034 0 -0.32196666651361477 0.12487749701900901 0 -0.31115114737422961 0.1134627277541034 0 -0.32202007013965611 0.108381668790018 0 -0.31621893882499519 0.096173217231134644 0 -0.32636827877939262 0.096437598311714251 0 -0.32202007013965611 0.108381668790018 0 -0.31621893882499519 0.096173217231134644 0 -0.33551248331249578 0.10757284200453231 0 -0.32636827877939262 0.096437598311714251 0 -0.32202007013965611 0.108381668790018 0 -0.32636827877939262 0.096437598311714251 0 -0.3206518095107353 0.086423961441370711 0 -0.33089007098043072 0.079233613187852742 0 -0.3095990562077543 0.082833834969606807 0 -0.31621893882499519 0.096173217231134644 0 -0.3206518095107353 0.086423961441370711 0 -0.32636827877939262 0.096437598311714251 0 -0.31621893882499519 0.096173217231134644 0 -0.3206518095107353 0.086423961441370711 0 -0.3206518095107353 0.086423961441370711 0 -0.3195564285114475 0.078857552319276381 0 -0.33089007098043072 0.079233613187852742 0 -0.3095990562077543 0.082833834969606807 0 -0.3206518095107353 0.086423961441370711 0 -0.3195564285114475 0.078857552319276381 0 -0.3095990562077543 0.082833834969606807 0 -0.3195564285114475 0.078857552319276381 0 -0.31708477734686968 0.066938799678275263 0 -0.3262676586483656 0.050894384371173287 0 -0.31708477734686968 0.066938799678275263 0 -0.33089007098043072 0.079233613187852742 0 -0.3195564285114475 0.078857552319276381 0 -0.31708477734686968 0.066938799678275263 0 -0.33089007098043072 0.079233613187852742 0 -0.3262676586483656 0.050894384371173287 0 -0.33089007098043072 0.079233613187852742 0 -0.3419631627684111 0.054410778814259472 0 -0.34344647427646718 0.082046728742321648 0 -0.3419631627684111 0.054410778814259472 0 -0.34344647427646718 0.082046728742321648 0 -0.33089007098043072 0.079233613187852742 0 -0.33551248331249578 0.10757284200453231 0 -0.34344647427646718 0.082046728742321648 0 -0.33089007098043072 0.079233613187852742 0 -0.33551248331249578 0.10757284200453231 0 -0.33089007098043072 0.079233613187852742 0 -0.38413367002432852 0.48466820949397371 0 -0.39197467039505129 0.46611734068214988 0 -0.41460981883164078 0.48516798004791117 0 -0.3981750166650535 0.50000000000000056 0 -0.38413367002432852 0.48466820949397371 0 -0.41460981883164078 0.48516798004791117 0 -0.3981750166650535 0.50000000000000056 0 -0.38413367002432852 0.48466820949397371 0 -0.37107410569903487 0.5 0 -0.39197467039505129 0.46611734068214988 0 -0.36482960672615539 0.47476559140937902 0 -0.38413367002432852 0.48466820949397371 0 -0.39197467039505129 0.46611734068214988 0 -0.36580706476392733 0.47631646954851292 0 -0.38785270990024268 0.44600589254376838 0 -0.39197467039505129 0.46611734068214988 0 -0.37006527051019528 0.45259743283909409 0 -0.39197467039505129 0.46611734068214988 0 -0.37006527051019528 0.45259743283909409 0 -0.36482960672615539 0.47476559140937902 0 -0.38785270990024268 0.44600589254376838 0 -0.37388199021079188 0.43349662060099697 0 -0.37006527051019528 0.45259743283909409 0 -0.38785270990024268 0.44600589254376838 0 -0.40320620376676342 0.45007503942677379 0 -0.39595691431975 0.42995942871021692 0 -0.38785270990024268 0.44600589254376838 0 -0.40320620376676342 0.45007503942677379 0 -0.39197467039505129 0.46611734068214988 0 -0.40320620376676342 0.45007503942677379 0 -0.39197467039505129 0.46611734068214988 0 -0.41277096383307582 0.46532813801804862 0 -0.40320620376676342 0.45007503942677379 0 -0.42781315099835598 0.44205737320498029 0 -0.39595691431975 0.42995942871021692 0 -0.40320620376676342 0.45007503942677379 0 -0.41277096383307582 0.46532813801804862 0 -0.42781315099835598 0.44205737320498029 0 -0.42781315099835598 0.44205737320498029 0 -0.43466730821188831 0.46706657063262308 0 -0.44460389203804629 0.44806533343805571 0 -0.42781315099835598 0.44205737320498029 0 -0.4310446209982266 0.47033596009582029 0 -0.42781315099835598 0.44205737320498029 0 -0.43466730821188831 0.46706657063262308 0 -0.4310446209982266 0.47033596009582029 0 -0.41277096383307582 0.46532813801804862 0 -0.42781315099835598 0.44205737320498029 0 -0.4310446209982266 0.47033596009582029 0 -0.43466730821188831 0.46706657063262308 0 -0.4310446209982266 0.47033596009582029 0 -0.4310446209982266 0.47033596009582029 0 -0.43443441043131342 0.50000000000000755 0 -0.4447827686264566 0.47926022536349122 0 -0.4310446209982266 0.47033596009582029 0 -0.41460981883164078 0.48516798004791117 0 -0.4310446209982266 0.47033596009582029 0 -0.41460981883164078 0.48516798004791117 0 -0.42409839095234109 0.48887598503593521 0 -0.43466730821188831 0.46706657063262308 0 -0.4310446209982266 0.47033596009582029 0 -0.4447827686264566 0.47926022536349122 0 -0.39197467039505129 0.46611734068214988 0 -0.41277096383307582 0.46532813801804862 0 -0.41460981883164078 0.48516798004791117 0 -0.41277096383307582 0.46532813801804862 0 -0.4310446209982266 0.47033596009582029 0 -0.41460981883164078 0.48516798004791117 0 -0.3981750166650535 0.50000000000000056 0 -0.41460981883164078 0.48516798004791117 0 -0.3981750166650535 0.50000000000000056 0 -0.41460981883164078 0.48516798004791117 0 -0.41630471354818338 0.5 0 -0.41460981883164078 0.48516798004791117 0 -0.41630471354818338 0.5 0 -0.42409839095234109 0.48887598503593521 0 -0.41630471354818338 0.5 0 -0.43443441043131342 0.50000000000000755 0 -0.42409839095234109 0.48887598503593521 0 -0.4310446209982266 0.47033596009582029 0 -0.43443441043131342 0.50000000000000755 0 -0.4310446209982266 0.47033596009582029 0 -0.43443441043131342 0.50000000000000755 0 -0.42409839095234109 0.48887598503593521 0 -0.43443441043131342 0.50000000000000755 0 -0.4447827686264566 0.47926022536349122 0 -0.4595127163698095 0.50000000000000022 0 -0.5 0.5 0 -0.47335596745111108 0.44169355163120572 0 -0.5 0.40038011321019712 0 -0.43466730821188831 0.46706657063262308 0 -0.4447827686264566 0.47926022536349122 0 -0.44899911668232212 0.46303481381032341 0 -0.4447827686264566 0.47926022536349122 0 -0.46015144363500948 0.47359397987248231 0 -0.44899911668232212 0.46303481381032341 0 -0.4447827686264566 0.47926022536349122 0 -0.46015144363500948 0.47359397987248231 0 -0.4595127163698095 0.50000000000000022 0 -0.46015144363500948 0.47359397987248231 0 -0.4595127163698095 0.50000000000000022 0 -0.46015144363500948 0.47359397987248231 0 -0.4595127163698095 0.50000000000000022 0 -0.5 0.5 0 -0.46015144363500948 0.47359397987248231 0 -0.5 0.5 0 -0.47335596745111108 0.44169355163120572 0 -0.46015144363500948 0.47359397987248231 0 -0.47335596745111108 0.44169355163120572 0 -0.46079017090020952 0.44718795974496428 0 -0.46079017090020952 0.44718795974496428 0 -0.44460389203804629 0.44806533343805571 0 -0.45590269758544211 0.43346995798949911 0 -0.47335596745111108 0.44169355163120572 0 -0.46079017090020952 0.44718795974496428 0 -0.45590269758544211 0.43346995798949911 0 -0.46015144363500948 0.47359397987248231 0 -0.46079017090020952 0.44718795974496428 0 -0.44899911668232212 0.46303481381032341 0 -0.46015144363500948 0.47359397987248231 0 -0.46079017090020952 0.44718795974496428 0 -0.43466730821188831 0.46706657063262308 0 -0.44899911668232212 0.46303481381032341 0 -0.44460389203804629 0.44806533343805571 0 -0.42781315099835598 0.44205737320498029 0 -0.44460389203804629 0.44806533343805571 0 -0.44268906624812487 0.42665452579602331 0 -0.46079017090020952 0.44718795974496428 0 -0.44899911668232212 0.46303481381032341 0 -0.44460389203804629 0.44806533343805571 0 -0.44460389203804629 0.44806533343805571 0 -0.44268906624812487 0.42665452579602331 0 -0.45590269758544211 0.43346995798949911 0 -0.44268906624812487 0.42665452579602331 0 -0.45186506472241439 0.42144574071262142 0 -0.45590269758544211 0.43346995798949911 0 -0.44268906624812487 0.42665452579602331 0 -0.45186506472241439 0.42144574071262142 0 -0.44576315445017062 0.40546276927260178 0 -0.44268906624812487 0.42665452579602331 0 -0.44576315445017062 0.40546276927260178 0 -0.42458168099848842 0.41377878631413989 0 -0.46310534060592018 0.42019570979236182 0 -0.47346151536459102 0.41731684507507272 0 -0.46374026742882618 0.39151162716981691 0 -0.45186506472241439 0.42144574071262142 0 -0.46310534060592018 0.42019570979236182 0 -0.44576315445017062 0.40546276927260178 0 -0.47335596745111108 0.44169355163120572 0 -0.46310534060592018 0.42019570979236182 0 -0.45590269758544211 0.43346995798949911 0 -0.45186506472241439 0.42144574071262142 0 -0.46310534060592018 0.42019570979236182 0 -0.45590269758544211 0.43346995798949911 0 -0.47335596745111108 0.44169355163120572 0 -0.46310534060592018 0.42019570979236182 0 -0.47346151536459102 0.41731684507507272 0 -0.47335596745111108 0.44169355163120572 0 -0.47346151536459102 0.41731684507507272 0 -0.5 0.40038011321019712 0 -0.47346151536459102 0.41731684507507272 0 -0.5 0.40038011321019712 0 -0.47533567507008778 0.39330498401591851 0 -0.47346151536459102 0.41731684507507272 0 -0.47533567507008778 0.39330498401591851 0 -0.47346151536459102 0.41731684507507272 0 -0.47533567507008778 0.39330498401591851 0 -0.46374026742882618 0.39151162716981691 0 -0.5 0.40038011321019712 0 -0.47533567507008778 0.39330498401591851 0 -0.47720983477558448 0.36929312295676431 0 -0.47533567507008778 0.39330498401591851 0 -0.47720983477558448 0.36929312295676431 0 -0.47533567507008778 0.39330498401591851 0 -0.46374026742882618 0.39151162716981691 0 -0.47720983477558448 0.36929312295676431 0 -0.46374026742882618 0.39151162716981691 0 -0.45297946443592813 0.37787116286410599 0 -0.46437519425173218 0.36282754454727217 0 -0.46374026742882618 0.39151162716981691 0 -0.45297946443592813 0.37787116286410599 0 -0.44807155782876301 0.39051600802545461 0 -0.46374026742882618 0.39151162716981691 0 -0.46437519425173218 0.36282754454727217 0 -0.46310534060592018 0.42019570979236182 0 -0.46374026742882618 0.39151162716981691 0 -0.46310534060592018 0.42019570979236182 0 -0.46374026742882618 0.39151162716981691 0 -0.44576315445017062 0.40546276927260178 0 -0.46374026742882618 0.39151162716981691 0 -0.44576315445017062 0.40546276927260178 0 -0.44807155782876301 0.39051600802545461 0 -0.44576315445017062 0.40546276927260178 0 -0.44807155782876301 0.39051600802545461 0 -0.43603237714897469 0.39502180629923989 0 -0.45297946443592813 0.37787116286410599 0 -0.44807155782876301 0.39051600802545461 0 -0.44039528146883089 0.37985126846070372 0 -0.44807155782876301 0.39051600802545461 0 -0.44039528146883089 0.37985126846070372 0 -0.43603237714897469 0.39502180629923989 0 -0.44039528146883089 0.37985126846070372 0 -0.42135021099862069 0.38550019942329938 0 -0.43603237714897469 0.39502180629923989 0 -0.44039528146883089 0.37985126846070372 0 -0.42135021099862069 0.38550019942329938 0 -0.43330693618304927 0.36743111704715392 0 -0.42135021099862069 0.38550019942329938 0 -0.3928737426436214 0.38288862872844909 0 -0.41811874099875312 0.35722161253245888 0 -0.42135021099862069 0.38550019942329938 0 -0.42458168099848842 0.41377878631413989 0 -0.40302940150938782 0.40252809503019821 0 -0.44576315445017062 0.40546276927260178 0 -0.43603237714897469 0.39502180629923989 0 -0.42458168099848842 0.41377878631413989 0 -0.42135021099862069 0.38550019942329938 0 -0.42458168099848842 0.41377878631413989 0 -0.42135021099862069 0.38550019942329938 0 -0.43603237714897469 0.39502180629923989 0 -0.42458168099848842 0.41377878631413989 0 -0.42781315099835598 0.44205737320498029 0 -0.42458168099848842 0.41377878631413989 0 -0.39595691431975 0.42995942871021692 0 -0.42781315099835598 0.44205737320498029 0 -0.44268906624812487 0.42665452579602331 0 -0.42458168099848842 0.41377878631413989 0 -0.42781315099835598 0.44205737320498029 0 -0.42458168099848842 0.41377878631413989 0 -0.42458168099848842 0.41377878631413989 0 -0.39595691431975 0.42995942871021692 0 -0.40302940150938782 0.40252809503019821 0 -0.39595691431975 0.42995942871021692 0 -0.38133644129271771 0.41060795377957438 0 -0.40302940150938782 0.40252809503019821 0 -0.39595691431975 0.42995942871021692 0 -0.38133644129271771 0.41060795377957438 0 -0.37388199021079188 0.43349662060099697 0 -0.38785270990024268 0.44600589254376838 0 -0.39595691431975 0.42995942871021692 0 -0.37388199021079188 0.43349662060099697 0 -0.39595691431975 0.42995942871021692 0 -0.38133644129271771 0.41060795377957438 0 -0.38133644129271771 0.41060795377957438 0 -0.3928737426436214 0.38288862872844909 0 -0.36671596826568531 0.39125647884893172 0 -0.3928737426436214 0.38288862872844909 0 -0.37126589511329411 0.37377724987418581 0 -0.36671596826568531 0.39125647884893172 0 -0.42135021099862069 0.38550019942329938 0 -0.3928737426436214 0.38288862872844909 0 -0.40302940150938782 0.40252809503019821 0 -0.38133644129271771 0.41060795377957438 0 -0.3928737426436214 0.38288862872844909 0 -0.40302940150938782 0.40252809503019821 0 -0.39068435811404417 0.36093702398180222 0 -0.39395667907880888 0.34326368506717603 0 -0.41811874099875312 0.35722161253245888 0 -0.3928737426436214 0.38288862872844909 0 -0.39068435811404417 0.36093702398180222 0 -0.41811874099875312 0.35722161253245888 0 -0.3928737426436214 0.38288862872844909 0 -0.39068435811404417 0.36093702398180222 0 -0.37126589511329411 0.37377724987418581 0 -0.39068435811404417 0.36093702398180222 0 -0.37302608715873109 0.35758434449273291 0 -0.37126589511329411 0.37377724987418581 0 -0.39395667907880888 0.34326368506717603 0 -0.37302608715873109 0.35758434449273291 0 -0.39068435811404417 0.36093702398180222 0 -0.39395667907880888 0.34326368506717603 0 -0.37302608715873109 0.35758434449273291 0 -0.37563375498023588 0.33893957100260502 0 -0.39395667907880888 0.34326368506717603 0 -0.37302608715873109 0.35758434449273291 0 -0.37563375498023588 0.33893957100260502 0 -0.3809584867257152 0.31995934924364311 0 -0.39395667907880888 0.34326368506717603 0 -0.3809584867257152 0.31995934924364311 0 -0.40019053093036899 0.31727751782089808 0 -0.39395667907880888 0.34326368506717603 0 -0.40019053093036899 0.31727751782089808 0 -0.39395667907880888 0.34326368506717603 0 -0.414887270998886 0.32894302564161831 0 -0.39395667907880888 0.34326368506717603 0 -0.414887270998886 0.32894302564161831 0 -0.414887270998886 0.32894302564161831 0 -0.41811874099875312 0.35722161253245888 0 -0.39395667907880888 0.34326368506717603 0 -0.414887270998886 0.32894302564161831 0 -0.41811874099875312 0.35722161253245888 0 -0.414887270998886 0.32894302564161831 0 -0.4287524947490482 0.33739992334137159 0 -0.41811874099875312 0.35722161253245888 0 -0.414887270998886 0.32894302564161831 0 -0.42784370751339318 0.3200782636988328 0 -0.41182569378737999 0.30215117016961263 0 -0.414887270998886 0.32894302564161831 0 -0.41182569378737999 0.30215117016961263 0 -0.40019053093036899 0.31727751782089808 0 -0.414887270998886 0.32894302564161831 0 -0.41182569378737999 0.30215117016961263 0 -0.414887270998886 0.32894302564161831 0 -0.42784370751339318 0.3200782636988328 0 -0.42784370751339318 0.3200782636988328 0 -0.44080014402789969 0.3112135017560464 0 -0.414887270998886 0.32894302564161831 0 -0.42784370751339318 0.3200782636988328 0 -0.4287524947490482 0.33739992334137159 0 -0.42784370751339318 0.3200782636988328 0 -0.4287524947490482 0.33739992334137159 0 -0.44455732798665581 0.33082357613192309 0 -0.4287524947490482 0.33739992334137159 0 -0.43835542624755341 0.34993313870202492 0 -0.44455732798665581 0.33082357613192309 0 -0.4287524947490482 0.33739992334137159 0 -0.41811874099875312 0.35722161253245888 0 -0.43835542624755341 0.34993313870202492 0 -0.41811874099875312 0.35722161253245888 0 -0.43330693618304927 0.36743111704715392 0 -0.43835542624755341 0.34993313870202492 0 -0.42135021099862069 0.38550019942329938 0 -0.41811874099875312 0.35722161253245888 0 -0.42135021099862069 0.38550019942329938 0 -0.41811874099875312 0.35722161253245888 0 -0.43330693618304927 0.36743111704715392 0 -0.44039528146883089 0.37985126846070372 0 -0.43330693618304927 0.36743111704715392 0 -0.44831502120148831 0.36464936611728249 0 -0.5 0.40038011321019712 0 -0.47720983477558448 0.36929312295676431 0 -0.5 0.32588146503443682 0 -0.43330693618304927 0.36743111704715392 0 -0.44831502120148831 0.36464936611728249 0 -0.43835542624755341 0.34993313870202492 0 -0.45297946443592813 0.37787116286410599 0 -0.44039528146883089 0.37985126846070372 0 -0.44831502120148831 0.36464936611728249 0 -0.44831502120148831 0.36464936611728249 0 -0.45212261815241361 0.34847541748464589 0 -0.43835542624755341 0.34993313870202492 0 -0.46437519425173218 0.36282754454727217 0 -0.46501012107463818 0.3341434619247271 0 -0.45212261815241361 0.34847541748464589 0 -0.46437519425173218 0.36282754454727217 0 -0.46501012107463818 0.3341434619247271 0 -0.44831502120148831 0.36464936611728249 0 -0.45212261815241361 0.34847541748464589 0 -0.46437519425173218 0.36282754454727217 0 -0.45297946443592813 0.37787116286410599 0 -0.44831502120148831 0.36464936611728249 0 -0.46437519425173218 0.36282754454727217 0 -0.46374026742882618 0.39151162716981691 0 -0.46437519425173218 0.36282754454727217 0 -0.47720983477558448 0.36929312295676431 0 -0.47720983477558448 0.36929312295676431 0 -0.4790839944810813 0.34528126189761021 0 -0.5 0.32588146503443682 0 -0.46437519425173218 0.36282754454727217 0 -0.47720983477558448 0.36929312295676431 0 -0.4790839944810813 0.34528126189761021 0 -0.46437519425173218 0.36282754454727217 0 -0.4790839944810813 0.34528126189761021 0 -0.46501012107463818 0.3341434619247271 0 -0.47720983477558448 0.36929312295676431 0 -0.4790839944810813 0.34528126189761021 0 -0.5 0.32588146503443682 0 -0.48095815418657811 0.32126940083845601 0 -0.48438341280173691 0.2990237851864897 0 -0.4790839944810813 0.34528126189761021 0 -0.5 0.32588146503443682 0 -0.48095815418657811 0.32126940083845601 0 -0.4790839944810813 0.34528126189761021 0 -0.48095815418657811 0.32126940083845601 0 -0.4790839944810813 0.34528126189761021 0 -0.48095815418657811 0.32126940083845601 0 -0.46501012107463818 0.3341434619247271 0 -0.48095815418657811 0.32126940083845601 0 -0.46501012107463818 0.3341434619247271 0 -0.46564504789754418 0.30545937930218209 0 -0.46501012107463818 0.3341434619247271 0 -0.46564504789754418 0.30545937930218209 0 -0.45334860311094782 0.31584311053598302 0 -0.46501012107463818 0.3341434619247271 0 -0.44455732798665581 0.33082357613192309 0 -0.45334860311094782 0.31584311053598302 0 -0.46501012107463818 0.3341434619247271 0 -0.46564504789754418 0.30545937930218209 0 -0.45212261815241361 0.34847541748464589 0 -0.46501012107463818 0.3341434619247271 0 -0.44455732798665581 0.33082357613192309 0 -0.45212261815241361 0.34847541748464589 0 -0.43835542624755341 0.34993313870202492 0 -0.44455732798665581 0.33082357613192309 0 -0.45334860311094782 0.31584311053598302 0 -0.44455732798665581 0.33082357613192309 0 -0.44080014402789969 0.3112135017560464 0 -0.42784370751339318 0.3200782636988328 0 -0.44455732798665581 0.33082357613192309 0 -0.44080014402789969 0.3112135017560464 0 -0.45334860311094782 0.31584311053598302 0 -0.44080014402789969 0.3112135017560464 0 -0.45212090372732222 0.29751224224269018 0 -0.44080014402789969 0.3112135017560464 0 -0.45212090372732222 0.29751224224269018 0 -0.43098419661848369 0.29848737705662681 0 -0.45212090372732222 0.29751224224269018 0 -0.44106680473088589 0.27968718865599468 0 -0.43098419661848369 0.29848737705662681 0 -0.45212090372732222 0.29751224224269018 0 -0.46878861662768212 0.293945894508436 0 -0.46620416538631942 0.27832296974934079 0 -0.45212090372732222 0.29751224224269018 0 -0.46620416538631942 0.27832296974934079 0 -0.44106680473088589 0.27968718865599468 0 -0.45334860311094782 0.31584311053598302 0 -0.45212090372732222 0.29751224224269018 0 -0.46564504789754418 0.30545937930218209 0 -0.45212090372732222 0.29751224224269018 0 -0.46564504789754418 0.30545937930218209 0 -0.46878861662768212 0.293945894508436 0 -0.48095815418657811 0.32126940083845601 0 -0.46564504789754418 0.30545937930218209 0 -0.47422271850004488 0.30257989257828583 0 -0.48095815418657811 0.32126940083845601 0 -0.48283231389207593 0.29725753977930192 0 -0.48095815418657811 0.32126940083845601 0 -0.48283231389207593 0.29725753977930192 0 -0.48438341280173691 0.2990237851864897 0 -0.48095815418657811 0.32126940083845601 0 -0.48283231389207593 0.29725753977930192 0 -0.47422271850004488 0.30257989257828583 0 -0.5 0.32588146503443682 0 -0.48438341280173691 0.2990237851864897 0 -0.5 0.27058277969487637 0 -0.48283231389207593 0.29725753977930192 0 -0.48438341280173691 0.2990237851864897 0 -0.48283231389207593 0.29725753977930192 0 -0.47422271850004488 0.30257989257828583 0 -0.46878861662768212 0.293945894508436 0 -0.46564504789754418 0.30545937930218209 0 -0.47422271850004488 0.30257989257828583 0 -0.46878861662768212 0.293945894508436 0 -0.48283231389207593 0.29725753977930192 0 -0.46620416538631942 0.27832296974934079 0 -0.4832665619079245 0.29169392479429618 0 -0.48272378290968532 0.2745465744653578 0 -0.46620416538631942 0.27832296974934079 0 -0.48283231389207593 0.29725753977930192 0 -0.46878861662768212 0.293945894508436 0 -0.46620416538631942 0.27832296974934079 0 -0.48283231389207593 0.29725753977930192 0 -0.4832665619079245 0.29169392479429618 0 -0.46620416538631942 0.27832296974934079 0 -0.48283231389207593 0.29725753977930192 0 -0.4832665619079245 0.29169392479429618 0 -0.48438341280173691 0.2990237851864897 0 -0.48283231389207593 0.29725753977930192 0 -0.4832665619079245 0.29169392479429618 0 -0.4832665619079245 0.29169392479429618 0 -0.48438341280173691 0.2990237851864897 0 -0.5 0.27058277969487637 0 -0.48510068849613291 0.2464952989699998 0 -0.5 0.27058277969487637 0 -0.47736829551405641 0.25971614189080378 0 -0.4832665619079245 0.29169392479429618 0 -0.5 0.27058277969487637 0 -0.48272378290968532 0.2745465744653578 0 -0.5 0.27058277969487637 0 -0.48272378290968532 0.2745465744653578 0 -0.47736829551405641 0.25971614189080378 0 -0.48272378290968532 0.2745465744653578 0 -0.47736829551405641 0.25971614189080378 0 -0.46620416538631942 0.27832296974934079 0 -0.48510068849613291 0.2464952989699998 0 -0.4662317729600568 0.24711617116125539 0 -0.47736829551405641 0.25971614189080378 0 -0.4662317729600568 0.24711617116125539 0 -0.47736829551405641 0.25971614189080378 0 -0.44957601688056159 0.25938839971938082 0 -0.47736829551405641 0.25971614189080378 0 -0.46620416538631942 0.27832296974934079 0 -0.44957601688056159 0.25938839971938082 0 -0.46620416538631942 0.27832296974934079 0 -0.44957601688056159 0.25938839971938082 0 -0.46620416538631942 0.27832296974934079 0 -0.44106680473088589 0.27968718865599468 0 -0.44957601688056159 0.25938839971938082 0 -0.44106680473088589 0.27968718865599468 0 -0.44957601688056159 0.25938839971938082 0 -0.42702456861835142 0.26373592368695459 0 -0.43294786837480398 0.2404538296894207 0 -0.44957601688056159 0.25938839971938082 0 -0.42702456861835142 0.26373592368695459 0 -0.43294786837480398 0.2404538296894207 0 -0.40570253936436479 0.24856745922560119 0 -0.42702456861835142 0.26373592368695459 0 -0.40570253936436479 0.24856745922560119 0 -0.40876411657587441 0.27535931469760672 0 -0.40570253936436479 0.24856745922560119 0 -0.42702456861835142 0.26373592368695459 0 -0.40876411657587441 0.27535931469760672 0 -0.42702456861835142 0.26373592368695459 0 -0.40876411657587441 0.27535931469760672 0 -0.42393307606619501 0.28388419485335897 0 -0.44106680473088589 0.27968718865599468 0 -0.42702456861835142 0.26373592368695459 0 -0.42393307606619501 0.28388419485335897 0 -0.44106680473088589 0.27968718865599468 0 -0.42393307606619501 0.28388419485335897 0 -0.43098419661848369 0.29848737705662681 0 -0.42393307606619501 0.28388419485335897 0 -0.43098419661848369 0.29848737705662681 0 -0.41182569378737999 0.30215117016961263 0 -0.42784370751339318 0.3200782636988328 0 -0.44080014402789969 0.3112135017560464 0 -0.43098419661848369 0.29848737705662681 0 -0.42784370751339318 0.3200782636988328 0 -0.43098419661848369 0.29848737705662681 0 -0.41182569378737999 0.30215117016961263 0 -0.40876411657587441 0.27535931469760672 0 -0.42393307606619501 0.28388419485335897 0 -0.41182569378737999 0.30215117016961263 0 -0.40876411657587441 0.27535931469760672 0 -0.41182569378737999 0.30215117016961263 0 -0.40876411657587441 0.27535931469760672 0 -0.41182569378737999 0.30215117016961263 0 -0.38942632587964537 0.29641120061531351 0 -0.40876411657587441 0.27535931469760672 0 -0.38942632587964537 0.29641120061531351 0 -0.38778179087320769 0.27529621765694001 0 -0.40019053093036899 0.31727751782089808 0 -0.41182569378737999 0.30215117016961263 0 -0.38942632587964537 0.29641120061531351 0 -0.3809584867257152 0.31995934924364311 0 -0.38942632587964537 0.29641120061531351 0 -0.36990774782730562 0.30465198401604282 0 -0.3809584867257152 0.31995934924364311 0 -0.40019053093036899 0.31727751782089808 0 -0.38942632587964537 0.29641120061531351 0 -0.38942632587964537 0.29641120061531351 0 -0.38778179087320769 0.27529621765694001 0 -0.37124129201382 0.2841753332327091 0 -0.38942632587964537 0.29641120061531351 0 -0.37124129201382 0.2841753332327091 0 -0.36990774782730562 0.30465198401604282 0 -0.38778179087320769 0.27529621765694001 0 -0.37230359566927929 0.26610576231553251 0 -0.37124129201382 0.2841753332327091 0 -0.38778179087320769 0.27529621765694001 0 -0.38900306751682168 0.25733661077056619 0 -0.37230359566927929 0.26610576231553251 0 -0.38900306751682168 0.25733661077056619 0 -0.37230359566927929 0.26610576231553251 0 -0.37675611103540763 0.25409865512553548 0 -0.38900306751682168 0.25733661077056619 0 -0.37230359566927929 0.26610576231553251 0 -0.38455494932564349 0.24416718140159829 0 -0.37675611103540763 0.25409865512553548 0 -0.38900306751682168 0.25733661077056619 0 -0.40570253936436479 0.24856745922560119 0 -0.40876411657587441 0.27535931469760672 0 -0.38900306751682168 0.25733661077056619 0 -0.40570253936436479 0.24856745922560119 0 -0.38900306751682168 0.25733661077056619 0 -0.40876411657587441 0.27535931469760672 0 -0.38778179087320769 0.27529621765694001 0 -0.38900306751682168 0.25733661077056619 0 -0.35344375069401829 0.26830850112922933 0 -0.35479842748912699 0.29354782535411539 0 -0.33783775680192157 0.27023153782616838 0 -0.35344375069401829 0.26830850112922933 0 -0.35479842748912699 0.29354782535411539 0 -0.35926376548055328 0.2486735779402334 0 -0.35208907389890948 0.24306917690434299 0 -0.35344375069401829 0.26830850112922933 0 -0.35208907389890948 0.24306917690434299 0 -0.35344375069401829 0.26830850112922933 0 -0.34142207509263922 0.25572960106260723 0 -0.35208907389890948 0.24306917690434299 0 -0.35344375069401829 0.26830850112922933 0 -0.35344375069401829 0.26830850112922933 0 -0.33783775680192157 0.27023153782616838 0 -0.34142207509263922 0.25572960106260723 0 -0.35344375069401829 0.26830850112922933 0 -0.36723308052532222 0.25309369692869038 0 -0.37230359566927929 0.26610576231553251 0 -0.35926376548055328 0.2486735779402334 0 -0.35344375069401829 0.26830850112922933 0 -0.36723308052532222 0.25309369692869038 0 -0.37552267705158737 0.2431978490864326 0 -0.37675611103540763 0.25409865512553548 0 -0.36723308052532222 0.25309369692869038 0 -0.37675611103540763 0.25409865512553548 0 -0.36723308052532222 0.25309369692869038 0 -0.37230359566927929 0.26610576231553251 0 -0.35344375069401829 0.26830850112922933 0 -0.37230359566927929 0.26610576231553251 0 -0.37124129201382 0.2841753332327091 0 -0.37124129201382 0.2841753332327091 0 -0.36990774782730562 0.30465198401604282 0 -0.35479842748912699 0.29354782535411539 0 -0.35344375069401829 0.26830850112922933 0 -0.37124129201382 0.2841753332327091 0 -0.35479842748912699 0.29354782535411539 0 -0.36990774782730562 0.30465198401604282 0 -0.35479842748912699 0.29354782535411539 0 -0.35615310428423591 0.31878714957900162 0 -0.35479842748912699 0.29354782535411539 0 -0.35615310428423591 0.31878714957900162 0 -0.35479842748912699 0.29354782535411539 0 -0.33790089425573833 0.30106400074382289 0 -0.35615310428423591 0.31878714957900162 0 -0.35479842748912699 0.29354782535411539 0 -0.32994760687178648 0.28429515218691809 0 -0.33783775680192157 0.27023153782616838 0 -0.35479842748912699 0.29354782535411539 0 -0.32994760687178648 0.28429515218691809 0 -0.33790089425573833 0.30106400074382289 0 -0.33790089425573833 0.30106400074382289 0 -0.31376474629655843 0.30225304786416751 0 -0.33257481532433891 0.31836647764434117 0 -0.32994760687178648 0.28429515218691809 0 -0.33790089425573833 0.30106400074382289 0 -0.31376474629655843 0.30225304786416751 0 -0.32994760687178648 0.28429515218691809 0 -0.31376474629655843 0.30225304786416751 0 -0.30745975664346697 0.28108303278283259 0 -0.32994760687178648 0.28429515218691809 0 -0.32025265357816562 0.27050697347699348 0 -0.30745975664346697 0.28108303278283259 0 -0.32994760687178648 0.28429515218691809 0 -0.32025265357816562 0.27050697347699348 0 -0.33783775680192157 0.27023153782616838 0 -0.33783775680192157 0.27023153782616838 0 -0.34142207509263922 0.25572960106260723 0 -0.32493898666941562 0.25370598596143412 0 -0.33787454055877381 0.24529314191448051 0 -0.34142207509263922 0.25572960106260723 0 -0.32493898666941562 0.25370598596143412 0 -0.32025265357816562 0.27050697347699348 0 -0.32493898666941562 0.25370598596143412 0 -0.3017176885818823 0.26220574059556451 0 -0.32025265357816562 0.27050697347699348 0 -0.33783775680192157 0.27023153782616838 0 -0.32493898666941562 0.25370598596143412 0 -0.28392805579818597 0.24584677119781029 0 -0.30659471691689572 0.242716670786389 0 -0.3017176885818823 0.26220574059556451 0 -0.30659471691689572 0.242716670786389 0 -0.32493898666941562 0.25370598596143412 0 -0.3017176885818823 0.26220574059556451 0 -0.32025265357816562 0.27050697347699348 0 -0.3017176885818823 0.26220574059556451 0 -0.30745975664346697 0.28108303278283259 0 -0.3017176885818823 0.26220574059556451 0 -0.30745975664346697 0.28108303278283259 0 -0.28581088023419748 0.27213864639403801 0 -0.28392805579818597 0.24584677119781029 0 -0.3017176885818823 0.26220574059556451 0 -0.28392805579818597 0.24584677119781029 0 -0.3017176885818823 0.26220574059556451 0 -0.28581088023419748 0.27213864639403801 0 -0.28392805579818597 0.24584677119781029 0 -0.28581088023419748 0.27213864639403801 0 -0.26655259030946182 0.26726307071448002 0 -0.28392805579818597 0.24584677119781029 0 -0.26514282027817931 0.24842266601513599 0 -0.26655259030946182 0.26726307071448002 0 -0.28581088023419748 0.27213864639403801 0 -0.26655259030946182 0.26726307071448002 0 -0.26709784128719349 0.28662765883125513 0 -0.26655259030946182 0.26726307071448002 0 -0.26709784128719349 0.28662765883125513 0 -0.24190471242523851 0.27972751922608308 0 -0.26655259030946182 0.26726307071448002 0 -0.24943129659764751 0.26000894523212309 0 -0.24190471242523851 0.27972751922608308 0 -0.26514282027817931 0.24842266601513599 0 -0.26655259030946182 0.26726307071448002 0 -0.24943129659764751 0.26000894523212309 0 -0.26514282027817931 0.24842266601513599 0 -0.24943129659764751 0.26000894523212309 0 -0.2468893326351202 0.24329134098969171 0 -0.25616918259472732 0.30236015827283808 0 -0.26709784128719349 0.28662765883125513 0 -0.24190471242523851 0.27972751922608308 0 -0.28581088023419748 0.27213864639403801 0 -0.26709784128719349 0.28662765883125513 0 -0.29016097772449478 0.2935014559625142 0 -0.26709784128719349 0.28662765883125513 0 -0.27491611994182802 0.30516871221215541 0 -0.29016097772449478 0.2935014559625142 0 -0.25616918259472732 0.30236015827283808 0 -0.27491611994182802 0.30516871221215541 0 -0.27043365276421599 0.32499279731959319 0 -0.25616918259472732 0.30236015827283808 0 -0.26709784128719349 0.28662765883125513 0 -0.27491611994182802 0.30516871221215541 0 -0.27491611994182802 0.30516871221215541 0 -0.29016097772449478 0.2935014559625142 0 -0.29169578744288521 0.31398791816734961 0 -0.30745975664346697 0.28108303278283259 0 -0.28581088023419748 0.27213864639403801 0 -0.29016097772449478 0.2935014559625142 0 -0.31376474629655843 0.30225304786416751 0 -0.30745975664346697 0.28108303278283259 0 -0.29016097772449478 0.2935014559625142 0 -0.31376474629655843 0.30225304786416751 0 -0.29016097772449478 0.2935014559625142 0 -0.29169578744288521 0.31398791816734961 0 -0.31376474629655843 0.30225304786416751 0 -0.31074538478735791 0.32738191455196902 0 -0.29169578744288521 0.31398791816734961 0 -0.31074538478735791 0.32738191455196902 0 -0.29170910681836448 0.3316805874579164 0 -0.29169578744288521 0.31398791816734961 0 -0.31074538478735791 0.32738191455196902 0 -0.30097258616365841 0.34441487088432199 0 -0.31556783578130437 0.34561409599239279 0 -0.31074538478735791 0.32738191455196902 0 -0.29170910681836448 0.3316805874579164 0 -0.30097258616365841 0.34441487088432199 0 -0.29170910681836448 0.3316805874579164 0 -0.28469812293370489 0.34762543636634829 0 -0.30097258616365841 0.34441487088432199 0 -0.29170910681836448 0.3316805874579164 0 -0.27043365276421599 0.32499279731959319 0 -0.28469812293370489 0.34762543636634829 0 -0.29170910681836448 0.3316805874579164 0 -0.29169578744288521 0.31398791816734961 0 -0.27043365276421599 0.32499279731959319 0 -0.27491611994182802 0.30516871221215541 0 -0.29169578744288521 0.31398791816734961 0 -0.27043365276421599 0.32499279731959319 0 -0.27043365276421599 0.32499279731959319 0 -0.26243222306204511 0.35090504016953772 0 -0.28469812293370489 0.34762543636634829 0 -0.27043365276421599 0.32499279731959319 0 -0.28469812293370489 0.34762543636634829 0 -0.27043365276421599 0.32499279731959319 0 -0.25002058798003007 0.3320526588471332 0 -0.26243222306204511 0.35090504016953772 0 -0.25616918259472732 0.30236015827283808 0 -0.27043365276421599 0.32499279731959319 0 -0.25616918259472732 0.30236015827283808 0 -0.27043365276421599 0.32499279731959319 0 -0.25002058798003007 0.3320526588471332 0 -0.25717133997193298 0.37426095615225607 0 -0.26243222306204511 0.35090504016953772 0 -0.27169383631612543 0.36953364855257259 0 -0.25717133997193298 0.37426095615225607 0 -0.26243222306204511 0.35090504016953772 0 -0.24481421723968019 0.36490975255658048 0 -0.27524778858216448 0.35766291394235578 0 -0.28324842690769031 0.36508823660180101 0 -0.28469812293370489 0.34762543636634829 0 -0.26243222306204511 0.35090504016953772 0 -0.27524778858216448 0.35766291394235578 0 -0.27169383631612543 0.36953364855257259 0 -0.26243222306204511 0.35090504016953772 0 -0.27524778858216448 0.35766291394235578 0 -0.28469812293370489 0.34762543636634829 0 -0.27524778858216448 0.35766291394235578 0 -0.27169383631612543 0.36953364855257259 0 -0.28324842690769031 0.36508823660180101 0 -0.27169383631612543 0.36953364855257259 0 -0.28324842690769031 0.36508823660180101 0 -0.28209338532393202 0.38222600668133688 0 -0.28324842690769031 0.36508823660180101 0 -0.28469812293370489 0.34762543636634829 0 -0.29896259310319367 0.37025807541310352 0 -0.28324842690769031 0.36508823660180101 0 -0.29896259310319367 0.37025807541310352 0 -0.28209338532393202 0.38222600668133688 0 -0.28469812293370489 0.34762543636634829 0 -0.29896259310319367 0.37025807541310352 0 -0.28469812293370489 0.34762543636634829 0 -0.30097258616365841 0.34441487088432199 0 -0.29896259310319367 0.37025807541310352 0 -0.30097258616365841 0.34441487088432199 0 -0.30971140611047582 0.35873879640362499 0 -0.29896259310319367 0.37025807541310352 0 -0.30097258616365841 0.34441487088432199 0 -0.29896259310319367 0.37025807541310352 0 -0.30097258616365841 0.34441487088432199 0 -0.30971140611047582 0.35873879640362499 0 -0.31556783578130437 0.34561409599239279 0 -0.30971140611047582 0.35873879640362499 0 -0.29896259310319367 0.37025807541310352 0 -0.31229554397435733 0.37005867265250031 0 -0.29896259310319367 0.37025807541310352 0 -0.31229554397435733 0.37005867265250031 0 -0.30732872976294823 0.38353215772995369 0 -0.31229554397435733 0.37005867265250031 0 -0.32118050234516199 0.36201264788746418 0 -0.32091897818789411 0.37757395005697603 0 -0.30971140611047582 0.35873879640362499 0 -0.31229554397435733 0.37005867265250031 0 -0.32118050234516199 0.36201264788746418 0 -0.32118050234516199 0.36201264788746418 0 -0.33508210951592582 0.36870163953731322 0 -0.32091897818789411 0.37757395005697603 0 -0.33508210951592582 0.36870163953731322 0 -0.35209549523865291 0.37190500391828912 0 -0.33393211710626841 0.38433234248782061 0 -0.32118050234516199 0.36201264788746418 0 -0.33508210951592582 0.36870163953731322 0 -0.33321476088078839 0.35466849371962073 0 -0.33508210951592582 0.36870163953731322 0 -0.33321476088078839 0.35466849371962073 0 -0.34577529297467657 0.36353966338233001 0 -0.33321476088078839 0.35466849371962073 0 -0.34577529297467657 0.36353966338233001 0 -0.34447532111727192 0.34884924989517158 0 -0.33321476088078839 0.35466849371962073 0 -0.33003563329740881 0.33925758124412497 0 -0.34447532111727192 0.34884924989517158 0 -0.32118050234516199 0.36201264788746418 0 -0.33321476088078839 0.35466849371962073 0 -0.31556783578130437 0.34561409599239279 0 -0.30971140611047582 0.35873879640362499 0 -0.32118050234516199 0.36201264788746418 0 -0.31556783578130437 0.34561409599239279 0 -0.33321476088078839 0.35466849371962073 0 -0.31556783578130437 0.34561409599239279 0 -0.33003563329740881 0.33925758124412497 0 -0.31074538478735791 0.32738191455196902 0 -0.33257481532433891 0.31836647764434117 0 -0.33003563329740881 0.33925758124412497 0 -0.31074538478735791 0.32738191455196902 0 -0.31556783578130437 0.34561409599239279 0 -0.33003563329740881 0.33925758124412497 0 -0.31376474629655843 0.30225304786416751 0 -0.31074538478735791 0.32738191455196902 0 -0.33257481532433891 0.31836647764434117 0 -0.33790089425573833 0.30106400074382289 0 -0.33257481532433891 0.31836647764434117 0 -0.35615310428423591 0.31878714957900162 0 -0.33257481532433891 0.31836647764434117 0 -0.33003563329740881 0.33925758124412497 0 -0.34490357793898208 0.33379293979876401 0 -0.33003563329740881 0.33925758124412497 0 -0.34490357793898208 0.33379293979876401 0 -0.34447532111727192 0.34884924989517158 0 -0.34490357793898208 0.33379293979876401 0 -0.34447532111727192 0.34884924989517158 0 -0.35750778107934472 0.34402647380388779 0 -0.35615310428423591 0.31878714957900162 0 -0.35750778107934472 0.34402647380388779 0 -0.34490357793898208 0.33379293979876401 0 -0.35615310428423591 0.31878714957900162 0 -0.35750778107934472 0.34402647380388779 0 -0.33257481532433891 0.31836647764434117 0 -0.34490357793898208 0.33379293979876401 0 -0.35615310428423591 0.31878714957900162 0 -0.3809584867257152 0.31995934924364311 0 -0.36990774782730562 0.30465198401604282 0 -0.35615310428423591 0.31878714957900162 0 -0.37563375498023588 0.33893957100260502 0 -0.3809584867257152 0.31995934924364311 0 -0.35615310428423591 0.31878714957900162 0 -0.37563375498023588 0.33893957100260502 0 -0.35615310428423591 0.31878714957900162 0 -0.35750778107934472 0.34402647380388779 0 -0.37563375498023588 0.33893957100260502 0 -0.37302608715873109 0.35758434449273291 0 -0.35750778107934472 0.34402647380388779 0 -0.37302608715873109 0.35758434449273291 0 -0.35750778107934472 0.34402647380388779 0 -0.35541488053243109 0.35781034742230239 0 -0.37302608715873109 0.35758434449273291 0 -0.35209549523865291 0.37190500391828912 0 -0.35541488053243109 0.35781034742230239 0 -0.37302608715873109 0.35758434449273291 0 -0.37126589511329411 0.37377724987418581 0 -0.35209549523865291 0.37190500391828912 0 -0.37302608715873109 0.35758434449273291 0 -0.35209549523865291 0.37190500391828912 0 -0.33508210951592582 0.36870163953731322 0 -0.35209549523865291 0.37190500391828912 0 -0.34577529297467657 0.36353966338233001 0 -0.35209549523865291 0.37190500391828912 0 -0.34577529297467657 0.36353966338233001 0 -0.35209549523865291 0.37190500391828912 0 -0.34577529297467657 0.36353966338233001 0 -0.35541488053243109 0.35781034742230239 0 -0.34577529297467657 0.36353966338233001 0 -0.34447532111727192 0.34884924989517158 0 -0.35541488053243109 0.35781034742230239 0 -0.34447532111727192 0.34884924989517158 0 -0.35750778107934472 0.34402647380388779 0 -0.35541488053243109 0.35781034742230239 0 -0.35026082972236822 0.40458613969335172 0 -0.34862050747833878 0.38874946299455448 0 -0.33552343261133938 0.40009846525415782 0 -0.35026082972236822 0.40458613969335172 0 -0.34862050747833878 0.38874946299455448 0 -0.36671596826568531 0.39125647884893172 0 -0.35209549523865291 0.37190500391828912 0 -0.34862050747833878 0.38874946299455448 0 -0.33393211710626841 0.38433234248782061 0 -0.35209549523865291 0.37190500391828912 0 -0.34862050747833878 0.38874946299455448 0 -0.36671596826568531 0.39125647884893172 0 -0.35209549523865291 0.37190500391828912 0 -0.36671596826568531 0.39125647884893172 0 -0.37126589511329411 0.37377724987418581 0 -0.35209549523865291 0.37190500391828912 0 -0.36671596826568531 0.39125647884893172 0 -0.38133644129271771 0.41060795377957438 0 -0.36671596826568531 0.39125647884893172 0 -0.35026082972236822 0.40458613969335172 0 -0.36671596826568531 0.39125647884893172 0 -0.36333227490387549 0.41594406858258898 0 -0.38133644129271771 0.41060795377957438 0 -0.36671596826568531 0.39125647884893172 0 -0.36333227490387549 0.41594406858258898 0 -0.38133644129271771 0.41060795377957438 0 -0.36333227490387549 0.41594406858258898 0 -0.37388199021079188 0.43349662060099697 0 -0.36333227490387549 0.41594406858258898 0 -0.37388199021079188 0.43349662060099697 0 -0.35906691460358248 0.43302642702751659 0 -0.36333227490387549 0.41594406858258898 0 -0.35906691460358248 0.43302642702751659 0 -0.35160825139420282 0.41805423523185442 0 -0.35906691460358248 0.43302642702751659 0 -0.34586475289765162 0.42738691828786168 0 -0.34964894770477822 0.45067928662270329 0 -0.35906691460358248 0.43302642702751659 0 -0.34586475289765162 0.42738691828786168 0 -0.35160825139420282 0.41805423523185442 0 -0.35026082972236822 0.40458613969335172 0 -0.36333227490387549 0.41594406858258898 0 -0.35160825139420282 0.41805423523185442 0 -0.34586475289765162 0.42738691828786168 0 -0.35160825139420282 0.41805423523185442 0 -0.33955069738530769 0.4144169953609998 0 -0.35026082972236822 0.40458613969335172 0 -0.35160825139420282 0.41805423523185442 0 -0.33955069738530769 0.4144169953609998 0 -0.35026082972236822 0.40458613969335172 0 -0.33955069738530769 0.4144169953609998 0 -0.33552343261133938 0.40009846525415782 0 -0.33446828868340289 0.42659298183602629 0 -0.325081577553051 0.41169961094141633 0 -0.33955069738530769 0.4144169953609998 0 -0.33446828868340289 0.42659298183602629 0 -0.325081577553051 0.41169961094141633 0 -0.33955069738530769 0.4144169953609998 0 -0.325081577553051 0.41169961094141633 0 -0.33552343261133938 0.40009846525415782 0 -0.33446828868340289 0.42659298183602629 0 -0.32353211865850812 0.43458959004027897 0 -0.33054677899099522 0.44587833955602901 0 -0.34586475289765162 0.42738691828786168 0 -0.33446828868340289 0.42659298183602629 0 -0.34964894770477822 0.45067928662270329 0 -0.34586475289765162 0.42738691828786168 0 -0.33446828868340289 0.42659298183602629 0 -0.34586475289765162 0.42738691828786168 0 -0.33955069738530769 0.4144169953609998 0 -0.33446828868340289 0.42659298183602629 0 -0.33446828868340289 0.42659298183602629 0 -0.31463215430362917 0.42521109444957261 0 -0.33446828868340289 0.42659298183602629 0 -0.31463215430362917 0.42521109444957261 0 -0.32353211865850812 0.43458959004027897 0 -0.31463215430362917 0.42521109444957261 0 -0.32353211865850812 0.43458959004027897 0 -0.30632691414132052 0.4383163993433048 0 -0.325081577553051 0.41169961094141633 0 -0.31576873897388319 0.39675968105735149 0 -0.30808160252936673 0.4121977433748496 0 -0.31463215430362917 0.42521109444957261 0 -0.325081577553051 0.41169961094141633 0 -0.30808160252936673 0.4121977433748496 0 -0.33446828868340289 0.42659298183602629 0 -0.31463215430362917 0.42521109444957261 0 -0.325081577553051 0.41169961094141633 0 -0.325081577553051 0.41169961094141633 0 -0.31576873897388319 0.39675968105735149 0 -0.33552343261133938 0.40009846525415782 0 -0.325081577553051 0.41169961094141633 0 -0.31576873897388319 0.39675968105735149 0 -0.34862050747833878 0.38874946299455448 0 -0.33552343261133938 0.40009846525415782 0 -0.33393211710626841 0.38433234248782061 0 -0.31576873897388319 0.39675968105735149 0 -0.33552343261133938 0.40009846525415782 0 -0.33393211710626841 0.38433234248782061 0 -0.35209549523865291 0.37190500391828912 0 -0.33393211710626841 0.38433234248782061 0 -0.33508210951592582 0.36870163953731322 0 -0.33393211710626841 0.38433234248782061 0 -0.32091897818789411 0.37757395005697603 0 -0.31576873897388319 0.39675968105735149 0 -0.32091897818789411 0.37757395005697603 0 -0.30732872976294823 0.38353215772995369 0 -0.31576873897388319 0.39675968105735149 0 -0.33393211710626841 0.38433234248782061 0 -0.31576873897388319 0.39675968105735149 0 -0.33393211710626841 0.38433234248782061 0 -0.32091897818789411 0.37757395005697603 0 -0.31229554397435733 0.37005867265250031 0 -0.32091897818789411 0.37757395005697603 0 -0.30732872976294823 0.38353215772995369 0 -0.29896259310319367 0.37025807541310352 0 -0.30732872976294823 0.38353215772995369 0 -0.29700674132229032 0.39540516601558717 0 -0.29896259310319367 0.37025807541310352 0 -0.29700674132229032 0.39540516601558717 0 -0.31576873897388319 0.39675968105735149 0 -0.30732872976294823 0.38353215772995369 0 -0.29896259310319367 0.37025807541310352 0 -0.30732872976294823 0.38353215772995369 0 -0.29700674132229032 0.39540516601558717 0 -0.30259284054109448 0.40478096048040529 0 -0.29641605771867308 0.41403951143914192 0 -0.31576873897388319 0.39675968105735149 0 -0.29700674132229032 0.39540516601558717 0 -0.30259284054109448 0.40478096048040529 0 -0.31576873897388319 0.39675968105735149 0 -0.30732872976294823 0.38353215772995369 0 -0.29700674132229032 0.39540516601558717 0 -0.31576873897388319 0.39675968105735149 0 -0.30259284054109448 0.40478096048040529 0 -0.30808160252936673 0.4121977433748496 0 -0.29700674132229032 0.39540516601558717 0 -0.28209338532393202 0.38222600668133688 0 -0.27839968129949771 0.4031848713431353 0 -0.29896259310319367 0.37025807541310352 0 -0.29700674132229032 0.39540516601558717 0 -0.28209338532393202 0.38222600668133688 0 -0.27169383631612543 0.36953364855257259 0 -0.28209338532393202 0.38222600668133688 0 -0.26324903299479457 0.38988604216182182 0 -0.27839968129949771 0.4031848713431353 0 -0.26324903299479457 0.38988604216182182 0 -0.26044543261494202 0.40722350202507612 0 -0.28209338532393202 0.38222600668133688 0 -0.27839968129949771 0.4031848713431353 0 -0.26324903299479457 0.38988604216182182 0 -0.26324903299479457 0.38988604216182182 0 -0.26044543261494202 0.40722350202507612 0 -0.24448809762487089 0.40050868906775772 0 -0.25717133997193298 0.37426095615225607 0 -0.26324903299479457 0.38988604216182182 0 -0.24074374520667241 0.38242687998337299 0 -0.25717133997193298 0.37426095615225607 0 -0.27169383631612543 0.36953364855257259 0 -0.26324903299479457 0.38988604216182182 0 -0.25382358621835049 0.43542260228310259 0 -0.27015352040741047 0.42211248350195679 0 -0.2459368307481366 0.42042542405070832 0 -0.27015352040741047 0.42211248350195679 0 -0.2459368307481366 0.42042542405070832 0 -0.26044543261494202 0.40722350202507612 0 -0.2459368307481366 0.42042542405070832 0 -0.24448809762487089 0.40050868906775772 0 -0.26044543261494202 0.40722350202507612 0 -0.27015352040741047 0.42211248350195679 0 -0.2459368307481366 0.42042542405070832 0 -0.27839968129949771 0.4031848713431353 0 -0.26044543261494202 0.40722350202507612 0 -0.27015352040741047 0.42211248350195679 0 -0.27839968129949771 0.4031848713431353 0 -0.27015352040741047 0.42211248350195679 0 -0.2950508895413867 0.42055225661807089 0 -0.25382358621835049 0.43542260228310259 0 -0.27015352040741047 0.42211248350195679 0 -0.27451598641054692 0.44016370142941202 0 -0.27015352040741047 0.42211248350195679 0 -0.28251112199335982 0.43211478794536817 0 -0.27451598641054692 0.44016370142941202 0 -0.28251112199335982 0.43211478794536817 0 -0.29479601992385501 0.42382920706312738 0 -0.29069111349206073 0.44135124015641658 0 -0.29479601992385501 0.42382920706312738 0 -0.29069111349206073 0.44135124015641658 0 -0.27015352040741047 0.42211248350195679 0 -0.28251112199335982 0.43211478794536817 0 -0.29479601992385501 0.42382920706312738 0 -0.27015352040741047 0.42211248350195679 0 -0.29479601992385501 0.42382920706312738 0 -0.27015352040741047 0.42211248350195679 0 -0.29479601992385501 0.42382920706312738 0 -0.2950508895413867 0.42055225661807089 0 -0.29479601992385501 0.42382920706312738 0 -0.2950508895413867 0.42055225661807089 0 -0.29700674132229032 0.39540516601558717 0 -0.2950508895413867 0.42055225661807089 0 -0.29641605771867308 0.41403951143914192 0 -0.29700674132229032 0.39540516601558717 0 -0.27839968129949771 0.4031848713431353 0 -0.2950508895413867 0.42055225661807089 0 -0.29700674132229032 0.39540516601558717 0 -0.2950508895413867 0.42055225661807089 0 -0.2950508895413867 0.42055225661807089 0 -0.29641605771867308 0.41403951143914192 0 -0.31463215430362917 0.42521109444957261 0 -0.2950508895413867 0.42055225661807089 0 -0.30808160252936673 0.4121977433748496 0 -0.30259284054109448 0.40478096048040529 0 -0.29641605771867308 0.41403951143914192 0 -0.30808160252936673 0.4121977433748496 0 -0.2950508895413867 0.42055225661807089 0 -0.29641605771867308 0.41403951143914192 0 -0.30808160252936673 0.4121977433748496 0 -0.31463215430362917 0.42521109444957261 0 -0.29479601992385501 0.42382920706312738 0 -0.2950508895413867 0.42055225661807089 0 -0.31463215430362917 0.42521109444957261 0 -0.29479601992385501 0.42382920706312738 0 -0.30632691414132052 0.4383163993433048 0 -0.29479601992385501 0.42382920706312738 0 -0.30632691414132052 0.4383163993433048 0 -0.29069111349206073 0.44135124015641658 0 -0.31463215430362917 0.42521109444957261 0 -0.29479601992385501 0.42382920706312738 0 -0.30632691414132052 0.4383163993433048 0 -0.3106014077299023 0.45452137664490028 0 -0.31918078655937843 0.44538174228416588 0 -0.30632691414132052 0.4383163993433048 0 -0.29796494780926752 0.45236230629258078 0 -0.3106014077299023 0.45452137664490028 0 -0.30632691414132052 0.4383163993433048 0 -0.29796494780926752 0.45236230629258078 0 -0.29069111349206073 0.44135124015641658 0 -0.3106014077299023 0.45452137664490028 0 -0.30192672627001949 0.46374394226332799 0 -0.31684143562260331 0.46858494716702748 0 -0.30192672627001949 0.46374394226332799 0 -0.31684143562260331 0.46858494716702748 0 -0.29796494780926752 0.45236230629258078 0 -0.3106014077299023 0.45452137664490028 0 -0.30192672627001949 0.46374394226332799 0 -0.28701201691743577 0.45890293735962839 0 -0.28352738281579593 0.4755269213664215 0 -0.30192672627001949 0.46374394226332799 0 -0.28701201691743577 0.45890293735962839 0 -0.30030559437380339 0.47420586516231239 0 -0.30192672627001949 0.46374394226332799 0 -0.28701201691743577 0.45890293735962839 0 -0.29796494780926752 0.45236230629258078 0 -0.30192672627001949 0.46374394226332799 0 -0.28701201691743577 0.45890293735962839 0 -0.28701201691743577 0.45890293735962839 0 -0.29069111349206073 0.44135124015641658 0 -0.28701201691743577 0.45890293735962839 0 -0.29069111349206073 0.44135124015641658 0 -0.27451598641054692 0.44016370142941202 0 -0.29796494780926752 0.45236230629258078 0 -0.28701201691743577 0.45890293735962839 0 -0.29069111349206073 0.44135124015641658 0 -0.28251112199335982 0.43211478794536817 0 -0.29069111349206073 0.44135124015641658 0 -0.27451598641054692 0.44016370142941202 0 -0.28701201691743577 0.45890293735962839 0 -0.27451598641054692 0.44016370142941202 0 -0.2629045594346644 0.45107815732999917 0 -0.28701201691743577 0.45890293735962839 0 -0.2629045594346644 0.45107815732999917 0 -0.28701201691743577 0.45890293735962839 0 -0.27023974482395158 0.46466667776273851 0 -0.28352738281579593 0.4755269213664215 0 -0.28701201691743577 0.45890293735962839 0 -0.27023974482395158 0.46466667776273851 0 -0.2629045594346644 0.45107815732999917 0 -0.27023974482395158 0.46466667776273851 0 -0.2629045594346644 0.45107815732999917 0 -0.2489120775907421 0.45611132706247232 0 -0.27023974482395158 0.46466667776273851 0 -0.24576275637927339 0.47027392540463459 0 -0.2489120775907421 0.45611132706247232 0 -0.25382358621835049 0.43542260228310259 0 -0.2629045594346644 0.45107815732999917 0 -0.2387971019518931 0.44325337730036979 0 -0.2629045594346644 0.45107815732999917 0 -0.2387971019518931 0.44325337730036979 0 -0.2629045594346644 0.45107815732999917 0 -0.2387971019518931 0.44325337730036979 0 -0.2489120775907421 0.45611132706247232 0 -0.25382358621835049 0.43542260228310259 0 -0.27451598641054692 0.44016370142941202 0 -0.2629045594346644 0.45107815732999917 0 -0.26267046183496029 0.5 0 -0.26550391405888962 0.48189416376756322 0 -0.24740973726578031 0.48747235416832729 0 -0.26550391405888962 0.48189416376756322 0 -0.24576275637927339 0.47027392540463459 0 -0.24740973726578031 0.48747235416832729 0 -0.27023974482395158 0.46466667776273851 0 -0.26550391405888962 0.48189416376756322 0 -0.24576275637927339 0.47027392540463459 0 -0.27023974482395158 0.46466667776273851 0 -0.26550391405888962 0.48189416376756322 0 -0.28352738281579593 0.4755269213664215 0 -0.26550391405888962 0.48189416376756322 0 -0.28004274871415491 0.49215090537321432 0 -0.28352738281579593 0.4755269213664215 0 -0.26267046183496029 0.5 0 -0.26550391405888962 0.48189416376756322 0 -0.28004274871415491 0.49215090537321432 0 -0.26267046183496029 0.5 0 -0.28004274871415491 0.49215090537321432 0 -0.28977137280097909 0.5 0 -0.28004274871415491 0.49215090537321432 0 -0.29422506909847679 0.48481709335143458 0 -0.28977137280097909 0.5 0 -0.29422506909847679 0.48481709335143458 0 -0.28977137280097909 0.5 0 -0.30059562840125281 0.49523014277448563 0 -0.29422506909847679 0.48481709335143458 0 -0.28352738281579593 0.4755269213664215 0 -0.30030559437380339 0.47420586516231239 0 -0.28004274871415491 0.49215090537321432 0 -0.29422506909847679 0.48481709335143458 0 -0.28352738281579593 0.4755269213664215 0 -0.28701201691743577 0.45890293735962839 0 -0.28352738281579593 0.4755269213664215 0 -0.30030559437380339 0.47420586516231239 0 -0.28004274871415491 0.49215090537321432 0 -0.28352738281579593 0.4755269213664215 0 -0.30192672627001949 0.46374394226332799 0 -0.30030559437380339 0.47420586516231239 0 -0.31684143562260331 0.46858494716702748 0 -0.30030559437380339 0.47420586516231239 0 -0.3087338265938282 0.48140676030859753 0 -0.31684143562260331 0.46858494716702748 0 -0.29422506909847679 0.48481709335143458 0 -0.30030559437380339 0.47420586516231239 0 -0.3087338265938282 0.48140676030859753 0 -0.28977137280097909 0.5 0 -0.30059562840125281 0.49523014277448563 0 -0.31687228376699761 0.5 0 -0.3087338265938282 0.48140676030859753 0 -0.30059562840125281 0.49523014277448563 0 -0.32200695450955369 0.48840862565278359 0 -0.30059562840125281 0.49523014277448563 0 -0.32200695450955369 0.48840862565278359 0 -0.29422506909847679 0.48481709335143458 0 -0.3087338265938282 0.48140676030859753 0 -0.30059562840125281 0.49523014277448563 0 -0.30059562840125281 0.49523014277448563 0 -0.31687228376699761 0.5 0 -0.32200695450955369 0.48840862565278359 0 -0.31687228376699761 0.5 0 -0.32200695450955369 0.48840862565278359 0 -0.33307541777069588 0.49179723018598798 0 -0.32200695450955369 0.48840862565278359 0 -0.34341828061785462 0.48158710853108161 0 -0.32200695450955369 0.48840862565278359 0 -0.33307541777069588 0.49179723018598798 0 -0.34341828061785462 0.48158710853108161 0 -0.33307541777069588 0.49179723018598798 0 -0.34341828061785462 0.48158710853108161 0 -0.34397319473301619 0.5 0 -0.31687228376699761 0.5 0 -0.33307541777069588 0.49179723018598798 0 -0.34397319473301619 0.5 0 -0.32200695450955369 0.48840862565278359 0 -0.34341828061785462 0.48158710853108161 0 -0.32987443399239552 0.47516769423785971 0 -0.34341828061785462 0.48158710853108161 0 -0.32987443399239552 0.47516769423785971 0 -0.34602126269748001 0.46829680282094799 0 -0.32987443399239552 0.47516769423785971 0 -0.31870391104731738 0.47862303310617538 0 -0.31684143562260331 0.46858494716702748 0 -0.32200695450955369 0.48840862565278359 0 -0.32987443399239552 0.47516769423785971 0 -0.31870391104731738 0.47862303310617538 0 -0.3087338265938282 0.48140676030859753 0 -0.32200695450955369 0.48840862565278359 0 -0.31870391104731738 0.47862303310617538 0 -0.3087338265938282 0.48140676030859753 0 -0.31870391104731738 0.47862303310617538 0 -0.31684143562260331 0.46858494716702748 0 -0.31684143562260331 0.46858494716702748 0 -0.32297313966047753 0.4563916054492167 0 -0.33347739267942988 0.46163483110378051 0 -0.32987443399239552 0.47516769423785971 0 -0.31684143562260331 0.46858494716702748 0 -0.33347739267942988 0.46163483110378051 0 -0.3106014077299023 0.45452137664490028 0 -0.31684143562260331 0.46858494716702748 0 -0.32297313966047753 0.4563916054492167 0 -0.32353211865850812 0.43458959004027897 0 -0.30632691414132052 0.4383163993433048 0 -0.31918078655937843 0.44538174228416588 0 -0.3106014077299023 0.45452137664490028 0 -0.32297313966047753 0.4563916054492167 0 -0.31918078655937843 0.44538174228416588 0 -0.32297313966047753 0.4563916054492167 0 -0.31918078655937843 0.44538174228416588 0 -0.33054677899099522 0.44587833955602901 0 -0.32353211865850812 0.43458959004027897 0 -0.31918078655937843 0.44538174228416588 0 -0.33054677899099522 0.44587833955602901 0 -0.33054677899099522 0.44587833955602901 0 -0.33347739267942988 0.46163483110378051 0 -0.34964894770477822 0.45067928662270329 0 -0.33446828868340289 0.42659298183602629 0 -0.34964894770477822 0.45067928662270329 0 -0.33446828868340289 0.42659298183602629 0 -0.33054677899099522 0.44587833955602901 0 -0.34964894770477822 0.45067928662270329 0 -0.32297313966047753 0.4563916054492167 0 -0.33054677899099522 0.44587833955602901 0 -0.33347739267942988 0.46163483110378051 0 -0.33347739267942988 0.46163483110378051 0 -0.34602126269748001 0.46829680282094799 0 -0.34964894770477822 0.45067928662270329 0 -0.32987443399239552 0.47516769423785971 0 -0.33347739267942988 0.46163483110378051 0 -0.34602126269748001 0.46829680282094799 0 -0.34964894770477822 0.45067928662270329 0 -0.36482960672615539 0.47476559140937902 0 -0.34602126269748001 0.46829680282094799 0 -0.34964894770477822 0.45067928662270329 0 -0.36482960672615539 0.47476559140937902 0 -0.37388199021079188 0.43349662060099697 0 -0.35906691460358248 0.43302642702751659 0 -0.37006527051019528 0.45259743283909409 0 -0.35906691460358248 0.43302642702751659 0 -0.34964894770477822 0.45067928662270329 0 -0.37006527051019528 0.45259743283909409 0 -0.34964894770477822 0.45067928662270329 0 -0.37006527051019528 0.45259743283909409 0 -0.36482960672615539 0.47476559140937902 0 -0.39197467039505129 0.46611734068214988 0 -0.36580706476392733 0.47631646954851292 0 -0.36482960672615539 0.47476559140937902 0 -0.38413367002432852 0.48466820949397371 0 -0.36580706476392733 0.47631646954851292 0 -0.36922226322768142 0.48798439540463678 0 -0.36580706476392733 0.47631646954851292 0 -0.36482960672615539 0.47476559140937902 0 -0.36580706476392733 0.47631646954851292 0 -0.36011621247549508 0.48220740160321018 0 -0.36922226322768142 0.48798439540463678 0 -0.36580706476392733 0.47631646954851292 0 -0.36482960672615539 0.47476559140937902 0 -0.36011621247549508 0.48220740160321018 0 -0.38413367002432852 0.48466820949397371 0 -0.36922226322768142 0.48798439540463678 0 -0.37107410569903487 0.5 0 -0.36922226322768142 0.48798439540463678 0 -0.37107410569903487 0.5 0 -0.35730384704185653 0.49038344312244059 0 -0.36011621247549508 0.48220740160321018 0 -0.36922226322768142 0.48798439540463678 0 -0.35730384704185653 0.49038344312244059 0 -0.34341828061785462 0.48158710853108161 0 -0.36011621247549508 0.48220740160321018 0 -0.35730384704185653 0.49038344312244059 0 -0.37107410569903487 0.5 0 -0.35730384704185653 0.49038344312244059 0 -0.34397319473301619 0.5 0 -0.34341828061785462 0.48158710853108161 0 -0.35730384704185653 0.49038344312244059 0 -0.34397319473301619 0.5 0 -0.34341828061785462 0.48158710853108161 0 -0.36482960672615539 0.47476559140937902 0 -0.36011621247549508 0.48220740160321018 0 -0.34341828061785462 0.48158710853108161 0 -0.34602126269748001 0.46829680282094799 0 -0.36482960672615539 0.47476559140937902 0 -0.34341828061785462 0.48158710853108161 0 -0.36482960672615539 0.47476559140937902 0 -0.14108182703901029 0.47856052106912539 0 -0.15218575011213231 0.48928026053456308 0 -0.15838645381207381 0.47784012782054008 0 -0.14108182703901029 0.47856052106912539 0 -0.15141758041572639 0.46790752156545012 0 -0.15838645381207381 0.47784012782054008 0 -0.14108182703901029 0.47856052106912539 0 -0.15218575011213231 0.48928026053456308 0 -0.14103512141071931 0.48261116844817892 0 -0.14108182703901029 0.47856052106912539 0 -0.15218575011213231 0.48928026053456308 0 -0.14103512141071931 0.48261116844817892 0 -0.14108182703901029 0.47856052106912539 0 -0.15218575011213231 0.48928026053456308 0 -0.14247376316698551 0.5 0 -0.1632896731852537 0.50000000000000155 0 -0.15218575011213231 0.48928026053456308 0 -0.14247376316698551 0.5 0 -0.14194011071192181 0.49099964735320722 0 -0.14103512141071931 0.48261116844817892 0 -0.15218575011213231 0.48928026053456308 0 -0.14194011071192181 0.49099964735320722 0 -0.14247376316698551 0.5 0 -0.13206580815784999 0.49210716043008701 0 -0.1216578531487173 0.50000000000000155 0 -0.13206580815784999 0.49210716043008701 0 -0.1215246548466888 0.48036061179670092 0 -0.1216578531487173 0.50000000000000155 0 -0.14103512141071931 0.48261116844817892 0 -0.13206580815784999 0.49210716043008701 0 -0.1215246548466888 0.48036061179670092 0 -0.14103512141071931 0.48261116844817892 0 -0.14194011071192181 0.49099964735320722 0 -0.13206580815784999 0.49210716043008701 0 -0.14247376316698551 0.5 0 -0.14194011071192181 0.49099964735320722 0 -0.13206580815784999 0.49210716043008701 0 -0.14103512141071931 0.48261116844817892 0 -0.14108182703901029 0.47856052106912539 0 -0.1215246548466888 0.48036061179670092 0 -0.14108182703901029 0.47856052106912539 0 -0.11987972175203609 0.45809198546251739 0 -0.1215246548466888 0.48036061179670092 0 -0.14108182703901029 0.47856052106912539 0 -0.14131813266979709 0.45806640035822538 0 -0.11987972175203609 0.45809198546251739 0 -0.14108182703901029 0.47856052106912539 0 -0.11987972175203609 0.45809198546251739 0 -0.12509104342100061 0.44188941827772182 0 -0.14131813266979709 0.45806640035822538 0 -0.11987972175203609 0.45809198546251739 0 -0.12509104342100061 0.44188941827772182 0 -0.14155443830058789 0.43757227964732542 0 -0.14131813266979709 0.45806640035822538 0 -0.14155443830058789 0.43757227964732542 0 -0.1590732886589914 0.44456462379371309 0 -0.14157918638415079 0.43542594817740249 0 -0.1590732886589914 0.44456462379371309 0 -0.1665175895587078 0.4467511244817659 0 -0.14157918638415079 0.43542594817740249 0 -0.1665175895587078 0.4467511244817659 0 -0.15486041744653839 0.43233395996053492 0 -0.14157918638415079 0.43542594817740249 0 -0.14155443830058789 0.43757227964732542 0 -0.14890115189103559 0.44846787442591368 0 -0.1590732886589914 0.44456462379371309 0 -0.1665175895587078 0.4467511244817659 0 -0.14157918638415079 0.43542594817740249 0 -0.14155443830058789 0.43757227964732542 0 -0.14890115189103559 0.44846787442591368 0 -0.14131813266979709 0.45806640035822538 0 -0.14155443830058789 0.43757227964732542 0 -0.1590732886589914 0.44456462379371309 0 -0.14155443830058789 0.43757227964732542 0 -0.14131813266979709 0.45806640035822538 0 -0.14890115189103559 0.44846787442591368 0 -0.15489186999573309 0.45643812449532861 0 -0.1590732886589914 0.44456462379371309 0 -0.14108182703901029 0.47856052106912539 0 -0.14131813266979709 0.45806640035822538 0 -0.14108182703901029 0.47856052106912539 0 -0.14131813266979709 0.45806640035822538 0 -0.15141758041572639 0.46790752156545012 0 -0.14890115189103559 0.44846787442591368 0 -0.14131813266979709 0.45806640035822538 0 -0.15489186999573309 0.45643812449532861 0 -0.14131813266979709 0.45806640035822538 0 -0.15489186999573309 0.45643812449532861 0 -0.15141758041572639 0.46790752156545012 0 -0.15489186999573309 0.45643812449532861 0 -0.15141758041572639 0.46790752156545012 0 -0.1637083375647361 0.46571847743475431 0 -0.15489186999573309 0.45643812449532861 0 -0.1637083375647361 0.46571847743475431 0 -0.16576602081972819 0.45650349861697093 0 -0.1637083375647361 0.46571847743475431 0 -0.1745644688617857 0.46423929942095737 0 -0.17520348646433229 0.47613194070040032 0 -0.1637083375647361 0.46571847743475431 0 -0.16576602081972819 0.45650349861697093 0 -0.1745644688617857 0.46423929942095737 0 -0.1590732886589914 0.44456462379371309 0 -0.17659213901739471 0.45155696794010108 0 -0.1590732886589914 0.44456462379371309 0 -0.1665175895587078 0.4467511244817659 0 -0.17659213901739471 0.45155696794010108 0 -0.16576602081972819 0.45650349861697093 0 -0.1590732886589914 0.44456462379371309 0 -0.17659213901739471 0.45155696794010108 0 -0.1665175895587078 0.4467511244817659 0 -0.1659354897241099 0.43449929542802312 0 -0.15486041744653839 0.43233395996053492 0 -0.15489186999573309 0.45643812449532861 0 -0.16576602081972819 0.45650349861697093 0 -0.1590732886589914 0.44456462379371309 0 -0.1665175895587078 0.4467511244817659 0 -0.1740586998674569 0.43899754936367941 0 -0.1659354897241099 0.43449929542802312 0 -0.1740586998674569 0.43899754936367941 0 -0.17659213901739471 0.45155696794010108 0 -0.1868590329817707 0.43357197228301869 0 -0.1665175895587078 0.4467511244817659 0 -0.1740586998674569 0.43899754936367941 0 -0.17659213901739471 0.45155696794010108 0 -0.1745644688617857 0.46423929942095737 0 -0.18738907724301901 0.4651958722260251 0 -0.17520348646433229 0.47613194070040032 0 -0.17659213901739471 0.45155696794010108 0 -0.1745644688617857 0.46423929942095737 0 -0.18738907724301901 0.4651958722260251 0 -0.16576602081972819 0.45650349861697093 0 -0.17659213901739471 0.45155696794010108 0 -0.1745644688617857 0.46423929942095737 0 -0.17520348646433229 0.47613194070040032 0 -0.17737148462513211 0.4885994124146576 0 -0.1949767913905355 0.48049775525153071 0 -0.18738907724301901 0.4651958722260251 0 -0.17520348646433229 0.47613194070040032 0 -0.1949767913905355 0.48049775525153071 0 -0.17520348646433229 0.47613194070040032 0 -0.1660045063390565 0.48636736612135473 0 -0.17737148462513211 0.4885994124146576 0 -0.17520348646433229 0.47613194070040032 0 -0.15838645381207381 0.47784012782054008 0 -0.1660045063390565 0.48636736612135473 0 -0.1637083375647361 0.46571847743475431 0 -0.17520348646433229 0.47613194070040032 0 -0.15838645381207381 0.47784012782054008 0 -0.15141758041572639 0.46790752156545012 0 -0.1637083375647361 0.46571847743475431 0 -0.15838645381207381 0.47784012782054008 0 -0.15218575011213231 0.48928026053456308 0 -0.1632896731852537 0.50000000000000155 0 -0.15218575011213231 0.48928026053456308 0 -0.15838645381207381 0.47784012782054008 0 -0.1660045063390565 0.48636736612135473 0 -0.15218575011213231 0.48928026053456308 0 -0.1632896731852537 0.50000000000000155 0 -0.1660045063390565 0.48636736612135473 0 -0.1632896731852537 0.50000000000000155 0 -0.1660045063390565 0.48636736612135473 0 -0.17737148462513211 0.4885994124146576 0 -0.1632896731852537 0.50000000000000155 0 -0.18738296574648311 0.5 0 -0.17737148462513211 0.4885994124146576 0 -0.18738296574648311 0.5 0 -0.17737148462513211 0.4885994124146576 0 -0.1949767913905355 0.48049775525153071 0 -0.18738296574648311 0.5 0 -0.1949767913905355 0.48049775525153071 0 -0.21147625830771241 0.5 0 -0.1949767913905355 0.48049775525153071 0 -0.2193327115732171 0.47785732409434201 0 -0.2030958722774939 0.45571464818868052 0 -0.1949767913905355 0.48049775525153071 0 -0.21147625830771241 0.5 0 -0.2193327115732171 0.47785732409434201 0 -0.21147625830771241 0.5 0 -0.2193327115732171 0.47785732409434201 0 -0.23556955086894171 0.50000000000000278 0 -0.2193327115732171 0.47785732409434201 0 -0.24740973726578031 0.48747235416832729 0 -0.23556955086894171 0.50000000000000278 0 -0.2193327115732171 0.47785732409434201 0 -0.23556955086894171 0.50000000000000278 0 -0.2193327115732171 0.47785732409434201 0 -0.24576275637927339 0.47027392540463459 0 -0.24740973726578031 0.48747235416832729 0 -0.26267046183496029 0.5 0 -0.24740973726578031 0.48747235416832729 0 -0.23556955086894171 0.50000000000000278 0 -0.2387971019518931 0.44325337730036979 0 -0.2489120775907421 0.45611132706247232 0 -0.22784244863720851 0.45419089524536999 0 -0.24576275637927339 0.47027392540463459 0 -0.2489120775907421 0.45611132706247232 0 -0.22784244863720851 0.45419089524536999 0 -0.2193327115732171 0.47785732409434201 0 -0.24576275637927339 0.47027392540463459 0 -0.22784244863720851 0.45419089524536999 0 -0.2387971019518931 0.44325337730036979 0 -0.22784244863720851 0.45419089524536999 0 -0.22695118484456259 0.43760496865691229 0 -0.22784244863720851 0.45419089524536999 0 -0.22695118484456259 0.43760496865691229 0 -0.21077827595677989 0.43843038173964088 0 -0.2387971019518931 0.44325337730036979 0 -0.22695118484456259 0.43760496865691229 0 -0.23717077667227929 0.4322920750106754 0 -0.22784244863720851 0.45419089524536999 0 -0.21077827595677989 0.43843038173964088 0 -0.2030958722774939 0.45571464818868052 0 -0.2193327115732171 0.47785732409434201 0 -0.22784244863720851 0.45419089524536999 0 -0.2030958722774939 0.45571464818868052 0 -0.2193327115732171 0.47785732409434201 0 -0.2030958722774939 0.45571464818868052 0 -0.18738907724301901 0.4651958722260251 0 -0.1949767913905355 0.48049775525153071 0 -0.2030958722774939 0.45571464818868052 0 -0.17659213901739471 0.45155696794010108 0 -0.18738907724301901 0.4651958722260251 0 -0.2030958722774939 0.45571464818868052 0 -0.17659213901739471 0.45155696794010108 0 -0.2030958722774939 0.45571464818868052 0 -0.1868590329817707 0.43357197228301869 0 -0.21077827595677989 0.43843038173964088 0 -0.2030958722774939 0.45571464818868052 0 -0.1868590329817707 0.43357197228301869 0 -0.2030958722774939 0.45571464818868052 0 -0.1868590329817707 0.43357197228301869 0 -0.21077827595677989 0.43843038173964088 0 -0.20038953475864499 0.42285930103310698 0 -0.1868590329817707 0.43357197228301869 0 -0.20038953475864499 0.42285930103310698 0 -0.18865851951403981 0.41114723081592358 0 -0.1868590329817707 0.43357197228301869 0 -0.20038953475864499 0.42285930103310698 0 -0.18865851951403981 0.41114723081592358 0 -0.20316386533702549 0.40742415296633488 0 -0.20038953475864499 0.42285930103310698 0 -0.20316386533702549 0.40742415296633488 0 -0.22016732100465239 0.41985811398850509 0 -0.20316386533702549 0.40742415296633488 0 -0.22016732100465239 0.41985811398850509 0 -0.21769018938602511 0.40540249138439582 0 -0.20316386533702549 0.40742415296633488 0 -0.22016732100465239 0.41985811398850509 0 -0.21077827595677989 0.43843038173964088 0 -0.20038953475864499 0.42285930103310698 0 -0.22016732100465239 0.41985811398850509 0 -0.22695118484456259 0.43760496865691229 0 -0.22016732100465239 0.41985811398850509 0 -0.23717077667227929 0.4322920750106754 0 -0.22695118484456259 0.43760496865691229 0 -0.21077827595677989 0.43843038173964088 0 -0.22016732100465239 0.41985811398850509 0 -0.22016732100465239 0.41985811398850509 0 -0.23358788463652869 0.41983625247023992 0 -0.23717077667227929 0.4322920750106754 0 -0.22016732100465239 0.41985811398850509 0 -0.23717077667227929 0.4322920750106754 0 -0.22016732100465239 0.41985811398850509 0 -0.23115288141678619 0.40759276862782062 0 -0.21769018938602511 0.40540249138439582 0 -0.22016732100465239 0.41985811398850509 0 -0.23115288141678619 0.40759276862782062 0 -0.23358788463652869 0.41983625247023992 0 -0.23115288141678619 0.40759276862782062 0 -0.2459368307481366 0.42042542405070832 0 -0.24448809762487089 0.40050868906775772 0 -0.23115288141678619 0.40759276862782062 0 -0.23358788463652869 0.41983625247023992 0 -0.2459368307481366 0.42042542405070832 0 -0.25382358621835049 0.43542260228310259 0 -0.2459368307481366 0.42042542405070832 0 -0.23717077667227929 0.4322920750106754 0 -0.25382358621835049 0.43542260228310259 0 -0.2387971019518931 0.44325337730036979 0 -0.23717077667227929 0.4322920750106754 0 -0.23358788463652869 0.41983625247023992 0 -0.2459368307481366 0.42042542405070832 0 -0.23717077667227929 0.4322920750106754 0 -0.26324903299479457 0.38988604216182182 0 -0.24074374520667241 0.38242687998337299 0 -0.24448809762487089 0.40050868906775772 0 -0.24074374520667241 0.38242687998337299 0 -0.24448809762487089 0.40050868906775772 0 -0.22634736018434309 0.39356380059118778 0 -0.23115288141678619 0.40759276862782062 0 -0.24448809762487089 0.40050868906775772 0 -0.22634736018434309 0.39356380059118778 0 -0.23115288141678619 0.40759276862782062 0 -0.22634736018434309 0.39356380059118778 0 -0.21769018938602511 0.40540249138439582 0 -0.24074374520667241 0.38242687998337299 0 -0.22634736018434309 0.39356380059118778 0 -0.21798062289891881 0.38062313327343511 0 -0.24074374520667241 0.38242687998337299 0 -0.21798062289891881 0.38062313327343511 0 -0.22441740966967141 0.36662202833489849 0 -0.21798062289891881 0.38062313327343511 0 -0.2053182195646632 0.38898911660535768 0 -0.20402060209966261 0.36833430411321649 0 -0.22634736018434309 0.39356380059118778 0 -0.21798062289891881 0.38062313327343511 0 -0.2053182195646632 0.38898911660535768 0 -0.22634736018434309 0.39356380059118778 0 -0.2053182195646632 0.38898911660535768 0 -0.21769018938602511 0.40540249138439582 0 -0.20316386533702549 0.40742415296633488 0 -0.2053182195646632 0.38898911660535768 0 -0.21769018938602511 0.40540249138439582 0 -0.20316386533702549 0.40742415296633488 0 -0.2053182195646632 0.38898911660535768 0 -0.18616040966939809 0.39499019194416529 0 -0.20316386533702549 0.40742415296633488 0 -0.18616040966939809 0.39499019194416529 0 -0.18865851951403981 0.41114723081592358 0 -0.20316386533702549 0.40742415296633488 0 -0.18616040966939809 0.39499019194416529 0 -0.2053182195646632 0.38898911660535768 0 -0.1927326532436788 0.38193994064591369 0 -0.18616040966939809 0.39499019194416529 0 -0.2053182195646632 0.38898911660535768 0 -0.1927326532436788 0.38193994064591369 0 -0.20402060209966261 0.36833430411321649 0 -0.1927326532436788 0.38193994064591369 0 -0.18374665136976759 0.37937871402705908 0 -0.18616040966939809 0.39499019194416529 0 -0.1744309637910503 0.37769149803556362 0 -0.1642142843906749 0.3789418502636645 0 -0.1838985270783616 0.39091510453828221 0 -0.1642142843906749 0.3789418502636645 0 -0.18616040966939809 0.39499019194416529 0 -0.1838985270783616 0.39091510453828221 0 -0.1927326532436788 0.38193994064591369 0 -0.18374665136976759 0.37937871402705908 0 -0.18362379452965399 0.37004657989153639 0 -0.18374665136976759 0.37937871402705908 0 -0.1744309637910503 0.37769149803556362 0 -0.1838985270783616 0.39091510453828221 0 -0.1642142843906749 0.3789418502636645 0 -0.18616040966939809 0.39499019194416529 0 -0.18374665136976759 0.37937871402705908 0 -0.1744309637910503 0.37769149803556362 0 -0.18362379452965399 0.37004657989153639 0 -0.18374665136976759 0.37937871402705908 0 -0.18616040966939809 0.39499019194416529 0 -0.18374665136976759 0.37937871402705908 0 -0.1838985270783616 0.39091510453828221 0 -0.18374665136976759 0.37937871402705908 0 -0.18616040966939809 0.39499019194416529 0 -0.1838985270783616 0.39091510453828221 0 -0.1642142843906749 0.3789418502636645 0 -0.1639919076143399 0.3974747808383628 0 -0.1489802686125267 0.38257497248127392 0 -0.1642142843906749 0.3789418502636645 0 -0.1639919076143399 0.3974747808383628 0 -0.18616040966939809 0.39499019194416529 0 -0.1744309637910503 0.37769149803556362 0 -0.1642142843906749 0.3789418502636645 0 -0.15874130784498061 0.37213542046662212 0 -0.1639919076143399 0.3974747808383628 0 -0.17750104491285451 0.40432040146684922 0 -0.17119334285363949 0.41366940226894577 0 -0.18865851951403981 0.41114723081592358 0 -0.18616040966939809 0.39499019194416529 0 -0.18865851951403981 0.41114723081592358 0 -0.17750104491285451 0.40432040146684922 0 -0.18616040966939809 0.39499019194416529 0 -0.1639919076143399 0.3974747808383628 0 -0.17750104491285451 0.40432040146684922 0 -0.18616040966939809 0.39499019194416529 0 -0.18865851951403981 0.41114723081592358 0 -0.17750104491285451 0.40432040146684922 0 -0.17119334285363949 0.41366940226894577 0 -0.18865851951403981 0.41114723081592358 0 -0.17459283461559361 0.42601523789076512 0 -0.17119334285363949 0.41366940226894577 0 -0.18865851951403981 0.41114723081592358 0 -0.1868590329817707 0.43357197228301869 0 -0.17459283461559361 0.42601523789076512 0 -0.1740586998674569 0.43899754936367941 0 -0.1868590329817707 0.43357197228301869 0 -0.17459283461559361 0.42601523789076512 0 -0.1740586998674569 0.43899754936367941 0 -0.17459283461559361 0.42601523789076512 0 -0.1659354897241099 0.43449929542802312 0 -0.17459283461559361 0.42601523789076512 0 -0.1659354897241099 0.43449929542802312 0 -0.16085192275254509 0.42420597718500008 0 -0.1659354897241099 0.43449929542802312 0 -0.16085192275254509 0.42420597718500008 0 -0.15486041744653839 0.43233395996053492 0 -0.1639919076143399 0.3974747808383628 0 -0.17119334285363949 0.41366940226894577 0 -0.1558060921739825 0.41026488178479492 0 -0.17459283461559361 0.42601523789076512 0 -0.16085192275254509 0.42420597718500008 0 -0.17119334285363949 0.41366940226894577 0 -0.16085192275254509 0.42420597718500008 0 -0.17119334285363949 0.41366940226894577 0 -0.1558060921739825 0.41026488178479492 0 -0.1558060921739825 0.41026488178479492 0 -0.1418117271851779 0.41525834053060801 0 -0.14204426798620681 0.39509073288381358 0 -0.16085192275254509 0.42420597718500008 0 -0.1558060921739825 0.41026488178479492 0 -0.1418117271851779 0.41525834053060801 0 -0.1418117271851779 0.41525834053060801 0 -0.14157918638415079 0.43542594817740249 0 -0.16085192275254509 0.42420597718500008 0 -0.1418117271851779 0.41525834053060801 0 -0.15486041744653839 0.43233395996053492 0 -0.1418117271851779 0.41525834053060801 0 -0.15486041744653839 0.43233395996053492 0 -0.14157918638415079 0.43542594817740249 0 -0.14155443830058789 0.43757227964732542 0 -0.14157918638415079 0.43542594817740249 0 -0.14155443830058789 0.43757227964732542 0 -0.14157918638415079 0.43542594817740249 0 -0.12025274126089 0.42574105579372712 0 -0.14155443830058789 0.43757227964732542 0 -0.1161249595423428 0.42742254588607831 0 -0.14157918638415079 0.43542594817740249 0 -0.12025274126089 0.42574105579372712 0 -0.1418117271851779 0.41525834053060801 0 -0.14157918638415079 0.43542594817740249 0 -0.12025274126089 0.42574105579372712 0 -0.14155443830058789 0.43757227964732542 0 -0.12025274126089 0.42574105579372712 0 -0.1161249595423428 0.42742254588607831 0 -0.12509104342100061 0.44188941827772182 0 -0.14155443830058789 0.43757227964732542 0 -0.1161249595423428 0.42742254588607831 0 -0.1418117271851779 0.41525834053060801 0 -0.1277268958593005 0.40709158096490278 0 -0.12025274126089 0.42574105579372712 0 -0.1418117271851779 0.41525834053060801 0 -0.1277268958593005 0.40709158096490278 0 -0.14204426798620681 0.39509073288381358 0 -0.1277268958593005 0.40709158096490278 0 -0.14204426798620681 0.39509073288381358 0 -0.1224972888069677 0.39405447109156733 0 -0.13238272395945991 0.37847398983736519 0 -0.1224972888069677 0.39405447109156733 0 -0.13238272395945991 0.37847398983736519 0 -0.14204426798620681 0.39509073288381358 0 -0.1224972888069677 0.39405447109156733 0 -0.13238272395945991 0.37847398983736519 0 -0.1489802686125267 0.38257497248127392 0 -0.14204426798620681 0.39509073288381358 0 -0.1639919076143399 0.3974747808383628 0 -0.1558060921739825 0.41026488178479492 0 -0.14204426798620681 0.39509073288381358 0 -0.1639919076143399 0.3974747808383628 0 -0.1489802686125267 0.38257497248127392 0 -0.14204426798620681 0.39509073288381358 0 -0.1418117271851779 0.41525834053060801 0 -0.14204426798620681 0.39509073288381358 0 -0.15552397359905151 0.35856797270850038 0 -0.1422681591119519 0.36289350858316322 0 -0.15574239997404821 0.34165669361972989 0 -0.1422681591119519 0.36289350858316322 0 -0.15574239997404821 0.34165669361972989 0 -0.13774544015442541 0.3595862213862932 0 -0.1344905665345571 0.34689990383467079 0 -0.15574239997404821 0.34165669361972989 0 -0.1422681591119519 0.36289350858316322 0 -0.13774544015442541 0.3595862213862932 0 -0.15574239997404821 0.34165669361972989 0 -0.1642142843906749 0.3789418502636645 0 -0.1422681591119519 0.36289350858316322 0 -0.13238272395945991 0.37847398983736519 0 -0.1489802686125267 0.38257497248127392 0 -0.1422681591119519 0.36289350858316322 0 -0.1642142843906749 0.3789418502636645 0 -0.1422681591119519 0.36289350858316322 0 -0.15874130784498061 0.37213542046662212 0 -0.1642142843906749 0.3789418502636645 0 -0.1489802686125267 0.38257497248127392 0 -0.1422681591119519 0.36289350858316322 0 -0.15552397359905151 0.35856797270850038 0 -0.1422681591119519 0.36289350858316322 0 -0.15874130784498061 0.37213542046662212 0 -0.1422681591119519 0.36289350858316322 0 -0.13774544015442541 0.3595862213862932 0 -0.12881796099468981 0.36725667352730101 0 -0.13238272395945991 0.37847398983736519 0 -0.12881796099468981 0.36725667352730101 0 -0.114951385737499 0.37611001703161828 0 -0.1422681591119519 0.36289350858316322 0 -0.13774544015442541 0.3595862213862932 0 -0.13238272395945991 0.37847398983736519 0 -0.1422681591119519 0.36289350858316322 0 -0.13238272395945991 0.37847398983736519 0 -0.1422681591119519 0.36289350858316322 0 -0.12881796099468981 0.36725667352730101 0 -0.13774544015442541 0.3595862213862932 0 -0.12881796099468981 0.36725667352730101 0 -0.13085154266849261 0.35745626259395852 0 -0.12881796099468981 0.36725667352730101 0 -0.13085154266849261 0.35745626259395852 0 -0.1223522029902982 0.35608225162756879 0 -0.13085154266849261 0.35745626259395852 0 -0.1344905665345571 0.34689990383467079 0 -0.1223522029902982 0.35608225162756879 0 -0.1344905665345571 0.34689990383467079 0 -0.1215793900664241 0.33965542352680428 0 -0.1223522029902982 0.35608225162756879 0 -0.13774544015442541 0.3595862213862932 0 -0.13085154266849261 0.35745626259395852 0 -0.1344905665345571 0.34689990383467079 0 -0.13871584827508379 0.32805163350527011 0 -0.1213981112161233 0.32606083512094008 0 -0.1215793900664241 0.33965542352680428 0 -0.1344905665345571 0.34689990383467079 0 -0.13871584827508379 0.32805163350527011 0 -0.1215793900664241 0.33965542352680428 0 -0.13871584827508379 0.32805163350527011 0 -0.122665507124936 0.30739316482981133 0 -0.1213981112161233 0.32606083512094008 0 -0.13871584827508379 0.32805163350527011 0 -0.1433184724342442 0.30536206331891741 0 -0.122665507124936 0.30739316482981133 0 -0.13871584827508379 0.32805163350527011 0 -0.1692166408361446 0.32041987865629651 0 -0.1433184724342442 0.30536206331891741 0 -0.1344905665345571 0.34689990383467079 0 -0.13871584827508379 0.32805163350527011 0 -0.15574239997404821 0.34165669361972989 0 -0.13871584827508379 0.32805163350527011 0 -0.15574239997404821 0.34165669361972989 0 -0.1692166408361446 0.32041987865629651 0 -0.15574239997404821 0.34165669361972989 0 -0.16882657531294051 0.33343050367394028 0 -0.16727942812343491 0.34541839291957183 0 -0.16882657531294051 0.33343050367394028 0 -0.1740652221397718 0.31676208059972089 0 -0.17253785706623809 0.33742704001517521 0 -0.15574239997404821 0.34165669361972989 0 -0.1692166408361446 0.32041987865629651 0 -0.15574239997404821 0.34165669361972989 0 -0.16882657531294051 0.33343050367394028 0 -0.1692166408361446 0.32041987865629651 0 -0.17253785706623809 0.33742704001517521 0 -0.17248005025835489 0.34536210115862542 0 -0.16727942812343491 0.34541839291957183 0 -0.16882657531294051 0.33343050367394028 0 -0.17253785706623809 0.33742704001517521 0 -0.16727942812343491 0.34541839291957183 0 -0.16882657531294051 0.33343050367394028 0 -0.1692166408361446 0.32041987865629651 0 -0.1740652221397718 0.31676208059972089 0 -0.18300185264204469 0.32280423575908729 0 -0.1740652221397718 0.31676208059972089 0 -0.17819295282042311 0.34345902717413063 0 -0.18300185264204469 0.32280423575908729 0 -0.1740652221397718 0.31676208059972089 0 -0.18269088169824049 0.29918306369286279 0 -0.18300185264204469 0.32280423575908729 0 -0.17819295282042311 0.34345902717413063 0 -0.18331282358584941 0.34642540782531189 0 -0.1740652221397718 0.31676208059972089 0 -0.17819295282042311 0.34345902717413063 0 -0.1740652221397718 0.31676208059972089 0 -0.17253785706623809 0.33742704001517521 0 -0.17819295282042311 0.34345902717413063 0 -0.18300185264204469 0.32280423575908729 0 -0.18331282358584941 0.34642540782531189 0 -0.17253785706623809 0.33742704001517521 0 -0.17819295282042311 0.34345902717413063 0 -0.17248005025835489 0.34536210115862542 0 -0.17819295282042311 0.34345902717413063 0 -0.17266476351591969 0.35237730914779941 0 -0.18362379452965399 0.37004657989153639 0 -0.17819295282042311 0.34345902717413063 0 -0.18331282358584941 0.34642540782531189 0 -0.18362379452965399 0.37004657989153639 0 -0.17819295282042311 0.34345902717413063 0 -0.18362379452965399 0.37004657989153639 0 -0.18331282358584941 0.34642540782531189 0 -0.18362379452965399 0.37004657989153639 0 -0.19396205315185269 0.35773027909378607 0 -0.18331282358584941 0.34642540782531189 0 -0.18362379452965399 0.37004657989153639 0 -0.17819295282042311 0.34345902717413063 0 -0.17266476351591969 0.35237730914779941 0 -0.17248005025835489 0.34536210115862542 0 -0.17266476351591969 0.35237730914779941 0 -0.16727942812343491 0.34541839291957183 0 -0.16404697378228 0.35342911006401911 0 -0.15552397359905151 0.35856797270850038 0 -0.15574239997404821 0.34165669361972989 0 -0.16404697378228 0.35342911006401911 0 -0.17266476351591969 0.35237730914779941 0 -0.17248005025835489 0.34536210115862542 0 -0.16727942812343491 0.34541839291957183 0 -0.17266476351591969 0.35237730914779941 0 -0.1697011683865553 0.35883091161224728 0 -0.16404697378228 0.35342911006401911 0 -0.1697011683865553 0.35883091161224728 0 -0.16404697378228 0.35342911006401911 0 -0.1633701090946704 0.36372338037626623 0 -0.15552397359905151 0.35856797270850038 0 -0.16404697378228 0.35342911006401911 0 -0.1633701090946704 0.36372338037626623 0 -0.15574239997404821 0.34165669361972989 0 -0.16727942812343491 0.34541839291957183 0 -0.16404697378228 0.35342911006401911 0 -0.15874130784498061 0.37213542046662212 0 -0.18362379452965399 0.37004657989153639 0 -0.15874130784498061 0.37213542046662212 0 -0.1633701090946704 0.36372338037626623 0 -0.18362379452965399 0.37004657989153639 0 -0.15552397359905151 0.35856797270850038 0 -0.15874130784498061 0.37213542046662212 0 -0.1633701090946704 0.36372338037626623 0 -0.17266476351591969 0.35237730914779941 0 -0.1697011683865553 0.35883091161224728 0 -0.18362379452965399 0.37004657989153639 0 -0.1697011683865553 0.35883091161224728 0 -0.1633701090946704 0.36372338037626623 0 -0.18362379452965399 0.37004657989153639 0 -0.1744309637910503 0.37769149803556362 0 -0.15874130784498061 0.37213542046662212 0 -0.18362379452965399 0.37004657989153639 0 -0.18374665136976759 0.37937871402705908 0 -0.18362379452965399 0.37004657989153639 0 -0.1927326532436788 0.38193994064591369 0 -0.18362379452965399 0.37004657989153639 0 -0.20402060209966261 0.36833430411321649 0 -0.18362379452965399 0.37004657989153639 0 -0.20402060209966261 0.36833430411321649 0 -0.18362379452965399 0.37004657989153639 0 -0.19396205315185269 0.35773027909378607 0 -0.20402060209966261 0.36833430411321649 0 -0.19396205315185269 0.35773027909378607 0 -0.208999317395312 0.3446492875548014 0 -0.20402060209966261 0.36833430411321649 0 -0.18331282358584941 0.34642540782531189 0 -0.19396205315185269 0.35773027909378607 0 -0.208999317395312 0.3446492875548014 0 -0.208999317395312 0.3446492875548014 0 -0.20402060209966261 0.36833430411321649 0 -0.22441740966967141 0.36662202833489849 0 -0.20402060209966261 0.36833430411321649 0 -0.22441740966967141 0.36662202833489849 0 -0.21798062289891881 0.38062313327343511 0 -0.20402060209966261 0.36833430411321649 0 -0.22441740966967141 0.36662202833489849 0 -0.208999317395312 0.3446492875548014 0 -0.23479591562654789 0.35148704487088239 0 -0.2313273246892763 0.33558392302215828 0 -0.208999317395312 0.3446492875548014 0 -0.22441740966967141 0.36662202833489849 0 -0.23479591562654789 0.35148704487088239 0 -0.25002058798003007 0.3320526588471332 0 -0.26243222306204511 0.35090504016953772 0 -0.23479591562654789 0.35148704487088239 0 -0.26243222306204511 0.35090504016953772 0 -0.23479591562654789 0.35148704487088239 0 -0.24481421723968019 0.36490975255658048 0 -0.22441740966967141 0.36662202833489849 0 -0.24481421723968019 0.36490975255658048 0 -0.24074374520667241 0.38242687998337299 0 -0.22441740966967141 0.36662202833489849 0 -0.24481421723968019 0.36490975255658048 0 -0.22441740966967141 0.36662202833489849 0 -0.23479591562654789 0.35148704487088239 0 -0.24481421723968019 0.36490975255658048 0 -0.25717133997193298 0.37426095615225607 0 -0.24074374520667241 0.38242687998337299 0 -0.24481421723968019 0.36490975255658048 0 -0.25616918259472732 0.30236015827283808 0 -0.25002058798003007 0.3320526588471332 0 -0.23403114015321011 0.31709209002172778 0 -0.25002058798003007 0.3320526588471332 0 -0.23479591562654789 0.35148704487088239 0 -0.2313273246892763 0.33558392302215828 0 -0.25002058798003007 0.3320526588471332 0 -0.2313273246892763 0.33558392302215828 0 -0.23403114015321011 0.31709209002172778 0 -0.208999317395312 0.3446492875548014 0 -0.2313273246892763 0.33558392302215828 0 -0.21850591254547599 0.32628872173457818 0 -0.23403114015321011 0.31709209002172778 0 -0.21850591254547599 0.32628872173457818 0 -0.21603293622121081 0.30879617143541382 0 -0.2313273246892763 0.33558392302215828 0 -0.23403114015321011 0.31709209002172778 0 -0.21850591254547599 0.32628872173457818 0 -0.21850591254547599 0.32628872173457818 0 -0.20213884426837089 0.32532213663878978 0 -0.21603293622121081 0.30879617143541382 0 -0.20213884426837089 0.32532213663878978 0 -0.19725183072938909 0.30509230858372249 0 -0.21603293622121081 0.30879617143541382 0 -0.208999317395312 0.3446492875548014 0 -0.21850591254547599 0.32628872173457818 0 -0.20213884426837089 0.32532213663878978 0 -0.18331282358584941 0.34642540782531189 0 -0.208999317395312 0.3446492875548014 0 -0.20213884426837089 0.32532213663878978 0 -0.18300185264204469 0.32280423575908729 0 -0.18331282358584941 0.34642540782531189 0 -0.20213884426837089 0.32532213663878978 0 -0.18300185264204469 0.32280423575908729 0 -0.20213884426837089 0.32532213663878978 0 -0.19725183072938909 0.30509230858372249 0 -0.19725183072938909 0.30509230858372249 0 -0.1906964717749009 0.28656541518329992 0 -0.18269088169824049 0.29918306369286279 0 -0.18300185264204469 0.32280423575908729 0 -0.19725183072938909 0.30509230858372249 0 -0.18269088169824049 0.29918306369286279 0 -0.19725183072938909 0.30509230858372249 0 -0.1906964717749009 0.28656541518329992 0 -0.20894999777156681 0.28788282879288141 0 -0.1906964717749009 0.28656541518329992 0 -0.20894999777156681 0.28788282879288141 0 -0.19560748054403571 0.27391850694798181 0 -0.19725183072938909 0.30509230858372249 0 -0.20894999777156681 0.28788282879288141 0 -0.21603293622121081 0.30879617143541382 0 -0.20894999777156681 0.28788282879288141 0 -0.21603293622121081 0.30879617143541382 0 -0.23010937568771669 0.29589673977315029 0 -0.23403114015321011 0.31709209002172778 0 -0.21603293622121081 0.30879617143541382 0 -0.23010937568771669 0.29589673977315029 0 -0.20894999777156681 0.28788282879288141 0 -0.23010937568771669 0.29589673977315029 0 -0.2234747025956966 0.27824585991597089 0 -0.23010937568771669 0.29589673977315029 0 -0.24190471242523851 0.27972751922608308 0 -0.2234747025956966 0.27824585991597089 0 -0.25616918259472732 0.30236015827283808 0 -0.24190471242523851 0.27972751922608308 0 -0.25616918259472732 0.30236015827283808 0 -0.23010937568771669 0.29589673977315029 0 -0.24190471242523851 0.27972751922608308 0 -0.25616918259472732 0.30236015827283808 0 -0.23403114015321011 0.31709209002172778 0 -0.23010937568771669 0.29589673977315029 0 -0.24943129659764751 0.26000894523212309 0 -0.24190471242523851 0.27972751922608308 0 -0.22764024225575111 0.25709488017932702 0 -0.22764024225575111 0.25709488017932702 0 -0.2468893326351202 0.24329134098969171 0 -0.24943129659764751 0.26000894523212309 0 -0.22764024225575111 0.25709488017932702 0 -0.2468893326351202 0.24329134098969171 0 -0.24190471242523851 0.27972751922608308 0 -0.22764024225575111 0.25709488017932702 0 -0.24190471242523851 0.27972751922608308 0 -0.2234747025956966 0.27824585991597089 0 -0.22764024225575111 0.25709488017932702 0 -0.2234747025956966 0.27824585991597089 0 -0.22764024225575111 0.25709488017932702 0 -0.20876918483820989 0.27062733160841262 0 -0.22764024225575111 0.25709488017932702 0 -0.21239874098331929 0.25437807278244762 0 -0.20876918483820989 0.27062733160841262 0 -0.22764024225575111 0.25709488017932702 0 -0.20876918483820989 0.27062733160841262 0 -0.21239874098331929 0.25437807278244762 0 -0.20876918483820989 0.27062733160841262 0 -0.2025020270240801 0.26019521754276942 0 -0.21239874098331929 0.25437807278244762 0 -0.2025020270240801 0.26019521754276942 0 -0.2046840695697589 0.2451395929661444 0 -0.20894999777156681 0.28788282879288141 0 -0.2234747025956966 0.27824585991597089 0 -0.20876918483820989 0.27062733160841262 0 -0.20894999777156681 0.28788282879288141 0 -0.20876918483820989 0.27062733160841262 0 -0.19560748054403571 0.27391850694798181 0 -0.19560748054403571 0.27391850694798181 0 -0.18940688912330481 0.25610334311205268 0 -0.18232207730982461 0.27116889680334472 0 -0.20876918483820989 0.27062733160841262 0 -0.19560748054403571 0.27391850694798181 0 -0.2025020270240801 0.26019521754276942 0 -0.1906964717749009 0.28656541518329992 0 -0.19560748054403571 0.27391850694798181 0 -0.18232207730982461 0.27116889680334472 0 -0.19560748054403571 0.27391850694798181 0 -0.2025020270240801 0.26019521754276942 0 -0.18940688912330481 0.25610334311205268 0 -0.2025020270240801 0.26019521754276942 0 -0.18940688912330481 0.25610334311205268 0 -0.2046840695697589 0.2451395929661444 0 -0.18940688912330481 0.25610334311205268 0 -0.17508206900779469 0.25918785244088571 0 -0.18195408303730121 0.23534357450296481 0 -0.18940688912330481 0.25610334311205268 0 -0.17508206900779469 0.25918785244088571 0 -0.18232207730982461 0.27116889680334472 0 -0.16225317791305921 0.25358582624422438 0 -0.1601147340924314 0.27132493958040771 0 -0.14746997276257359 0.25293699741112718 0 -0.17508206900779469 0.25918785244088571 0 -0.16225317791305921 0.25358582624422438 0 -0.1601147340924314 0.27132493958040771 0 -0.1601147340924314 0.27132493958040771 0 -0.18232207730982461 0.27116889680334472 0 -0.1715163911286523 0.28419500503467149 0 -0.17508206900779469 0.25918785244088571 0 -0.1601147340924314 0.27132493958040771 0 -0.18232207730982461 0.27116889680334472 0 -0.1906964717749009 0.28656541518329992 0 -0.18232207730982461 0.27116889680334472 0 -0.18269088169824049 0.29918306369286279 0 -0.18232207730982461 0.27116889680334472 0 -0.18269088169824049 0.29918306369286279 0 -0.1715163911286523 0.28419500503467149 0 -0.18232207730982461 0.27116889680334472 0 -0.18269088169824049 0.29918306369286279 0 -0.1906964717749009 0.28656541518329992 0 -0.18269088169824049 0.29918306369286279 0 -0.18300185264204469 0.32280423575908729 0 -0.18269088169824049 0.29918306369286279 0 -0.1692166408361446 0.32041987865629651 0 -0.18269088169824049 0.29918306369286279 0 -0.1692166408361446 0.32041987865629651 0 -0.1740652221397718 0.31676208059972089 0 -0.18269088169824049 0.29918306369286279 0 -0.1692166408361446 0.32041987865629651 0 -0.16093787141411231 0.2951031200620709 0 -0.1433184724342442 0.30536206331891741 0 -0.1692166408361446 0.32041987865629651 0 -0.18269088169824049 0.29918306369286279 0 -0.16093787141411231 0.2951031200620709 0 -0.18269088169824049 0.29918306369286279 0 -0.1715163911286523 0.28419500503467149 0 -0.16093787141411231 0.2951031200620709 0 -0.1601147340924314 0.27132493958040771 0 -0.1715163911286523 0.28419500503467149 0 -0.16093787141411231 0.2951031200620709 0 -0.1601147340924314 0.27132493958040771 0 -0.16093787141411231 0.2951031200620709 0 -0.140940242444347 0.28770890845956881 0 -0.16093787141411231 0.2951031200620709 0 -0.140940242444347 0.28770890845956881 0 -0.16093787141411231 0.2951031200620709 0 -0.140940242444347 0.28770890845956881 0 -0.1433184724342442 0.30536206331891741 0 -0.1433184724342442 0.30536206331891741 0 -0.12743472451084159 0.29349567440048657 0 -0.122665507124936 0.30739316482981133 0 -0.140940242444347 0.28770890845956881 0 -0.1433184724342442 0.30536206331891741 0 -0.12743472451084159 0.29349567440048657 0 -0.140940242444347 0.28770890845956881 0 -0.1209426134745812 0.28031469685706822 0 -0.140940242444347 0.28770890845956881 0 -0.12743472451084159 0.29349567440048657 0 -0.1209426134745812 0.28031469685706822 0 -0.140940242444347 0.28770890845956881 0 -0.12748957136376979 0.2697364722205553 0 -0.1209426134745812 0.28031469685706822 0 -0.140940242444347 0.28770890845956881 0 -0.1385418352730507 0.26582091200169278 0 -0.12748957136376979 0.2697364722205553 0 -0.1385418352730507 0.26582091200169278 0 -0.1252623291810667 0.25912953992318971 0 -0.13357218109292621 0.2499317644564327 0 -0.1385418352730507 0.26582091200169278 0 -0.14746997276257359 0.25293699741112718 0 -0.13357218109292621 0.2499317644564327 0 -0.1385418352730507 0.26582091200169278 0 -0.12748957136376979 0.2697364722205553 0 -0.1252623291810667 0.25912953992318971 0 -0.1252623291810667 0.25912953992318971 0 -0.13357218109292621 0.2499317644564327 0 -0.1213089330464012 0.24626659804535689 0 -0.1601147340924314 0.27132493958040771 0 -0.1385418352730507 0.26582091200169278 0 -0.14746997276257359 0.25293699741112718 0 -0.1601147340924314 0.27132493958040771 0 -0.140940242444347 0.28770890845956881 0 -0.1385418352730507 0.26582091200169278 0 -0.095230237001734636 0.27080743213428882 0 -0.101831548476812 0.26048951589785008 0 -0.1165241005361865 0.26558405137515151 0 -0.095230237001734636 0.27080743213428882 0 -0.1209426134745812 0.28031469685706822 0 -0.095230237001734636 0.27080743213428882 0 -0.101831548476812 0.26048951589785008 0 -0.101831548476812 0.26048951589785008 0 -0.112097455783086 0.24444379951602521 0 -0.096974545082976191 0.25880538532589209 0 -0.101831548476812 0.26048951589785008 0 -0.112097455783086 0.24444379951602521 0 -0.095230237001734636 0.27080743213428882 0 -0.096974545082976191 0.25880538532589209 0 -0.101831548476812 0.26048951589785008 0 -0.096974545082976191 0.25880538532589209 0 -0.101831548476812 0.26048951589785008 0 -0.101831548476812 0.26048951589785008 0 -0.1165241005361865 0.26558405137515151 0 -0.101831548476812 0.26048951589785008 0 -0.11521273165378559 0.25497892835963998 0 -0.112097455783086 0.24444379951602521 0 -0.101831548476812 0.26048951589785008 0 -0.1165241005361865 0.26558405137515151 0 -0.11521273165378559 0.25497892835963998 0 -0.1252623291810667 0.25912953992318971 0 -0.11521273165378559 0.25497892835963998 0 -0.1213089330464012 0.24626659804535689 0 -0.12748957136376979 0.2697364722205553 0 -0.1252623291810667 0.25912953992318971 0 -0.1165241005361865 0.26558405137515151 0 -0.1252623291810667 0.25912953992318971 0 -0.1165241005361865 0.26558405137515151 0 -0.11521273165378559 0.25497892835963998 0 -0.12748957136376979 0.2697364722205553 0 -0.1165241005361865 0.26558405137515151 0 -0.11826192468166601 0.27279143104315778 0 -0.095230237001734636 0.27080743213428882 0 -0.1165241005361865 0.26558405137515151 0 -0.11826192468166601 0.27279143104315778 0 -0.095230237001734636 0.27080743213428882 0 -0.11826192468166601 0.27279143104315778 0 -0.1209426134745812 0.28031469685706822 0 -0.12748957136376979 0.2697364722205553 0 -0.11826192468166601 0.27279143104315778 0 -0.1209426134745812 0.28031469685706822 0 -0.1209426134745812 0.28031469685706822 0 -0.099156256926613839 0.29556062278638268 0 -0.12743472451084159 0.29349567440048657 0 -0.1209426134745812 0.28031469685706822 0 -0.099156256926613839 0.29556062278638268 0 -0.12743472451084159 0.29349567440048657 0 -0.122665507124936 0.30739316482981133 0 -0.099156256926613839 0.29556062278638268 0 -0.1041414057358224 0.31201579539373148 0 -0.099156256926613839 0.29556062278638268 0 -0.091673901452025128 0.31746800270450398 0 -0.122665507124936 0.30739316482981133 0 -0.1041414057358224 0.31201579539373148 0 -0.099156256926613839 0.29556062278638268 0 -0.095230237001734636 0.27080743213428882 0 -0.1209426134745812 0.28031469685706822 0 -0.099156256926613839 0.29556062278638268 0 -0.081993310338176556 0.29149688165626692 0 -0.071574905525993715 0.28647654560898889 0 -0.088307373389434785 0.26824767274871397 0 -0.095230237001734636 0.27080743213428882 0 -0.099156256926613839 0.29556062278638268 0 -0.081993310338176556 0.29149688165626692 0 -0.099156256926613839 0.29556062278638268 0 -0.0773699003786468 0.31080654871569757 0 -0.091673901452025128 0.31746800270450398 0 -0.099156256926613839 0.29556062278638268 0 -0.0773699003786468 0.31080654871569757 0 -0.081993310338176556 0.29149688165626692 0 -0.0773699003786468 0.31080654871569757 0 -0.099156256926613839 0.29556062278638268 0 -0.081993310338176556 0.29149688165626692 0 -0.0773699003786468 0.31080654871569757 0 -0.081993310338176556 0.29149688165626692 0 -0.0773699003786468 0.31080654871569757 0 -0.07000108740115632 0.31024084673351238 0 -0.081993310338176556 0.29149688165626692 0 -0.07000108740115632 0.31024084673351238 0 -0.07082691849754412 0.29686868922251758 0 -0.081993310338176556 0.29149688165626692 0 -0.07000108740115632 0.31024084673351238 0 -0.06406362287003417 0.30105685935529619 0 -0.07000108740115632 0.31024084673351238 0 -0.07082691849754412 0.29686868922251758 0 -0.06406362287003417 0.30105685935529619 0 -0.07000108740115632 0.31024084673351238 0 -0.05903493703298672 0.30842013861035528 0 -0.081993310338176556 0.29149688165626692 0 -0.071574905525993715 0.28647654560898889 0 -0.07082691849754412 0.29686868922251758 0 -0.071574905525993715 0.28647654560898889 0 -0.07082691849754412 0.29686868922251758 0 -0.064150197611200194 0.29028153745804169 0 -0.06406362287003417 0.30105685935529619 0 -0.07082691849754412 0.29686868922251758 0 -0.064150197611200194 0.29028153745804169 0 -0.071574905525993715 0.28647654560898889 0 -0.064150197611200194 0.29028153745804169 0 -0.066272470786091969 0.27951596978905408 0 -0.066272470786091969 0.27951596978905408 0 -0.064867048676514966 0.26815492676469338 0 -0.075116873927680253 0.27479103085629453 0 -0.066272470786091969 0.27951596978905408 0 -0.064867048676514966 0.26815492676469338 0 -0.056753075498150757 0.28085207326825551 0 -0.064867048676514966 0.26815492676469338 0 -0.075116873927680253 0.27479103085629453 0 -0.074399806026204385 0.26466482186588819 0 -0.075116873927680253 0.27479103085629453 0 -0.079975847673146208 0.26885948770409202 0 -0.074399806026204385 0.26466482186588819 0 -0.071574905525993715 0.28647654560898889 0 -0.066272470786091969 0.27951596978905408 0 -0.075116873927680253 0.27479103085629453 0 -0.095230237001734636 0.27080743213428882 0 -0.081993310338176556 0.29149688165626692 0 -0.095230237001734636 0.27080743213428882 0 -0.081993310338176556 0.29149688165626692 0 -0.088307373389434785 0.26824767274871397 0 -0.071574905525993715 0.28647654560898889 0 -0.088307373389434785 0.26824767274871397 0 -0.071574905525993715 0.28647654560898889 0 -0.075116873927680253 0.27479103085629453 0 -0.088307373389434785 0.26824767274871397 0 -0.079975847673146208 0.26885948770409202 0 -0.084329260359261832 0.26677674789216088 0 -0.074399806026204385 0.26466482186588819 0 -0.075116873927680253 0.27479103085629453 0 -0.079975847673146208 0.26885948770409202 0 -0.088307373389434785 0.26824767274871397 0 -0.079975847673146208 0.26885948770409202 0 -0.084329260359261832 0.26677674789216088 0 -0.088307373389434785 0.26824767274871397 0 -0.095230237001734636 0.27080743213428882 0 -0.096974545082976191 0.25880538532589209 0 -0.088307373389434785 0.26824767274871397 0 -0.084329260359261832 0.26677674789216088 0 -0.088307373389434785 0.26824767274871397 0 -0.095230237001734636 0.27080743213428882 0 -0.088307373389434785 0.26824767274871397 0 -0.096974545082976191 0.25880538532589209 0 -0.073553522625709841 0.25068431627396631 0 -0.088715331182393942 0.2449718195011524 0 -0.096974545082976191 0.25880538532589209 0 -0.084329260359261832 0.26677674789216088 0 -0.073553522625709841 0.25068431627396631 0 -0.096974545082976191 0.25880538532589209 0 -0.073553522625709841 0.25068431627396631 0 -0.096974545082976191 0.25880538532589209 0 -0.088307373389434785 0.26824767274871397 0 -0.096974545082976191 0.25880538532589209 0 -0.084329260359261832 0.26677674789216088 0 -0.088307373389434785 0.26824767274871397 0 -0.084329260359261832 0.26677674789216088 0 -0.073553522625709841 0.25068431627396631 0 -0.074399806026204385 0.26466482186588819 0 -0.064867048676514966 0.26815492676469338 0 -0.073553522625709841 0.25068431627396631 0 -0.050450936449665702 0.26047062327699849 0 -0.064867048676514966 0.26815492676469338 0 -0.073553522625709841 0.25068431627396631 0 -0.074399806026204385 0.26466482186588819 0 -0.073553522625709841 0.25068431627396631 0 -0.050450936449665702 0.26047062327699849 0 -0.050132500168443887 0.2425632472220397 0 -0.064867048676514966 0.26815492676469338 0 -0.050450936449665702 0.26047062327699849 0 -0.056753075498150757 0.28085207326825551 0 -0.050450936449665702 0.26047062327699849 0 -0.056753075498150757 0.28085207326825551 0 -0.041567118232982071 0.28155035039042642 0 -0.050450936449665702 0.26047062327699849 0 -0.032664289439585513 0.26886008103247921 0 -0.041567118232982071 0.28155035039042642 0 -0.032664289439585513 0.26886008103247921 0 -0.025724023578003428 0.28484302527062832 0 -0.041567118232982071 0.28155035039042642 0 -0.050450936449665702 0.26047062327699849 0 -0.032664289439585513 0.26886008103247921 0 -0.029881977245259539 0.25372898958001938 0 -0.050450936449665702 0.26047062327699849 0 -0.029881977245259539 0.25372898958001938 0 -0.050132500168443887 0.2425632472220397 0 -0.029881977245259539 0.25372898958001938 0 -0.019473314891880141 0.26767922737850353 0 -0.0082457657602449386 0.25246627485226031 0 -0.032664289439585513 0.26886008103247921 0 -0.029881977245259539 0.25372898958001938 0 -0.019473314891880141 0.26767922737850353 0 -0.019473314891880141 0.26767922737850353 0 -0.0042610585373493576 0.2771562680236046 0 -0.025724023578003428 0.28484302527062832 0 -0.032664289439585513 0.26886008103247921 0 -0.019473314891880141 0.26767922737850353 0 -0.025724023578003428 0.28484302527062832 0 -0.019473314891880141 0.26767922737850353 0 -0.0042610585373493576 0.2771562680236046 0 -0.0082457657602449386 0.25246627485226031 0 -0.0042610585373493576 0.2771562680236046 0 -0.0082457657602449386 0.25246627485226031 0 0.0071094060709509964 0.26564087220093879 0 -0.0069555348311276686 0.31079851600377723 0 -0.00058836015198596755 0.32088344941533808 0 0.0054341821912287152 0.30403492879740468 0 -0.013098506886936411 0.29875518722530359 0 -0.0069555348311276686 0.31079851600377723 0 0.0054341821912287152 0.30403492879740468 0 -0.013098506886936411 0.29875518722530359 0 -0.0069555348311276686 0.31079851600377723 0 -0.020687787070248039 0.31403805852116051 0 -0.0042610585373493576 0.2771562680236046 0 -0.013098506886936411 0.29875518722530359 0 -0.025724023578003428 0.28484302527062832 0 -0.0042610585373493576 0.2771562680236046 0 -0.013098506886936411 0.29875518722530359 0 0.0054341821912287152 0.30403492879740468 0 -0.013098506886936411 0.29875518722530359 0 -0.025724023578003428 0.28484302527062832 0 -0.02904570801181227 0.30414560716861699 0 -0.013098506886936411 0.29875518722530359 0 -0.02904570801181227 0.30414560716861699 0 -0.020687787070248039 0.31403805852116051 0 -0.02904570801181227 0.30414560716861699 0 -0.034308890996313193 0.31619803717231232 0 -0.020687787070248039 0.31403805852116051 0 -0.02904570801181227 0.30414560716861699 0 -0.04581664775108537 0.30961879620062571 0 -0.039958169045478269 0.29575445567546388 0 -0.02904570801181227 0.30414560716861699 0 -0.04581664775108537 0.30961879620062571 0 -0.034308890996313193 0.31619803717231232 0 -0.025724023578003428 0.28484302527062832 0 -0.02904570801181227 0.30414560716861699 0 -0.039958169045478269 0.29575445567546388 0 -0.025724023578003428 0.28484302527062832 0 -0.039958169045478269 0.29575445567546388 0 -0.041567118232982071 0.28155035039042642 0 -0.039958169045478269 0.29575445567546388 0 -0.041567118232982071 0.28155035039042642 0 -0.055410192489386563 0.29691908750413831 0 -0.056753075498150757 0.28085207326825551 0 -0.041567118232982071 0.28155035039042642 0 -0.055410192489386563 0.29691908750413831 0 -0.064150197611200194 0.29028153745804169 0 -0.056753075498150757 0.28085207326825551 0 -0.055410192489386563 0.29691908750413831 0 -0.06406362287003417 0.30105685935529619 0 -0.064150197611200194 0.29028153745804169 0 -0.055410192489386563 0.29691908750413831 0 -0.064150197611200194 0.29028153745804169 0 -0.066272470786091969 0.27951596978905408 0 -0.056753075498150757 0.28085207326825551 0 -0.04581664775108537 0.30961879620062571 0 -0.055410192489386563 0.29691908750413831 0 -0.05903493703298672 0.30842013861035528 0 -0.04581664775108537 0.30961879620062571 0 -0.039958169045478269 0.29575445567546388 0 -0.055410192489386563 0.29691908750413831 0 -0.06406362287003417 0.30105685935529619 0 -0.055410192489386563 0.29691908750413831 0 -0.05903493703298672 0.30842013861035528 0 -0.04581664775108537 0.30961879620062571 0 -0.05999398685661865 0.32296608029812152 0 -0.042756171354298787 0.3224483405388896 0 -0.05999398685661865 0.32296608029812152 0 -0.04261807333459134 0.33512561188054663 0 -0.042756171354298787 0.3224483405388896 0 -0.04581664775108537 0.30961879620062571 0 -0.05903493703298672 0.30842013861035528 0 -0.05999398685661865 0.32296608029812152 0 -0.05999398685661865 0.32296608029812152 0 -0.056804034856699187 0.33429177223338907 0 -0.04261807333459134 0.33512561188054663 0 -0.056804034856699187 0.33429177223338907 0 -0.046192251460743447 0.34598703554363702 0 -0.071259793987160716 0.33632540193228971 0 -0.046192251460743447 0.34598703554363702 0 -0.071259793987160716 0.33632540193228971 0 -0.05999398685661865 0.32296608029812152 0 -0.04261807333459134 0.33512561188054663 0 -0.05999398685661865 0.32296608029812152 0 -0.056804034856699187 0.33429177223338907 0 -0.064831017760781137 0.32924814232959693 0 -0.056804034856699187 0.33429177223338907 0 -0.04261807333459134 0.33512561188054663 0 -0.046192251460743447 0.34598703554363702 0 -0.04261807333459134 0.33512561188054663 0 -0.034276320251641283 0.34282206612864702 0 -0.046192251460743447 0.34598703554363702 0 -0.04261807333459134 0.33512561188054663 0 -0.034276320251641283 0.34282206612864702 0 -0.031043257832885369 0.32833317714284199 0 -0.04261807333459134 0.33512561188054663 0 -0.042756171354298787 0.3224483405388896 0 -0.031043257832885369 0.32833317714284199 0 -0.04581664775108537 0.30961879620062571 0 -0.042756171354298787 0.3224483405388896 0 -0.034308890996313193 0.31619803717231232 0 -0.042756171354298787 0.3224483405388896 0 -0.034308890996313193 0.31619803717231232 0 -0.031043257832885369 0.32833317714284199 0 -0.020687787070248039 0.31403805852116051 0 -0.031043257832885369 0.32833317714284199 0 -0.01426308592107553 0.32709781564023149 0 -0.034308890996313193 0.31619803717231232 0 -0.020687787070248039 0.31403805852116051 0 -0.031043257832885369 0.32833317714284199 0 -0.025032962324117471 0.33875149869244531 0 -0.01426308592107553 0.32709781564023149 0 -0.014716180493599089 0.34442071988127893 0 -0.031043257832885369 0.32833317714284199 0 -0.025032962324117471 0.33875149869244531 0 -0.01426308592107553 0.32709781564023149 0 -0.034276320251641283 0.34282206612864702 0 -0.025032962324117471 0.33875149869244531 0 -0.023787543000920942 0.34541073846433867 0 -0.034276320251641283 0.34282206612864702 0 -0.031043257832885369 0.32833317714284199 0 -0.025032962324117471 0.33875149869244531 0 -0.025032962324117471 0.33875149869244531 0 -0.014716180493599089 0.34442071988127893 0 -0.023787543000920942 0.34541073846433867 0 -0.0025616559074486049 0.3329031852911295 0 -0.01426308592107553 0.32709781564023149 0 -0.014716180493599089 0.34442071988127893 0 -0.0025616559074486049 0.3329031852911295 0 -0.002583240235104544 0.34489224502179239 0 -0.014716180493599089 0.34442071988127893 0 -0.0069555348311276686 0.31079851600377723 0 -0.020687787070248039 0.31403805852116051 0 -0.01426308592107553 0.32709781564023149 0 -0.0025616559074486049 0.3329031852911295 0 -0.00058836015198596755 0.32088344941533808 0 -0.01426308592107553 0.32709781564023149 0 -0.0069555348311276686 0.31079851600377723 0 -0.00058836015198596755 0.32088344941533808 0 -0.01426308592107553 0.32709781564023149 0 -0.012102714267097759 0.36590539057294968 0 -0.001064505034491721 0.37161458349227261 0 0.0039428335920915006 0.36531030276633031 0 -0.021124708934325921 0.35564866915498361 0 0.0039428335920915006 0.36531030276633031 0 -0.001064505034491721 0.37161458349227261 0 -0.017677659244944521 0.37122807787390621 0 -0.017803283764421592 0.37921609746689411 0 -0.012102714267097759 0.36590539057294968 0 -0.001064505034491721 0.37161458349227261 0 -0.017677659244944521 0.37122807787390621 0 -0.012102714267097759 0.36590539057294968 0 -0.021124708934325921 0.35564866915498361 0 0.0039428335920915006 0.36531030276633031 0 -0.0064988099748367559 0.35299106404641623 0 -0.021124708934325921 0.35564866915498361 0 0.0039428335920915006 0.36531030276633031 0 -0.0064988099748367559 0.35299106404641623 0 -0.002583240235104544 0.34489224502179239 0 0.0032447233134405931 0.35422125060834359 0 -0.0064988099748367559 0.35299106404641623 0 -0.002583240235104544 0.34489224502179239 0 -0.014716180493599089 0.34442071988127893 0 -0.0064988099748367559 0.35299106404641623 0 -0.014716180493599089 0.34442071988127893 0 -0.021124708934325921 0.35564866915498361 0 -0.021124708934325921 0.35564866915498361 0 -0.03312405361854439 0.36059385714354403 0 -0.039104805720823227 0.35618275869992938 0 -0.014716180493599089 0.34442071988127893 0 -0.021124708934325921 0.35564866915498361 0 -0.023787543000920942 0.34541073846433867 0 -0.034276320251641283 0.34282206612864702 0 -0.021124708934325921 0.35564866915498361 0 -0.023787543000920942 0.34541073846433867 0 -0.021124708934325921 0.35564866915498361 0 -0.0246585823330631 0.36616539344166837 0 -0.03312405361854439 0.36059385714354403 0 -0.0246585823330631 0.36616539344166837 0 -0.033447590357386023 0.36570071259042941 0 -0.03312405361854439 0.36059385714354403 0 -0.012102714267097759 0.36590539057294968 0 -0.021124708934325921 0.35564866915498361 0 -0.0246585823330631 0.36616539344166837 0 -0.017677659244944521 0.37122807787390621 0 -0.032897312064139907 0.37411907212457252 0 -0.017803283764421592 0.37921609746689411 0 -0.012102714267097759 0.36590539057294968 0 -0.0246585823330631 0.36616539344166837 0 -0.017677659244944521 0.37122807787390621 0 -0.0246585823330631 0.36616539344166837 0 -0.017677659244944521 0.37122807787390621 0 -0.032897312064139907 0.37411907212457252 0 -0.0246585823330631 0.36616539344166837 0 -0.032897312064139907 0.37411907212457252 0 -0.0246585823330631 0.36616539344166837 0 -0.032897312064139907 0.37411907212457252 0 -0.033447590357386023 0.36570071259042941 0 -0.032897312064139907 0.37411907212457252 0 -0.059723517795068168 0.36506026769318489 0 -0.032897312064139907 0.37411907212457252 0 -0.033447590357386023 0.36570071259042941 0 -0.04311041341379776 0.36192452765193173 0 -0.032897312064139907 0.37411907212457252 0 -0.046925961112427347 0.36446589286881009 0 -0.059723517795068168 0.36506026769318489 0 -0.032897312064139907 0.37411907212457252 0 -0.049098878804771373 0.3725140996878949 0 -0.043775979817191349 0.37615739516056462 0 -0.03312405361854439 0.36059385714354403 0 -0.04311041341379776 0.36192452765193173 0 -0.039104805720823227 0.35618275869992938 0 -0.033447590357386023 0.36570071259042941 0 -0.03312405361854439 0.36059385714354403 0 -0.04311041341379776 0.36192452765193173 0 -0.032897312064139907 0.37411907212457252 0 -0.04311041341379776 0.36192452765193173 0 -0.046925961112427347 0.36446589286881009 0 -0.034276320251641283 0.34282206612864702 0 -0.021124708934325921 0.35564866915498361 0 -0.046192251460743447 0.34598703554363702 0 -0.021124708934325921 0.35564866915498361 0 -0.039104805720823227 0.35618275869992938 0 -0.046192251460743447 0.34598703554363702 0 -0.021124708934325921 0.35564866915498361 0 -0.046192251460743447 0.34598703554363702 0 -0.039104805720823227 0.35618275869992938 0 -0.046192251460743447 0.34598703554363702 0 -0.051972601176704672 0.35675970400555063 0 -0.04311041341379776 0.36192452765193173 0 -0.039104805720823227 0.35618275869992938 0 -0.051972601176704672 0.35675970400555063 0 -0.046192251460743447 0.34598703554363702 0 -0.066911938965716039 0.35448421406914471 0 -0.071259793987160716 0.33632540193228971 0 -0.046192251460743447 0.34598703554363702 0 -0.051972601176704672 0.35675970400555063 0 -0.066911938965716039 0.35448421406914471 0 -0.051972601176704672 0.35675970400555063 0 -0.059723517795068168 0.36506026769318489 0 -0.066911938965716039 0.35448421406914471 0 -0.032897312064139907 0.37411907212457252 0 -0.049098878804771373 0.3725140996878949 0 -0.059723517795068168 0.36506026769318489 0 -0.049098878804771373 0.3725140996878949 0 -0.056089193364373929 0.37273715424054699 0 -0.050724207312953518 0.37700173675436199 0 -0.051972601176704672 0.35675970400555063 0 -0.046925961112427347 0.36446589286881009 0 -0.059723517795068168 0.36506026769318489 0 -0.04311041341379776 0.36192452765193173 0 -0.051972601176704672 0.35675970400555063 0 -0.046925961112427347 0.36446589286881009 0 -0.049098878804771373 0.3725140996878949 0 -0.059723517795068168 0.36506026769318489 0 -0.056089193364373929 0.37273715424054699 0 -0.059723517795068168 0.36506026769318489 0 -0.056089193364373929 0.37273715424054699 0 -0.062564083944274151 0.37264302620600032 0 -0.062075486208271788 0.37468365416042188 0 -0.062564083944274151 0.37264302620600032 0 -0.062075486208271788 0.37468365416042188 0 -0.062564083944274151 0.37264302620600032 0 -0.064607287490063475 0.3752877934920828 0 -0.069626031180744216 0.37451783031500979 0 -0.079039419043354958 0.3748493973737258 0 -0.082597891671162132 0.35089307241393791 0 -0.062564083944274151 0.37264302620600032 0 -0.066911938965716039 0.35448421406914471 0 -0.062564083944274151 0.37264302620600032 0 -0.069626031180744216 0.37451783031500979 0 -0.064607287490063475 0.3752877934920828 0 -0.062564083944274151 0.37264302620600032 0 -0.069626031180744216 0.37451783031500979 0 -0.082597891671162132 0.35089307241393791 0 -0.062564083944274151 0.37264302620600032 0 -0.082597891671162132 0.35089307241393791 0 -0.059723517795068168 0.36506026769318489 0 -0.062564083944274151 0.37264302620600032 0 -0.066911938965716039 0.35448421406914471 0 -0.090941745129797052 0.36956363188929697 0 -0.082597891671162132 0.35089307241393791 0 -0.097939085056313616 0.35825468271447503 0 -0.079039419043354958 0.3748493973737258 0 -0.090941745129797052 0.36956363188929697 0 -0.082597891671162132 0.35089307241393791 0 -0.082597891671162132 0.35089307241393791 0 -0.097939085056313616 0.35825468271447503 0 -0.099795521962392192 0.34663223796478099 0 -0.066911938965716039 0.35448421406914471 0 -0.071259793987160716 0.33632540193228971 0 -0.082597891671162132 0.35089307241393791 0 -0.066911938965716039 0.35448421406914471 0 -0.079003984513522238 0.34200566120660753 0 -0.066911938965716039 0.35448421406914471 0 -0.071259793987160716 0.33632540193228971 0 -0.079003984513522238 0.34200566120660753 0 -0.062564083944274151 0.37264302620600032 0 -0.082597891671162132 0.35089307241393791 0 -0.066911938965716039 0.35448421406914471 0 -0.056804034856699187 0.33429177223338907 0 -0.064831017760781137 0.32924814232959693 0 -0.071259793987160716 0.33632540193228971 0 -0.071259793987160716 0.33632540193228971 0 -0.079659291821908368 0.33308803351003258 0 -0.071259793987160716 0.33632540193228971 0 -0.079003984513522238 0.34200566120660753 0 -0.079659291821908368 0.33308803351003258 0 -0.0773699003786468 0.31080654871569757 0 -0.07000108740115632 0.31024084673351238 0 -0.05999398685661865 0.32296608029812152 0 -0.0773699003786468 0.31080654871569757 0 -0.071259793987160716 0.33632540193228971 0 -0.0773699003786468 0.31080654871569757 0 -0.071259793987160716 0.33632540193228971 0 -0.079659291821908368 0.33308803351003258 0 -0.0773699003786468 0.31080654871569757 0 -0.05999398685661865 0.32296608029812152 0 -0.0773699003786468 0.31080654871569757 0 -0.064831017760781137 0.32924814232959693 0 -0.071259793987160716 0.33632540193228971 0 -0.0773699003786468 0.31080654871569757 0 -0.05999398685661865 0.32296608029812152 0 -0.064831017760781137 0.32924814232959693 0 -0.07000108740115632 0.31024084673351238 0 -0.05903493703298672 0.30842013861035528 0 -0.05999398685661865 0.32296608029812152 0 -0.091673901452025128 0.31746800270450398 0 -0.079659291821908368 0.33308803351003258 0 -0.1026316993980491 0.32914311862187462 0 -0.0773699003786468 0.31080654871569757 0 -0.091673901452025128 0.31746800270450398 0 -0.079659291821908368 0.33308803351003258 0 -0.082597891671162132 0.35089307241393791 0 -0.1026316993980491 0.32914311862187462 0 -0.082597891671162132 0.35089307241393791 0 -0.079003984513522238 0.34200566120660753 0 -0.1026316993980491 0.32914311862187462 0 -0.079003984513522238 0.34200566120660753 0 -0.079659291821908368 0.33308803351003258 0 -0.1026316993980491 0.32914311862187462 0 -0.082597891671162132 0.35089307241393791 0 -0.1026316993980491 0.32914311862187462 0 -0.099795521962392192 0.34663223796478099 0 -0.1026316993980491 0.32914311862187462 0 -0.11309959964963499 0.35023802862820708 0 -0.099795521962392192 0.34663223796478099 0 -0.1041414057358224 0.31201579539373148 0 -0.091673901452025128 0.31746800270450398 0 -0.1026316993980491 0.32914311862187462 0 -0.122665507124936 0.30739316482981133 0 -0.1041414057358224 0.31201579539373148 0 -0.1026316993980491 0.32914311862187462 0 -0.122665507124936 0.30739316482981133 0 -0.1026316993980491 0.32914311862187462 0 -0.1213981112161233 0.32606083512094008 0 -0.122665507124936 0.30739316482981133 0 -0.1026316993980491 0.32914311862187462 0 -0.1026316993980491 0.32914311862187462 0 -0.1215793900664241 0.33965542352680428 0 -0.11309959964963499 0.35023802862820708 0 -0.1026316993980491 0.32914311862187462 0 -0.1213981112161233 0.32606083512094008 0 -0.1215793900664241 0.33965542352680428 0 -0.1215793900664241 0.33965542352680428 0 -0.11309959964963499 0.35023802862820708 0 -0.1223522029902982 0.35608225162756879 0 -0.11309959964963499 0.35023802862820708 0 -0.1223522029902982 0.35608225162756879 0 -0.1091573093543224 0.361674516205302 0 -0.12881796099468981 0.36725667352730101 0 -0.1223522029902982 0.35608225162756879 0 -0.11881971476920231 0.36528086459794751 0 -0.12881796099468981 0.36725667352730101 0 -0.11881971476920231 0.36528086459794751 0 -0.114951385737499 0.37611001703161828 0 -0.11881971476920231 0.36528086459794751 0 -0.1091573093543224 0.361674516205302 0 -0.114951385737499 0.37611001703161828 0 -0.1223522029902982 0.35608225162756879 0 -0.11881971476920231 0.36528086459794751 0 -0.1091573093543224 0.361674516205302 0 -0.1091573093543224 0.361674516205302 0 -0.1012990589455684 0.36953412384373102 0 -0.097939085056313616 0.35825468271447503 0 -0.1091573093543224 0.361674516205302 0 -0.1012990589455684 0.36953412384373102 0 -0.114951385737499 0.37611001703161828 0 -0.090941745129797052 0.36956363188929697 0 -0.1012990589455684 0.36953412384373102 0 -0.098890550417286477 0.38099249480062602 0 -0.090941745129797052 0.36956363188929697 0 -0.1012990589455684 0.36953412384373102 0 -0.097939085056313616 0.35825468271447503 0 -0.11309959964963499 0.35023802862820708 0 -0.097939085056313616 0.35825468271447503 0 -0.099795521962392192 0.34663223796478099 0 -0.11309959964963499 0.35023802862820708 0 -0.1091573093543224 0.361674516205302 0 -0.097939085056313616 0.35825468271447503 0 -0.094424665366596924 0.39634464281418252 0 -0.11202845405726 0.40531330452479791 0 -0.098926296137628822 0.41605616341005208 0 -0.1085605322944487 0.39079571404043828 0 -0.094424665366596924 0.39634464281418252 0 -0.11202845405726 0.40531330452479791 0 -0.1085605322944487 0.39079571404043828 0 -0.098890550417286477 0.38099249480062602 0 -0.114951385737499 0.37611001703161828 0 -0.1085605322944487 0.39079571404043828 0 -0.094424665366596924 0.39634464281418252 0 -0.098890550417286477 0.38099249480062602 0 -0.1012990589455684 0.36953412384373102 0 -0.098890550417286477 0.38099249480062602 0 -0.114951385737499 0.37611001703161828 0 -0.1085605322944487 0.39079571404043828 0 -0.114951385737499 0.37611001703161828 0 -0.1224972888069677 0.39405447109156733 0 -0.13238272395945991 0.37847398983736519 0 -0.114951385737499 0.37611001703161828 0 -0.1224972888069677 0.39405447109156733 0 -0.1277268958593005 0.40709158096490278 0 -0.1224972888069677 0.39405447109156733 0 -0.11202845405726 0.40531330452479791 0 -0.1085605322944487 0.39079571404043828 0 -0.1224972888069677 0.39405447109156733 0 -0.11202845405726 0.40531330452479791 0 -0.11202845405726 0.40531330452479791 0 -0.12025274126089 0.42574105579372712 0 -0.098926296137628822 0.41605616341005208 0 -0.12025274126089 0.42574105579372712 0 -0.098926296137628822 0.41605616341005208 0 -0.1277268958593005 0.40709158096490278 0 -0.11202845405726 0.40531330452479791 0 -0.12025274126089 0.42574105579372712 0 -0.12025274126089 0.42574105579372712 0 -0.1161249595423428 0.42742254588607831 0 -0.098926296137628822 0.41605616341005208 0 -0.12509104342100061 0.44188941827772182 0 -0.1161249595423428 0.42742254588607831 0 -0.098677616465060528 0.43762344985591101 0 -0.1161249595423428 0.42742254588607831 0 -0.090695480784097504 0.41727281212483158 0 -0.1161249595423428 0.42742254588607831 0 -0.090695480784097504 0.41727281212483158 0 -0.098677616465060528 0.43762344985591101 0 -0.1161249595423428 0.42742254588607831 0 -0.098926296137628822 0.41605616341005208 0 -0.090695480784097504 0.41727281212483158 0 -0.098926296137628822 0.41605616341005208 0 -0.077599851014367602 0.40637127102637732 0 -0.094424665366596924 0.39634464281418252 0 -0.098926296137628822 0.41605616341005208 0 -0.077599851014367602 0.40637127102637732 0 -0.098926296137628822 0.41605616341005208 0 -0.090695480784097504 0.41727281212483158 0 -0.077599851014367602 0.40637127102637732 0 -0.090695480784097504 0.41727281212483158 0 -0.077599851014367602 0.40637127102637732 0 -0.077475511178084946 0.4171549142493044 0 -0.077475511178084946 0.4171549142493044 0 -0.098677616465060528 0.43762344985591101 0 -0.090695480784097504 0.41727281212483158 0 -0.077475511178084946 0.4171549142493044 0 -0.098677616465060528 0.43762344985591101 0 -0.077475511178084946 0.4171549142493044 0 -0.078698858269308614 0.44343419105434712 0 -0.098677616465060528 0.43762344985591101 0 -0.077475511178084946 0.4171549142493044 0 -0.059178928229814701 0.4365201208845606 0 -0.055106871557328428 0.42305161159228227 0 -0.077475511178084946 0.4171549142493044 0 -0.059178928229814701 0.4365201208845606 0 -0.078698858269308614 0.44343419105434712 0 -0.077475511178084946 0.4171549142493044 0 -0.056273405891107527 0.39668637864269979 0 -0.077599851014367602 0.40637127102637732 0 -0.077475511178084946 0.4171549142493044 0 -0.056273405891107527 0.39668637864269979 0 -0.077599851014367602 0.40637127102637732 0 -0.056273405891107527 0.39668637864269979 0 -0.077599851014367602 0.40637127102637732 0 -0.078331801269405671 0.3911923311589619 0 -0.056273405891107527 0.39668637864269979 0 -0.094424665366596924 0.39634464281418252 0 -0.077599851014367602 0.40637127102637732 0 -0.078331801269405671 0.3911923311589619 0 -0.094424665366596924 0.39634464281418252 0 -0.078331801269405671 0.3911923311589619 0 -0.087166581823546807 0.38268142547449258 0 -0.079039419043354958 0.3748493973737258 0 -0.078331801269405671 0.3911923311589619 0 -0.087166581823546807 0.38268142547449258 0 -0.090941745129797052 0.36956363188929697 0 -0.098890550417286477 0.38099249480062602 0 -0.087166581823546807 0.38268142547449258 0 -0.094424665366596924 0.39634464281418252 0 -0.098890550417286477 0.38099249480062602 0 -0.087166581823546807 0.38268142547449258 0 -0.079039419043354958 0.3748493973737258 0 -0.090941745129797052 0.36956363188929697 0 -0.087166581823546807 0.38268142547449258 0 -0.078331801269405671 0.3911923311589619 0 -0.070241768304658683 0.38125320512289401 0 -0.062400115896225239 0.38328565763688038 0 -0.078331801269405671 0.3911923311589619 0 -0.047880784994249512 0.38858413326022379 0 -0.069626031180744216 0.37451783031500979 0 -0.079039419043354958 0.3748493973737258 0 -0.070241768304658683 0.38125320512289401 0 -0.078331801269405671 0.3911923311589619 0 -0.062400115896225239 0.38328565763688038 0 -0.047880784994249512 0.38858413326022379 0 -0.079039419043354958 0.3748493973737258 0 -0.078331801269405671 0.3911923311589619 0 -0.070241768304658683 0.38125320512289401 0 -0.070241768304658683 0.38125320512289401 0 -0.064210651178174066 0.37904237845721811 0 -0.062400115896225239 0.38328565763688038 0 -0.069626031180744216 0.37451783031500979 0 -0.070241768304658683 0.38125320512289401 0 -0.064210651178174066 0.37904237845721811 0 -0.069626031180744216 0.37451783031500979 0 -0.064210651178174066 0.37904237845721811 0 -0.064607287490063475 0.3752877934920828 0 -0.062075486208271788 0.37468365416042188 0 -0.064210651178174066 0.37904237845721811 0 -0.064607287490063475 0.3752877934920828 0 -0.062075486208271788 0.37468365416042188 0 -0.064210651178174066 0.37904237845721811 0 -0.059083848751135488 0.37840884602566088 0 -0.059083848751135488 0.37840884602566088 0 -0.062400115896225239 0.38328565763688038 0 -0.054293362626053041 0.38162223819359442 0 -0.062075486208271788 0.37468365416042188 0 -0.062564083944274151 0.37264302620600032 0 -0.059083848751135488 0.37840884602566088 0 -0.062564083944274151 0.37264302620600032 0 -0.054293362626053041 0.38162223819359442 0 -0.062564083944274151 0.37264302620600032 0 -0.059083848751135488 0.37840884602566088 0 -0.054293362626053041 0.38162223819359442 0 -0.056089193364373929 0.37273715424054699 0 -0.062564083944274151 0.37264302620600032 0 -0.054293362626053041 0.38162223819359442 0 -0.059083848751135488 0.37840884602566088 0 -0.054293362626053041 0.38162223819359442 0 -0.064210651178174066 0.37904237845721811 0 -0.059083848751135488 0.37840884602566088 0 -0.062400115896225239 0.38328565763688038 0 -0.062400115896225239 0.38328565763688038 0 -0.047880784994249512 0.38858413326022379 0 -0.054293362626053041 0.38162223819359442 0 -0.047880784994249512 0.38858413326022379 0 -0.054293362626053041 0.38162223819359442 0 -0.047880784994249512 0.38858413326022379 0 -0.054293362626053041 0.38162223819359442 0 -0.046254793771615982 0.3870143995575549 0 -0.047836657145122599 0.38128015361824008 0 -0.054293362626053041 0.38162223819359442 0 -0.046254793771615982 0.3870143995575549 0 -0.054293362626053041 0.38162223819359442 0 -0.046254793771615982 0.3870143995575549 0 -0.047880784994249512 0.38858413326022379 0 -0.046254793771615982 0.3870143995575549 0 -0.056089193364373929 0.37273715424054699 0 -0.050724207312953518 0.37700173675436199 0 -0.054293362626053041 0.38162223819359442 0 -0.049098878804771373 0.3725140996878949 0 -0.050724207312953518 0.37700173675436199 0 -0.043775979817191349 0.37615739516056462 0 -0.047836657145122599 0.38128015361824008 0 -0.050724207312953518 0.37700173675436199 0 -0.043775979817191349 0.37615739516056462 0 -0.047836657145122599 0.38128015361824008 0 -0.050724207312953518 0.37700173675436199 0 -0.054293362626053041 0.38162223819359442 0 -0.078331801269405671 0.3911923311589619 0 -0.047880784994249512 0.38858413326022379 0 -0.056273405891107527 0.39668637864269979 0 -0.047880784994249512 0.38858413326022379 0 -0.056273405891107527 0.39668637864269979 0 -0.045094078598563243 0.39160955589403151 0 -0.056273405891107527 0.39668637864269979 0 -0.048342871606355781 0.40097934792702961 0 -0.045094078598563243 0.39160955589403151 0 -0.047880784994249512 0.38858413326022379 0 -0.056273405891107527 0.39668637864269979 0 -0.056273405891107527 0.39668637864269979 0 -0.045094078598563243 0.39160955589403151 0 -0.056273405891107527 0.39668637864269979 0 -0.048342871606355781 0.40097934792702961 0 -0.051161828253680347 0.40954535298997258 0 -0.04342775431262437 0.39341862168501102 0 -0.028839939204686131 0.40925606551247828 0 -0.042973684961738069 0.41592643291826231 0 -0.048342871606355781 0.40097934792702961 0 -0.04342775431262437 0.39341862168501102 0 -0.042973684961738069 0.41592643291826231 0 -0.041701311968281377 0.39006881248802111 0 -0.02243782954129785 0.40299049140363558 0 -0.041701311968281377 0.39006881248802111 0 -0.03457878247319518 0.38683428693719679 0 -0.02243782954129785 0.40299049140363558 0 -0.04342775431262437 0.39341862168501102 0 -0.041701311968281377 0.39006881248802111 0 -0.02243782954129785 0.40299049140363558 0 -0.04342775431262437 0.39341862168501102 0 -0.028839939204686131 0.40925606551247828 0 -0.04342775431262437 0.39341862168501102 0 -0.042973684961738069 0.41592643291826231 0 -0.04342775431262437 0.39341862168501102 0 -0.02243782954129785 0.40299049140363558 0 -0.028839939204686131 0.40925606551247828 0 -0.048342871606355781 0.40097934792702961 0 -0.04342775431262437 0.39341862168501102 0 -0.045094078598563243 0.39160955589403151 0 -0.04342775431262437 0.39341862168501102 0 -0.045094078598563243 0.39160955589403151 0 -0.043479046219812342 0.39087612776318198 0 -0.04342775431262437 0.39341862168501102 0 -0.043479046219812342 0.39087612776318198 0 -0.045094078598563243 0.39160955589403151 0 -0.043479046219812342 0.39087612776318198 0 -0.045094078598563243 0.39160955589403151 0 -0.043479046219812342 0.39087612776318198 0 -0.045172553619539632 0.38973569244798251 0 -0.04342775431262437 0.39341862168501102 0 -0.045094078598563243 0.39160955589403151 0 -0.04342775431262437 0.39341862168501102 0 -0.043479046219812342 0.39087612776318198 0 -0.041701311968281377 0.39006881248802111 0 -0.047836657145122599 0.38128015361824008 0 -0.043775979817191349 0.37615739516056462 0 -0.043608491196287617 0.38445965616034072 0 -0.043775979817191349 0.37615739516056462 0 -0.043608491196287617 0.38445965616034072 0 -0.032897312064139907 0.37411907212457252 0 -0.043775979817191349 0.37615739516056462 0 -0.043608491196287617 0.38445965616034072 0 -0.047836657145122599 0.38128015361824008 0 -0.043608491196287617 0.38445965616034072 0 -0.046254793771615982 0.3870143995575549 0 -0.043542573639619581 0.38772713043400647 0 -0.041701311968281377 0.39006881248802111 0 -0.03457878247319518 0.38683428693719679 0 -0.043608491196287617 0.38445965616034072 0 -0.043542573639619581 0.38772713043400647 0 -0.03457878247319518 0.38683428693719679 0 -0.043608491196287617 0.38445965616034072 0 -0.046254793771615982 0.3870143995575549 0 -0.043608491196287617 0.38445965616034072 0 -0.046254793771615982 0.3870143995575549 0 -0.043542573639619581 0.38772713043400647 0 -0.043608491196287617 0.38445965616034072 0 -0.043542573639619581 0.38772713043400647 0 -0.047880784994249512 0.38858413326022379 0 -0.045094078598563243 0.39160955589403151 0 -0.047880784994249512 0.38858413326022379 0 -0.045094078598563243 0.39160955589403151 0 -0.045172553619539632 0.38973569244798251 0 -0.047880784994249512 0.38858413326022379 0 -0.045172553619539632 0.38973569244798251 0 -0.046254793771615982 0.3870143995575549 0 -0.045172553619539632 0.38973569244798251 0 -0.046254793771615982 0.3870143995575549 0 -0.043542573639619581 0.38772713043400647 0 -0.046254793771615982 0.3870143995575549 0 -0.043542573639619581 0.38772713043400647 0 -0.043479046219812342 0.39087612776318198 0 -0.045172553619539632 0.38973569244798251 0 -0.043542573639619581 0.38772713043400647 0 -0.043479046219812342 0.39087612776318198 0 -0.043542573639619581 0.38772713043400647 0 -0.043542573639619581 0.38772713043400647 0 -0.041701311968281377 0.39006881248802111 0 -0.043479046219812342 0.39087612776318198 0 -0.043542573639619581 0.38772713043400647 0 -0.041701311968281377 0.39006881248802111 0 -0.043479046219812342 0.39087612776318198 0 -0.041701311968281377 0.39006881248802111 0 -0.043542573639619581 0.38772713043400647 0 -0.03457878247319518 0.38683428693719679 0 -0.041701311968281377 0.39006881248802111 0 -0.03457878247319518 0.38683428693719679 0 -0.032897312064139907 0.37411907212457252 0 -0.043608491196287617 0.38445965616034072 0 -0.032897312064139907 0.37411907212457252 0 -0.043608491196287617 0.38445965616034072 0 -0.03457878247319518 0.38683428693719679 0 -0.03457878247319518 0.38683428693719679 0 -0.017803283764421592 0.37921609746689411 0 -0.03457878247319518 0.38683428693719679 0 -0.017803283764421592 0.37921609746689411 0 -0.019390911734903489 0.38532149046890818 0 -0.032897312064139907 0.37411907212457252 0 -0.017803283764421592 0.37921609746689411 0 -0.032897312064139907 0.37411907212457252 0 -0.03457878247319518 0.38683428693719679 0 -0.017803283764421592 0.37921609746689411 0 -0.03457878247319518 0.38683428693719679 0 -0.019390911734903489 0.38532149046890818 0 -0.019390911734903489 0.38532149046890818 0 -0.02243782954129785 0.40299049140363558 0 -0.0064316016559190746 0.3999483233353413 0 -0.03457878247319518 0.38683428693719679 0 -0.019390911734903489 0.38532149046890818 0 -0.02243782954129785 0.40299049140363558 0 -0.0064316016559190746 0.3999483233353413 0 -0.0042030409966118051 0.38380869400061962 0 0.010437450069317761 0.40463061763750507 0 -0.001064505034491721 0.37161458349227261 0 -0.017803283764421592 0.37921609746689411 0 -0.001064505034491721 0.37161458349227261 0 -0.017803283764421592 0.37921609746689411 0 -0.0042030409966118051 0.38380869400061962 0 -0.019390911734903489 0.38532149046890818 0 -0.0064316016559190746 0.3999483233353413 0 -0.0042030409966118051 0.38380869400061962 0 -0.017803283764421592 0.37921609746689411 0 -0.0042030409966118051 0.38380869400061962 0 -0.017803283764421592 0.37921609746689411 0 -0.019390911734903489 0.38532149046890818 0 -0.0042030409966118051 0.38380869400061962 0 -0.019390911734903489 0.38532149046890818 0 -0.0042030409966118051 0.38380869400061962 0 -0.014252124096747171 0.42509350933994478 0 0.0048617880261327502 0.44584476697033082 0 -0.014252124096747171 0.42509350933994478 0 -0.010454900682288101 0.44126855924159908 0 0.0048617880261327502 0.44584476697033082 0 -0.014252124096747171 0.42509350933994478 0 -0.0026301228576318379 0.42717885202372191 0 0.0048617880261327502 0.44584476697033082 0 -0.014252124096747171 0.42509350933994478 0 -0.0026301228576318379 0.42717885202372191 0 -0.003174347114314008 0.41591217031924949 0 -0.02243782954129785 0.40299049140363558 0 -0.0064316016559190746 0.3999483233353413 0 -0.003174347114314008 0.41591217031924949 0 -0.02243782954129785 0.40299049140363558 0 -0.003174347114314008 0.41591217031924949 0 -0.02243782954129785 0.40299049140363558 0 -0.014252124096747171 0.42509350933994478 0 -0.003174347114314008 0.41591217031924949 0 -0.014252124096747171 0.42509350933994478 0 -0.003174347114314008 0.41591217031924949 0 -0.014252124096747171 0.42509350933994478 0 -0.028839939204686131 0.40925606551247828 0 -0.02243782954129785 0.40299049140363558 0 -0.014252124096747171 0.42509350933994478 0 -0.028839939204686131 0.40925606551247828 0 -0.014252124096747171 0.42509350933994478 0 -0.028839939204686131 0.40925606551247828 0 -0.022470349574322469 0.43190483207895858 0 -0.014252124096747171 0.42509350933994478 0 -0.022470349574322469 0.43190483207895858 0 -0.010454900682288101 0.44126855924159908 0 -0.014252124096747171 0.42509350933994478 0 -0.022470349574322469 0.43190483207895858 0 -0.022470349574322469 0.43190483207895858 0 -0.010454900682288101 0.44126855924159908 0 -0.022470349574322469 0.43190483207895858 0 -0.042646571141636773 0.43214117214318359 0 -0.04231945732153318 0.44835591136810488 0 -0.022470349574322469 0.43190483207895858 0 -0.042646571141636773 0.43214117214318359 0 -0.042973684961738069 0.41592643291826231 0 -0.042646571141636773 0.43214117214318359 0 -0.042973684961738069 0.41592643291826231 0 -0.022470349574322469 0.43190483207895858 0 -0.042973684961738069 0.41592643291826231 0 -0.028839939204686131 0.40925606551247828 0 -0.022470349574322469 0.43190483207895858 0 -0.042973684961738069 0.41592643291826231 0 -0.077475511178084946 0.4171549142493044 0 -0.051161828253680347 0.40954535298997258 0 -0.055106871557328428 0.42305161159228227 0 -0.077475511178084946 0.4171549142493044 0 -0.056273405891107527 0.39668637864269979 0 -0.051161828253680347 0.40954535298997258 0 -0.048342871606355781 0.40097934792702961 0 -0.042973684961738069 0.41592643291826231 0 -0.051161828253680347 0.40954535298997258 0 -0.042973684961738069 0.41592643291826231 0 -0.051161828253680347 0.40954535298997258 0 -0.042973684961738069 0.41592643291826231 0 -0.051161828253680347 0.40954535298997258 0 -0.055106871557328428 0.42305161159228227 0 -0.042646571141636773 0.43214117214318359 0 -0.059178928229814701 0.4365201208845606 0 -0.055106871557328428 0.42305161159228227 0 -0.042646571141636773 0.43214117214318359 0 -0.042973684961738069 0.41592643291826231 0 -0.055106871557328428 0.42305161159228227 0 -0.042646571141636773 0.43214117214318359 0 -0.059178928229814701 0.4365201208845606 0 -0.049245987713513212 0.44319563894678482 0 -0.059178928229814701 0.4365201208845606 0 -0.050742244958162368 0.46439359559444437 0 -0.049245987713513212 0.44319563894678482 0 -0.050742244958162368 0.46439359559444437 0 -0.044608833217136261 0.45025336211807931 0 -0.059178928229814701 0.4365201208845606 0 -0.050742244958162368 0.46439359559444437 0 -0.065484051744298263 0.4513847118260722 0 -0.059178928229814701 0.4365201208845606 0 -0.049245987713513212 0.44319563894678482 0 -0.050742244958162368 0.46439359559444437 0 -0.050742244958162368 0.46439359559444437 0 -0.061707257777874093 0.47273252787991399 0 -0.073231504917427276 0.46237159316971249 0 -0.050742244958162368 0.46439359559444437 0 -0.073231504917427276 0.46237159316971249 0 -0.0419800222431604 0.46518140433549732 0 -0.04231945732153318 0.44835591136810488 0 -0.025697431038521311 0.45487791879973932 0 -0.0419800222431604 0.46518140433549732 0 -0.04231945732153318 0.44835591136810488 0 -0.0419800222431604 0.46518140433549732 0 -0.044608833217136261 0.45025336211807931 0 -0.04231945732153318 0.44835591136810488 0 -0.050742244958162368 0.46439359559444437 0 -0.0419800222431604 0.46518140433549732 0 -0.050742244958162368 0.46439359559444437 0 -0.0419800222431604 0.46518140433549732 0 -0.044608833217136261 0.45025336211807931 0 -0.022470349574322469 0.43190483207895858 0 -0.04231945732153318 0.44835591136810488 0 -0.042646571141636773 0.43214117214318359 0 -0.049245987713513212 0.44319563894678482 0 -0.04231945732153318 0.44835591136810488 0 -0.042646571141636773 0.43214117214318359 0 -0.04231945732153318 0.44835591136810488 0 -0.049245987713513212 0.44319563894678482 0 -0.044608833217136261 0.45025336211807931 0 -0.04231945732153318 0.44835591136810488 0 -0.044608833217136261 0.45025336211807931 0 -0.04231945732153318 0.44835591136810488 0 -0.022470349574322469 0.43190483207895858 0 -0.04231945732153318 0.44835591136810488 0 -0.022362297003099281 0.44511471557515531 0 -0.04231945732153318 0.44835591136810488 0 -0.022362297003099281 0.44511471557515531 0 -0.025697431038521311 0.45487791879973932 0 -0.022470349574322469 0.43190483207895858 0 -0.022362297003099281 0.44511471557515531 0 -0.010454900682288101 0.44126855924159908 0 -0.022362297003099281 0.44511471557515531 0 -0.025697431038521311 0.45487791879973932 0 -0.01311544116488466 0.453963754661173 0 -0.0419800222431604 0.46518140433549732 0 -0.025697431038521311 0.45487791879973932 0 -0.01345201465746383 0.46774634869629322 0 -0.0419800222431604 0.46518140433549732 0 -0.01345201465746383 0.46774634869629322 0 -0.025697431038521311 0.45487791879973932 0 -0.01311544116488466 0.453963754661173 0 -0.01345201465746383 0.46774634869629322 0 -0.0094095992007081283 0.46654139838691122 0 -0.010427957625441169 0.46801824073108461 0 0.0053167838454733218 0.46943384557929257 0 -0.0094095992007081283 0.46654139838691122 0 0.0015605482097463411 0.45063228640423969 0 -0.010427957625441169 0.46801824073108461 0 0.0053167838454733218 0.46943384557929257 0 -0.0094095992007081283 0.46654139838691122 0 0.0080738590363113663 0.46132998490476868 0 -0.01311544116488466 0.453963754661173 0 -0.0094095992007081283 0.46654139838691122 0 0.0015605482097463411 0.45063228640423969 0 -0.01311544116488466 0.453963754661173 0 -0.01345201465746383 0.46774634869629322 0 -0.0094095992007081283 0.46654139838691122 0 -0.01345201465746383 0.46774634869629322 0 -0.010427957625441169 0.46801824073108461 0 -0.01345201465746383 0.46774634869629322 0 -0.0094095992007081283 0.46654139838691122 0 -0.01345201465746383 0.46774634869629322 0 -0.0094095992007081283 0.46654139838691122 0 -0.010427957625441169 0.46801824073108461 0 -0.0094095992007081283 0.46654139838691122 0 -0.010427957625441169 0.46801824073108461 0 -0.01311544116488466 0.453963754661173 0 -0.010454900682288101 0.44126855924159908 0 0.0015605482097463411 0.45063228640423969 0 -0.010454900682288101 0.44126855924159908 0 0.0048617880261327502 0.44584476697033082 0 0.0015605482097463411 0.45063228640423969 0 -0.010454900682288101 0.44126855924159908 0 0.0015605482097463411 0.45063228640423969 0 -0.022362297003099281 0.44511471557515531 0 -0.01311544116488466 0.453963754661173 0 -0.010454900682288101 0.44126855924159908 0 -0.0067005321321746969 0.5 0 -0.003880604538310756 0.48346324919380129 0 -0.021454488019086362 0.48400912036554289 0 -0.01345201465746383 0.46774634869629322 0 -0.010427957625441169 0.46801824073108461 0 -0.021454488019086362 0.48400912036554289 0 -0.010427957625441169 0.46801824073108461 0 -0.003880604538310756 0.48346324919380129 0 -0.021454488019086362 0.48400912036554289 0 -0.010427957625441169 0.46801824073108461 0 -0.001026908195020756 0.47486914558720472 0 0.0053167838454733218 0.46943384557929257 0 -0.010427957625441169 0.46801824073108461 0 -0.003880604538310756 0.48346324919380129 0 -0.001026908195020756 0.47486914558720472 0 -0.010427957625441169 0.46801824073108461 0 -0.021454488019086362 0.48400912036554289 0 -0.01345201465746383 0.46774634869629322 0 -0.021454488019086362 0.48400912036554289 0 -0.032447842195153342 0.48378293317924542 0 -0.01345201465746383 0.46774634869629322 0 -0.032447842195153342 0.48378293317924542 0 -0.041758062999807367 0.47618372532725728 0 -0.01345201465746383 0.46774634869629322 0 -0.041758062999807367 0.47618372532725728 0 -0.021454488019086362 0.48400912036554289 0 -0.032481018412731863 0.50000000000000089 0 -0.033555046977316587 0.49207813668870121 0 -0.021454488019086362 0.48400912036554289 0 -0.032481018412731863 0.50000000000000089 0 -0.021454488019086362 0.48400912036554289 0 -0.033555046977316587 0.49207813668870121 0 -0.032447842195153342 0.48378293317924542 0 -0.0067005321321746969 0.5 0 -0.021454488019086362 0.48400912036554289 0 -0.032481018412731863 0.50000000000000089 0 -0.033555046977316587 0.49207813668870121 0 -0.039964975186860582 0.49999999999999872 0 -0.042139887415076342 0.49281443204190178 0 -0.032481018412731863 0.50000000000000089 0 -0.033555046977316587 0.49207813668870121 0 -0.039964975186860582 0.49999999999999872 0 -0.042139887415076342 0.49281443204190178 0 -0.041758062999807367 0.47618372532725728 0 -0.033555046977316587 0.49207813668870121 0 -0.042139887415076342 0.49281443204190178 0 -0.032447842195153342 0.48378293317924542 0 -0.042139887415076342 0.49281443204190178 0 -0.046725468384182907 0.47766439368476649 0 -0.039964975186860582 0.49999999999999872 0 -0.042139887415076342 0.49281443204190178 0 -0.053580454847170257 0.49193017513362319 0 -0.039964975186860582 0.49999999999999872 0 -0.042139887415076342 0.49281443204190178 0 -0.042139887415076342 0.49281443204190178 0 -0.046725468384182907 0.47766439368476649 0 -0.041758062999807367 0.47618372532725728 0 -0.0419800222431604 0.46518140433549732 0 -0.01345201465746383 0.46774634869629322 0 -0.041758062999807367 0.47618372532725728 0 -0.042139887415076342 0.49281443204190178 0 -0.032447842195153342 0.48378293317924542 0 -0.041758062999807367 0.47618372532725728 0 -0.046725468384182907 0.47766439368476649 0 -0.041758062999807367 0.47618372532725728 0 -0.0419800222431604 0.46518140433549732 0 -0.046725468384182907 0.47766439368476649 0 -0.041758062999807367 0.47618372532725728 0 -0.050742244958162368 0.46439359559444437 0 -0.0419800222431604 0.46518140433549732 0 -0.046725468384182907 0.47766439368476649 0 -0.0419800222431604 0.46518140433549732 0 -0.041758062999807367 0.47618372532725728 0 -0.046725468384182907 0.47766439368476649 0 -0.061707257777874093 0.47273252787991399 0 -0.071702929972361051 0.48510959578984503 0 -0.046725468384182907 0.47766439368476649 0 -0.071702929972361051 0.48510959578984503 0 -0.050742244958162368 0.46439359559444437 0 -0.046725468384182907 0.47766439368476649 0 -0.061707257777874093 0.47273252787991399 0 -0.050742244958162368 0.46439359559444437 0 -0.046725468384182907 0.47766439368476649 0 -0.046725468384182907 0.47766439368476649 0 -0.053580454847170257 0.49193017513362319 0 -0.071702929972361051 0.48510959578984503 0 -0.039964975186860582 0.49999999999999872 0 -0.053580454847170257 0.49193017513362319 0 -0.067195934507479516 0.5 0 -0.042139887415076342 0.49281443204190178 0 -0.046725468384182907 0.47766439368476649 0 -0.053580454847170257 0.49193017513362319 0 -0.053580454847170257 0.49193017513362319 0 -0.067195934507479516 0.5 0 -0.071702929972361051 0.48510959578984503 0 -0.067195934507479516 0.5 0 -0.071702929972361051 0.48510959578984503 0 -0.094426893828098324 0.5 0 -0.071702929972361051 0.48510959578984503 0 -0.096680391560538939 0.49255479789492401 0 -0.071702929972361051 0.48510959578984503 0 -0.094426893828098324 0.5 0 -0.096680391560538939 0.49255479789492401 0 -0.071702929972361051 0.48510959578984503 0 -0.094342239683345888 0.46564946071770819 0 -0.096680391560538939 0.49255479789492401 0 -0.071702929972361051 0.48510959578984503 0 -0.073231504917427276 0.46237159316971249 0 -0.094342239683345888 0.46564946071770819 0 -0.061707257777874093 0.47273252787991399 0 -0.071702929972361051 0.48510959578984503 0 -0.073231504917427276 0.46237159316971249 0 -0.050742244958162368 0.46439359559444437 0 -0.073231504917427276 0.46237159316971249 0 -0.065484051744298263 0.4513847118260722 0 -0.059178928229814701 0.4365201208845606 0 -0.065484051744298263 0.4513847118260722 0 -0.078698858269308614 0.44343419105434712 0 -0.073231504917427276 0.46237159316971249 0 -0.065484051744298263 0.4513847118260722 0 -0.078698858269308614 0.44343419105434712 0 -0.078698858269308614 0.44343419105434712 0 -0.094342239683345888 0.46564946071770819 0 -0.098677616465060528 0.43762344985591101 0 -0.073231504917427276 0.46237159316971249 0 -0.078698858269308614 0.44343419105434712 0 -0.094342239683345888 0.46564946071770819 0 -0.094342239683345888 0.46564946071770819 0 -0.098677616465060528 0.43762344985591101 0 -0.11987972175203609 0.45809198546251739 0 -0.098677616465060528 0.43762344985591101 0 -0.11987972175203609 0.45809198546251739 0 -0.12509104342100061 0.44188941827772182 0 -0.098677616465060528 0.43762344985591101 0 -0.11987972175203609 0.45809198546251739 0 -0.094342239683345888 0.46564946071770819 0 -0.11987972175203609 0.45809198546251739 0 -0.1215246548466888 0.48036061179670092 0 -0.1215246548466888 0.48036061179670092 0 -0.1216578531487173 0.50000000000000155 0 -0.096680391560538939 0.49255479789492401 0 -0.1216578531487173 0.50000000000000155 0 -0.094426893828098324 0.5 0 -0.096680391560538939 0.49255479789492401 0 -0.1216578531487173 0.50000000000000155 0 -0.096680391560538939 0.49255479789492401 0 -0.094342239683345888 0.46564946071770819 0 -0.1215246548466888 0.48036061179670092 0 -0.096680391560538939 0.49255479789492401 0 -0.16310986573530631 0.084156321085019567 0 -0.17544541039362899 0.09436804860009354 0 -0.15783765240444911 0.096274401630791262 0 -0.16310986573530631 0.084156321085019567 0 -0.15783765240444911 0.096274401630791262 0 -0.16310986573530631 0.084156321085019567 0 -0.1657815390990264 0.070802932860687437 0 -0.15463431661472629 0.07014553381523804 0 -0.16310986573530631 0.084156321085019567 0 -0.1657815390990264 0.070802932860687437 0 -0.17966236107341149 0.074300518116336353 0 -0.1657815390990264 0.070802932860687437 0 -0.17966236107341149 0.074300518116336353 0 -0.1657196129726615 0.054609358426155781 0 -0.1657815390990264 0.070802932860687437 0 -0.15463431661472629 0.07014553381523804 0 -0.1657196129726615 0.054609358426155781 0 -0.17966236107341149 0.074300518116336353 0 -0.1657196129726615 0.054609358426155781 0 -0.19326118210642521 0.060262893486061127 0 -0.17966236107341149 0.074300518116336353 0 -0.1657196129726615 0.054609358426155781 0 -0.16310986573530631 0.084156321085019567 0 -0.17966236107341149 0.074300518116336353 0 -0.17544541039362899 0.09436804860009354 0 -0.17966236107341149 0.074300518116336353 0 -0.17544541039362899 0.09436804860009354 0 -0.19360510917416149 0.093991677806516877 0 -0.17966236107341149 0.074300518116336353 0 -0.19360510917416149 0.093991677806516877 0 -0.17544541039362899 0.09436804860009354 0 -0.18934336527218601 0.1087413065502997 0 -0.19360510917416149 0.093991677806516877 0 -0.17544541039362899 0.09436804860009354 0 -0.16911410870225951 0.1087440664115976 0 -0.18934336527218601 0.1087413065502997 0 -0.18039056500006781 0.12121373119240569 0 -0.16911410870225951 0.1087440664115976 0 -0.18934336527218601 0.1087413065502997 0 -0.18039056500006781 0.12121373119240569 0 -0.16911410870225951 0.1087440664115976 0 -0.18039056500006781 0.12121373119240569 0 -0.16911410870225951 0.1087440664115976 0 -0.15507510040999009 0.1056512286087255 0 -0.18039056500006781 0.12121373119240569 0 -0.15507510040999009 0.1056512286087255 0 -0.1628447509754036 0.1248738178506951 0 -0.15507510040999009 0.1056512286087255 0 -0.15358711882774939 0.11801712706942639 0 -0.18039056500006781 0.12121373119240569 0 -0.1628447509754036 0.1248738178506951 0 -0.15507510040999009 0.1056512286087255 0 -0.17544541039362899 0.09436804860009354 0 -0.16911410870225951 0.1087440664115976 0 -0.15783765240444911 0.096274401630791262 0 -0.16911410870225951 0.1087440664115976 0 -0.15783765240444911 0.096274401630791262 0 -0.16911410870225951 0.1087440664115976 0 -0.15783765240444911 0.096274401630791262 0 -0.15507510040999009 0.1056512286087255 0 -0.15783765240444911 0.096274401630791262 0 -0.14455303356647331 0.096744639073681929 0 -0.15139402388202119 0.11108495737684999 0 -0.14455303356647331 0.096744639073681929 0 -0.15139402388202119 0.11108495737684999 0 -0.12991930243541749 0.1020465165188278 0 -0.15783765240444911 0.096274401630791262 0 -0.15507510040999009 0.1056512286087255 0 -0.15139402388202119 0.11108495737684999 0 -0.15783765240444911 0.096274401630791262 0 -0.15139402388202119 0.11108495737684999 0 -0.15139402388202119 0.11108495737684999 0 -0.12991930243541749 0.1020465165188278 0 -0.14495039535959489 0.12589551312290931 0 -0.1628447509754036 0.1248738178506951 0 -0.15358711882774939 0.11801712706942639 0 -0.14495039535959489 0.12589551312290931 0 -0.15358711882774939 0.11801712706942639 0 -0.15139402388202119 0.11108495737684999 0 -0.14495039535959489 0.12589551312290931 0 -0.15507510040999009 0.1056512286087255 0 -0.15358711882774939 0.11801712706942639 0 -0.15139402388202119 0.11108495737684999 0 -0.15139402388202119 0.11108495737684999 0 -0.14495039535959489 0.12589551312290931 0 -0.12991930243541749 0.1020465165188278 0 -0.14495039535959489 0.12589551312290931 0 -0.12991930243541749 0.1020465165188278 0 -0.14495039535959489 0.12589551312290931 0 -0.13028426483969929 0.13221647237215789 0 -0.14455303356647331 0.096744639073681929 0 -0.12991930243541749 0.1020465165188278 0 -0.13683438329036771 0.088098653177494879 0 -0.12991930243541749 0.1020465165188278 0 -0.13683438329036771 0.088098653177494879 0 -0.1248370695698198 0.083226530136874921 0 -0.13683438329036771 0.088098653177494879 0 -0.13729578978526799 0.073558919561796721 0 -0.1248370695698198 0.083226530136874921 0 -0.13683438329036771 0.088098653177494879 0 -0.14756672109485969 0.08491666059629295 0 -0.13729578978526799 0.073558919561796721 0 -0.14455303356647331 0.096744639073681929 0 -0.13683438329036771 0.088098653177494879 0 -0.14756672109485969 0.08491666059629295 0 -0.14756672109485969 0.08491666059629295 0 -0.13729578978526799 0.073558919561796721 0 -0.16310986573530631 0.084156321085019567 0 -0.14756672109485969 0.08491666059629295 0 -0.15463431661472629 0.07014553381523804 0 -0.16310986573530631 0.084156321085019567 0 -0.15783765240444911 0.096274401630791262 0 -0.14756672109485969 0.08491666059629295 0 -0.15783765240444911 0.096274401630791262 0 -0.14756672109485969 0.08491666059629295 0 -0.15783765240444911 0.096274401630791262 0 -0.14455303356647331 0.096744639073681929 0 -0.14756672109485969 0.08491666059629295 0 -0.14756672109485969 0.08491666059629295 0 -0.15463431661472629 0.07014553381523804 0 -0.13729578978526799 0.073558919561796721 0 -0.15463431661472629 0.07014553381523804 0 -0.13729578978526799 0.073558919561796721 0 -0.14428807100988511 0.057223156242914672 0 -0.13729578978526799 0.073558919561796721 0 -0.1311901693420546 0.060374133793646992 0 -0.14428807100988511 0.057223156242914672 0 -0.13729578978526799 0.073558919561796721 0 -0.12498233095038511 0.069533312171706482 0 -0.1248370695698198 0.083226530136874921 0 -0.13729578978526799 0.073558919561796721 0 -0.1311901693420546 0.060374133793646992 0 -0.12498233095038511 0.069533312171706482 0 -0.1311901693420546 0.060374133793646992 0 -0.1304591025064194 0.044551821316570157 0 -0.1169815729820268 0.057446916627697332 0 -0.1311901693420546 0.060374133793646992 0 -0.1304591025064194 0.044551821316570157 0 -0.14428807100988511 0.057223156242914672 0 -0.1304591025064194 0.044551821316570157 0 -0.1338093633065561 0.031702984145267947 0 -0.14718764802187309 0.041237794311798179 0 -0.1304591025064194 0.044551821316570157 0 -0.1338093633065561 0.031702984145267947 0 -0.120950474974805 0.030974477430810402 0 -0.14718764802187309 0.041237794311798179 0 -0.14507935476777459 0.024735833563247479 0 -0.16332082262574071 0.033969476032413119 0 -0.1338093633065561 0.031702984145267947 0 -0.14718764802187309 0.041237794311798179 0 -0.14507935476777459 0.024735833563247479 0 -0.1304591025064194 0.044551821316570157 0 -0.14718764802187309 0.041237794311798179 0 -0.14428807100988511 0.057223156242914672 0 -0.15463431661472629 0.07014553381523804 0 -0.14428807100988511 0.057223156242914672 0 -0.1657196129726615 0.054609358426155781 0 -0.14718764802187309 0.041237794311798179 0 -0.14428807100988511 0.057223156242914672 0 -0.1657196129726615 0.054609358426155781 0 -0.1273771369441013 0.0023450629401116992 0 -0.12537023626190849 0.01701499410391356 0 -0.14358534871595791 0.0085390787577918573 0 -0.14275634286812811 -0.006203461430080404 0 -0.1273771369441013 0.0023450629401116992 0 -0.14358534871595791 0.0085390787577918573 0 -0.1338093633065561 0.031702984145267947 0 -0.12537023626190849 0.01701499410391356 0 -0.14507935476777459 0.024735833563247479 0 -0.12537023626190849 0.01701499410391356 0 -0.14507935476777459 0.024735833563247479 0 -0.14358534871595791 0.0085390787577918573 0 -0.1338093633065561 0.031702984145267947 0 -0.12537023626190849 0.01701499410391356 0 -0.120950474974805 0.030974477430810402 0 -0.14507935476777459 0.024735833563247479 0 -0.14358534871595791 0.0085390787577918573 0 -0.1631610812614456 0.0141265482177085 0 -0.15796117991031841 -0.00029962151665172479 0 -0.14358534871595791 0.0085390787577918573 0 -0.1631610812614456 0.0141265482177085 0 -0.14275634286812811 -0.006203461430080404 0 -0.15796117991031841 -0.00029962151665172479 0 -0.14358534871595791 0.0085390787577918573 0 -0.15796117991031841 -0.00029962151665172479 0 -0.17967452986780849 -0.0030086181600807401 0 -0.1631610812614456 0.0141265482177085 0 -0.1631610812614456 0.0141265482177085 0 -0.18063081477410151 0.02444866588981499 0 -0.16332082262574071 0.033969476032413119 0 -0.14507935476777459 0.024735833563247479 0 -0.1631610812614456 0.0141265482177085 0 -0.16332082262574071 0.033969476032413119 0 -0.17967452986780849 -0.0030086181600807401 0 -0.1631610812614456 0.0141265482177085 0 -0.18063081477410151 0.02444866588981499 0 -0.17967452986780849 -0.0030086181600807401 0 -0.18063081477410151 0.02444866588981499 0 -0.19591489879339791 0.012499298725408061 0 -0.1657196129726615 0.054609358426155781 0 -0.16332082262574071 0.033969476032413119 0 -0.1853408533429271 0.041769259974547668 0 -0.14718764802187309 0.041237794311798179 0 -0.1657196129726615 0.054609358426155781 0 -0.16332082262574071 0.033969476032413119 0 -0.18063081477410151 0.02444866588981499 0 -0.16332082262574071 0.033969476032413119 0 -0.1853408533429271 0.041769259974547668 0 -0.1657196129726615 0.054609358426155781 0 -0.1853408533429271 0.041769259974547668 0 -0.19326118210642521 0.060262893486061127 0 -0.1853408533429271 0.041769259974547668 0 -0.19326118210642521 0.060262893486061127 0 -0.20638984228336041 0.047204147208118788 0 -0.18063081477410151 0.02444866588981499 0 -0.1853408533429271 0.041769259974547668 0 -0.2003712226561333 0.029120430419108619 0 -0.1853408533429271 0.041769259974547668 0 -0.20638984228336041 0.047204147208118788 0 -0.2003712226561333 0.029120430419108619 0 -0.20638984228336041 0.047204147208118788 0 -0.2003712226561333 0.029120430419108619 0 -0.21890969838457369 0.03387481538926377 0 -0.20638984228336041 0.047204147208118788 0 -0.2248274879423891 0.050626958701997932 0 -0.21890969838457369 0.03387481538926377 0 -0.20638984228336041 0.047204147208118788 0 -0.2248274879423891 0.050626958701997932 0 -0.21240822864659401 0.064474545157398255 0 -0.19326118210642521 0.060262893486061127 0 -0.20638984228336041 0.047204147208118788 0 -0.21240822864659401 0.064474545157398255 0 -0.17967452986780849 -0.0030086181600807401 0 -0.20680301002479959 -0.0020434230711429339 0 -0.19591489879339791 0.012499298725408061 0 -0.18063081477410151 0.02444866588981499 0 -0.19591489879339791 0.012499298725408061 0 -0.2003712226561333 0.029120430419108619 0 -0.2003712226561333 0.029120430419108619 0 -0.2150412283584397 0.01492639532749848 0 -0.21890969838457369 0.03387481538926377 0 -0.19591489879339791 0.012499298725408061 0 -0.2003712226561333 0.029120430419108619 0 -0.2150412283584397 0.01492639532749848 0 -0.20680301002479959 -0.0020434230711429339 0 -0.19591489879339791 0.012499298725408061 0 -0.2150412283584397 0.01492639532749848 0 -0.20680301002479959 -0.0020434230711429339 0 -0.2150412283584397 0.01492639532749848 0 -0.22850437187820721 0.00061554774341724197 0 -0.2150412283584397 0.01492639532749848 0 -0.22850437187820721 0.00061554774341724197 0 -0.23416676111704099 0.01917273774715204 0 -0.23416676111704099 0.01917273774715204 0 -0.21890969838457369 0.03387481538926377 0 -0.23451298379830759 0.036058925104307242 0 -0.2150412283584397 0.01492639532749848 0 -0.23416676111704099 0.01917273774715204 0 -0.21890969838457369 0.03387481538926377 0 -0.25132042997239518 0.0027134119798401068 0 -0.25642639863326749 0.02710060176493858 0 -0.23416676111704099 0.01917273774715204 0 -0.25642639863326749 0.02710060176493858 0 -0.23416676111704099 0.01917273774715204 0 -0.23451298379830759 0.036058925104307242 0 -0.25132042997239518 0.0027134119798401068 0 -0.22850437187820721 0.00061554774341724197 0 -0.23416676111704099 0.01917273774715204 0 -0.2248274879423891 0.050626958701997932 0 -0.234130504556473 0.067172247096954504 0 -0.21240822864659401 0.064474545157398255 0 -0.2248274879423891 0.050626958701997932 0 -0.21890969838457369 0.03387481538926377 0 -0.23451298379830759 0.036058925104307242 0 -0.25642639863326749 0.02710060176493858 0 -0.23451298379830759 0.036058925104307242 0 -0.24534917185526489 0.049526218608574313 0 -0.2248274879423891 0.050626958701997932 0 -0.23451298379830759 0.036058925104307242 0 -0.24534917185526489 0.049526218608574313 0 -0.26195798501385009 0.070226375813507561 0 -0.24534917185526489 0.049526218608574313 0 -0.234130504556473 0.067172247096954504 0 -0.2248274879423891 0.050626958701997932 0 -0.24534917185526489 0.049526218608574313 0 -0.234130504556473 0.067172247096954504 0 -0.26195798501385009 0.070226375813507561 0 -0.24382127576753621 0.084711863041238192 0 -0.234130504556473 0.067172247096954504 0 -0.24382127576753621 0.084711863041238192 0 -0.22568456652122221 0.099197350268968809 0 -0.24382127576753621 0.084711863041238192 0 -0.221160002309051 0.081738136999685213 0 -0.22568456652122221 0.099197350268968809 0 -0.221160002309051 0.081738136999685213 0 -0.20949418686790969 0.097522886253834359 0 -0.22568456652122221 0.099197350268968809 0 -0.24382127576753621 0.084711863041238192 0 -0.221160002309051 0.081738136999685213 0 -0.234130504556473 0.067172247096954504 0 -0.221160002309051 0.081738136999685213 0 -0.234130504556473 0.067172247096954504 0 -0.21240822864659401 0.064474545157398255 0 -0.221160002309051 0.081738136999685213 0 -0.21240822864659401 0.064474545157398255 0 -0.19789508720454749 0.077516785054754192 0 -0.221160002309051 0.081738136999685213 0 -0.19789508720454749 0.077516785054754192 0 -0.20949418686790969 0.097522886253834359 0 -0.17966236107341149 0.074300518116336353 0 -0.19789508720454749 0.077516785054754192 0 -0.19360510917416149 0.093991677806516877 0 -0.19789508720454749 0.077516785054754192 0 -0.19360510917416149 0.093991677806516877 0 -0.20949418686790969 0.097522886253834359 0 -0.19326118210642521 0.060262893486061127 0 -0.21240822864659401 0.064474545157398255 0 -0.19789508720454749 0.077516785054754192 0 -0.17966236107341149 0.074300518116336353 0 -0.19326118210642521 0.060262893486061127 0 -0.19789508720454749 0.077516785054754192 0 -0.20040659369392541 0.1193864456313013 0 -0.18934336527218601 0.1087413065502997 0 -0.2075478572749084 0.11368283749669961 0 -0.18039056500006781 0.12121373119240569 0 -0.20040659369392541 0.1193864456313013 0 -0.18934336527218601 0.1087413065502997 0 -0.19360510917416149 0.093991677806516877 0 -0.2075478572749084 0.11368283749669961 0 -0.18934336527218601 0.1087413065502997 0 -0.19360510917416149 0.093991677806516877 0 -0.2075478572749084 0.11368283749669961 0 -0.19360510917416149 0.093991677806516877 0 -0.20949418686790969 0.097522886253834359 0 -0.2075478572749084 0.11368283749669961 0 -0.2075478572749084 0.11368283749669961 0 -0.22568456652122221 0.099197350268968809 0 -0.20949418686790969 0.097522886253834359 0 -0.2075478572749084 0.11368283749669961 0 -0.22568456652122221 0.099197350268968809 0 -0.2075478572749084 0.11368283749669961 0 -0.22488407219564061 0.1186598638475915 0 -0.22370276663374011 0.1364982034250237 0 -0.20040659369392541 0.1193864456313013 0 -0.2075478572749084 0.11368283749669961 0 -0.20214902218410111 0.13458958866239301 0 -0.20040659369392541 0.1193864456313013 0 -0.2075478572749084 0.11368283749669961 0 -0.2075478572749084 0.11368283749669961 0 -0.22488407219564061 0.1186598638475915 0 -0.22568456652122221 0.099197350268968809 0 -0.22488407219564061 0.1186598638475915 0 -0.23975573915859391 0.1186480270080747 0 -0.23562440086935879 0.12869665656040569 0 -0.22488407219564061 0.1186598638475915 0 -0.22568456652122221 0.099197350268968809 0 -0.23888908650362611 0.1045060591559635 0 -0.24382127576753621 0.084711863041238192 0 -0.22568456652122221 0.099197350268968809 0 -0.23888908650362611 0.1045060591559635 0 -0.25364395357421121 0.10678394025260531 0 -0.24382127576753621 0.084711863041238192 0 -0.23888908650362611 0.1045060591559635 0 -0.25033803458298193 0.12914144363467839 0 -0.25364395357421121 0.10678394025260531 0 -0.23975573915859391 0.1186480270080747 0 -0.22488407219564061 0.1186598638475915 0 -0.23888908650362611 0.1045060591559635 0 -0.23975573915859391 0.1186480270080747 0 -0.25364395357421121 0.10678394025260531 0 -0.23888908650362611 0.1045060591559635 0 -0.23975573915859391 0.1186480270080747 0 -0.25033803458298193 0.12914144363467839 0 -0.23975573915859391 0.1186480270080747 0 -0.23562440086935879 0.12869665656040569 0 -0.25033803458298193 0.12914144363467839 0 -0.2394413917758374 0.14053574488666021 0 -0.23562440086935879 0.12869665656040569 0 -0.2394413917758374 0.14053574488666021 0 -0.23562440086935879 0.12869665656040569 0 -0.22370276663374011 0.1364982034250237 0 -0.22488407219564061 0.1186598638475915 0 -0.23562440086935879 0.12869665656040569 0 -0.22370276663374011 0.1364982034250237 0 -0.2394413917758374 0.14053574488666021 0 -0.22370276663374011 0.1364982034250237 0 -0.22390747936813421 0.14796544613238069 0 -0.22390747936813421 0.14796544613238069 0 -0.22774584105848089 0.15976823357977049 0 -0.2168312664826515 0.15850745189495519 0 -0.2394413917758374 0.14053574488666021 0 -0.22390747936813421 0.14796544613238069 0 -0.24566593655216731 0.1613413036023684 0 -0.22390747936813421 0.14796544613238069 0 -0.24566593655216731 0.1613413036023684 0 -0.26077588748637798 0.14053443996503889 0 -0.2394413917758374 0.14053574488666021 0 -0.24566593655216731 0.1613413036023684 0 -0.24566593655216731 0.1613413036023684 0 -0.2425545525554833 0.18325607046718431 0 -0.22457868183097049 0.171258732689378 0 -0.2425545525554833 0.18325607046718431 0 -0.2235130486054053 0.18492553164669809 0 -0.22457868183097049 0.171258732689378 0 -0.2425545525554833 0.18325607046718431 0 -0.2235130486054053 0.18492553164669809 0 -0.2315679775879351 0.19375458513227489 0 -0.2235130486054053 0.18492553164669809 0 -0.22457868183097049 0.171258732689378 0 -0.209750232499154 0.17791844316711489 0 -0.24566593655216731 0.1613413036023684 0 -0.22774584105848089 0.15976823357977049 0 -0.22457868183097049 0.171258732689378 0 -0.22390747936813421 0.14796544613238069 0 -0.24566593655216731 0.1613413036023684 0 -0.22774584105848089 0.15976823357977049 0 -0.22774584105848089 0.15976823357977049 0 -0.22457868183097049 0.171258732689378 0 -0.2168312664826515 0.15850745189495519 0 -0.2168312664826515 0.15850745189495519 0 -0.21186753860838101 0.16733255095299371 0 -0.20758447520558959 0.15683863127083711 0 -0.22457868183097049 0.171258732689378 0 -0.2168312664826515 0.15850745189495519 0 -0.21186753860838101 0.16733255095299371 0 -0.21186753860838101 0.16733255095299371 0 -0.209750232499154 0.17791844316711489 0 -0.20173639765426299 0.1643971743801825 0 -0.21186753860838101 0.16733255095299371 0 -0.20758447520558959 0.15683863127083711 0 -0.20173639765426299 0.1643971743801825 0 -0.20758447520558959 0.15683863127083711 0 -0.20173639765426299 0.1643971743801825 0 -0.20024290349544879 0.15519061181074151 0 -0.22457868183097049 0.171258732689378 0 -0.21186753860838101 0.16733255095299371 0 -0.209750232499154 0.17791844316711489 0 -0.19610042498268601 0.17522502183351021 0 -0.19038698318195549 0.16711234260031069 0 -0.17752183765376101 0.1775748035498933 0 -0.19610042498268601 0.17522502183351021 0 -0.19785886193094021 0.18900131099286041 0 -0.17752183765376101 0.1775748035498933 0 -0.19785886193094021 0.18900131099286041 0 -0.17752183765376101 0.1775748035498933 0 -0.209750232499154 0.17791844316711489 0 -0.19610042498268601 0.17522502183351021 0 -0.19785886193094021 0.18900131099286041 0 -0.209750232499154 0.17791844316711489 0 -0.19610042498268601 0.17522502183351021 0 -0.20173639765426299 0.1643971743801825 0 -0.20173639765426299 0.1643971743801825 0 -0.1927705130470404 0.15866088515044 0 -0.20024290349544879 0.15519061181074151 0 -0.19610042498268601 0.17522502183351021 0 -0.20173639765426299 0.1643971743801825 0 -0.19038698318195549 0.16711234260031069 0 -0.20173639765426299 0.1643971743801825 0 -0.19038698318195549 0.16711234260031069 0 -0.1927705130470404 0.15866088515044 0 -0.19038698318195549 0.16711234260031069 0 -0.1927705130470404 0.15866088515044 0 -0.18413510522225521 0.16259499244525211 0 -0.1927705130470404 0.15866088515044 0 -0.19507878308752141 0.1486405391940768 0 -0.1852646507768699 0.1545619776798173 0 -0.19507878308752141 0.1486405391940768 0 -0.18706065072040501 0.14468661846275019 0 -0.1852646507768699 0.1545619776798173 0 -0.19507878308752141 0.1486405391940768 0 -0.20024290349544879 0.15519061181074151 0 -0.20390252305447459 0.15036513687703029 0 -0.1927705130470404 0.15866088515044 0 -0.19507878308752141 0.1486405391940768 0 -0.20024290349544879 0.15519061181074151 0 -0.19507878308752141 0.1486405391940768 0 -0.202312374299252 0.1441640524023215 0 -0.19563802519160789 0.13807458821396759 0 -0.19507878308752141 0.1486405391940768 0 -0.202312374299252 0.1441640524023215 0 -0.20390252305447459 0.15036513687703029 0 -0.19507878308752141 0.1486405391940768 0 -0.19563802519160789 0.13807458821396759 0 -0.18706065072040501 0.14468661846275019 0 -0.18039056500006781 0.12121373119240569 0 -0.20214902218410111 0.13458958866239301 0 -0.18039056500006781 0.12121373119240569 0 -0.20040659369392541 0.1193864456313013 0 -0.20214902218410111 0.13458958866239301 0 -0.18039056500006781 0.12121373119240569 0 -0.19563802519160789 0.13807458821396759 0 -0.20214902218410111 0.13458958866239301 0 -0.18039056500006781 0.12121373119240569 0 -0.19563802519160789 0.13807458821396759 0 -0.202312374299252 0.1441640524023215 0 -0.19563802519160789 0.13807458821396759 0 -0.20214902218410111 0.13458958866239301 0 -0.2075478572749084 0.11368283749669961 0 -0.22370276663374011 0.1364982034250237 0 -0.20214902218410111 0.13458958866239301 0 -0.2075478572749084 0.11368283749669961 0 -0.22370276663374011 0.1364982034250237 0 -0.22370276663374011 0.1364982034250237 0 -0.22390747936813421 0.14796544613238069 0 -0.20214902218410111 0.13458958866239301 0 -0.22390747936813421 0.14796544613238069 0 -0.20214902218410111 0.13458958866239301 0 -0.22390747936813421 0.14796544613238069 0 -0.20214902218410111 0.13458958866239301 0 -0.20948943058945241 0.14863997276184041 0 -0.22390747936813421 0.14796544613238069 0 -0.2168312664826515 0.15850745189495519 0 -0.20948943058945241 0.14863997276184041 0 -0.2168312664826515 0.15850745189495519 0 -0.20758447520558959 0.15683863127083711 0 -0.20948943058945241 0.14863997276184041 0 -0.20758447520558959 0.15683863127083711 0 -0.20948943058945241 0.14863997276184041 0 -0.20390252305447459 0.15036513687703029 0 -0.20758447520558959 0.15683863127083711 0 -0.20024290349544879 0.15519061181074151 0 -0.20390252305447459 0.15036513687703029 0 -0.202312374299252 0.1441640524023215 0 -0.20214902218410111 0.13458958866239301 0 -0.20948943058945241 0.14863997276184041 0 -0.202312374299252 0.1441640524023215 0 -0.20948943058945241 0.14863997276184041 0 -0.20390252305447459 0.15036513687703029 0 -0.22764024225575111 0.25709488017932702 0 -0.2151106411052526 0.2372148610219694 0 -0.22764024225575111 0.25709488017932702 0 -0.2283272457552897 0.2411225242229286 0 -0.2468893326351202 0.24329134098969171 0 -0.22764024225575111 0.25709488017932702 0 -0.2283272457552897 0.2411225242229286 0 -0.2151106411052526 0.2372148610219694 0 -0.2283272457552897 0.2411225242229286 0 -0.22236430254422471 0.22707510271615991 0 -0.2151106411052526 0.2372148610219694 0 -0.2283272457552897 0.2411225242229286 0 -0.2468893326351202 0.24329134098969171 0 -0.2329273297721271 0.2301735095518313 0 -0.25250373055295899 0.22903132158689779 0 -0.2468893326351202 0.24329134098969171 0 -0.24260825180894061 0.22311859240920151 0 -0.2468893326351202 0.24329134098969171 0 -0.24260825180894061 0.22311859240920151 0 -0.2329273297721271 0.2301735095518313 0 -0.25326648915379463 0.21765104414027969 0 -0.25250373055295899 0.22903132158689779 0 -0.24260825180894061 0.22311859240920151 0 -0.24260825180894061 0.22311859240920151 0 -0.23239639752576971 0.22100751879425451 0 -0.2329273297721271 0.2301735095518313 0 -0.23239639752576971 0.22100751879425451 0 -0.2329273297721271 0.2301735095518313 0 -0.22236430254422471 0.22707510271615991 0 -0.2283272457552897 0.2411225242229286 0 -0.2329273297721271 0.2301735095518313 0 -0.22236430254422471 0.22707510271615991 0 -0.23239639752576971 0.22100751879425451 0 -0.22236430254422471 0.22707510271615991 0 -0.2228431611521535 0.2155973608413651 0 -0.2228431611521535 0.2155973608413651 0 -0.2385329104852989 0.2118543258787943 0 -0.21819588620811961 0.20042781843582741 0 -0.2385329104852989 0.2118543258787943 0 -0.21819588620811961 0.20042781843582741 0 -0.23239639752576971 0.22100751879425451 0 -0.2228431611521535 0.2155973608413651 0 -0.2385329104852989 0.2118543258787943 0 -0.2385329104852989 0.2118543258787943 0 -0.24039455529309961 0.2058142864805034 0 -0.21819588620811961 0.20042781843582741 0 -0.24260825180894061 0.22311859240920151 0 -0.23239639752576971 0.22100751879425451 0 -0.2385329104852989 0.2118543258787943 0 -0.25326648915379463 0.21765104414027969 0 -0.24039455529309961 0.2058142864805034 0 -0.25326648915379463 0.21765104414027969 0 -0.2385329104852989 0.2118543258787943 0 -0.24039455529309961 0.2058142864805034 0 -0.25326648915379463 0.21765104414027969 0 -0.24260825180894061 0.22311859240920151 0 -0.2385329104852989 0.2118543258787943 0 -0.25264776582176801 0.2054066783297176 0 -0.25326648915379463 0.21765104414027969 0 -0.24039455529309961 0.2058142864805034 0 -0.25846339158769432 0.19477026040294029 0 -0.2425545525554833 0.18325607046718431 0 -0.24512564856919611 0.1966003761625241 0 -0.24039455529309961 0.2058142864805034 0 -0.24512564856919611 0.1966003761625241 0 -0.2315679775879351 0.19375458513227489 0 -0.25264776582176801 0.2054066783297176 0 -0.24039455529309961 0.2058142864805034 0 -0.24512564856919611 0.1966003761625241 0 -0.2425545525554833 0.18325607046718431 0 -0.24512564856919611 0.1966003761625241 0 -0.2315679775879351 0.19375458513227489 0 -0.24039455529309961 0.2058142864805034 0 -0.2315679775879351 0.19375458513227489 0 -0.21819588620811961 0.20042781843582741 0 -0.2235130486054053 0.18492553164669809 0 -0.2315679775879351 0.19375458513227489 0 -0.21819588620811961 0.20042781843582741 0 -0.21819588620811961 0.20042781843582741 0 -0.19785886193094021 0.18900131099286041 0 -0.2235130486054053 0.18492553164669809 0 -0.209750232499154 0.17791844316711489 0 -0.21819588620811961 0.20042781843582741 0 -0.209750232499154 0.17791844316711489 0 -0.21819588620811961 0.20042781843582741 0 -0.19785886193094021 0.18900131099286041 0 -0.21819588620811961 0.20042781843582741 0 -0.20376966825666501 0.2022924765927995 0 -0.19785886193094021 0.18900131099286041 0 -0.19785886193094021 0.18900131099286041 0 -0.19005143880425829 0.1974548227072519 0 -0.17752183765376101 0.1775748035498933 0 -0.20376966825666501 0.2022924765927995 0 -0.19785886193094021 0.18900131099286041 0 -0.19005143880425829 0.1974548227072519 0 -0.19005143880425829 0.1974548227072519 0 -0.187650486280975 0.21451757224245291 0 -0.20258103995475549 0.21733484186461069 0 -0.19005143880425829 0.1974548227072519 0 -0.20258103995475549 0.21733484186461069 0 -0.20376966825666501 0.2022924765927995 0 -0.19005143880425829 0.1974548227072519 0 -0.20258103995475549 0.21733484186461069 0 -0.2228431611521535 0.2155973608413651 0 -0.21819588620811961 0.20042781843582741 0 -0.20258103995475549 0.21733484186461069 0 -0.21819588620811961 0.20042781843582741 0 -0.20376966825666501 0.2022924765927995 0 -0.20258103995475549 0.21733484186461069 0 -0.20258103995475549 0.21733484186461069 0 -0.19839606398960871 0.22991008851962841 0 -0.2151106411052526 0.2372148610219694 0 -0.22236430254422471 0.22707510271615991 0 -0.2228431611521535 0.2155973608413651 0 -0.20258103995475549 0.21733484186461069 0 -0.22236430254422471 0.22707510271615991 0 -0.20258103995475549 0.21733484186461069 0 -0.2151106411052526 0.2372148610219694 0 -0.20258103995475549 0.21733484186461069 0 -0.2151106411052526 0.2372148610219694 0 -0.187650486280975 0.21451757224245291 0 -0.20258103995475549 0.21733484186461069 0 -0.19839606398960871 0.22991008851962841 0 -0.187650486280975 0.21451757224245291 0 -0.19839606398960871 0.22991008851962841 0 -0.18195408303730121 0.23534357450296481 0 -0.18940688912330481 0.25610334311205268 0 -0.2046840695697589 0.2451395929661444 0 -0.18195408303730121 0.23534357450296481 0 -0.2046840695697589 0.2451395929661444 0 -0.18195408303730121 0.23534357450296481 0 -0.19839606398960871 0.22991008851962841 0 -0.2046840695697589 0.2451395929661444 0 -0.18195408303730121 0.23534357450296481 0 -0.21239874098331929 0.25437807278244762 0 -0.2046840695697589 0.2451395929661444 0 -0.2151106411052526 0.2372148610219694 0 -0.19839606398960871 0.22991008851962841 0 -0.2046840695697589 0.2451395929661444 0 -0.2151106411052526 0.2372148610219694 0 -0.22764024225575111 0.25709488017932702 0 -0.21239874098331929 0.25437807278244762 0 -0.2151106411052526 0.2372148610219694 0 -0.16225317791305921 0.25358582624422438 0 -0.18195408303730121 0.23534357450296481 0 -0.155242522585569 0.24016045739440639 0 -0.17508206900779469 0.25918785244088571 0 -0.16225317791305921 0.25358582624422438 0 -0.18195408303730121 0.23534357450296481 0 -0.187650486280975 0.21451757224245291 0 -0.18195408303730121 0.23534357450296481 0 -0.17144823439391829 0.2141895330645725 0 -0.18195408303730121 0.23534357450296481 0 -0.15922409650484359 0.2255475560397853 0 -0.18195408303730121 0.23534357450296481 0 -0.15922409650484359 0.2255475560397853 0 -0.155242522585569 0.24016045739440639 0 -0.18195408303730121 0.23534357450296481 0 -0.15922409650484359 0.2255475560397853 0 -0.17144823439391829 0.2141895330645725 0 -0.15922409650484359 0.2255475560397853 0 -0.15900733689739069 0.21062159977010589 0 -0.17144823439391829 0.2141895330645725 0 -0.15900733689739069 0.21062159977010589 0 -0.1653418357915476 0.2018213455952054 0 -0.15361129879784891 0.20139719057542019 0 -0.17144823439391829 0.2141895330645725 0 -0.17723797391968729 0.20390802022475071 0 -0.1653418357915476 0.2018213455952054 0 -0.15900733689739069 0.21062159977010589 0 -0.17144823439391829 0.2141895330645725 0 -0.1653418357915476 0.2018213455952054 0 -0.187650486280975 0.21451757224245291 0 -0.17144823439391829 0.2141895330645725 0 -0.17723797391968729 0.20390802022475071 0 -0.19005143880425829 0.1974548227072519 0 -0.187650486280975 0.21451757224245291 0 -0.17723797391968729 0.20390802022475071 0 -0.19005143880425829 0.1974548227072519 0 -0.17169787432773731 0.19155682751427069 0 -0.17752183765376101 0.1775748035498933 0 -0.19005143880425829 0.1974548227072519 0 -0.17723797391968729 0.20390802022475071 0 -0.17169787432773731 0.19155682751427069 0 -0.19005143880425829 0.1974548227072519 0 -0.17752183765376101 0.1775748035498933 0 -0.17169787432773731 0.19155682751427069 0 -0.1653418357915476 0.2018213455952054 0 -0.15791164184663151 0.19274793286901881 0 -0.17723797391968729 0.20390802022475071 0 -0.17169787432773731 0.19155682751427069 0 -0.1653418357915476 0.2018213455952054 0 -0.1653418357915476 0.2018213455952054 0 -0.15791164184663151 0.19274793286901881 0 -0.15361129879784891 0.20139719057542019 0 -0.17169787432773731 0.19155682751427069 0 -0.15791164184663151 0.19274793286901881 0 -0.16134243263699979 0.18146195783717889 0 -0.15791164184663151 0.19274793286901881 0 -0.15361129879784891 0.20139719057542019 0 -0.14754997702249989 0.19123102061556399 0 -0.15791164184663151 0.19274793286901881 0 -0.14754997702249989 0.19123102061556399 0 -0.15378055215212841 0.1853342336718547 0 -0.15361129879784891 0.20139719057542019 0 -0.144337775963609 0.20069921068637719 0 -0.14754997702249989 0.19123102061556399 0 -0.14754997702249989 0.19123102061556399 0 -0.13411435042981179 0.19106266128805069 0 -0.1463292802833521 0.18023770330257241 0 -0.144337775963609 0.20069921068637719 0 -0.14754997702249989 0.19123102061556399 0 -0.13411435042981179 0.19106266128805069 0 -0.13411435042981179 0.19106266128805069 0 -0.12967955466007261 0.2074258594294596 0 -0.1235431789710726 0.1969801993001162 0 -0.13411435042981179 0.19106266128805069 0 -0.13770187294137159 0.2043383794177894 0 -0.12967955466007261 0.2074258594294596 0 -0.144337775963609 0.20069921068637719 0 -0.13411435042981179 0.19106266128805069 0 -0.13770187294137159 0.2043383794177894 0 -0.13770187294137159 0.2043383794177894 0 -0.13855706597983281 0.21350408889879899 0 -0.14247480998137141 0.20718589651263181 0 -0.1364941099723872 0.21575153757660309 0 -0.120958802369795 0.22183359367242919 0 -0.11894773722242739 0.20818951851535461 0 -0.12967955466007261 0.2074258594294596 0 -0.1364941099723872 0.21575153757660309 0 -0.11894773722242739 0.20818951851535461 0 -0.13770187294137159 0.2043383794177894 0 -0.12967955466007261 0.2074258594294596 0 -0.13855706597983281 0.21350408889879899 0 -0.1364941099723872 0.21575153757660309 0 -0.11894773722242739 0.20818951851535461 0 -0.12967955466007261 0.2074258594294596 0 -0.1364941099723872 0.21575153757660309 0 -0.13855706597983281 0.21350408889879899 0 -0.1364941099723872 0.21575153757660309 0 -0.13855706597983281 0.21350408889879899 0 -0.15922409650484359 0.2255475560397853 0 -0.1364941099723872 0.21575153757660309 0 -0.13855706597983281 0.21350408889879899 0 -0.15922409650484359 0.2255475560397853 0 -0.13855706597983281 0.21350408889879899 0 -0.14930252504067221 0.21020190704756139 0 -0.13855706597983281 0.21350408889879899 0 -0.14247480998137141 0.20718589651263181 0 -0.14930252504067221 0.21020190704756139 0 -0.144337775963609 0.20069921068637719 0 -0.14247480998137141 0.20718589651263181 0 -0.14930252504067221 0.21020190704756139 0 -0.144337775963609 0.20069921068637719 0 -0.13770187294137159 0.2043383794177894 0 -0.14247480998137141 0.20718589651263181 0 -0.15900733689739069 0.21062159977010589 0 -0.15361129879784891 0.20139719057542019 0 -0.14930252504067221 0.21020190704756139 0 -0.15361129879784891 0.20139719057542019 0 -0.144337775963609 0.20069921068637719 0 -0.14930252504067221 0.21020190704756139 0 -0.15922409650484359 0.2255475560397853 0 -0.15900733689739069 0.21062159977010589 0 -0.14930252504067221 0.21020190704756139 0 -0.15922409650484359 0.2255475560397853 0 -0.13635804662702189 0.23039018670563211 0 -0.14207867318260539 0.23889574066385899 0 -0.15922409650484359 0.2255475560397853 0 -0.1364941099723872 0.21575153757660309 0 -0.13635804662702189 0.23039018670563211 0 -0.15922409650484359 0.2255475560397853 0 -0.1364941099723872 0.21575153757660309 0 -0.1364941099723872 0.21575153757660309 0 -0.13635804662702189 0.23039018670563211 0 -0.11673432752768111 0.2372784614512472 0 -0.1364941099723872 0.21575153757660309 0 -0.11673432752768111 0.2372784614512472 0 -0.13635804662702189 0.23039018670563211 0 -0.12961957513534 0.23973743310435161 0 -0.11673432752768111 0.2372784614512472 0 -0.13635804662702189 0.23039018670563211 0 -0.12961957513534 0.23973743310435161 0 -0.14207867318260539 0.23889574066385899 0 -0.12961957513534 0.23973743310435161 0 -0.13357218109292621 0.2499317644564327 0 -0.1213089330464012 0.24626659804535689 0 -0.12961957513534 0.23973743310435161 0 -0.13357218109292621 0.2499317644564327 0 -0.14207867318260539 0.23889574066385899 0 -0.14746997276257359 0.25293699741112718 0 -0.13357218109292621 0.2499317644564327 0 -0.14207867318260539 0.23889574066385899 0 -0.15922409650484359 0.2255475560397853 0 -0.14207867318260539 0.23889574066385899 0 -0.155242522585569 0.24016045739440639 0 -0.14746997276257359 0.25293699741112718 0 -0.14207867318260539 0.23889574066385899 0 -0.155242522585569 0.24016045739440639 0 -0.16225317791305921 0.25358582624422438 0 -0.14746997276257359 0.25293699741112718 0 -0.155242522585569 0.24016045739440639 0 -0.166988808872575 0.14091924592242799 0 -0.1736883691443292 0.1501381655411517 0 -0.1666646902223726 0.16034837340756511 0 -0.166988808872575 0.14091924592242799 0 -0.1666646902223726 0.16034837340756511 0 -0.15580754279098399 0.143121943265237 0 -0.1666646902223726 0.16034837340756511 0 -0.1549726550285947 0.15674585516748279 0 -0.15580754279098399 0.143121943265237 0 -0.1666646902223726 0.16034837340756511 0 -0.15580754279098399 0.143121943265237 0 -0.1628447509754036 0.1248738178506951 0 -0.166988808872575 0.14091924592242799 0 -0.17824709647023271 0.1379937977022469 0 -0.1628447509754036 0.1248738178506951 0 -0.166988808872575 0.14091924592242799 0 -0.15580754279098399 0.143121943265237 0 -0.18039056500006781 0.12121373119240569 0 -0.1628447509754036 0.1248738178506951 0 -0.17824709647023271 0.1379937977022469 0 -0.19563802519160789 0.13807458821396759 0 -0.17824709647023271 0.1379937977022469 0 -0.18706065072040501 0.14468661846275019 0 -0.18039056500006781 0.12121373119240569 0 -0.19563802519160789 0.13807458821396759 0 -0.17824709647023271 0.1379937977022469 0 -0.17824709647023271 0.1379937977022469 0 -0.18706065072040501 0.14468661846275019 0 -0.1811623126986891 0.14793864394101769 0 -0.166988808872575 0.14091924592242799 0 -0.17824709647023271 0.1379937977022469 0 -0.1736883691443292 0.1501381655411517 0 -0.17824709647023271 0.1379937977022469 0 -0.1811623126986891 0.14793864394101769 0 -0.1736883691443292 0.1501381655411517 0 -0.1811623126986891 0.14793864394101769 0 -0.1736883691443292 0.1501381655411517 0 -0.17666515903818969 0.15970684649729899 0 -0.1811623126986891 0.14793864394101769 0 -0.1852646507768699 0.1545619776798173 0 -0.17666515903818969 0.15970684649729899 0 -0.18706065072040501 0.14468661846275019 0 -0.1811623126986891 0.14793864394101769 0 -0.1852646507768699 0.1545619776798173 0 -0.17752183765376101 0.1775748035498933 0 -0.1666646902223726 0.16034837340756511 0 -0.1927705130470404 0.15866088515044 0 -0.1852646507768699 0.1545619776798173 0 -0.18413510522225521 0.16259499244525211 0 -0.17666515903818969 0.15970684649729899 0 -0.17752183765376101 0.1775748035498933 0 -0.1666646902223726 0.16034837340756511 0 -0.1852646507768699 0.1545619776798173 0 -0.18413510522225521 0.16259499244525211 0 -0.17666515903818969 0.15970684649729899 0 -0.18413510522225521 0.16259499244525211 0 -0.17666515903818969 0.15970684649729899 0 -0.17752183765376101 0.1775748035498933 0 -0.19038698318195549 0.16711234260031069 0 -0.18413510522225521 0.16259499244525211 0 -0.17752183765376101 0.1775748035498933 0 -0.1736883691443292 0.1501381655411517 0 -0.17666515903818969 0.15970684649729899 0 -0.1666646902223726 0.16034837340756511 0 -0.17169787432773731 0.19155682751427069 0 -0.17752183765376101 0.1775748035498933 0 -0.16134243263699979 0.18146195783717889 0 -0.17752183765376101 0.1775748035498933 0 -0.160166055014445 0.16782332876165751 0 -0.17752183765376101 0.1775748035498933 0 -0.16134243263699979 0.18146195783717889 0 -0.160166055014445 0.16782332876165751 0 -0.16134243263699979 0.18146195783717889 0 -0.160166055014445 0.16782332876165751 0 -0.1543363168372556 0.17604552304072019 0 -0.16134243263699979 0.18146195783717889 0 -0.15378055215212841 0.1853342336718547 0 -0.1543363168372556 0.17604552304072019 0 -0.15791164184663151 0.19274793286901881 0 -0.16134243263699979 0.18146195783717889 0 -0.15378055215212841 0.1853342336718547 0 -0.17752183765376101 0.1775748035498933 0 -0.1666646902223726 0.16034837340756511 0 -0.160166055014445 0.16782332876165751 0 -0.1666646902223726 0.16034837340756511 0 -0.160166055014445 0.16782332876165751 0 -0.1549726550285947 0.15674585516748279 0 -0.160166055014445 0.16782332876165751 0 -0.1549726550285947 0.15674585516748279 0 -0.14281027237512919 0.15807185397342149 0 -0.160166055014445 0.16782332876165751 0 -0.14281027237512919 0.15807185397342149 0 -0.160166055014445 0.16782332876165751 0 -0.1483000089644074 0.1706867490983929 0 -0.14281027237512919 0.15807185397342149 0 -0.160166055014445 0.16782332876165751 0 -0.1483000089644074 0.1706867490983929 0 -0.1543363168372556 0.17604552304072019 0 -0.1483000089644074 0.1706867490983929 0 -0.14281027237512919 0.15807185397342149 0 -0.13856119746919621 0.1732320213376258 0 -0.14754997702249989 0.19123102061556399 0 -0.15378055215212841 0.1853342336718547 0 -0.1463292802833521 0.18023770330257241 0 -0.15378055215212841 0.1853342336718547 0 -0.1543363168372556 0.17604552304072019 0 -0.1463292802833521 0.18023770330257241 0 -0.1483000089644074 0.1706867490983929 0 -0.1543363168372556 0.17604552304072019 0 -0.1463292802833521 0.18023770330257241 0 -0.1483000089644074 0.1706867490983929 0 -0.1463292802833521 0.18023770330257241 0 -0.13856119746919621 0.1732320213376258 0 -0.13411435042981179 0.19106266128805069 0 -0.13856119746919621 0.1732320213376258 0 -0.12609153575556739 0.16924223779836581 0 -0.13411435042981179 0.19106266128805069 0 -0.12609153575556739 0.16924223779836581 0 -0.1152399272795421 0.1851742901109647 0 -0.13411435042981179 0.19106266128805069 0 -0.1463292802833521 0.18023770330257241 0 -0.13856119746919621 0.1732320213376258 0 -0.14281027237512919 0.15807185397342149 0 -0.12609153575556739 0.16924223779836581 0 -0.135520965557581 0.14756887546063741 0 -0.12609153575556739 0.16924223779836581 0 -0.135520965557581 0.14756887546063741 0 -0.14281027237512919 0.15807185397342149 0 -0.13856119746919621 0.1732320213376258 0 -0.12609153575556739 0.16924223779836581 0 -0.135520965557581 0.14756887546063741 0 -0.13028426483969929 0.13221647237215789 0 -0.1192914655824909 0.15059360814623801 0 -0.12609153575556739 0.16924223779836581 0 -0.135520965557581 0.14756887546063741 0 -0.1192914655824909 0.15059360814623801 0 -0.1549726550285947 0.15674585516748279 0 -0.14281027237512919 0.15807185397342149 0 -0.14652630769324659 0.14708303210739521 0 -0.14281027237512919 0.15807185397342149 0 -0.135520965557581 0.14756887546063741 0 -0.14652630769324659 0.14708303210739521 0 -0.1549726550285947 0.15674585516748279 0 -0.14652630769324659 0.14708303210739521 0 -0.15580754279098399 0.143121943265237 0 -0.1628447509754036 0.1248738178506951 0 -0.15580754279098399 0.143121943265237 0 -0.14495039535959489 0.12589551312290931 0 -0.135520965557581 0.14756887546063741 0 -0.14652630769324659 0.14708303210739521 0 -0.14495039535959489 0.12589551312290931 0 -0.15580754279098399 0.143121943265237 0 -0.14495039535959489 0.12589551312290931 0 -0.14652630769324659 0.14708303210739521 0 -0.15580754279098399 0.143121943265237 0 -0.14495039535959489 0.12589551312290931 0 -0.135520965557581 0.14756887546063741 0 -0.14495039535959489 0.12589551312290931 0 -0.135520965557581 0.14756887546063741 0 -0.14495039535959489 0.12589551312290931 0 -0.13028426483969929 0.13221647237215789 0 -0.13028426483969929 0.13221647237215789 0 -0.1131006250587715 0.12959615498317961 0 -0.1192914655824909 0.15059360814623801 0 -0.1131006250587715 0.12959615498317961 0 -0.10078539792307099 0.15464240809582361 0 -0.092802426943272898 0.12960292979422991 0 -0.1131006250587715 0.12959615498317961 0 -0.10078539792307099 0.15464240809582361 0 -0.1192914655824909 0.15059360814623801 0 -0.10078539792307099 0.15464240809582361 0 -0.1192914655824909 0.15059360814623801 0 -0.10897534263953949 0.16967833346669081 0 -0.12609153575556739 0.16924223779836581 0 -0.1192914655824909 0.15059360814623801 0 -0.10897534263953949 0.16967833346669081 0 -0.12609153575556739 0.16924223779836581 0 -0.1152399272795421 0.1851742901109647 0 -0.10897534263953949 0.16967833346669081 0 -0.1152399272795421 0.1851742901109647 0 -0.098409264142157865 0.1851788001203086 0 -0.10897534263953949 0.16967833346669081 0 -0.098409264142157865 0.1851788001203086 0 -0.10897534263953949 0.16967833346669081 0 -0.082277471490505807 0.17420718144711089 0 -0.10078539792307099 0.15464240809582361 0 -0.10897534263953949 0.16967833346669081 0 -0.082277471490505807 0.17420718144711089 0 -0.10078539792307099 0.15464240809582361 0 -0.082277471490505807 0.17420718144711089 0 -0.082277471490505807 0.17420718144711089 0 -0.065615427061545384 0.16058384892905991 0 -0.074642854581774637 0.14147916649728479 0 -0.10078539792307099 0.15464240809582361 0 -0.082277471490505807 0.17420718144711089 0 -0.074642854581774637 0.14147916649728479 0 -0.098409264142157865 0.1851788001203086 0 -0.082277471490505807 0.17420718144711089 0 -0.084152214828733252 0.19620669612267311 0 -0.082277471490505807 0.17420718144711089 0 -0.063769545057940663 0.19377195479839809 0 -0.082277471490505807 0.17420718144711089 0 -0.063769545057940663 0.19377195479839809 0 -0.051824687549248197 0.17345858692208871 0 -0.082277471490505807 0.17420718144711089 0 -0.065615427061545384 0.16058384892905991 0 -0.051824687549248197 0.17345858692208871 0 -0.074642854581774637 0.14147916649728479 0 -0.055186524828957063 0.1281687789626855 0 -0.07438317581125764 0.1124407737129243 0 -0.074642854581774637 0.14147916649728479 0 -0.092802426943272898 0.12960292979422991 0 -0.07438317581125764 0.1124407737129243 0 -0.10078539792307099 0.15464240809582361 0 -0.074642854581774637 0.14147916649728479 0 -0.092802426943272898 0.12960292979422991 0 -0.10058650277722481 0.24229521027045481 0 -0.11673432752768111 0.2372784614512472 0 -0.1053270170515283 0.2324499666522013 0 -0.096974545082976191 0.25880538532589209 0 -0.10058650277722481 0.24229521027045481 0 -0.088715331182393942 0.2449718195011524 0 -0.096974545082976191 0.25880538532589209 0 -0.10058650277722481 0.24229521027045481 0 -0.11673432752768111 0.2372784614512472 0 -0.096974545082976191 0.25880538532589209 0 -0.112097455783086 0.24444379951602521 0 -0.11673432752768111 0.2372784614512472 0 -0.096974545082976191 0.25880538532589209 0 -0.11673432752768111 0.2372784614512472 0 -0.10058650277722481 0.24229521027045481 0 -0.091983872440322634 0.23323291704093771 0 -0.088715331182393942 0.2449718195011524 0 -0.10058650277722481 0.24229521027045481 0 -0.1053270170515283 0.2324499666522013 0 -0.091983872440322634 0.23323291704093771 0 -0.11521273165378559 0.25497892835963998 0 -0.112097455783086 0.24444379951602521 0 -0.1213089330464012 0.24626659804535689 0 -0.112097455783086 0.24444379951602521 0 -0.1213089330464012 0.24626659804535689 0 -0.11673432752768111 0.2372784614512472 0 -0.12961957513534 0.23973743310435161 0 -0.1213089330464012 0.24626659804535689 0 -0.11673432752768111 0.2372784614512472 0 -0.11673432752768111 0.2372784614512472 0 -0.111977792011399 0.2261119040305537 0 -0.1053270170515283 0.2324499666522013 0 -0.1364941099723872 0.21575153757660309 0 -0.11673432752768111 0.2372784614512472 0 -0.120958802369795 0.22183359367242919 0 -0.11673432752768111 0.2372784614512472 0 -0.120958802369795 0.22183359367242919 0 -0.111977792011399 0.2261119040305537 0 -0.120958802369795 0.22183359367242919 0 -0.111977792011399 0.2261119040305537 0 -0.11263418842693861 0.21654350143059611 0 -0.111977792011399 0.2261119040305537 0 -0.1027476190553803 0.22153268259517769 0 -0.11263418842693861 0.21654350143059611 0 -0.1027476190553803 0.22153268259517769 0 -0.088008266818085573 0.21525264443096179 0 -0.091983872440322634 0.23323291704093771 0 -0.111977792011399 0.2261119040305537 0 -0.1027476190553803 0.22153268259517769 0 -0.1053270170515283 0.2324499666522013 0 -0.1027476190553803 0.22153268259517769 0 -0.1053270170515283 0.2324499666522013 0 -0.091983872440322634 0.23323291704093771 0 -0.1027476190553803 0.22153268259517769 0 -0.1014013644724687 0.20062749945410349 0 -0.088008266818085573 0.21525264443096179 0 -0.1027476190553803 0.22153268259517769 0 -0.11263418842693861 0.21654350143059611 0 -0.1014013644724687 0.20062749945410349 0 -0.11263418842693861 0.21654350143059611 0 -0.11894773722242739 0.20818951851535461 0 -0.1014013644724687 0.20062749945410349 0 -0.11894773722242739 0.20818951851535461 0 -0.1014013644724687 0.20062749945410349 0 -0.120958802369795 0.22183359367242919 0 -0.11263418842693861 0.21654350143059611 0 -0.11894773722242739 0.20818951851535461 0 -0.12967955466007261 0.2074258594294596 0 -0.11894773722242739 0.20818951851535461 0 -0.1235431789710726 0.1969801993001162 0 -0.11894773722242739 0.20818951851535461 0 -0.1235431789710726 0.1969801993001162 0 -0.1014013644724687 0.20062749945410349 0 -0.13411435042981179 0.19106266128805069 0 -0.1152399272795421 0.1851742901109647 0 -0.1235431789710726 0.1969801993001162 0 -0.1152399272795421 0.1851742901109647 0 -0.1235431789710726 0.1969801993001162 0 -0.1014013644724687 0.20062749945410349 0 -0.1152399272795421 0.1851742901109647 0 -0.098409264142157865 0.1851788001203086 0 -0.1014013644724687 0.20062749945410349 0 -0.098409264142157865 0.1851788001203086 0 -0.1014013644724687 0.20062749945410349 0 -0.084152214828733252 0.19620669612267311 0 -0.084152214828733252 0.19620669612267311 0 -0.063769545057940663 0.19377195479839809 0 -0.072142849724606259 0.2099260872470029 0 -0.082277471490505807 0.17420718144711089 0 -0.084152214828733252 0.19620669612267311 0 -0.063769545057940663 0.19377195479839809 0 -0.072142849724606259 0.2099260872470029 0 -0.088008266818085573 0.21525264443096179 0 -0.068407602306599244 0.22780678473085289 0 -0.084152214828733252 0.19620669612267311 0 -0.072142849724606259 0.2099260872470029 0 -0.088008266818085573 0.21525264443096179 0 -0.1014013644724687 0.20062749945410349 0 -0.084152214828733252 0.19620669612267311 0 -0.088008266818085573 0.21525264443096179 0 -0.091983872440322634 0.23323291704093771 0 -0.068407602306599244 0.22780678473085289 0 -0.080478212985736569 0.23984126859451149 0 -0.088008266818085573 0.21525264443096179 0 -0.091983872440322634 0.23323291704093771 0 -0.068407602306599244 0.22780678473085289 0 -0.073553522625709841 0.25068431627396631 0 -0.068407602306599244 0.22780678473085289 0 -0.080478212985736569 0.23984126859451149 0 -0.073553522625709841 0.25068431627396631 0 -0.068407602306599244 0.22780678473085289 0 -0.050132500168443887 0.2425632472220397 0 -0.073553522625709841 0.25068431627396631 0 -0.080478212985736569 0.23984126859451149 0 -0.088715331182393942 0.2449718195011524 0 -0.091983872440322634 0.23323291704093771 0 -0.080478212985736569 0.23984126859451149 0 -0.088715331182393942 0.2449718195011524 0 -0.050132500168443887 0.2425632472220397 0 -0.026711477711177899 0.23444217817011309 0 -0.029881977245259539 0.25372898958001938 0 -0.050132500168443887 0.2425632472220397 0 -0.026711477711177899 0.23444217817011309 0 -0.050132500168443887 0.2425632472220397 0 -0.042100384295285467 0.22888272761933071 0 -0.026711477711177899 0.23444217817011309 0 -0.073553522625709841 0.25068431627396631 0 -0.050132500168443887 0.2425632472220397 0 -0.068407602306599244 0.22780678473085289 0 -0.050132500168443887 0.2425632472220397 0 -0.042100384295285467 0.22888272761933071 0 -0.068407602306599244 0.22780678473085289 0 -0.042100384295285467 0.22888272761933071 0 -0.045261618625375449 0.21333672814968549 0 -0.045261618625375449 0.21333672814968549 0 -0.02675369219281019 0.23290150150097291 0 -0.045261618625375449 0.21333672814968549 0 -0.02772339752401377 0.22169904798743939 0 -0.02675369219281019 0.23290150150097291 0 -0.042100384295285467 0.22888272761933071 0 -0.045261618625375449 0.21333672814968549 0 -0.02675369219281019 0.23290150150097291 0 -0.042100384295285467 0.22888272761933071 0 -0.02675369219281019 0.23290150150097291 0 -0.026711477711177899 0.23444217817011309 0 -0.045261618625375449 0.21333672814968549 0 -0.025983012380334781 0.2115930184476672 0 -0.02772339752401377 0.22169904798743939 0 -0.045261618625375449 0.21333672814968549 0 -0.029252980350323681 0.1977376245802884 0 -0.025983012380334781 0.2115930184476672 0 -0.063769545057940663 0.19377195479839809 0 -0.045261618625375449 0.21333672814968549 0 -0.063769545057940663 0.19377195479839809 0 -0.072142849724606259 0.2099260872470029 0 -0.045261618625375449 0.21333672814968549 0 -0.072142849724606259 0.2099260872470029 0 -0.068407602306599244 0.22780678473085289 0 -0.045261618625375449 0.21333672814968549 0 -0.063769545057940663 0.19377195479839809 0 -0.045261618625375449 0.21333672814968549 0 -0.041349789320347038 0.18749549167170951 0 -0.029252980350323681 0.1977376245802884 0 -0.041349789320347038 0.18749549167170951 0 -0.02440704960050057 0.1813667693045137 0 -0.045261618625375449 0.21333672814968549 0 -0.029252980350323681 0.1977376245802884 0 -0.041349789320347038 0.18749549167170951 0 -0.029252980350323681 0.1977376245802884 0 -0.01949536222664228 0.1923427933584827 0 -0.02440704960050057 0.1813667693045137 0 -0.029252980350323681 0.1977376245802884 0 -0.019383630886315679 0.20246845033521829 0 -0.01949536222664228 0.1923427933584827 0 -0.019383630886315679 0.20246845033521829 0 -0.01949536222664228 0.1923427933584827 0 -0.011799668219416901 0.19617813045667529 0 -0.01949536222664228 0.1923427933584827 0 -0.011799668219416901 0.19617813045667529 0 -0.0099503170468955675 0.185467411183286 0 -0.0047591026019954026 0.19332022418589959 0 -0.011799668219416901 0.19617813045667529 0 -0.0099503170468955675 0.185467411183286 0 -0.0047591026019954026 0.19332022418589959 0 -0.003081975793268537 0.18782002811878001 0 -0.0099503170468955675 0.185467411183286 0 -0.0047591026019954026 0.19332022418589959 0 -2.3422743153838069e-05 0.1988005567515452 0 0.0015327128313205251 0.1915709431207247 0 -0.0047591026019954026 0.19332022418589959 0 -0.003081975793268537 0.18782002811878001 0 0.0015327128313205251 0.1915709431207247 0 -2.3422743153838069e-05 0.1988005567515452 0 -0.0064134676939889088 0.1997865992100484 0 -0.0042090490499692894 0.20625736901624969 0 -0.0047591026019954026 0.19332022418589959 0 -2.3422743153838069e-05 0.1988005567515452 0 -0.0064134676939889088 0.1997865992100484 0 -0.0047591026019954026 0.19332022418589959 0 -0.0064134676939889088 0.1997865992100484 0 -0.011799668219416901 0.19617813045667529 0 -0.019383630886315679 0.20246845033521829 0 -0.011799668219416901 0.19617813045667529 0 -0.01127609585540912 0.20437671563987239 0 -0.0064134676939889088 0.1997865992100484 0 -0.011799668219416901 0.19617813045667529 0 -0.01127609585540912 0.20437671563987239 0 -0.019383630886315679 0.20246845033521829 0 -0.01127609585540912 0.20437671563987239 0 -0.015975625416527989 0.21106072298800291 0 -0.0098363755348389904 0.2097806401996784 0 -0.01127609585540912 0.20437671563987239 0 -0.015975625416527989 0.21106072298800291 0 -0.0098363755348389904 0.2097806401996784 0 -0.01127609585540912 0.20437671563987239 0 -0.0042090490499692894 0.20625736901624969 0 -0.0042090490499692894 0.20625736901624969 0 0.00083142932333707279 0.21381627434491049 0 0.0029581381265264858 0.20519393183106241 0 -0.0064134676939889088 0.1997865992100484 0 -0.01127609585540912 0.20437671563987239 0 -0.0042090490499692894 0.20625736901624969 0 -0.0098363755348389904 0.2097806401996784 0 -0.0042090490499692894 0.20625736901624969 0 -0.0060196598873338584 0.21321125444391051 0 -2.3422743153838069e-05 0.1988005567515452 0 -0.0042090490499692894 0.20625736901624969 0 0.0029581381265264858 0.20519393183106241 0 -0.0055559642639475869 0.21913689448513271 0 0.0001093474821353509 0.22215689039817851 0 0.00083142932333707279 0.21381627434491049 0 -0.0060196598873338584 0.21321125444391051 0 -0.0055559642639475869 0.21913689448513271 0 0.00083142932333707279 0.21381627434491049 0 -0.0042090490499692894 0.20625736901624969 0 -0.0060196598873338584 0.21321125444391051 0 0.00083142932333707279 0.21381627434491049 0 -0.0060196598873338584 0.21321125444391051 0 -0.01091493828254137 0.21625783395607551 0 -0.0055559642639475869 0.21913689448513271 0 -0.01091493828254137 0.21625783395607551 0 -0.015975625416527989 0.21106072298800291 0 -0.017588491814277241 0.22188462813269769 0 -0.0098363755348389904 0.2097806401996784 0 -0.0060196598873338584 0.21321125444391051 0 -0.01091493828254137 0.21625783395607551 0 -0.0098363755348389904 0.2097806401996784 0 -0.01091493828254137 0.21625783395607551 0 -0.015975625416527989 0.21106072298800291 0 -0.015975625416527989 0.21106072298800291 0 -0.025983012380334781 0.2115930184476672 0 -0.017588491814277241 0.22188462813269769 0 -0.019383630886315679 0.20246845033521829 0 -0.015975625416527989 0.21106072298800291 0 -0.025983012380334781 0.2115930184476672 0 -0.029252980350323681 0.1977376245802884 0 -0.019383630886315679 0.20246845033521829 0 -0.025983012380334781 0.2115930184476672 0 -0.025983012380334781 0.2115930184476672 0 -0.02772339752401377 0.22169904798743939 0 -0.017588491814277241 0.22188462813269769 0 -0.02772339752401377 0.22169904798743939 0 -0.02675369219281019 0.23290150150097291 0 -0.022352419066048221 0.22652947853539249 0 -0.02675369219281019 0.23290150150097291 0 -0.017344094733091689 0.22963273652046001 0 -0.01246950101347712 0.23792538229425519 0 -0.02675369219281019 0.23290150150097291 0 -0.017344094733091689 0.22963273652046001 0 -0.022352419066048221 0.22652947853539249 0 -0.017344094733091689 0.22963273652046001 0 -0.017588491814277241 0.22188462813269769 0 -0.01350500053265637 0.2263729039251991 0 -0.017344094733091689 0.22963273652046001 0 -0.022352419066048221 0.22652947853539249 0 -0.017588491814277241 0.22188462813269769 0 -0.02772339752401377 0.22169904798743939 0 -0.022352419066048221 0.22652947853539249 0 -0.017588491814277241 0.22188462813269769 0 -0.01091493828254137 0.21625783395607551 0 -0.017588491814277241 0.22188462813269769 0 -0.01009356448405245 0.2229710377255022 0 -0.017588491814277241 0.22188462813269769 0 -0.01350500053265637 0.2263729039251991 0 -0.01009356448405245 0.2229710377255022 0 -0.01091493828254137 0.21625783395607551 0 -0.01009356448405245 0.2229710377255022 0 -0.0055559642639475869 0.21913689448513271 0 -0.01009356448405245 0.2229710377255022 0 -0.0055559642639475869 0.21913689448513271 0 -0.0046023563546483629 0.22639127835839259 0 -0.0055559642639475869 0.21913689448513271 0 -0.0046023563546483629 0.22639127835839259 0 0.0001093474821353509 0.22215689039817851 0 -0.0046023563546483629 0.22639127835839259 0 0.0010433620948100131 0.23240638127880581 0 0.0001093474821353509 0.22215689039817851 0 -0.0046023563546483629 0.22639127835839259 0 -0.0089938510992040935 0.23100321332213661 0 0.0010433620948100131 0.23240638127880581 0 -0.017344094733091689 0.22963273652046001 0 -0.0089938510992040935 0.23100321332213661 0 -0.01246950101347712 0.23792538229425519 0 -0.01009356448405245 0.2229710377255022 0 -0.0046023563546483629 0.22639127835839259 0 -0.0089938510992040935 0.23100321332213661 0 -0.017344094733091689 0.22963273652046001 0 -0.01350500053265637 0.2263729039251991 0 -0.0089938510992040935 0.23100321332213661 0 -0.01350500053265637 0.2263729039251991 0 -0.01009356448405245 0.2229710377255022 0 -0.0089938510992040935 0.23100321332213661 0 -0.0089938510992040935 0.23100321332213661 0 -0.001965278602122185 0.24182690426762959 0 0.0010433620948100131 0.23240638127880581 0 -0.0089938510992040935 0.23100321332213661 0 -0.01246950101347712 0.23792538229425519 0 -0.001965278602122185 0.24182690426762959 0 -0.0082457657602449386 0.25246627485226031 0 -0.01246950101347712 0.23792538229425519 0 -0.001965278602122185 0.24182690426762959 0 -0.0082457657602449386 0.25246627485226031 0 -0.02675369219281019 0.23290150150097291 0 -0.01246950101347712 0.23792538229425519 0 -0.029881977245259539 0.25372898958001938 0 -0.0082457657602449386 0.25246627485226031 0 -0.026711477711177899 0.23444217817011309 0 -0.0082457657602449386 0.25246627485226031 0 -0.02675369219281019 0.23290150150097291 0 -0.026711477711177899 0.23444217817011309 0 -0.0082457657602449386 0.25246627485226031 0 -0.02675369219281019 0.23290150150097291 0 -0.046893106203257602 0.1507880314475378 0 -0.033582854738693747 0.16530128627528251 0 -0.03096555907766051 0.14775731769023701 0 -0.035508455794597132 0.13046501110523001 0 -0.046893106203257602 0.1507880314475378 0 -0.03096555907766051 0.14775731769023701 0 -0.035508455794597132 0.13046501110523001 0 -0.046893106203257602 0.1507880314475378 0 -0.035508455794597132 0.13046501110523001 0 -0.055186524828957063 0.1281687789626855 0 -0.046893106203257602 0.1507880314475378 0 -0.035508455794597132 0.13046501110523001 0 -0.055186524828957063 0.1281687789626855 0 -0.04045215309894238 0.1165912735558266 0 -0.074642854581774637 0.14147916649728479 0 -0.055186524828957063 0.1281687789626855 0 -0.046893106203257602 0.1507880314475378 0 -0.065615427061545384 0.16058384892905991 0 -0.074642854581774637 0.14147916649728479 0 -0.046893106203257602 0.1507880314475378 0 -0.065615427061545384 0.16058384892905991 0 -0.046893106203257602 0.1507880314475378 0 -0.051824687549248197 0.17345858692208871 0 -0.063769545057940663 0.19377195479839809 0 -0.051824687549248197 0.17345858692208871 0 -0.041349789320347038 0.18749549167170951 0 -0.041349789320347038 0.18749549167170951 0 -0.033582854738693747 0.16530128627528251 0 -0.02440704960050057 0.1813667693045137 0 -0.051824687549248197 0.17345858692208871 0 -0.041349789320347038 0.18749549167170951 0 -0.033582854738693747 0.16530128627528251 0 -0.046893106203257602 0.1507880314475378 0 -0.051824687549248197 0.17345858692208871 0 -0.033582854738693747 0.16530128627528251 0 -0.033582854738693747 0.16530128627528251 0 -0.022139091883514501 0.16815071126606429 0 -0.02440704960050057 0.1813667693045137 0 -0.033582854738693747 0.16530128627528251 0 -0.022139091883514501 0.16815071126606429 0 -0.016648491277264341 0.15771365056650341 0 -0.033582854738693747 0.16530128627528251 0 -0.016648491277264341 0.15771365056650341 0 -0.03096555907766051 0.14775731769023701 0 -0.022139091883514501 0.16815071126606429 0 -0.02440704960050057 0.1813667693045137 0 -0.01283771780100665 0.17547196173435681 0 -0.01949536222664228 0.1923427933584827 0 -0.02440704960050057 0.1813667693045137 0 -0.0099503170468955675 0.185467411183286 0 -0.02440704960050057 0.1813667693045137 0 -0.0099503170468955675 0.185467411183286 0 -0.01283771780100665 0.17547196173435681 0 -0.0099503170468955675 0.185467411183286 0 -0.01283771780100665 0.17547196173435681 0 -0.00450206117857799 0.17688747855202069 0 -0.01283771780100665 0.17547196173435681 0 -0.00450206117857799 0.17688747855202069 0 -0.0026654791677323511 0.16604552865166611 0 -0.00450206117857799 0.17688747855202069 0 -0.0026654791677323511 0.16604552865166611 0 0.0024081860720475369 0.17557227428335351 0 -0.00450206117857799 0.17688747855202069 0 0.00053502205069707774 0.18188021690744111 0 0.0024081860720475369 0.17557227428335351 0 -0.0099503170468955675 0.185467411183286 0 -0.00450206117857799 0.17688747855202069 0 0.00053502205069707774 0.18188021690744111 0 -0.003081975793268537 0.18782002811878001 0 -0.0099503170468955675 0.185467411183286 0 0.00053502205069707774 0.18188021690744111 0 -0.022139091883514501 0.16815071126606429 0 -0.016648491277264341 0.15771365056650341 0 -0.0026654791677323511 0.16604552865166611 0 -0.022139091883514501 0.16815071126606429 0 -0.01283771780100665 0.17547196173435681 0 -0.0026654791677323511 0.16604552865166611 0 -0.016648491277264341 0.15771365056650341 0 -0.0026654791677323511 0.16604552865166611 0 0.00151890392611572 0.15456094484017679 0 -0.016648491277264341 0.15771365056650341 0 -0.0026654791677323511 0.16604552865166611 0 -0.0082797250895681185 0.13474448294352481 0 0.00151890392611572 0.15456094484017679 0 -0.016648491277264341 0.15771365056650341 0 -0.0082797250895681185 0.13474448294352481 0 0.00151890392611572 0.15456094484017679 0 -0.016648491277264341 0.15771365056650341 0 -0.03096555907766051 0.14775731769023701 0 -0.022194887374489752 0.13451860905663129 0 -0.016648491277264341 0.15771365056650341 0 -0.022194887374489752 0.13451860905663129 0 -0.0082797250895681185 0.13474448294352481 0 -0.035508455794597132 0.13046501110523001 0 -0.03096555907766051 0.14775731769023701 0 -0.022194887374489752 0.13451860905663129 0 -0.035508455794597132 0.13046501110523001 0 -0.022194887374489752 0.13451860905663129 0 -0.02222625157844095 0.1227088344756834 0 -0.022194887374489752 0.13451860905663129 0 -0.012678773622269129 0.1213748672570316 0 -0.02222625157844095 0.1227088344756834 0 -0.022194887374489752 0.13451860905663129 0 -0.0082797250895681185 0.13474448294352481 0 -0.012678773622269129 0.1213748672570316 0 -0.0082797250895681185 0.13474448294352481 0 -0.012678773622269129 0.1213748672570316 0 0.0010393500416724941 0.12595831854165979 0 -0.012678773622269129 0.1213748672570316 0 -0.0069683050282923539 0.11495619240176071 0 0.0010393500416724941 0.12595831854165979 0 -0.0069683050282923539 0.11495619240176071 0 0.00039794405216867472 0.112072386291362 0 0.0010393500416724941 0.12595831854165979 0 -0.012678773622269129 0.1213748672570316 0 -0.012248850971573841 0.1125208075020822 0 -0.01744198128355802 0.11503771634109559 0 -0.012678773622269129 0.1213748672570316 0 -0.012248850971573841 0.1125208075020822 0 -0.0069683050282923539 0.11495619240176071 0 -0.012248850971573841 0.1125208075020822 0 -0.0069683050282923539 0.11495619240176071 0 -0.0083997351711877014 0.10895079227570641 0 -0.0069683050282923539 0.11495619240176071 0 -0.0083997351711877014 0.10895079227570641 0 0.00039794405216867472 0.112072386291362 0 -0.011506603279544361 0.087618711973773578 0 0.0058206420146291954 0.1114089238878985 0 0.00039794405216867472 0.112072386291362 0 -0.015837719346710199 0.095350294128549784 0 -0.011506603279544361 0.087618711973773578 0 0.00039794405216867472 0.112072386291362 0 -0.011506603279544361 0.087618711973773578 0 0.0058206420146291954 0.1114089238878985 0 -0.015837719346710199 0.095350294128549784 0 0.00039794405216867472 0.112072386291362 0 -0.0083997351711877014 0.10895079227570641 0 -0.015837719346710199 0.095350294128549784 0 0.00039794405216867472 0.112072386291362 0 -0.011506603279544361 0.087618711973773578 0 0.0017142141577850001 0.096485027642689541 0 0.0058206420146291954 0.1114089238878985 0 -0.0083997351711877014 0.10895079227570641 0 -0.013221823848225379 0.1065091018144344 0 -0.015837719346710199 0.095350294128549784 0 -0.012248850971573841 0.1125208075020822 0 -0.0083997351711877014 0.10895079227570641 0 -0.013221823848225379 0.1065091018144344 0 -0.012248850971573841 0.1125208075020822 0 -0.013221823848225379 0.1065091018144344 0 -0.017997844109414411 0.1087655018954708 0 -0.017997844109414411 0.1087655018954708 0 -0.015837719346710199 0.095350294128549784 0 -0.024123805385937312 0.11014199076292169 0 -0.013221823848225379 0.1065091018144344 0 -0.017997844109414411 0.1087655018954708 0 -0.015837719346710199 0.095350294128549784 0 -0.024123805385937312 0.11014199076292169 0 -0.032300333499350402 0.090057470672271281 0 -0.015837719346710199 0.095350294128549784 0 -0.024123805385937312 0.11014199076292169 0 -0.032300333499350402 0.090057470672271281 0 -0.015837719346710199 0.095350294128549784 0 -0.024123805385937312 0.11014199076292169 0 -0.035508455794597132 0.13046501110523001 0 -0.024123805385937312 0.11014199076292169 0 -0.023307159817290739 0.1121479686184283 0 -0.035508455794597132 0.13046501110523001 0 -0.02222625157844095 0.1227088344756834 0 -0.023307159817290739 0.1121479686184283 0 -0.035508455794597132 0.13046501110523001 0 -0.024123805385937312 0.11014199076292169 0 -0.024123805385937312 0.11014199076292169 0 -0.023307159817290739 0.1121479686184283 0 -0.012678773622269129 0.1213748672570316 0 -0.02222625157844095 0.1227088344756834 0 -0.01744198128355802 0.11503771634109559 0 -0.02222625157844095 0.1227088344756834 0 -0.01744198128355802 0.11503771634109559 0 -0.023307159817290739 0.1121479686184283 0 -0.012248850971573841 0.1125208075020822 0 -0.017997844109414411 0.1087655018954708 0 -0.01744198128355802 0.11503771634109559 0 -0.017997844109414411 0.1087655018954708 0 -0.024123805385937312 0.11014199076292169 0 -0.023307159817290739 0.1121479686184283 0 -0.017997844109414411 0.1087655018954708 0 -0.01744198128355802 0.11503771634109559 0 -0.023307159817290739 0.1121479686184283 0 -0.0046988296279310846 0.075465987257500103 0 -0.004471055932428975 0.061346262570306953 0 0.0079626054049135586 0.052863747179962457 0 -0.0093767874180366029 0.073051079923104223 0 -0.014915188529848109 0.07157527628023079 0 -0.011506603279544361 0.087618711973773578 0 -0.0096267601800840239 0.066065855624376196 0 -0.01690032334888349 0.065021557104339434 0 -0.015766095144715799 0.059221925757037469 0 -0.0096267601800840239 0.066065855624376196 0 -0.014915188529848109 0.07157527628023079 0 -0.01690032334888349 0.065021557104339434 0 -0.0096267601800840239 0.066065855624376196 0 -0.0093767874180366029 0.073051079923104223 0 -0.014915188529848109 0.07157527628023079 0 -0.0096267601800840239 0.066065855624376196 0 -0.0046988296279310846 0.075465987257500103 0 -0.004471055932428975 0.061346262570306953 0 -0.0046988296279310846 0.075465987257500103 0 -0.0093767874180366029 0.073051079923104223 0 -0.0096267601800840239 0.066065855624376196 0 -0.0046988296279310846 0.075465987257500103 0 -0.0093767874180366029 0.073051079923104223 0 -0.0046988296279310846 0.075465987257500103 0 -0.011506603279544361 0.087618711973773578 0 -0.0046988296279310846 0.075465987257500103 0 -0.0093767874180366029 0.073051079923104223 0 -0.011506603279544361 0.087618711973773578 0 -0.0046988296279310846 0.075465987257500103 0 -0.011506603279544361 0.087618711973773578 0 0.00056903788424511365 0.086682396089073327 0 -0.011506603279544361 0.087618711973773578 0 0.00056903788424511365 0.086682396089073327 0 0.0017142141577850001 0.096485027642689541 0 -0.015837719346710199 0.095350294128549784 0 -0.011506603279544361 0.087618711973773578 0 -0.011506603279544361 0.087618711973773578 0 -0.028157290479737571 0.082661622355085798 0 -0.027165468422692102 0.066119176775560506 0 -0.015837719346710199 0.095350294128549784 0 -0.011506603279544361 0.087618711973773578 0 -0.028157290479737571 0.082661622355085798 0 -0.015837719346710199 0.095350294128549784 0 -0.028157290479737571 0.082661622355085798 0 -0.032300333499350402 0.090057470672271281 0 -0.015837719346710199 0.095350294128549784 0 -0.028157290479737571 0.082661622355085798 0 -0.014915188529848109 0.07157527628023079 0 -0.011506603279544361 0.087618711973773578 0 -0.027165468422692102 0.066119176775560506 0 -0.011506603279544361 0.087618711973773578 0 -0.027165468422692102 0.066119176775560506 0 -0.027165468422692102 0.066119176775560506 0 -0.01690032334888349 0.065021557104339434 0 -0.021155304748881689 0.062203044053262727 0 -0.014915188529848109 0.07157527628023079 0 -0.027165468422692102 0.066119176775560506 0 -0.01690032334888349 0.065021557104339434 0 -0.027165468422692102 0.066119176775560506 0 -0.040476861612764189 0.069972950581621118 0 -0.047888547298180387 0.051767161035057033 0 -0.028157290479737571 0.082661622355085798 0 -0.027165468422692102 0.066119176775560506 0 -0.040476861612764189 0.069972950581621118 0 -0.040476861612764189 0.069972950581621118 0 -0.049934811086014087 0.07186746235717667 0 -0.047859912164240369 0.063897566148078455 0 -0.028157290479737571 0.082661622355085798 0 -0.040476861612764189 0.069972950581621118 0 -0.040476861612764189 0.069972950581621118 0 -0.032300333499350402 0.090057470672271281 0 -0.028157290479737571 0.082661622355085798 0 -0.040476861612764189 0.069972950581621118 0 -0.032300333499350402 0.090057470672271281 0 -0.032300333499350402 0.090057470672271281 0 -0.052294403454901703 0.081174947256086191 0 -0.05578440732887191 0.096170589739797752 0 -0.040476861612764189 0.069972950581621118 0 -0.032300333499350402 0.090057470672271281 0 -0.052294403454901703 0.081174947256086191 0 -0.052294403454901703 0.081174947256086191 0 -0.05578440732887191 0.096170589739797752 0 -0.071620526940906107 0.087533684005701329 0 -0.052294403454901703 0.081174947256086191 0 -0.071620526940906107 0.087533684005701329 0 -0.062515526400001881 0.068377579792855414 0 -0.040476861612764189 0.069972950581621118 0 -0.052294403454901703 0.081174947256086191 0 -0.049934811086014087 0.07186746235717667 0 -0.052294403454901703 0.081174947256086191 0 -0.049934811086014087 0.07186746235717667 0 -0.062515526400001881 0.068377579792855414 0 -0.049934811086014087 0.07186746235717667 0 -0.052204780428632629 0.062945341387988421 0 -0.062515526400001881 0.068377579792855414 0 -0.052204780428632629 0.062945341387988421 0 -0.062515526400001881 0.068377579792855414 0 -0.055379183454653792 0.058514889464143828 0 -0.049934811086014087 0.07186746235717667 0 -0.052204780428632629 0.062945341387988421 0 -0.047859912164240369 0.063897566148078455 0 -0.024123805385937312 0.11014199076292169 0 -0.04045215309894238 0.1165912735558266 0 -0.041170092212669533 0.1046411265361262 0 -0.035508455794597132 0.13046501110523001 0 -0.024123805385937312 0.11014199076292169 0 -0.04045215309894238 0.1165912735558266 0 -0.04045215309894238 0.1165912735558266 0 -0.041170092212669533 0.1046411265361262 0 -0.052159737415513489 0.1112025467171566 0 -0.032300333499350402 0.090057470672271281 0 -0.041170092212669533 0.1046411265361262 0 -0.05578440732887191 0.096170589739797752 0 -0.024123805385937312 0.11014199076292169 0 -0.032300333499350402 0.090057470672271281 0 -0.041170092212669533 0.1046411265361262 0 -0.05578440732887191 0.096170589739797752 0 -0.052159737415513489 0.1112025467171566 0 -0.07438317581125764 0.1124407737129243 0 -0.041170092212669533 0.1046411265361262 0 -0.05578440732887191 0.096170589739797752 0 -0.052159737415513489 0.1112025467171566 0 -0.055186524828957063 0.1281687789626855 0 -0.04045215309894238 0.1165912735558266 0 -0.052159737415513489 0.1112025467171566 0 -0.055186524828957063 0.1281687789626855 0 -0.052159737415513489 0.1112025467171566 0 -0.07438317581125764 0.1124407737129243 0 -0.092802426943272898 0.12960292979422991 0 -0.07438317581125764 0.1124407737129243 0 -0.10110008134148971 0.1098561456819369 0 -0.07438317581125764 0.1124407737129243 0 -0.086834659998143784 0.098004038152668241 0 -0.10110008134148971 0.1098561456819369 0 -0.07438317581125764 0.1124407737129243 0 -0.086834659998143784 0.098004038152668241 0 -0.071620526940906107 0.087533684005701329 0 -0.05578440732887191 0.096170589739797752 0 -0.07438317581125764 0.1124407737129243 0 -0.071620526940906107 0.087533684005701329 0 -0.071620526940906107 0.087533684005701329 0 -0.062515526400001881 0.068377579792855414 0 -0.077633089280774809 0.070659037798975324 0 -0.062515526400001881 0.068377579792855414 0 -0.077633089280774809 0.070659037798975324 0 -0.069862538744371955 0.057777113150521288 0 -0.077633089280774809 0.070659037798975324 0 -0.081860045586377939 0.060182951188062161 0 -0.069862538744371955 0.057777113150521288 0 -0.077633089280774809 0.070659037798975324 0 -0.09054666164713164 0.067286880848174316 0 -0.081860045586377939 0.060182951188062161 0 -0.077633089280774809 0.070659037798975324 0 -0.09054666164713164 0.067286880848174316 0 -0.091096470542610469 0.082323341280698709 0 -0.071620526940906107 0.087533684005701329 0 -0.077633089280774809 0.070659037798975324 0 -0.091096470542610469 0.082323341280698709 0 -0.086834659998143784 0.098004038152668241 0 -0.071620526940906107 0.087533684005701329 0 -0.091096470542610469 0.082323341280698709 0 -0.086834659998143784 0.098004038152668241 0 -0.091096470542610469 0.082323341280698709 0 -0.1074822184466613 0.088136729408796272 0 -0.091096470542610469 0.082323341280698709 0 -0.1074822184466613 0.088136729408796272 0 -0.10104646070399111 0.074349611526457776 0 -0.1074822184466613 0.088136729408796272 0 -0.10104646070399111 0.074349611526457776 0 -0.1134486320906168 0.071653759806922179 0 -0.09054666164713164 0.067286880848174316 0 -0.10104646070399111 0.074349611526457776 0 -0.1026583207929353 0.062347346287697412 0 -0.09054666164713164 0.067286880848174316 0 -0.091096470542610469 0.082323341280698709 0 -0.10104646070399111 0.074349611526457776 0 -0.10104646070399111 0.074349611526457776 0 -0.1134486320906168 0.071653759806922179 0 -0.1026583207929353 0.062347346287697412 0 -0.1134486320906168 0.071653759806922179 0 -0.1169815729820268 0.057446916627697332 0 -0.1026583207929353 0.062347346287697412 0 -0.1134486320906168 0.071653759806922179 0 -0.12498233095038511 0.069533312171706482 0 -0.1248370695698198 0.083226530136874921 0 -0.1134486320906168 0.071653759806922179 0 -0.12498233095038511 0.069533312171706482 0 -0.1169815729820268 0.057446916627697332 0 -0.1074822184466613 0.088136729408796272 0 -0.1134486320906168 0.071653759806922179 0 -0.1248370695698198 0.083226530136874921 0 -0.12991930243541749 0.1020465165188278 0 -0.1074822184466613 0.088136729408796272 0 -0.1248370695698198 0.083226530136874921 0 -0.12991930243541749 0.1020465165188278 0 -0.1074822184466613 0.088136729408796272 0 -0.10110008134148971 0.1098561456819369 0 -0.12991930243541749 0.1020465165188278 0 -0.1131006250587715 0.12959615498317961 0 -0.10110008134148971 0.1098561456819369 0 -0.12991930243541749 0.1020465165188278 0 -0.13028426483969929 0.13221647237215789 0 -0.1131006250587715 0.12959615498317961 0 -0.1131006250587715 0.12959615498317961 0 -0.092802426943272898 0.12960292979422991 0 -0.10110008134148971 0.1098561456819369 0 -0.086834659998143784 0.098004038152668241 0 -0.1074822184466613 0.088136729408796272 0 -0.10110008134148971 0.1098561456819369 0 -0.1061587232064081 0.029080734372794698 0 -0.094449021505079139 0.018227913303066591 0 -0.1094215753963574 0.0115277712725063 0 -0.1061587232064081 0.029080734372794698 0 -0.094924595462104619 0.030399760044886301 0 -0.094449021505079139 0.018227913303066591 0 -0.094449021505079139 0.018227913303066591 0 -0.097507665945787692 0.0040820149966005574 0 -0.1094215753963574 0.0115277712725063 0 -0.097507665945787692 0.0040820149966005574 0 -0.1058521268010089 0.00073384547527136773 0 -0.1094215753963574 0.0115277712725063 0 -0.1152652699767374 -0.0044733142422073097 0 -0.1273771369441013 0.0023450629401116992 0 -0.1094215753963574 0.0115277712725063 0 -0.1152652699767374 -0.0044733142422073097 0 -0.1058521268010089 0.00073384547527136773 0 -0.1094215753963574 0.0115277712725063 0 -0.1273771369441013 0.0023450629401116992 0 -0.12537023626190849 0.01701499410391356 0 -0.1094215753963574 0.0115277712725063 0 -0.12537023626190849 0.01701499410391356 0 -0.1094215753963574 0.0115277712725063 0 -0.1154752524598698 0.02214949429500624 0 -0.12537023626190849 0.01701499410391356 0 -0.1154752524598698 0.02214949429500624 0 -0.120950474974805 0.030974477430810402 0 -0.1061587232064081 0.029080734372794698 0 -0.1094215753963574 0.0115277712725063 0 -0.1154752524598698 0.02214949429500624 0 -0.1061587232064081 0.029080734372794698 0 -0.1154752524598698 0.02214949429500624 0 -0.120950474974805 0.030974477430810402 0 -0.1304591025064194 0.044551821316570157 0 -0.120950474974805 0.030974477430810402 0 -0.112428546201817 0.041955624634692393 0 -0.1061587232064081 0.029080734372794698 0 -0.120950474974805 0.030974477430810402 0 -0.112428546201817 0.041955624634692393 0 -0.1304591025064194 0.044551821316570157 0 -0.112428546201817 0.041955624634692393 0 -0.1169815729820268 0.057446916627697332 0 -0.1311901693420546 0.060374133793646992 0 -0.12498233095038511 0.069533312171706482 0 -0.1169815729820268 0.057446916627697332 0 -0.112428546201817 0.041955624634692393 0 -0.1169815729820268 0.057446916627697332 0 -0.10210071185166431 0.050014029354961582 0 -0.1169815729820268 0.057446916627697332 0 -0.1026583207929353 0.062347346287697412 0 -0.10210071185166431 0.050014029354961582 0 -0.10210071185166431 0.050014029354961582 0 -0.091201579857211959 0.041080799774458047 0 -0.091131717688311603 0.055225201160547438 0 -0.1026583207929353 0.062347346287697412 0 -0.10210071185166431 0.050014029354961582 0 -0.091131717688311603 0.055225201160547438 0 -0.09054666164713164 0.067286880848174316 0 -0.1026583207929353 0.062347346287697412 0 -0.091131717688311603 0.055225201160547438 0 -0.1061587232064081 0.029080734372794698 0 -0.112428546201817 0.041955624634692393 0 -0.1016080011228369 0.039407166226836883 0 -0.112428546201817 0.041955624634692393 0 -0.10210071185166431 0.050014029354961582 0 -0.1016080011228369 0.039407166226836883 0 -0.10210071185166431 0.050014029354961582 0 -0.1016080011228369 0.039407166226836883 0 -0.091201579857211959 0.041080799774458047 0 -0.1061587232064081 0.029080734372794698 0 -0.094924595462104619 0.030399760044886301 0 -0.1016080011228369 0.039407166226836883 0 -0.094924595462104619 0.030399760044886301 0 -0.1016080011228369 0.039407166226836883 0 -0.091201579857211959 0.041080799774458047 0 -0.094924595462104619 0.030399760044886301 0 -0.091201579857211959 0.041080799774458047 0 -0.083613433652756419 0.02825823648094046 0 -0.091201579857211959 0.041080799774458047 0 -0.080163505572120847 0.038728335950810322 0 -0.0801262205712997 0.049966522982092462 0 -0.091201579857211959 0.041080799774458047 0 -0.080163505572120847 0.038728335950810322 0 -0.083613433652756419 0.02825823648094046 0 -0.080163505572120847 0.038728335950810322 0 -0.075199828102842814 0.032505994045140242 0 -0.083613433652756419 0.02825823648094046 0 -0.09054666164713164 0.067286880848174316 0 -0.091131717688311603 0.055225201160547438 0 -0.081860045586377939 0.060182951188062161 0 -0.091201579857211959 0.041080799774458047 0 -0.091131717688311603 0.055225201160547438 0 -0.0801262205712997 0.049966522982092462 0 -0.091131717688311603 0.055225201160547438 0 -0.0801262205712997 0.049966522982092462 0 -0.081860045586377939 0.060182951188062161 0 -0.0801262205712997 0.049966522982092462 0 -0.069862538744371955 0.057777113150521288 0 -0.06901267431079619 0.039797487593251017 0 -0.069862538744371955 0.057777113150521288 0 -0.06901267431079619 0.039797487593251017 0 -0.058907879691800273 0.050969475640674493 0 -0.062515526400001881 0.068377579792855414 0 -0.069862538744371955 0.057777113150521288 0 -0.058907879691800273 0.050969475640674493 0 -0.0801262205712997 0.049966522982092462 0 -0.081860045586377939 0.060182951188062161 0 -0.069862538744371955 0.057777113150521288 0 -0.06901267431079619 0.039797487593251017 0 -0.068009698875697827 0.023239916155559141 0 -0.055300232983598208 0.033561371488493641 0 -0.075199828102842814 0.032505994045140242 0 -0.06901267431079619 0.039797487593251017 0 -0.068009698875697827 0.023239916155559141 0 -0.080163505572120847 0.038728335950810322 0 -0.075199828102842814 0.032505994045140242 0 -0.06901267431079619 0.039797487593251017 0 -0.080163505572120847 0.038728335950810322 0 -0.0801262205712997 0.049966522982092462 0 -0.06901267431079619 0.039797487593251017 0 -0.068009698875697827 0.023239916155559141 0 -0.066123158358303874 0.0069763394170788487 0 -0.055300232983598208 0.033561371488493641 0 -0.068009698875697827 0.023239916155559141 0 -0.083613433652756419 0.02825823648094046 0 -0.080050012301679602 0.015705407900093959 0 -0.068009698875697827 0.023239916155559141 0 -0.080050012301679602 0.015705407900093959 0 -0.07274845615251338 0.0135364418571977 0 -0.075199828102842814 0.032505994045140242 0 -0.068009698875697827 0.023239916155559141 0 -0.083613433652756419 0.02825823648094046 0 -0.094449021505079139 0.018227913303066591 0 -0.083613433652756419 0.02825823648094046 0 -0.080050012301679602 0.015705407900093959 0 -0.094924595462104619 0.030399760044886301 0 -0.094449021505079139 0.018227913303066591 0 -0.083613433652756419 0.02825823648094046 0 -0.089124004628701792 -0.0040277377021705899 0 -0.097507665945787692 0.0040820149966005574 0 -0.086098134196158846 0.0059583430860626887 0 -0.094449021505079139 0.018227913303066591 0 -0.080050012301679602 0.015705407900093959 0 -0.086098134196158846 0.0059583430860626887 0 -0.094449021505079139 0.018227913303066591 0 -0.097507665945787692 0.0040820149966005574 0 -0.086098134196158846 0.0059583430860626887 0 -0.080050012301679602 0.015705407900093959 0 -0.086098134196158846 0.0059583430860626887 0 -0.076810955074372203 0.0082241039560588727 0 -0.079764572027605563 -0.001208843295517239 0 -0.086098134196158846 0.0059583430860626887 0 -0.076810955074372203 0.0082241039560588727 0 -0.079764572027605563 -0.001208843295517239 0 -0.089124004628701792 -0.0040277377021705899 0 -0.086098134196158846 0.0059583430860626887 0 -0.079764572027605563 -0.001208843295517239 0 -0.076810955074372203 0.0082241039560588727 0 -0.066123158358303874 0.0069763394170788487 0 -0.068009698875697827 0.023239916155559141 0 -0.07274845615251338 0.0135364418571977 0 -0.066123158358303874 0.0069763394170788487 0 -0.076810955074372203 0.0082241039560588727 0 -0.07274845615251338 0.0135364418571977 0 -0.066123158358303874 0.0069763394170788487 0 -0.080050012301679602 0.015705407900093959 0 -0.076810955074372203 0.0082241039560588727 0 -0.07274845615251338 0.0135364418571977 0 -0.047617207273071643 -0.0035118018543059538 0 -0.059664616745900671 -0.0040500510012267867 0 -0.050798470683601923 0.01183886002179501 0 -0.059664616745900671 -0.0040500510012267867 0 -0.066123158358303874 0.0069763394170788487 0 -0.050798470683601923 0.01183886002179501 0 -0.059664616745900671 -0.0040500510012267867 0 -0.050798470683601923 0.01183886002179501 0 -0.047617207273071643 -0.0035118018543059538 0 -0.050798470683601923 0.01183886002179501 0 -0.050798470683601923 0.01183886002179501 0 -0.055300232983598208 0.033561371488493641 0 -0.04692109718252771 0.035386244484329407 0 -0.066123158358303874 0.0069763394170788487 0 -0.055300232983598208 0.033561371488493641 0 -0.066123158358303874 0.0069763394170788487 0 -0.050798470683601923 0.01183886002179501 0 -0.055300232983598208 0.033561371488493641 0 -0.050798470683601923 0.01183886002179501 0 -0.055300232983598208 0.033561371488493641 0 -0.050798470683601923 0.01183886002179501 0 -0.034391162446891957 0.018187238464497092 0 -0.037793901381418679 0.035144188298954319 0 -0.034391162446891957 0.018187238464497092 0 -0.037793901381418679 0.035144188298954319 0 -0.022455882408961961 0.026825405924253771 0 -0.050798470683601923 0.01183886002179501 0 -0.037793901381418679 0.035144188298954319 0 -0.050798470683601923 0.01183886002179501 0 -0.04692109718252771 0.035386244484329407 0 -0.037793901381418679 0.035144188298954319 0 -0.050798470683601923 0.01183886002179501 0 -0.034391162446891957 0.018187238464497092 0 -0.03671052455766443 0.0037031618858211421 0 -0.034391162446891957 0.018187238464497092 0 -0.03671052455766443 0.0037031618858211421 0 -0.022890364083827771 0.01081673007749915 0 -0.047617207273071643 -0.0035118018543059538 0 -0.050798470683601923 0.01183886002179501 0 -0.03671052455766443 0.0037031618858211421 0 -0.062515526400001881 0.068377579792855414 0 -0.058907879691800273 0.050969475640674493 0 -0.062515526400001881 0.068377579792855414 0 -0.055379183454653792 0.058514889464143828 0 -0.058907879691800273 0.050969475640674493 0 -0.052204780428632629 0.062945341387988421 0 -0.047859912164240369 0.063897566148078455 0 -0.047888547298180387 0.051767161035057033 0 -0.052204780428632629 0.062945341387988421 0 -0.055379183454653792 0.058514889464143828 0 -0.047888547298180387 0.051767161035057033 0 -0.055379183454653792 0.058514889464143828 0 -0.058907879691800273 0.050969475640674493 0 -0.047888547298180387 0.051767161035057033 0 -0.06901267431079619 0.039797487593251017 0 -0.058907879691800273 0.050969475640674493 0 -0.055300232983598208 0.033561371488493641 0 -0.047888547298180387 0.051767161035057033 0 -0.055300232983598208 0.033561371488493641 0 -0.04692109718252771 0.035386244484329407 0 -0.058907879691800273 0.050969475640674493 0 -0.047888547298180387 0.051767161035057033 0 -0.055300232983598208 0.033561371488493641 0 -0.047888547298180387 0.051767161035057033 0 -0.055300232983598208 0.033561371488493641 0 -0.058907879691800273 0.050969475640674493 0 -0.055300232983598208 0.033561371488493641 0 -0.037793901381418679 0.035144188298954319 0 -0.024789332079235359 0.058449516576113518 0 -0.047888547298180387 0.051767161035057033 0 -0.04692109718252771 0.035386244484329407 0 -0.042824333565839388 0.044619641577347061 0 -0.037793901381418679 0.035144188298954319 0 -0.042824333565839388 0.044619641577347061 0 -0.024789332079235359 0.058449516576113518 0 -0.04692109718252771 0.035386244484329407 0 -0.037793901381418679 0.035144188298954319 0 -0.042824333565839388 0.044619641577347061 0 -0.027165468422692102 0.066119176775560506 0 -0.047888547298180387 0.051767161035057033 0 -0.042824333565839388 0.044619641577347061 0 -0.040476861612764189 0.069972950581621118 0 -0.047859912164240369 0.063897566148078455 0 -0.047888547298180387 0.051767161035057033 0 -0.040476861612764189 0.069972950581621118 0 -0.047888547298180387 0.051767161035057033 0 -0.027165468422692102 0.066119176775560506 0 -0.042824333565839388 0.044619641577347061 0 -0.027165468422692102 0.066119176775560506 0 -0.042824333565839388 0.044619641577347061 0 -0.024789332079235359 0.058449516576113518 0 -0.015766095144715799 0.059221925757037469 0 -0.024789332079235359 0.058449516576113518 0 -0.0190365636870411 0.05257699221554326 0 -0.015766095144715799 0.059221925757037469 0 -0.021155304748881689 0.062203044053262727 0 -0.024789332079235359 0.058449516576113518 0 -0.01690032334888349 0.065021557104339434 0 -0.015766095144715799 0.059221925757037469 0 -0.021155304748881689 0.062203044053262727 0 -0.027165468422692102 0.066119176775560506 0 -0.021155304748881689 0.062203044053262727 0 -0.024789332079235359 0.058449516576113518 0 -0.024789332079235359 0.058449516576113518 0 -0.0190365636870411 0.05257699221554326 0 -0.02501616098884394 0.043295095323351421 0 -0.0190365636870411 0.05257699221554326 0 -0.02501616098884394 0.043295095323351421 0 -0.010574666535369299 0.049341431205670631 0 -0.037793901381418679 0.035144188298954319 0 -0.024789332079235359 0.058449516576113518 0 -0.02501616098884394 0.043295095323351421 0 -0.037793901381418679 0.035144188298954319 0 -0.02501616098884394 0.043295095323351421 0 -0.022455882408961961 0.026825405924253771 0 -0.02501616098884394 0.043295095323351421 0 -0.01174883101074616 0.035626247072063598 0 -0.022455882408961961 0.026825405924253771 0 -0.02501616098884394 0.043295095323351421 0 -0.01174883101074616 0.035626247072063598 0 -0.010574666535369299 0.049341431205670631 0 -0.01174883101074616 0.035626247072063598 0 -0.010574666535369299 0.049341431205670631 0 0.0050554059078342702 0.036817447586302399 0 -0.010574666535369299 0.049341431205670631 0 -0.004471055932428975 0.061346262570306953 0 0.0079626054049135586 0.052863747179962457 0 -0.015766095144715799 0.059221925757037469 0 -0.0190365636870411 0.05257699221554326 0 -0.010574666535369299 0.049341431205670631 0 -0.015766095144715799 0.059221925757037469 0 -0.010574666535369299 0.049341431205670631 0 -0.004471055932428975 0.061346262570306953 0 -0.0096267601800840239 0.066065855624376196 0 -0.015766095144715799 0.059221925757037469 0 -0.004471055932428975 0.061346262570306953 0 -0.025670282478897081 -0.0054027298625421993 0 -0.03671052455766443 0.0037031618858211421 0 -0.022890364083827771 0.01081673007749915 0 -0.025670282478897081 -0.0054027298625421993 0 -0.022890364083827771 0.01081673007749915 0 -0.010105069976996849 0.0023765649732562961 0 -0.022890364083827771 0.01081673007749915 0 -0.022455882408961961 0.026825405924253771 0 -0.0028948745420432241 0.01788293630915707 0 -0.034391162446891957 0.018187238464497092 0 -0.022890364083827771 0.01081673007749915 0 -0.022455882408961961 0.026825405924253771 0 -0.01174883101074616 0.035626247072063598 0 -0.022455882408961961 0.026825405924253771 0 -0.0028948745420432241 0.01788293630915707 0 -0.01174883101074616 0.035626247072063598 0 -0.0028948745420432241 0.01788293630915707 0 0.0050554059078342702 0.036817447586302399 0 -0.022890364083827771 0.01081673007749915 0 -0.0028948745420432241 0.01788293630915707 0 -0.010105069976996849 0.0023765649732562961 0 -0.0028948745420432241 0.01788293630915707 0 -0.010105069976996849 0.0023765649732562961 0 0.0047038114401232534 -0.001040937293712483 0 -0.0028948745420432241 0.01788293630915707 0 0.020415517075116841 0.0076517724901667356 0 0.0047038114401232534 -0.001040937293712483 0 -0.0028948745420432241 0.01788293630915707 0 0.020342672512877309 0.02491627604112644 0 0.020415517075116841 0.0076517724901667356 0 -0.0028948745420432241 0.01788293630915707 0 0.020342672512877309 0.02491627604112644 0 0.0050554059078342702 0.036817447586302399 0 0.020342672512877309 0.02491627604112644 0 0.020415517075116841 0.0076517724901667356 0 0.04034715667016759 0.018897687307637179 0 0.020342672512877309 0.02491627604112644 0 0.02507841675544124 0.048354097280414877 0 0.04034715667016759 0.018897687307637179 0 0.0079626054049135586 0.052863747179962457 0 0.02507841675544124 0.048354097280414877 0 0.010722424996073881 0.068121568230846891 0 -0.010574666535369299 0.049341431205670631 0 0.0079626054049135586 0.052863747179962457 0 0.0050554059078342702 0.036817447586302399 0 0.0079626054049135586 0.052863747179962457 0 0.0050554059078342702 0.036817447586302399 0 0.02507841675544124 0.048354097280414877 0 0.020342672512877309 0.02491627604112644 0 0.0050554059078342702 0.036817447586302399 0 0.02507841675544124 0.048354097280414877 0 0.02507841675544124 0.048354097280414877 0 0.050251726499931808 0.044842678424317363 0 0.039807943620716157 0.068946520475498749 0 0.050251726499931808 0.044842678424317363 0 0.039807943620716157 0.068946520475498749 0 0.02507841675544124 0.048354097280414877 0 0.050251726499931808 0.044842678424317363 0 0.04034715667016759 0.018897687307637179 0 0.050251726499931808 0.044842678424317363 0 0.060695509379147472 0.02073883637313596 0 0.066628286533047365 0.040173783681243101 0 0.050251726499931808 0.044842678424317363 0 0.060695509379147472 0.02073883637313596 0 0.050251726499931808 0.044842678424317363 0 0.066628286533047365 0.040173783681243101 0 0.063756980967503582 0.059761195325569103 0 0.050251726499931808 0.044842678424317363 0 0.063756980967503582 0.059761195325569103 0 0.039807943620716157 0.068946520475498749 0 0.020415517075116841 0.0076517724901667356 0 0.04034715667016759 0.018897687307637179 0 0.039787151186370009 -0.0039594854922263374 0 0.04034715667016759 0.018897687307637179 0 0.053306813386582982 0.0056008818424343951 0 0.039787151186370009 -0.0039594854922263374 0 0.050251726499931808 0.044842678424317363 0 0.04034715667016759 0.018897687307637179 0 0.060695509379147472 0.02073883637313596 0 0.04034715667016759 0.018897687307637179 0 0.060695509379147472 0.02073883637313596 0 0.053306813386582982 0.0056008818424343951 0 0.060695509379147472 0.02073883637313596 0 0.053306813386582982 0.0056008818424343951 0 0.065940651683257009 0.0024831850618150888 0 0.060695509379147472 0.02073883637313596 0 0.065940651683257009 0.0024831850618150888 0 0.07992851590561921 0.0082161523869754144 0 0.065940651683257009 0.0024831850618150888 0 0.07992851590561921 0.0082161523869754144 0 0.074177093133044117 -0.010507922444979889 0 0.07992851590561921 0.0082161523869754144 0 0.1009244284881298 0.0078078577834924806 0 0.09649789417263642 -0.0037639840011086311 0 0.07992851590561921 0.0082161523869754144 0 0.1009244284881298 0.0078078577834924806 0 0.09893654195113713 0.02570505514797651 0 0.07992851590561921 0.0082161523869754144 0 0.08516149451907469 0.032589503251719387 0 0.07992851590561921 0.0082161523869754144 0 0.08516149451907469 0.032589503251719387 0 0.09893654195113713 0.02570505514797651 0 0.060695509379147472 0.02073883637313596 0 0.07992851590561921 0.0082161523869754144 0 0.08516149451907469 0.032589503251719387 0 0.060695509379147472 0.02073883637313596 0 0.066628286533047365 0.040173783681243101 0 0.08516149451907469 0.032589503251719387 0 0.066628286533047365 0.040173783681243101 0 0.076734924211177571 0.049535316522237388 0 0.08516149451907469 0.032589503251719387 0 0.066628286533047365 0.040173783681243101 0 0.063756980967503582 0.059761195325569103 0 0.076734924211177571 0.049535316522237388 0 0.063756980967503582 0.059761195325569103 0 0.076734924211177571 0.049535316522237388 0 0.078896317813284711 0.063130005487330554 0 0.076734924211177571 0.049535316522237388 0 0.090394473132530156 0.056962854116463339 0 0.078896317813284711 0.063130005487330554 0 0.090394473132530156 0.056962854116463339 0 0.08516149451907469 0.032589503251719387 0 0.076734924211177571 0.049535316522237388 0 0.090394473132530156 0.056962854116463339 0 0.08516149451907469 0.032589503251719387 0 0.090394473132530156 0.056962854116463339 0 0.08516149451907469 0.032589503251719387 0 0.096764564946639139 0.043178279343160431 0 0.08516149451907469 0.032589503251719387 0 0.096764564946639139 0.043178279343160431 0 0.09893654195113713 0.02570505514797651 0 0.096764564946639139 0.043178279343160431 0 0.10666951487556919 0.040720151324231749 0 0.09893654195113713 0.02570505514797651 0 0.096764564946639139 0.043178279343160431 0 0.10666951487556919 0.040720151324231749 0 0.10388747543703999 0.053358399551525167 0 0.10666951487556919 0.040720151324231749 0 0.1142736493139349 0.03087626799389703 0 0.09893654195113713 0.02570505514797651 0 0.10388747543703999 0.053358399551525167 0 0.11892469151436 0.060175562481194378 0 0.096340815718618328 0.066677421107029802 0 0.090394473132530156 0.056962854116463339 0 0.10388747543703999 0.053358399551525167 0 0.096340815718618328 0.066677421107029802 0 0.090394473132530156 0.056962854116463339 0 0.096764564946639139 0.043178279343160431 0 0.10388747543703999 0.053358399551525167 0 0.10666951487556919 0.040720151324231749 0 0.10388747543703999 0.053358399551525167 0 0.1137328545953389 0.049471119462924477 0 0.1137328545953389 0.049471119462924477 0 0.11892469151436 0.060175562481194378 0 0.12367169586596689 0.04413069599522032 0 0.10388747543703999 0.053358399551525167 0 0.1137328545953389 0.049471119462924477 0 0.11892469151436 0.060175562481194378 0 0.10666951487556919 0.040720151324231749 0 0.12367169586596689 0.04413069599522032 0 0.1142736493139349 0.03087626799389703 0 0.12367169586596689 0.04413069599522032 0 0.1142736493139349 0.03087626799389703 0 0.13034027439662041 0.028127834929059549 0 0.10666951487556919 0.040720151324231749 0 0.1137328545953389 0.049471119462924477 0 0.12367169586596689 0.04413069599522032 0 0.1142736493139349 0.03087626799389703 0 0.111750219480381 0.015697602572997061 0 0.13034027439662041 0.028127834929059549 0 0.11917198148314 0.002581966002757949 0 0.13034027439662041 0.028127834929059549 0 0.111750219480381 0.015697602572997061 0 0.11917198148314 0.002581966002757949 0 0.13034027439662041 0.028127834929059549 0 0.11917198148314 0.002581966002757949 0 0.1309849453148588 0.01811654968683717 0 0.1228376310831711 -0.00076623140119310329 0 0.11917198148314 0.002581966002757949 0 0.1228376310831711 -0.00076623140119310329 0 0.11917198148314 0.002581966002757949 0 0.1133629416093747 0.002418872237081233 0 0.1105415625726717 -0.0014271332550589229 0 0.11917198148314 0.002581966002757949 0 0.1133629416093747 0.002418872237081233 0 0.11092652002007269 0.0067640166461111727 0 0.1133629416093747 0.002418872237081233 0 0.1078625722471533 0.0022823866337398822 0 0.1105415625726717 -0.0014271332550589229 0 0.1133629416093747 0.002418872237081233 0 0.11092652002007269 0.0067640166461111727 0 0.1078625722471533 0.0022823866337398822 0 0.111750219480381 0.015697602572997061 0 0.11917198148314 0.002581966002757949 0 0.11092652002007269 0.0067640166461111727 0 0.111750219480381 0.015697602572997061 0 0.11092652002007269 0.0067640166461111727 0 0.1009244284881298 0.0078078577834924806 0 0.1078625722471533 0.0022823866337398822 0 0.1009244284881298 0.0078078577834924806 0 0.1039166904039584 -0.0028966343462391718 0 0.11092652002007269 0.0067640166461111727 0 0.1078625722471533 0.0022823866337398822 0 0.1009244284881298 0.0078078577834924806 0 0.1009244284881298 0.0078078577834924806 0 0.1039166904039584 -0.0028966343462391718 0 0.09649789417263642 -0.0037639840011086311 0 0.111750219480381 0.015697602572997061 0 0.1009244284881298 0.0078078577834924806 0 0.09893654195113713 0.02570505514797651 0 0.1142736493139349 0.03087626799389703 0 0.111750219480381 0.015697602572997061 0 0.09893654195113713 0.02570505514797651 0 0.10086043035944101 0.1057095558459509 0 0.088353675930770217 0.1090445403681379 0 0.098136173783193614 0.12855261503670501 0 0.10086043035944101 0.1057095558459509 0 0.11707998843366239 0.12090166170324231 0 0.098136173783193614 0.12855261503670501 0 0.10086043035944101 0.1057095558459509 0 0.11707998843366239 0.12090166170324231 0 0.12018819637303869 0.10164151191590461 0 0.11707998843366239 0.12090166170324231 0 0.12018819637303869 0.10164151191590461 0 0.1368974078767736 0.107501873099266 0 0.10086043035944101 0.1057095558459509 0 0.12018819637303869 0.10164151191590461 0 0.11039993896964689 0.089589601033300492 0 0.12018819637303869 0.10164151191590461 0 0.1225478872688979 0.090713611373926736 0 0.11039993896964689 0.089589601033300492 0 0.1225478872688979 0.090713611373926736 0 0.1210037722340596 0.082520495593825793 0 0.11039993896964689 0.089589601033300492 0 0.1210037722340596 0.082520495593825793 0 0.11039993896964689 0.089589601033300492 0 0.1079674466630436 0.07575227550831827 0 0.1243405792371938 0.066503547411893488 0 0.1152310018430296 0.068591719667449438 0 0.13121537104960351 0.072689189806444385 0 0.1152310018430296 0.068591719667449438 0 0.1079674466630436 0.07575227550831827 0 0.13121537104960351 0.072689189806444385 0 0.11892469151436 0.060175562481194378 0 0.1152310018430296 0.068591719667449438 0 0.096340815718618328 0.066677421107029802 0 0.1210037722340596 0.082520495593825793 0 0.1079674466630436 0.07575227550831827 0 0.13121537104960351 0.072689189806444385 0 0.1079674466630436 0.07575227550831827 0 0.13121537104960351 0.072689189806444385 0 0.11892469151436 0.060175562481194378 0 0.1243405792371938 0.066503547411893488 0 0.1152310018430296 0.068591719667449438 0 0.090394473132530156 0.056962854116463339 0 0.096340815718618328 0.066677421107029802 0 0.095627451745985609 0.081336204981207194 0 0.11892469151436 0.060175562481194378 0 0.096340815718618328 0.066677421107029802 0 0.1152310018430296 0.068591719667449438 0 0.1079674466630436 0.07575227550831827 0 0.096340815718618328 0.066677421107029802 0 0.1079674466630436 0.07575227550831827 0 0.096340815718618328 0.066677421107029802 0 0.095627451745985609 0.081336204981207194 0 0.10086043035944101 0.1057095558459509 0 0.095627451745985609 0.081336204981207194 0 0.10086043035944101 0.1057095558459509 0 0.095627451745985609 0.081336204981207194 0 0.085469831166676849 0.087436677031336632 0 0.10086043035944101 0.1057095558459509 0 0.11039993896964689 0.089589601033300492 0 0.095627451745985609 0.081336204981207194 0 0.11039993896964689 0.089589601033300492 0 0.1079674466630436 0.07575227550831827 0 0.095627451745985609 0.081336204981207194 0 0.095627451745985609 0.081336204981207194 0 0.085469831166676849 0.087436677031336632 0 0.085588317529406169 0.073238424790440806 0 0.085469831166676849 0.087436677031336632 0 0.085588317529406169 0.073238424790440806 0 0.076873554133312927 0.079435143693455501 0 0.085469831166676849 0.087436677031336632 0 0.070098818600398835 0.095008337279511162 0 0.081838863589211913 0.097859807548057495 0 0.085588317529406169 0.073238424790440806 0 0.078896317813284711 0.063130005487330554 0 0.076873554133312927 0.079435143693455501 0 0.090394473132530156 0.056962854116463339 0 0.095627451745985609 0.081336204981207194 0 0.090394473132530156 0.056962854116463339 0 0.095627451745985609 0.081336204981207194 0 0.085588317529406169 0.073238424790440806 0 0.090394473132530156 0.056962854116463339 0 0.085588317529406169 0.073238424790440806 0 0.078896317813284711 0.063130005487330554 0 0.063756980967503582 0.059761195325569103 0 0.076873554133312927 0.079435143693455501 0 0.058428932400687923 0.080576723114904505 0 0.063756980967503582 0.059761195325569103 0 0.078896317813284711 0.063130005487330554 0 0.076873554133312927 0.079435143693455501 0 0.076873554133312927 0.079435143693455501 0 0.070098818600398835 0.095008337279511162 0 0.058428932400687923 0.080576723114904505 0 0.085469831166676849 0.087436677031336632 0 0.076873554133312927 0.079435143693455501 0 0.070098818600398835 0.095008337279511162 0 0.076873554133312927 0.079435143693455501 0 0.070098818600398835 0.095008337279511162 0 0.070098818600398835 0.095008337279511162 0 0.063324083067484813 0.1105815308655668 0 0.056772327777908818 0.093355456469435216 0 0.070098818600398835 0.095008337279511162 0 0.073686861685182473 0.1058294153104071 0 0.063324083067484813 0.1105815308655668 0 0.070098818600398835 0.095008337279511162 0 0.063324083067484813 0.1105815308655668 0 0.070098818600398835 0.095008337279511162 0 0.073686861685182473 0.1058294153104071 0 0.081838863589211913 0.097859807548057495 0 0.10086043035944101 0.1057095558459509 0 0.088353675930770217 0.1090445403681379 0 0.081838863589211913 0.097859807548057495 0 0.10086043035944101 0.1057095558459509 0 0.085469831166676849 0.087436677031336632 0 0.081838863589211913 0.097859807548057495 0 0.073686861685182473 0.1058294153104071 0 0.081838863589211913 0.097859807548057495 0 0.081058066011519173 0.11973636453468819 0 0.081838863589211913 0.097859807548057495 0 0.081058066011519173 0.11973636453468819 0 0.088353675930770217 0.1090445403681379 0 0.081838863589211913 0.097859807548057495 0 0.081058066011519173 0.11973636453468819 0 0.081058066011519173 0.11973636453468819 0 0.098136173783193614 0.12855261503670501 0 0.088353675930770217 0.1090445403681379 0 0.081058066011519173 0.11973636453468819 0 0.098136173783193614 0.12855261503670501 0 0.081058066011519173 0.11973636453468819 0 0.063324083067484813 0.1105815308655668 0 0.068402942841081005 0.12865021266463919 0 0.081058066011519173 0.11973636453468819 0 0.063324083067484813 0.1105815308655668 0 0.073686861685182473 0.1058294153104071 0 0.081058066011519173 0.11973636453468819 0 0.063324083067484813 0.1105815308655668 0 0.063324083067484813 0.1105815308655668 0 0.047212646671147621 0.11637508280246631 0 0.046344121904492837 0.10181594669612309 0 0.063324083067484813 0.1105815308655668 0 0.047212646671147621 0.11637508280246631 0 0.054704645729867107 0.1303951701743557 0 0.063324083067484813 0.1105815308655668 0 0.054704645729867107 0.1303951701743557 0 0.068402942841081005 0.12865021266463919 0 0.063324083067484813 0.1105815308655668 0 0.054704645729867107 0.1303951701743557 0 0.063324083067484813 0.1105815308655668 0 0.046344121904492837 0.10181594669612309 0 0.056772327777908818 0.093355456469435216 0 0.063324083067484813 0.1105815308655668 0 0.046344121904492837 0.10181594669612309 0 0.046344121904492837 0.10181594669612309 0 0.056772327777908818 0.093355456469435216 0 0.045320775007697253 0.087378911453508054 0 0.046344121904492837 0.10181594669612309 0 0.0293641607415005 0.093050362526680058 0 0.027539824430943272 0.097260859315675907 0 0.046344121904492837 0.10181594669612309 0 0.0293641607415005 0.093050362526680058 0 0.046344121904492837 0.10181594669612309 0 0.045320775007697253 0.087378911453508054 0 0.0293641607415005 0.093050362526680058 0 0.046344121904492837 0.10181594669612309 0 0.034802580128522533 0.108370238657299 0 0.027539824430943272 0.097260859315675907 0 0.047212646671147621 0.11637508280246631 0 0.046344121904492837 0.10181594669612309 0 0.034802580128522533 0.108370238657299 0 0.034802580128522533 0.108370238657299 0 0.02295827912300942 0.1143792008990337 0 0.036209801575650402 0.12755429465012871 0 0.047212646671147621 0.11637508280246631 0 0.054704645729867107 0.1303951701743557 0 0.036209801575650402 0.12755429465012871 0 0.047212646671147621 0.11637508280246631 0 0.034802580128522533 0.108370238657299 0 0.036209801575650402 0.12755429465012871 0 0.063756980967503582 0.059761195325569103 0 0.058428932400687923 0.080576723114904505 0 0.039807943620716157 0.068946520475498749 0 0.058428932400687923 0.080576723114904505 0 0.045320775007697253 0.087378911453508054 0 0.039807943620716157 0.068946520475498749 0 0.070098818600398835 0.095008337279511162 0 0.058428932400687923 0.080576723114904505 0 0.056772327777908818 0.093355456469435216 0 0.058428932400687923 0.080576723114904505 0 0.056772327777908818 0.093355456469435216 0 0.045320775007697253 0.087378911453508054 0 0.039807943620716157 0.068946520475498749 0 0.02523443473854358 0.074793540318702806 0 0.0293641607415005 0.093050362526680058 0 0.045320775007697253 0.087378911453508054 0 0.039807943620716157 0.068946520475498749 0 0.0293641607415005 0.093050362526680058 0 0.039807943620716157 0.068946520475498749 0 0.0293641607415005 0.093050362526680058 0 0.02507841675544124 0.048354097280414877 0 0.039807943620716157 0.068946520475498749 0 0.02523443473854358 0.074793540318702806 0 0.02523443473854358 0.074793540318702806 0 0.01233266555678463 0.084258174892090337 0 0.010722424996073881 0.068121568230846891 0 0.02507841675544124 0.048354097280414877 0 0.02523443473854358 0.074793540318702806 0 0.010722424996073881 0.068121568230846891 0 0.0293641607415005 0.093050362526680058 0 0.01233266555678463 0.084258174892090337 0 0.0293641607415005 0.093050362526680058 0 0.01233266555678463 0.084258174892090337 0 0.019584721545335231 0.095933386042030777 0 0.02523443473854358 0.074793540318702806 0 0.0293641607415005 0.093050362526680058 0 0.01233266555678463 0.084258174892090337 0 -0.0046988296279310846 0.075465987257500103 0 0.01233266555678463 0.084258174892090337 0 -0.0046988296279310846 0.075465987257500103 0 0.00056903788424511365 0.086682396089073327 0 0.01233266555678463 0.084258174892090337 0 0.01233266555678463 0.084258174892090337 0 0.019584721545335231 0.095933386042030777 0 0.0096773837387348072 0.094713106344260181 0 0.00056903788424511365 0.086682396089073327 0 0.0096773837387348072 0.094713106344260181 0 0.0017142141577850001 0.096485027642689541 0 0.00056903788424511365 0.086682396089073327 0 0.01233266555678463 0.084258174892090337 0 0.0096773837387348072 0.094713106344260181 0 -0.0046988296279310846 0.075465987257500103 0 0.0079626054049135586 0.052863747179962457 0 -0.0046988296279310846 0.075465987257500103 0 0.01233266555678463 0.084258174892090337 0 0.010722424996073881 0.068121568230846891 0 -0.0046988296279310846 0.075465987257500103 0 0.0079626054049135586 0.052863747179962457 0 0.010722424996073881 0.068121568230846891 0 0.02295827912300942 0.1143792008990337 0 0.016633607451047409 0.12879447845417449 0 0.036209801575650402 0.12755429465012871 0 0.02295827912300942 0.1143792008990337 0 0.02320798257890765 0.1047443639128517 0 0.017264926825327171 0.1093249123190818 0 0.02295827912300942 0.1143792008990337 0 0.017264926825327171 0.1093249123190818 0 0.01360187540002143 0.11722717171449371 0 0.02295827912300942 0.1143792008990337 0 0.01360187540002143 0.11722717171449371 0 0.016633607451047409 0.12879447845417449 0 0.034802580128522533 0.108370238657299 0 0.027539824430943272 0.097260859315675907 0 0.02320798257890765 0.1047443639128517 0 0.034802580128522533 0.108370238657299 0 0.02295827912300942 0.1143792008990337 0 0.02320798257890765 0.1047443639128517 0 0.0293641607415005 0.093050362526680058 0 0.027539824430943272 0.097260859315675907 0 0.019584721545335231 0.095933386042030777 0 0.027539824430943272 0.097260859315675907 0 0.019584721545335231 0.095933386042030777 0 0.02320798257890765 0.1047443639128517 0 0.0293641607415005 0.093050362526680058 0 0.027539824430943272 0.097260859315675907 0 0.019584721545335231 0.095933386042030777 0 0.02320798257890765 0.1047443639128517 0 0.01504081682007688 0.10253598369847031 0 0.02320798257890765 0.1047443639128517 0 0.017264926825327171 0.1093249123190818 0 0.01504081682007688 0.10253598369847031 0 0.0088228464681819972 0.10238366970120689 0 0.01151568020462046 0.1077378413705596 0 0.0058206420146291954 0.1114089238878985 0 0.017264926825327171 0.1093249123190818 0 0.01504081682007688 0.10253598369847031 0 0.01151568020462046 0.1077378413705596 0 0.01504081682007688 0.10253598369847031 0 0.0088228464681819972 0.10238366970120689 0 0.01151568020462046 0.1077378413705596 0 0.019584721545335231 0.095933386042030777 0 0.01504081682007688 0.10253598369847031 0 0.0096773837387348072 0.094713106344260181 0 0.01504081682007688 0.10253598369847031 0 0.0088228464681819972 0.10238366970120689 0 0.0096773837387348072 0.094713106344260181 0 0.0088228464681819972 0.10238366970120689 0 0.0096773837387348072 0.094713106344260181 0 0.0017142141577850001 0.096485027642689541 0 0.0088228464681819972 0.10238366970120689 0 0.0017142141577850001 0.096485027642689541 0 0.0058206420146291954 0.1114089238878985 0 0.0058206420146291954 0.1114089238878985 0 0.00039794405216867472 0.112072386291362 0 0.01360187540002143 0.11722717171449371 0 0.00039794405216867472 0.112072386291362 0 0.016633607451047409 0.12879447845417449 0 0.00039794405216867472 0.112072386291362 0 0.01360187540002143 0.11722717171449371 0 0.016633607451047409 0.12879447845417449 0 0.00039794405216867472 0.112072386291362 0 0.0010393500416724941 0.12595831854165979 0 0.016633607451047409 0.12879447845417449 0 0.01151568020462046 0.1077378413705596 0 0.0058206420146291954 0.1114089238878985 0 0.01360187540002143 0.11722717171449371 0 0.017264926825327171 0.1093249123190818 0 0.01151568020462046 0.1077378413705596 0 0.01360187540002143 0.11722717171449371 0 -0.0082797250895681185 0.13474448294352481 0 0.0010393500416724941 0.12595831854165979 0 0.01291562537333717 0.14373886088149129 0 0.0010393500416724941 0.12595831854165979 0 0.016633607451047409 0.12879447845417449 0 0.01291562537333717 0.14373886088149129 0 0.016633607451047409 0.12879447845417449 0 0.030096440749716711 0.14309687622970299 0 0.036209801575650402 0.12755429465012871 0 0.016633607451047409 0.12879447845417449 0 0.030096440749716711 0.14309687622970299 0 0.01291562537333717 0.14373886088149129 0 0.030096440749716711 0.14309687622970299 0 0.01291562537333717 0.14373886088149129 0 0.026789162612504271 0.15663130254031199 0 0.01291562537333717 0.14373886088149129 0 0.015650655317666261 0.15865613344587939 0 0.026789162612504271 0.15663130254031199 0 0.01291562537333717 0.14373886088149129 0 0.00151890392611572 0.15456094484017679 0 0.015650655317666261 0.15865613344587939 0 -0.0082797250895681185 0.13474448294352481 0 0.01291562537333717 0.14373886088149129 0 0.00151890392611572 0.15456094484017679 0 0.00151890392611572 0.15456094484017679 0 0.01131753294179963 0.17437740673682869 0 0.00151890392611572 0.15456094484017679 0 0.012386788017382491 0.1641388541230504 0 0.01131753294179963 0.17437740673682869 0 -0.0026654791677323511 0.16604552865166611 0 0.00151890392611572 0.15456094484017679 0 0.01131753294179963 0.17437740673682869 0 -0.0026654791677323511 0.16604552865166611 0 0.01131753294179963 0.17437740673682869 0 0.012386788017382491 0.1641388541230504 0 0.01131753294179963 0.17437740673682869 0 0.021060059883948341 0.16896093146931659 0 0.00151890392611572 0.15456094484017679 0 0.012386788017382491 0.1641388541230504 0 0.015650655317666261 0.15865613344587939 0 0.0072367552089822543 0.1840346549744645 0 0.003085550936940849 0.18695469644268639 0 0.007927604969267173 0.18944813828794729 0 0.0072367552089822543 0.1840346549744645 0 0.003085550936940849 0.18695469644268639 0 0.00053502205069707774 0.18188021690744111 0 -0.003081975793268537 0.18782002811878001 0 0.003085550936940849 0.18695469644268639 0 0.00053502205069707774 0.18188021690744111 0 0.0072367552089822543 0.1840346549744645 0 0.00053502205069707774 0.18188021690744111 0 0.0082701590199136289 0.17900500476799119 0 -0.0026654791677323511 0.16604552865166611 0 0.0024081860720475369 0.17557227428335351 0 0.01131753294179963 0.17437740673682869 0 0.0024081860720475369 0.17557227428335351 0 0.01131753294179963 0.17437740673682869 0 0.0082701590199136289 0.17900500476799119 0 0.00053502205069707774 0.18188021690744111 0 0.0024081860720475369 0.17557227428335351 0 0.0082701590199136289 0.17900500476799119 0 0.01131753294179963 0.17437740673682869 0 0.013543000689093809 0.1790660034635034 0 0.021389494149062459 0.18037885708243739 0 0.01131753294179963 0.17437740673682869 0 0.013543000689093809 0.1790660034635034 0 0.01131753294179963 0.17437740673682869 0 0.013543000689093809 0.1790660034635034 0 0.0082701590199136289 0.17900500476799119 0 0.013543000689093809 0.1790660034635034 0 0.0115175493401282 0.18523262863701309 0 0.016985704636488509 0.19275209946522329 0 0.0072367552089822543 0.1840346549744645 0 0.0082701590199136289 0.17900500476799119 0 0.0115175493401282 0.18523262863701309 0 0.013543000689093809 0.1790660034635034 0 0.0082701590199136289 0.17900500476799119 0 0.0115175493401282 0.18523262863701309 0 0.0072367552089822543 0.1840346549744645 0 0.0115175493401282 0.18523262863701309 0 0.007927604969267173 0.18944813828794729 0 0.021389494149062459 0.18037885708243739 0 0.039453436217199322 0.18340126598870379 0 0.013543000689093809 0.1790660034635034 0 0.021389494149062459 0.18037885708243739 0 0.02230428843080948 0.19662630733770359 0 0.013543000689093809 0.1790660034635034 0 0.021389494149062459 0.18037885708243739 0 0.01131753294179963 0.17437740673682869 0 0.021389494149062459 0.18037885708243739 0 0.01131753294179963 0.17437740673682869 0 0.021389494149062459 0.18037885708243739 0 0.021060059883948341 0.16896093146931659 0 0.021389494149062459 0.18037885708243739 0 0.021060059883948341 0.16896093146931659 0 0.034487576316221548 0.17006964541133651 0 0.021389494149062459 0.18037885708243739 0 0.036772518206031037 0.18954494233072339 0 0.012386788017382491 0.1641388541230504 0 0.015650655317666261 0.15865613344587939 0 0.021060059883948341 0.16896093146931659 0 0.015650655317666261 0.15865613344587939 0 0.021060059883948341 0.16896093146931659 0 0.026789162612504271 0.15663130254031199 0 0.021060059883948341 0.16896093146931659 0 0.026789162612504271 0.15663130254031199 0 0.034487576316221548 0.17006964541133651 0 0.026789162612504271 0.15663130254031199 0 0.034487576316221548 0.17006964541133651 0 0.046085208392249437 0.15020880948314461 0 0.034487576316221548 0.17006964541133651 0 0.049790080527993393 0.16878629006039211 0 0.046085208392249437 0.15020880948314461 0 0.021389494149062459 0.18037885708243739 0 0.039453436217199322 0.18340126598870379 0 0.036772518206031037 0.18954494233072339 0 0.021389494149062459 0.18037885708243739 0 0.034487576316221548 0.17006964541133651 0 0.039453436217199322 0.18340126598870379 0 0.034487576316221548 0.17006964541133651 0 0.039453436217199322 0.18340126598870379 0 0.049790080527993393 0.16878629006039211 0 0.039453436217199322 0.18340126598870379 0 0.057517378285335978 0.18642367489497111 0 0.049790080527993393 0.16878629006039211 0 0.057517378285335978 0.18642367489497111 0 0.06670876632053821 0.16536039993208129 0 0.039453436217199322 0.18340126598870379 0 0.057517378285335978 0.18642367489497111 0 0.039453436217199322 0.18340126598870379 0 0.057517378285335978 0.18642367489497111 0 0.046621016020550923 0.1898787739154234 0 0.057517378285335978 0.18642367489497111 0 0.049790080527993393 0.16878629006039211 0 0.06670876632053821 0.16536039993208129 0 0.056759789081437029 0.15816783404816359 0 0.049790080527993393 0.16878629006039211 0 0.06670876632053821 0.16536039993208129 0 0.056759789081437029 0.15816783404816359 0 0.049790080527993393 0.16878629006039211 0 0.046085208392249437 0.15020880948314461 0 0.056759789081437029 0.15816783404816359 0 0.046085208392249437 0.15020880948314461 0 0.06445510108496709 0.14831583671703669 0 0.054704645729867107 0.1303951701743557 0 0.046085208392249437 0.15020880948314461 0 0.06445510108496709 0.14831583671703669 0 0.054704645729867107 0.1303951701743557 0 0.046085208392249437 0.15020880948314461 0 0.054704645729867107 0.1303951701743557 0 0.036209801575650402 0.12755429465012871 0 0.046085208392249437 0.15020880948314461 0 0.030096440749716711 0.14309687622970299 0 0.036209801575650402 0.12755429465012871 0 0.046085208392249437 0.15020880948314461 0 0.030096440749716711 0.14309687622970299 0 0.026789162612504271 0.15663130254031199 0 0.046085208392249437 0.15020880948314461 0 0.02117589590128718 0.2395927914801684 0 0.012156823249103331 0.25259817100369902 0 0.030652172791378579 0.25229956247347313 0 0.02117589590128718 0.2395927914801684 0 0.034188277432347557 0.23988537883147459 0 0.030652172791378579 0.25229956247347313 0 0.02117589590128718 0.2395927914801684 0 0.030323397599499081 0.22959965211839081 0 0.034188277432347557 0.23988537883147459 0 -0.0082457657602449386 0.25246627485226031 0 -0.001965278602122185 0.24182690426762959 0 0.012156823249103331 0.25259817100369902 0 0.02117589590128718 0.2395927914801684 0 0.008579196815527634 0.23953031834541311 0 0.012156823249103331 0.25259817100369902 0 -0.001965278602122185 0.24182690426762959 0 0.008579196815527634 0.23953031834541311 0 0.012156823249103331 0.25259817100369902 0 -0.001965278602122185 0.24182690426762959 0 0.008579196815527634 0.23953031834541311 0 0.0010433620948100131 0.23240638127880581 0 0.02117589590128718 0.2395927914801684 0 0.008579196815527634 0.23953031834541311 0 0.01115565641706814 0.2303537873583584 0 0.008579196815527634 0.23953031834541311 0 0.01115565641706814 0.2303537873583584 0 0.0010433620948100131 0.23240638127880581 0 0.01115565641706814 0.2303537873583584 0 0.0010433620948100131 0.23240638127880581 0 0.0091084557899102862 0.2202403998025296 0 0.0010433620948100131 0.23240638127880581 0 0.0001093474821353509 0.22215689039817851 0 0.0091084557899102862 0.2202403998025296 0 0.01115565641706814 0.2303537873583584 0 0.0091084557899102862 0.2202403998025296 0 0.016496999093422449 0.223541986747673 0 0.0091084557899102862 0.2202403998025296 0 0.016496999093422449 0.223541986747673 0 0.01612020317490017 0.2152275371535412 0 0.016496999093422449 0.223541986747673 0 0.02147394042148347 0.23028557103733549 0 0.024626739663750161 0.22160263838659999 0 0.016496999093422449 0.223541986747673 0 0.024626739663750161 0.22160263838659999 0 0.01612020317490017 0.2152275371535412 0 0.01115565641706814 0.2303537873583584 0 0.016496999093422449 0.223541986747673 0 0.02147394042148347 0.23028557103733549 0 0.02117589590128718 0.2395927914801684 0 0.01115565641706814 0.2303537873583584 0 0.02147394042148347 0.23028557103733549 0 0.02147394042148347 0.23028557103733549 0 0.030323397599499081 0.22959965211839081 0 0.024626739663750161 0.22160263838659999 0 0.02117589590128718 0.2395927914801684 0 0.02147394042148347 0.23028557103733549 0 0.030323397599499081 0.22959965211839081 0 0.024626739663750161 0.22160263838659999 0 0.027508903383077599 0.21474836631904051 0 0.034268755792753257 0.2207932912834846 0 0.030323397599499081 0.22959965211839081 0 0.024626739663750161 0.22160263838659999 0 0.034268755792753257 0.2207932912834846 0 0.027508903383077599 0.21474836631904051 0 0.023943201944243639 0.1999111919537408 0 0.034268755792753257 0.2207932912834846 0 0.023943201944243639 0.1999111919537408 0 0.034268755792753257 0.2207932912834846 0 0.027508903383077599 0.21474836631904051 0 0.023922045305692211 0.20684028787671799 0 0.022699459496289199 0.2141990688659105 0 0.024626739663750161 0.22160263838659999 0 0.027508903383077599 0.21474836631904051 0 0.022699459496289199 0.2141990688659105 0 0.027508903383077599 0.21474836631904051 0 0.023922045305692211 0.20684028787671799 0 0.023943201944243639 0.1999111919537408 0 0.01896544066016782 0.20973745132843891 0 0.01612020317490017 0.2152275371535412 0 0.013247665380499421 0.20734461508933349 0 0.023922045305692211 0.20684028787671799 0 0.01896544066016782 0.20973745132843891 0 0.022699459496289199 0.2141990688659105 0 0.023922045305692211 0.20684028787671799 0 0.021734838082019509 0.20302577286306159 0 0.023943201944243639 0.1999111919537408 0 0.023922045305692211 0.20684028787671799 0 0.018650848458870179 0.20436341187488569 0 0.021734838082019509 0.20302577286306159 0 0.023922045305692211 0.20684028787671799 0 0.018650848458870179 0.20436341187488569 0 0.01896544066016782 0.20973745132843891 0 0.018650848458870179 0.20436341187488569 0 0.01896544066016782 0.20973745132843891 0 0.013247665380499421 0.20734461508933349 0 0.024626739663750161 0.22160263838659999 0 0.022699459496289199 0.2141990688659105 0 0.01612020317490017 0.2152275371535412 0 0.01896544066016782 0.20973745132843891 0 0.022699459496289199 0.2141990688659105 0 0.01612020317490017 0.2152275371535412 0 0.01612020317490017 0.2152275371535412 0 0.0085100262700745465 0.21094865931476009 0 0.013247665380499421 0.20734461508933349 0 0.0091084557899102862 0.2202403998025296 0 0.01612020317490017 0.2152275371535412 0 0.0085100262700745465 0.21094865931476009 0 0.0001093474821353509 0.22215689039817851 0 0.0091084557899102862 0.2202403998025296 0 0.00083142932333707279 0.21381627434491049 0 0.0091084557899102862 0.2202403998025296 0 0.0085100262700745465 0.21094865931476009 0 0.00083142932333707279 0.21381627434491049 0 0.0085100262700745465 0.21094865931476009 0 0.00083142932333707279 0.21381627434491049 0 0.0029581381265264858 0.20519393183106241 0 0.0085100262700745465 0.21094865931476009 0 0.0029581381265264858 0.20519393183106241 0 0.0087942658252738396 0.20386919766718339 0 0.0029581381265264858 0.20519393183106241 0 0.0087942658252738396 0.20386919766718339 0 0.0056326315351633537 0.2004899601979887 0 0.0085100262700745465 0.21094865931476009 0 0.0087942658252738396 0.20386919766718339 0 0.013247665380499421 0.20734461508933349 0 0.0087942658252738396 0.20386919766718339 0 0.013247665380499421 0.20734461508933349 0 0.013927284278231049 0.2027684573698135 0 0.018650848458870179 0.20436341187488569 0 0.013247665380499421 0.20734461508933349 0 0.013927284278231049 0.2027684573698135 0 0.013927284278231049 0.2027684573698135 0 0.010260103200158849 0.1991700010832006 0 0.016231602148303749 0.1987520895161983 0 0.010260103200158849 0.1991700010832006 0 0.01183675088797494 0.19419665586736051 0 0.016231602148303749 0.1987520895161983 0 0.010260103200158849 0.1991700010832006 0 0.0061740732670114221 0.19541611365695169 0 0.01183675088797494 0.19419665586736051 0 0.0087942658252738396 0.20386919766718339 0 0.010260103200158849 0.1991700010832006 0 0.0056326315351633537 0.2004899601979887 0 0.0087942658252738396 0.20386919766718339 0 0.013927284278231049 0.2027684573698135 0 0.010260103200158849 0.1991700010832006 0 0.010260103200158849 0.1991700010832006 0 0.0056326315351633537 0.2004899601979887 0 0.0061740732670114221 0.19541611365695169 0 -2.3422743153838069e-05 0.1988005567515452 0 0.0056326315351633537 0.2004899601979887 0 0.0061740732670114221 0.19541611365695169 0 -2.3422743153838069e-05 0.1988005567515452 0 0.0029581381265264858 0.20519393183106241 0 0.0056326315351633537 0.2004899601979887 0 -0.003081975793268537 0.18782002811878001 0 0.003085550936940849 0.18695469644268639 0 0.0015327128313205251 0.1915709431207247 0 -2.3422743153838069e-05 0.1988005567515452 0 0.0061740732670114221 0.19541611365695169 0 0.0015327128313205251 0.1915709431207247 0 0.0061740732670114221 0.19541611365695169 0 0.0015327128313205251 0.1915709431207247 0 0.007927604969267173 0.18944813828794729 0 0.003085550936940849 0.18695469644268639 0 0.0015327128313205251 0.1915709431207247 0 0.007927604969267173 0.18944813828794729 0 0.007927604969267173 0.18944813828794729 0 0.01183675088797494 0.19419665586736051 0 0.012456110925155389 0.1902446129755902 0 0.0115175493401282 0.18523262863701309 0 0.007927604969267173 0.18944813828794729 0 0.012456110925155389 0.1902446129755902 0 0.0061740732670114221 0.19541611365695169 0 0.007927604969267173 0.18944813828794729 0 0.01183675088797494 0.19419665586736051 0 0.01183675088797494 0.19419665586736051 0 0.012456110925155389 0.1902446129755902 0 0.016985704636488509 0.19275209946522329 0 0.01183675088797494 0.19419665586736051 0 0.016985704636488509 0.19275209946522329 0 0.016231602148303749 0.1987520895161983 0 0.0115175493401282 0.18523262863701309 0 0.012456110925155389 0.1902446129755902 0 0.016985704636488509 0.19275209946522329 0 0.021389494149062459 0.18037885708243739 0 0.02230428843080948 0.19662630733770359 0 0.036772518206031037 0.18954494233072339 0 0.013543000689093809 0.1790660034635034 0 0.02230428843080948 0.19662630733770359 0 0.013543000689093809 0.1790660034635034 0 0.016985704636488509 0.19275209946522329 0 0.02230428843080948 0.19662630733770359 0 0.016985704636488509 0.19275209946522329 0 0.019428477636303031 0.19812266709439569 0 0.016231602148303749 0.1987520895161983 0 0.019428477636303031 0.19812266709439569 0 0.016231602148303749 0.1987520895161983 0 0.020423256619271999 0.20098819974690199 0 0.018650848458870179 0.20436341187488569 0 0.016231602148303749 0.1987520895161983 0 0.020423256619271999 0.20098819974690199 0 0.018650848458870179 0.20436341187488569 0 0.013927284278231049 0.2027684573698135 0 0.016231602148303749 0.1987520895161983 0 0.019428477636303031 0.19812266709439569 0 0.020423256619271999 0.20098819974690199 0 0.023943201944243639 0.1999111919537408 0 0.018650848458870179 0.20436341187488569 0 0.020423256619271999 0.20098819974690199 0 0.021734838082019509 0.20302577286306159 0 0.020423256619271999 0.20098819974690199 0 0.021734838082019509 0.20302577286306159 0 0.023943201944243639 0.1999111919537408 0 0.016985704636488509 0.19275209946522329 0 0.02230428843080948 0.19662630733770359 0 0.023943201944243639 0.1999111919537408 0 0.016985704636488509 0.19275209946522329 0 0.019428477636303031 0.19812266709439569 0 0.023943201944243639 0.1999111919537408 0 0.02230428843080948 0.19662630733770359 0 0.023943201944243639 0.1999111919537408 0 0.02230428843080948 0.19662630733770359 0 0.023943201944243639 0.1999111919537408 0 0.035957366435008513 0.20647473970990701 0 0.02230428843080948 0.19662630733770359 0 0.050897121833006063 0.20159486356051531 0 0.035957366435008513 0.20647473970990701 0 0.02230428843080948 0.19662630733770359 0 0.036772518206031037 0.18954494233072339 0 0.050897121833006063 0.20159486356051531 0 0.02230428843080948 0.19662630733770359 0 0.050897121833006063 0.20159486356051531 0 0.036772518206031037 0.18954494233072339 0 0.050897121833006063 0.20159486356051531 0 0.052155542262999663 0.1987110275790093 0 0.036772518206031037 0.18954494233072339 0 0.052155542262999663 0.1987110275790093 0 0.036772518206031037 0.18954494233072339 0 0.046621016020550923 0.1898787739154234 0 0.052155542262999663 0.1987110275790093 0 0.039453436217199322 0.18340126598870379 0 0.036772518206031037 0.18954494233072339 0 0.046621016020550923 0.1898787739154234 0 0.057517378285335978 0.18642367489497111 0 0.046621016020550923 0.1898787739154234 0 0.052155542262999663 0.1987110275790093 0 0.057517378285335978 0.18642367489497111 0 0.052155542262999663 0.1987110275790093 0 0.057517378285335978 0.18642367489497111 0 0.057090951257530269 0.197109929087698 0 0.052155542262999663 0.1987110275790093 0 0.057517378285335978 0.18642367489497111 0 0.060667890749981898 0.1933513013873914 0 0.057090951257530269 0.197109929087698 0 0.060667890749981898 0.1933513013873914 0 0.057090951257530269 0.197109929087698 0 0.058031923789004708 0.2022125116707813 0 0.060667890749981898 0.1933513013873914 0 0.058031923789004708 0.2022125116707813 0 0.060667890749981898 0.1933513013873914 0 0.058031923789004708 0.2022125116707813 0 0.059673977213942478 0.20319094098477611 0 0.058031923789004708 0.2022125116707813 0 0.059673977213942478 0.20319094098477611 0 0.057090951257530269 0.197109929087698 0 0.058031923789004708 0.2022125116707813 0 0.052155542262999663 0.1987110275790093 0 0.058031923789004708 0.2022125116707813 0 0.052155542262999663 0.1987110275790093 0 0.058031923789004708 0.2022125116707813 0 0.050897121833006063 0.20159486356051531 0 0.052155542262999663 0.1987110275790093 0 0.058031923789004708 0.2022125116707813 0 0.050897121833006063 0.20159486356051531 0 0.050897121833006063 0.20159486356051531 0 0.052155542262999663 0.1987110275790093 0 0.050897121833006063 0.20159486356051531 0 0.042542699632676838 0.22074012119599501 0 0.053005439111290922 0.21910981667301421 0 0.058031923789004708 0.2022125116707813 0 0.050897121833006063 0.20159486356051531 0 0.053005439111290922 0.21910981667301421 0 0.058031923789004708 0.2022125116707813 0 0.053005439111290922 0.21910981667301421 0 0.058031923789004708 0.2022125116707813 0 0.061718375040706958 0.21244198365854619 0 0.053005439111290922 0.21910981667301421 0 0.058031923789004708 0.2022125116707813 0 0.059673977213942478 0.20319094098477611 0 0.061718375040706958 0.21244198365854619 0 0.061718375040706958 0.21244198365854619 0 0.053005439111290922 0.21910981667301421 0 0.062081063031912492 0.22413796841031719 0 0.050897121833006063 0.20159486356051531 0 0.042542699632676838 0.22074012119599501 0 0.023943201944243639 0.1999111919537408 0 0.035957366435008513 0.20647473970990701 0 0.034268755792753257 0.2207932912834846 0 0.050897121833006063 0.20159486356051531 0 0.038363073609551428 0.21412918370060571 0 0.042542699632676838 0.22074012119599501 0 0.050897121833006063 0.20159486356051531 0 0.035957366435008513 0.20647473970990701 0 0.038363073609551428 0.21412918370060571 0 0.038363073609551428 0.21412918370060571 0 0.034268755792753257 0.2207932912834846 0 0.042542699632676838 0.22074012119599501 0 0.035957366435008513 0.20647473970990701 0 0.038363073609551428 0.21412918370060571 0 0.034268755792753257 0.2207932912834846 0 0.042542699632676838 0.22074012119599501 0 0.034188277432347557 0.23988537883147459 0 0.042542699632676838 0.22074012119599501 0 0.04817080422001134 0.23536218897101929 0 0.044937254539659167 0.2379713478153713 0 0.030323397599499081 0.22959965211839081 0 0.042542699632676838 0.22074012119599501 0 0.034188277432347557 0.23988537883147459 0 0.042542699632676838 0.22074012119599501 0 0.044937254539659167 0.2379713478153713 0 0.034188277432347557 0.23988537883147459 0 0.030323397599499081 0.22959965211839081 0 0.034268755792753257 0.2207932912834846 0 0.042542699632676838 0.22074012119599501 0 0.053005439111290922 0.21910981667301421 0 0.04817080422001134 0.23536218897101929 0 0.053005439111290922 0.21910981667301421 0 0.062081063031912492 0.22413796841031719 0 0.04817080422001134 0.23536218897101929 0 0.062081063031912492 0.22413796841031719 0 0.04817080422001134 0.23536218897101929 0 0.059531729096570118 0.24099028160929839 0 0.042542699632676838 0.22074012119599501 0 0.053005439111290922 0.21910981667301421 0 0.04817080422001134 0.23536218897101929 0 0.062081063031912492 0.22413796841031719 0 0.04817080422001134 0.23536218897101929 0 0.04817080422001134 0.23536218897101929 0 0.052294646587479003 0.2493466198794505 0 0.04073495957405681 0.26035892983227987 0 0.04817080422001134 0.23536218897101929 0 0.059531729096570118 0.24099028160929839 0 0.052294646587479003 0.2493466198794505 0 0.059531729096570118 0.24099028160929839 0 0.067445722382230539 0.24771064348785149 0 0.06034442261467237 0.25120339486286308 0 0.059531729096570118 0.24099028160929839 0 0.052294646587479003 0.2493466198794505 0 0.06034442261467237 0.25120339486286308 0 0.04817080422001134 0.23536218897101929 0 0.04073495957405681 0.26035892983227987 0 0.04817080422001134 0.23536218897101929 0 0.044937254539659167 0.2379713478153713 0 0.04073495957405681 0.26035892983227987 0 0.04817080422001134 0.23536218897101929 0 0.044937254539659167 0.2379713478153713 0 0.044937254539659167 0.2379713478153713 0 0.034188277432347557 0.23988537883147459 0 0.030652172791378579 0.25229956247347313 0 0.085975255819246227 0.24304742420893821 0 0.091760355399887042 0.24149966876957779 0 0.085886262968569133 0.25948379364412733 0 0.091760355399887042 0.24149966876957779 0 0.10166443252893551 0.23659000017624271 0 0.085886262968569133 0.25948379364412733 0 0.085975255819246227 0.24304742420893821 0 0.091760355399887042 0.24149966876957779 0 0.090327239942362525 0.2312920649275291 0 0.085975255819246227 0.24304742420893821 0 0.075396639696560977 0.24390878816167419 0 0.077103558767455421 0.230534611802553 0 0.085975255819246227 0.24304742420893821 0 0.077103558767455421 0.230534611802553 0 0.090327239942362525 0.2312920649275291 0 0.085975255819246227 0.24304742420893821 0 0.075396639696560977 0.24390878816167419 0 0.080478695998155714 0.25165019938018113 0 0.075396639696560977 0.24390878816167419 0 0.074707437689247702 0.25389633834412328 0 0.080478695998155714 0.25165019938018113 0 0.075396639696560977 0.24390878816167419 0 0.067445722382230539 0.24771064348785149 0 0.068934414955804643 0.23628801399858909 0 0.075396639696560977 0.24390878816167419 0 0.067445722382230539 0.24771064348785149 0 0.074707437689247702 0.25389633834412328 0 0.059531729096570118 0.24099028160929839 0 0.067445722382230539 0.24771064348785149 0 0.068934414955804643 0.23628801399858909 0 0.075396639696560977 0.24390878816167419 0 0.068934414955804643 0.23628801399858909 0 0.077103558767455421 0.230534611802553 0 0.062081063031912492 0.22413796841031719 0 0.059531729096570118 0.24099028160929839 0 0.068934414955804643 0.23628801399858909 0 0.062081063031912492 0.22413796841031719 0 0.077103558767455421 0.230534611802553 0 0.077696208689423979 0.21392961690810641 0 0.077103558767455421 0.230534611802553 0 0.077696208689423979 0.21392961690810641 0 0.062081063031912492 0.22413796841031719 0 0.068934414955804643 0.23628801399858909 0 0.077103558767455421 0.230534611802553 0 0.077103558767455421 0.230534611802553 0 0.086723057100410644 0.21930832929599969 0 0.077696208689423979 0.21392961690810641 0 0.077103558767455421 0.230534611802553 0 0.090327239942362525 0.2312920649275291 0 0.086723057100410644 0.21930832929599969 0 0.090327239942362525 0.2312920649275291 0 0.086723057100410644 0.21930832929599969 0 0.099258091607832458 0.22228701345730209 0 0.08282365066700062 0.20740072564839451 0 0.1001331263781514 0.21054846617837791 0 0.08282365066700062 0.20740072564839451 0 0.0830920941513177 0.21288940176841251 0 0.1001331263781514 0.21054846617837791 0 0.086723057100410644 0.21930832929599969 0 0.0830920941513177 0.21288940176841251 0 0.1001331263781514 0.21054846617837791 0 0.08282365066700062 0.20740072564839451 0 0.077960793866212394 0.2065164116634538 0 0.08282365066700062 0.20740072564839451 0 0.07778409662064556 0.21146715366449201 0 0.077960793866212394 0.2065164116634538 0 0.08282365066700062 0.20740072564839451 0 0.0830920941513177 0.21288940176841251 0 0.07778409662064556 0.21146715366449201 0 0.08282365066700062 0.20740072564839451 0 0.07778409662064556 0.21146715366449201 0 0.086723057100410644 0.21930832929599969 0 0.077696208689423979 0.21392961690810641 0 0.086723057100410644 0.21930832929599969 0 0.0830920941513177 0.21288940176841251 0 0.077696208689423979 0.21392961690810641 0 0.0830920941513177 0.21288940176841251 0 0.07778409662064556 0.21146715366449201 0 0.077696208689423979 0.21392961690810641 0 0.059673977213942478 0.20319094098477611 0 0.077960793866212394 0.2065164116634538 0 0.062081063031912492 0.22413796841031719 0 0.077696208689423979 0.21392961690810641 0 0.075991321843812007 0.21291374784961289 0 0.059673977213942478 0.20319094098477611 0 0.075991321843812007 0.21291374784961289 0 0.059673977213942478 0.20319094098477611 0 0.061718375040706958 0.21244198365854619 0 0.075991321843812007 0.21291374784961289 0 0.059673977213942478 0.20319094098477611 0 0.075991321843812007 0.21291374784961289 0 0.077960793866212394 0.2065164116634538 0 0.07778409662064556 0.21146715366449201 0 0.077696208689423979 0.21392961690810641 0 0.075991321843812007 0.21291374784961289 0 0.07778409662064556 0.21146715366449201 0 0.077696208689423979 0.21392961690810641 0 0.07778409662064556 0.21146715366449201 0 0.075991321843812007 0.21291374784961289 0 0.077696208689423979 0.21392961690810641 0 0.075991321843812007 0.21291374784961289 0 0.062081063031912492 0.22413796841031719 0 0.075991321843812007 0.21291374784961289 0 0.061718375040706958 0.21244198365854619 0 0.062081063031912492 0.22413796841031719 0 0.075991321843812007 0.21291374784961289 0 0.07778409662064556 0.21146715366449201 0 0.075991321843812007 0.21291374784961289 0 0.077960793866212394 0.2065164116634538 0 0.07778409662064556 0.21146715366449201 0 0.077960793866212394 0.2065164116634538 0 0.060667890749981898 0.1933513013873914 0 0.069391780603767286 0.1985353247034998 0 0.078552310067739675 0.1899431815963343 0 0.059673977213942478 0.20319094098477611 0 0.077960793866212394 0.2065164116634538 0 0.069391780603767286 0.1985353247034998 0 0.057517378285335978 0.18642367489497111 0 0.060667890749981898 0.1933513013873914 0 0.078552310067739675 0.1899431815963343 0 0.077960793866212394 0.2065164116634538 0 0.069391780603767286 0.1985353247034998 0 0.078552310067739675 0.1899431815963343 0 0.057517378285335978 0.18642367489497111 0 0.078552310067739675 0.1899431815963343 0 0.060667890749981898 0.1933513013873914 0 0.059673977213942478 0.20319094098477611 0 0.069391780603767286 0.1985353247034998 0 0.077960793866212394 0.2065164116634538 0 0.078552310067739675 0.1899431815963343 0 0.08282365066700062 0.20740072564839451 0 0.078552310067739675 0.1899431815963343 0 0.1000095862482286 0.19353335379614581 0 0.08282365066700062 0.20740072564839451 0 0.077960793866212394 0.2065164116634538 0 0.078552310067739675 0.1899431815963343 0 0.08282365066700062 0.20740072564839451 0 0.1000095862482286 0.19353335379614581 0 0.078552310067739675 0.1899431815963343 0 0.1000095862482286 0.19353335379614581 0 0.1000095862482286 0.19353335379614581 0 0.1119621855324581 0.18388877331391679 0 0.1119621855324581 0.18388877331391679 0 0.12809949413598259 0.1982332796183166 0 0.12623709760602039 0.18867627876683751 0 0.1000095862482286 0.19353335379614581 0 0.12809949413598259 0.1982332796183166 0 0.1000095862482286 0.19353335379614581 0 0.1174426020893027 0.21369620670835879 0 0.12809949413598259 0.1982332796183166 0 0.1000095862482286 0.19353335379614581 0 0.1119621855324581 0.18388877331391679 0 0.12809949413598259 0.1982332796183166 0 0.1174426020893027 0.21369620670835879 0 0.12809949413598259 0.1982332796183166 0 0.1174426020893027 0.21369620670835879 0 0.13079881134157489 0.21612504290720769 0 0.1174426020893027 0.21369620670835879 0 0.1001331263781514 0.21054846617837791 0 0.1000095862482286 0.19353335379614581 0 0.1174426020893027 0.21369620670835879 0 0.1001331263781514 0.21054846617837791 0 0.08282365066700062 0.20740072564839451 0 0.1000095862482286 0.19353335379614581 0 0.1001331263781514 0.21054846617837791 0 0.1174426020893027 0.21369620670835879 0 0.1001331263781514 0.21054846617837791 0 0.099258091607832458 0.22228701345730209 0 0.086723057100410644 0.21930832929599969 0 0.1001331263781514 0.21054846617837791 0 0.099258091607832458 0.22228701345730209 0 0.1174426020893027 0.21369620670835879 0 0.099258091607832458 0.22228701345730209 0 0.10166443252893551 0.23659000017624271 0 0.090327239942362525 0.2312920649275291 0 0.099258091607832458 0.22228701345730209 0 0.10166443252893551 0.23659000017624271 0 0.11193009187841341 0.23778907333103991 0 0.1233060832280653 0.2372070654073864 0 0.13079881134157489 0.21612504290720769 0 0.1174426020893027 0.21369620670835879 0 0.11193009187841341 0.23778907333103991 0 0.10166443252893551 0.23659000017624271 0 0.1174426020893027 0.21369620670835879 0 0.11193009187841341 0.23778907333103991 0 0.13079881134157489 0.21612504290720769 0 0.11193009187841341 0.23778907333103991 0 0.13079881134157489 0.21612504290720769 0 0.1174426020893027 0.21369620670835879 0 0.10166443252893551 0.23659000017624271 0 0.11193009187841341 0.23778907333103991 0 0.1233060832280653 0.2372070654073864 0 0.1152979079485152 0.2467056018988516 0 0.1233060832280653 0.2372070654073864 0 0.1152979079485152 0.2467056018988516 0 0.1250676346401875 0.24796443701554319 0 0.11193009187841341 0.23778907333103991 0 0.1152979079485152 0.2467056018988516 0 0.10650461767427161 0.25132517155921902 0 0.11193009187841341 0.23778907333103991 0 0.10166443252893551 0.23659000017624271 0 0.093061372415253377 0.25945310375487363 0 0.10166443252893551 0.23659000017624271 0 0.085886262968569133 0.25948379364412733 0 0.11193009187841341 0.23778907333103991 0 0.093061372415253377 0.25945310375487363 0 0.11193009187841341 0.23778907333103991 0 0.093061372415253377 0.25945310375487363 0 0.10650461767427161 0.25132517155921902 0 0.091760355399887042 0.24149966876957779 0 0.090327239942362525 0.2312920649275291 0 0.10166443252893551 0.23659000017624271 0 0.08022281403025916 0.14313863688857029 0 0.093167312330706492 0.16073073013935579 0 0.097579150219516186 0.1459852772673329 0 0.08022281403025916 0.14313863688857029 0 0.079387562048995053 0.16654090924245221 0 0.08022281403025916 0.14313863688857029 0 0.097579150219516186 0.1459852772673329 0 0.098136173783193614 0.12855261503670501 0 0.081058066011519173 0.11973636453468819 0 0.08022281403025916 0.14313863688857029 0 0.081058066011519173 0.11973636453468819 0 0.08022281403025916 0.14313863688857029 0 0.098136173783193614 0.12855261503670501 0 0.054704645729867107 0.1303951701743557 0 0.068402942841081005 0.12865021266463919 0 0.06445510108496709 0.14831583671703669 0 0.081058066011519173 0.11973636453468819 0 0.08022281403025916 0.14313863688857029 0 0.068402942841081005 0.12865021266463919 0 0.08022281403025916 0.14313863688857029 0 0.068402942841081005 0.12865021266463919 0 0.06445510108496709 0.14831583671703669 0 0.08022281403025916 0.14313863688857029 0 0.06445510108496709 0.14831583671703669 0 0.079387562048995053 0.16654090924245221 0 0.06445510108496709 0.14831583671703669 0 0.06670876632053821 0.16536039993208129 0 0.079387562048995053 0.16654090924245221 0 0.056759789081437029 0.15816783404816359 0 0.06445510108496709 0.14831583671703669 0 0.06670876632053821 0.16536039993208129 0 0.06670876632053821 0.16536039993208129 0 0.071220178094475839 0.177519435916074 0 0.079387562048995053 0.16654090924245221 0 0.078552310067739675 0.1899431815963343 0 0.071220178094475839 0.177519435916074 0 0.079387562048995053 0.16654090924245221 0 0.057517378285335978 0.18642367489497111 0 0.078552310067739675 0.1899431815963343 0 0.071220178094475839 0.177519435916074 0 0.057517378285335978 0.18642367489497111 0 0.06670876632053821 0.16536039993208129 0 0.071220178094475839 0.177519435916074 0 0.078552310067739675 0.1899431815963343 0 0.079387562048995053 0.16654090924245221 0 0.078552310067739675 0.1899431815963343 0 0.079387562048995053 0.16654090924245221 0 0.094656188726405799 0.1772984468475671 0 0.078552310067739675 0.1899431815963343 0 0.1000095862482286 0.19353335379614581 0 0.094656188726405799 0.1772984468475671 0 0.079387562048995053 0.16654090924245221 0 0.093167312330706492 0.16073073013935579 0 0.094656188726405799 0.1772984468475671 0 0.08022281403025916 0.14313863688857029 0 0.079387562048995053 0.16654090924245221 0 0.093167312330706492 0.16073073013935579 0 0.093167312330706492 0.16073073013935579 0 0.1051682117550992 0.16863341283049499 0 0.094656188726405799 0.1772984468475671 0 0.093167312330706492 0.16073073013935579 0 0.1051682117550992 0.16863341283049499 0 0.10738037989590581 0.15691718048007991 0 0.1051682117550992 0.16863341283049499 0 0.094656188726405799 0.1772984468475671 0 0.1119621855324581 0.18388877331391679 0 0.1000095862482286 0.19353335379614581 0 0.094656188726405799 0.1772984468475671 0 0.1119621855324581 0.18388877331391679 0 0.1051682117550992 0.16863341283049499 0 0.1119621855324581 0.18388877331391679 0 0.1176573055604207 0.16965843036111 0 0.1119621855324581 0.18388877331391679 0 0.1176573055604207 0.16965843036111 0 0.12502668500631101 0.18003223183350331 0 0.1119621855324581 0.18388877331391679 0 0.12502668500631101 0.18003223183350331 0 0.12623709760602039 0.18867627876683751 0 0.10738037989590581 0.15691718048007991 0 0.1176573055604207 0.16965843036111 0 0.1263510041100718 0.15412713222648239 0 0.1051682117550992 0.16863341283049499 0 0.10738037989590581 0.15691718048007991 0 0.1176573055604207 0.16965843036111 0 0.10738037989590581 0.15691718048007991 0 0.1089890710575158 0.14058722379195329 0 0.1263510041100718 0.15412713222648239 0 0.1089890710575158 0.14058722379195329 0 0.1243116374868449 0.136850619307404 0 0.1263510041100718 0.15412713222648239 0 0.10738037989590581 0.15691718048007991 0 0.097579150219516186 0.1459852772673329 0 0.1089890710575158 0.14058722379195329 0 0.093167312330706492 0.16073073013935579 0 0.10738037989590581 0.15691718048007991 0 0.097579150219516186 0.1459852772673329 0 0.097579150219516186 0.1459852772673329 0 0.1089890710575158 0.14058722379195329 0 0.098136173783193614 0.12855261503670501 0 0.11707998843366239 0.12090166170324231 0 0.1089890710575158 0.14058722379195329 0 0.098136173783193614 0.12855261503670501 0 0.11707998843366239 0.12090166170324231 0 0.1089890710575158 0.14058722379195329 0 0.1243116374868449 0.136850619307404 0 0.11707998843366239 0.12090166170324231 0 0.1243116374868449 0.136850619307404 0 0.14061487869327599 0.12738787364596069 0 0.1243116374868449 0.136850619307404 0 0.14061487869327599 0.12738787364596069 0 0.1450893294801871 0.15084825440961219 0 0.14061487869327599 0.12738787364596069 0 0.1450893294801871 0.15084825440961219 0 0.16208469833826319 0.13464304631642149 0 0.1450893294801871 0.15084825440961219 0 0.16208469833826319 0.13464304631642149 0 0.1243116374868449 0.136850619307404 0 0.1450893294801871 0.15084825440961219 0 0.1263510041100718 0.15412713222648239 0 0.1450893294801871 0.15084825440961219 0 0.1263510041100718 0.15412713222648239 0 0.13434892063135129 0.1709012650253654 0 0.1176573055604207 0.16965843036111 0 0.1263510041100718 0.15412713222648239 0 0.13434892063135129 0.1709012650253654 0 0.1176573055604207 0.16965843036111 0 0.13434892063135129 0.1709012650253654 0 0.12502668500631101 0.18003223183350331 0 0.12502668500631101 0.18003223183350331 0 0.13317066441191511 0.18549658195139779 0 0.12623709760602039 0.18867627876683751 0 0.13434892063135129 0.1709012650253654 0 0.12502668500631101 0.18003223183350331 0 0.13317066441191511 0.18549658195139779 0 0.13434892063135129 0.1709012650253654 0 0.13317066441191511 0.18549658195139779 0 0.14289571148574401 0.18421669799074539 0 0.13434892063135129 0.1709012650253654 0 0.14289571148574401 0.18421669799074539 0 0.15014598838012391 0.16812378435884931 0 0.14289571148574401 0.18421669799074539 0 0.15014598838012391 0.16812378435884931 0 0.16340295837154781 0.17869074671240681 0 0.1450893294801871 0.15084825440961219 0 0.15014598838012391 0.16812378435884931 0 0.17025484901730581 0.156442106610301 0 0.1450893294801871 0.15084825440961219 0 0.13434892063135129 0.1709012650253654 0 0.15014598838012391 0.16812378435884931 0 0.15014598838012391 0.16812378435884931 0 0.17025484901730581 0.156442106610301 0 0.16340295837154781 0.17869074671240681 0 0.17025484901730581 0.156442106610301 0 0.16340295837154781 0.17869074671240681 0 0.18344157371591241 0.18406997535271 0 0.17025484901730581 0.156442106610301 0 0.18344157371591241 0.18406997535271 0 0.1981233639171355 0.16578679509823521 0 0.17025484901730581 0.156442106610301 0 0.1886017155567373 0.14211231666073301 0 0.1981233639171355 0.16578679509823521 0 0.17025484901730581 0.156442106610301 0 0.16208469833826319 0.13464304631642149 0 0.1886017155567373 0.14211231666073301 0 0.1886017155567373 0.14211231666073301 0 0.1790800671963392 0.1184378382232308 0 0.16208469833826319 0.13464304631642149 0 0.1886017155567373 0.14211231666073301 0 0.1790800671963392 0.1184378382232308 0 0.19325819231563421 0.12959887947710741 0 0.1886017155567373 0.14211231666073301 0 0.1790800671963392 0.1184378382232308 0 0.16208469833826319 0.13464304631642149 0 0.1790800671963392 0.1184378382232308 0 0.1450893294801871 0.15084825440961219 0 0.17025484901730581 0.156442106610301 0 0.16208469833826319 0.13464304631642149 0 0.1514273965657848 0.24085309905483679 0 0.13478444466321229 0.23767678351231611 0 0.14386495534927929 0.22895205141331151 0 0.1514273965657848 0.24085309905483679 0 0.13478444466321229 0.23767678351231611 0 0.1384713120865835 0.25773302092121009 0 0.1250676346401875 0.24796443701554319 0 0.13478444466321229 0.23767678351231611 0 0.1384713120865835 0.25773302092121009 0 0.1233060832280653 0.2372070654073864 0 0.1250676346401875 0.24796443701554319 0 0.13478444466321229 0.23767678351231611 0 0.1233060832280653 0.2372070654073864 0 0.13478444466321229 0.23767678351231611 0 0.13079881134157489 0.21612504290720769 0 0.13478444466321229 0.23767678351231611 0 0.14386495534927929 0.22895205141331151 0 0.13079881134157489 0.21612504290720769 0 0.14386495534927929 0.22895205141331151 0 0.13079881134157489 0.21612504290720769 0 0.15844916882654519 0.22115328017888419 0 0.1514273965657848 0.24085309905483679 0 0.14386495534927929 0.22895205141331151 0 0.15844916882654519 0.22115328017888419 0 0.13079881134157489 0.21612504290720769 0 0.15844916882654519 0.22115328017888419 0 0.13079881134157489 0.21612504290720769 0 0.14405659807402271 0.2009031781863346 0 0.15844916882654519 0.22115328017888419 0 0.13079881134157489 0.21612504290720769 0 0.12809949413598259 0.1982332796183166 0 0.14405659807402271 0.2009031781863346 0 0.1174426020893027 0.21369620670835879 0 0.13079881134157489 0.21612504290720769 0 0.12809949413598259 0.1982332796183166 0 0.13079881134157489 0.21612504290720769 0 0.14405659807402271 0.2009031781863346 0 0.12809949413598259 0.1982332796183166 0 0.14405659807402271 0.2009031781863346 0 0.12809949413598259 0.1982332796183166 0 0.1377541084679488 0.19338203871321119 0 0.14405659807402271 0.2009031781863346 0 0.12809949413598259 0.1982332796183166 0 0.13022991801334199 0.19514207920620891 0 0.1377541084679488 0.19338203871321119 0 0.12809949413598259 0.1982332796183166 0 0.13022991801334199 0.19514207920620891 0 0.12809949413598259 0.1982332796183166 0 0.12623709760602039 0.18867627876683751 0 0.13022991801334199 0.19514207920620891 0 0.13317066441191511 0.18549658195139779 0 0.12623709760602039 0.18867627876683751 0 0.13022991801334199 0.19514207920620891 0 0.13317066441191511 0.18549658195139779 0 0.14289571148574401 0.18421669799074539 0 0.1377541084679488 0.19338203871321119 0 0.13317066441191511 0.18549658195139779 0 0.13022991801334199 0.19514207920620891 0 0.1377541084679488 0.19338203871321119 0 0.14289571148574401 0.18421669799074539 0 0.1377541084679488 0.19338203871321119 0 0.14405659807402271 0.2009031781863346 0 0.14405659807402271 0.2009031781863346 0 0.1684266189286579 0.20498070278197239 0 0.14289571148574401 0.18421669799074539 0 0.16340295837154781 0.17869074671240681 0 0.14405659807402271 0.2009031781863346 0 0.16340295837154781 0.17869074671240681 0 0.14405659807402271 0.2009031781863346 0 0.16340295837154781 0.17869074671240681 0 0.18344157371591241 0.18406997535271 0 0.1684266189286579 0.20498070278197239 0 0.16340295837154781 0.17869074671240681 0 0.14405659807402271 0.2009031781863346 0 0.1684266189286579 0.20498070278197239 0 0.18344157371591241 0.18406997535271 0 0.1684266189286579 0.20498070278197239 0 0.19279663978329381 0.20905822737760699 0 0.1684266189286579 0.20498070278197239 0 0.19279663978329381 0.20905822737760699 0 0.17869659642439559 0.21414630976549021 0 0.1684266189286579 0.20498070278197239 0 0.19279663978329381 0.20905822737760699 0 0.17869659642439559 0.21414630976549021 0 0.18609952631151591 0.22618151745055959 0 0.19279663978329381 0.20905822737760699 0 0.14405659807402271 0.2009031781863346 0 0.1684266189286579 0.20498070278197239 0 0.15844916882654519 0.22115328017888419 0 0.17869659642439559 0.21414630976549021 0 0.1684266189286579 0.20498070278197239 0 0.15844916882654519 0.22115328017888419 0 0.1514273965657848 0.24085309905483679 0 0.15844916882654519 0.22115328017888419 0 0.1691493644934341 0.23606856512045299 0 0.15844916882654519 0.22115328017888419 0 0.18609952631151591 0.22618151745055959 0 0.1691493644934341 0.23606856512045299 0 0.17869659642439559 0.21414630976549021 0 0.15844916882654519 0.22115328017888419 0 0.18609952631151591 0.22618151745055959 0 0.15844916882654519 0.22115328017888419 0 0.18609952631151591 0.22618151745055959 0 0.18609952631151591 0.22618151745055959 0 0.1971008006350988 0.24422433182354611 0 0.17660728565697029 0.25284173787090108 0 0.18609952631151591 0.22618151745055959 0 0.1691493644934341 0.23606856512045299 0 0.17660728565697029 0.25284173787090108 0 0.1514273965657848 0.24085309905483679 0 0.17660728565697029 0.25284173787090108 0 0.1514273965657848 0.24085309905483679 0 0.1691493644934341 0.23606856512045299 0 0.17660728565697029 0.25284173787090108 0 0.1971008006350988 0.24422433182354611 0 0.21374988379648621 0.2312097547222359 0 0.2257125065402284 0.25431107802280528 0 0.18609952631151591 0.22618151745055959 0 0.19919001424274069 0.21902366269476331 0 0.2102140220753515 0.22438156273492879 0 0.18609952631151591 0.22618151745055959 0 0.1971008006350988 0.24422433182354611 0 0.21374988379648621 0.2312097547222359 0 0.18609952631151591 0.22618151745055959 0 0.21374988379648621 0.2312097547222359 0 0.18609952631151591 0.22618151745055959 0 0.2102140220753515 0.22438156273492879 0 0.21374988379648621 0.2312097547222359 0 0.19919001424274069 0.21902366269476331 0 0.2102140220753515 0.22438156273492879 0 0.22326984787173351 0.22831062181695069 0 0.19919001424274069 0.21902366269476331 0 0.21716666063792969 0.21313575197324039 0 0.22326984787173351 0.22831062181695069 0 0.19919001424274069 0.21902366269476331 0 0.22326984787173351 0.22831062181695069 0 0.2102140220753515 0.22438156273492879 0 0.21374988379648621 0.2312097547222359 0 0.2102140220753515 0.22438156273492879 0 0.21374988379648621 0.2312097547222359 0 0.22326984787173351 0.22831062181695069 0 0.21716666063792969 0.21313575197324039 0 0.19279663978329381 0.20905822737760699 0 0.20764501227753371 0.18946127353573741 0 0.21716666063792969 0.21313575197324039 0 0.19279663978329381 0.20905822737760699 0 0.19919001424274069 0.21902366269476331 0 0.21716666063792969 0.21313575197324039 0 0.19279663978329381 0.20905822737760699 0 0.18609952631151591 0.22618151745055959 0 0.19919001424274069 0.21902366269476331 0 0.19279663978329381 0.20905822737760699 0 0.18344157371591241 0.18406997535271 0 0.19279663978329381 0.20905822737760699 0 0.20764501227753371 0.18946127353573741 0 0.21716666063792969 0.21313575197324039 0 0.20764501227753371 0.18946127353573741 0 0.21716666063792969 0.21313575197324039 0 0.20764501227753371 0.18946127353573741 0 0.22349524510262589 0.1882929917077163 0 0.21716666063792969 0.21313575197324039 0 0.22349524510262589 0.1882929917077163 0 0.23482300448504159 0.1984970970255906 0 0.22349524510262589 0.1882929917077163 0 0.23482300448504159 0.1984970970255906 0 0.23800281531175979 0.18073324988006281 0 0.23482300448504159 0.1984970970255906 0 0.24828008483854189 0.20295934428596721 0 0.25113643024109478 0.19094495075723769 0 0.23482300448504159 0.1984970970255906 0 0.23800281531175979 0.18073324988006281 0 0.25113643024109478 0.19094495075723769 0 0.23482300448504159 0.1984970970255906 0 0.24828008483854189 0.20295934428596721 0 0.24332195560292991 0.2175119837032847 0 0.21716666063792969 0.21313575197324039 0 0.23482300448504159 0.1984970970255906 0 0.24332195560292991 0.2175119837032847 0 0.21716666063792969 0.21313575197324039 0 0.24332195560292991 0.2175119837032847 0 0.22527908084694109 0.23330634744632109 0 0.22326984787173351 0.22831062181695069 0 0.2459873280094696 0.23707215699401071 0 0.21716666063792969 0.21313575197324039 0 0.24332195560292991 0.2175119837032847 0 0.22326984787173351 0.22831062181695069 0 0.21716666063792969 0.21313575197324039 0 0.22326984787173351 0.22831062181695069 0 0.21374988379648621 0.2312097547222359 0 0.22527908084694109 0.23330634744632109 0 0.22326984787173351 0.22831062181695069 0 0.21374988379648621 0.2312097547222359 0 0.22527908084694109 0.23330634744632109 0 0.22527908084694109 0.23330634744632109 0 0.22326984787173351 0.22831062181695069 0 0.22326984787173351 0.22831062181695069 0 0.2459873280094696 0.23707215699401071 0 0.24332195560292991 0.2175119837032847 0 0.22326984787173351 0.22831062181695069 0 0.2459873280094696 0.23707215699401071 0 0.22527908084694109 0.23330634744632109 0 0.2459873280094696 0.23707215699401071 0 0.22527908084694109 0.23330634744632109 0 0.2459873280094696 0.23707215699401071 0 0.23435940432808119 0.2558835225658645 0 0.22527908084694109 0.23330634744632109 0 0.23435940432808119 0.2558835225658645 0 0.21374988379648621 0.2312097547222359 0 0.2257125065402284 0.25431107802280528 0 0.21374988379648621 0.2312097547222359 0 0.22527908084694109 0.23330634744632109 0 0.2257125065402284 0.25431107802280528 0 0.22527908084694109 0.23330634744632109 0 0.2257125065402284 0.25431107802280528 0 0.23435940432808119 0.2558835225658645 0 0.207677409848747 0.15265436726913009 0 0.20799191400454739 0.1375227668896451 0 0.22134903716669199 0.14708536363501609 0 0.20799191400454739 0.1375227668896451 0 0.22703691245497479 0.13189098412415109 0 0.21251029914637609 0.1192952894197942 0 0.20799191400454739 0.1375227668896451 0 0.19325819231563421 0.12959887947710741 0 0.21251029914637609 0.1192952894197942 0 0.20799191400454739 0.1375227668896451 0 0.19325819231563421 0.12959887947710741 0 0.1886017155567373 0.14211231666073301 0 0.1886017155567373 0.14211231666073301 0 0.1981233639171355 0.16578679509823521 0 0.207677409848747 0.15265436726913009 0 0.20799191400454739 0.1375227668896451 0 0.1886017155567373 0.14211231666073301 0 0.207677409848747 0.15265436726913009 0 0.1886017155567373 0.14211231666073301 0 0.1981233639171355 0.16578679509823521 0 0.20764501227753371 0.18946127353573741 0 0.1981233639171355 0.16578679509823521 0 0.18344157371591241 0.18406997535271 0 0.20764501227753371 0.18946127353573741 0 0.1981233639171355 0.16578679509823521 0 0.20764501227753371 0.18946127353573741 0 0.1981233639171355 0.16578679509823521 0 0.22193333897365611 0.16940236618161161 0 0.20764501227753371 0.18946127353573741 0 0.22349524510262589 0.1882929917077163 0 0.22193333897365611 0.16940236618161161 0 0.207677409848747 0.15265436726913009 0 0.1981233639171355 0.16578679509823521 0 0.22193333897365611 0.16940236618161161 0 0.207677409848747 0.15265436726913009 0 0.22193333897365611 0.16940236618161161 0 0.22134903716669199 0.14708536363501609 0 0.22349524510262589 0.1882929917077163 0 0.22193333897365611 0.16940236618161161 0 0.23800281531175979 0.18073324988006281 0 0.23800281531175979 0.18073324988006281 0 0.24342118736862761 0.16410875332904781 0 0.25421457754785548 0.17528354573505059 0 0.23800281531175979 0.18073324988006281 0 0.25421457754785548 0.17528354573505059 0 0.25113643024109478 0.19094495075723769 0 0.22193333897365611 0.16940236618161161 0 0.23800281531175979 0.18073324988006281 0 0.24342118736862761 0.16410875332904781 0 0.22193333897365611 0.16940236618161161 0 0.24342118736862761 0.16410875332904781 0 0.2381959797174126 0.14809141417820801 0 0.2381959797174126 0.14809141417820801 0 0.2471064899150823 0.133463067737116 0 0.25227113898158787 0.14916335431643429 0 0.24342118736862761 0.16410875332904781 0 0.2381959797174126 0.14809141417820801 0 0.25227113898158787 0.14916335431643429 0 0.2381959797174126 0.14809141417820801 0 0.22134903716669199 0.14708536363501609 0 0.22703691245497479 0.13189098412415109 0 0.22193333897365611 0.16940236618161161 0 0.2381959797174126 0.14809141417820801 0 0.22134903716669199 0.14708536363501609 0 0.20799191400454739 0.1375227668896451 0 0.22134903716669199 0.14708536363501609 0 0.22703691245497479 0.13189098412415109 0 0.22703691245497479 0.13189098412415109 0 0.2471064899150823 0.133463067737116 0 0.2348532799323845 0.1126728752525727 0 0.2381959797174126 0.14809141417820801 0 0.22703691245497479 0.13189098412415109 0 0.2471064899150823 0.133463067737116 0 0.2471064899150823 0.133463067737116 0 0.2496952397761337 0.1160329650041991 0 0.2348532799323845 0.1126728752525727 0 0.2348532799323845 0.1126728752525727 0 0.23238347446995899 0.09878858498409393 0 0.25089272908716931 0.092982859712809007 0 0.2496952397761337 0.1160329650041991 0 0.2348532799323845 0.1126728752525727 0 0.25089272908716931 0.092982859712809007 0 0.23238347446995899 0.09878858498409393 0 0.21965336389696419 0.1029970115124081 0 0.22413452496331809 0.086501593458585962 0 0.2348532799323845 0.1126728752525727 0 0.23238347446995899 0.09878858498409393 0 0.21965336389696419 0.1029970115124081 0 0.2348532799323845 0.1126728752525727 0 0.21965336389696419 0.1029970115124081 0 0.21251029914637609 0.1192952894197942 0 0.22703691245497479 0.13189098412415109 0 0.2348532799323845 0.1126728752525727 0 0.21251029914637609 0.1192952894197942 0 0.21965336389696419 0.1029970115124081 0 0.21251029914637609 0.1192952894197942 0 0.20714728240524249 0.10617251279081751 0 0.21251029914637609 0.1192952894197942 0 0.20714728240524249 0.10617251279081751 0 0.2007454095485067 0.1153730887768626 0 0.21965336389696419 0.1029970115124081 0 0.21155544327336909 0.093494818701204518 0 0.22413452496331809 0.086501593458585962 0 0.21965336389696419 0.1029970115124081 0 0.20714728240524249 0.10617251279081751 0 0.21155544327336909 0.093494818701204518 0 0.20029711589946361 0.098207227624031723 0 0.20055037116402991 0.091606906531847498 0 0.21155544327336909 0.093494818701204518 0 0.20714728240524249 0.10617251279081751 0 0.20029711589946361 0.098207227624031723 0 0.21155544327336909 0.093494818701204518 0 0.19812206266677551 0.107667640710604 0 0.20029711589946361 0.098207227624031723 0 0.1885688884481975 0.1093901779912298 0 0.20714728240524249 0.10617251279081751 0 0.19812206266677551 0.107667640710604 0 0.20029711589946361 0.098207227624031723 0 0.20029711589946361 0.098207227624031723 0 0.1929726046438287 0.094705252597794665 0 0.20055037116402991 0.091606906531847498 0 0.1929726046438287 0.094705252597794665 0 0.1885688884481975 0.1093901779912298 0 0.1832996600419958 0.1003897382564244 0 0.20029711589946361 0.098207227624031723 0 0.1929726046438287 0.094705252597794665 0 0.1885688884481975 0.1093901779912298 0 0.20029711589946361 0.098207227624031723 0 0.1885688884481975 0.1093901779912298 0 0.1929726046438287 0.094705252597794665 0 0.1885688884481975 0.1093901779912298 0 0.19812206266677551 0.107667640710604 0 0.19247123508700151 0.1156451737142033 0 0.1885688884481975 0.1093901779912298 0 0.19247123508700151 0.1156451737142033 0 0.1885688884481975 0.1093901779912298 0 0.1858372065203453 0.1184994265274882 0 0.19325819231563421 0.12959887947710741 0 0.21251029914637609 0.1192952894197942 0 0.2007454095485067 0.1153730887768626 0 0.19325819231563421 0.12959887947710741 0 0.19247123508700151 0.1156451737142033 0 0.1858372065203453 0.1184994265274882 0 0.19325819231563421 0.12959887947710741 0 0.19247123508700151 0.1156451737142033 0 0.2007454095485067 0.1153730887768626 0 0.20714728240524249 0.10617251279081751 0 0.19812206266677551 0.107667640710604 0 0.2007454095485067 0.1153730887768626 0 0.19812206266677551 0.107667640710604 0 0.19247123508700151 0.1156451737142033 0 0.2007454095485067 0.1153730887768626 0 0.20238686903042469 0.063311819413239129 0 0.1973763208394673 0.08002032720436178 0 0.18079222374313991 0.066157073385880324 0 0.20238686903042469 0.063311819413239129 0 0.18079222374313991 0.066157073385880324 0 0.1973763208394673 0.08002032720436178 0 0.17868141559437861 0.075492121278057239 0 0.20238686903042469 0.063311819413239129 0 0.1973763208394673 0.08002032720436178 0 0.1929726046438287 0.094705252597794665 0 0.1973763208394673 0.08002032720436178 0 0.1929726046438287 0.094705252597794665 0 0.1973763208394673 0.08002032720436178 0 0.18493574174144031 0.087819629641268118 0 0.1929726046438287 0.094705252597794665 0 0.20055037116402991 0.091606906531847498 0 0.1973763208394673 0.08002032720436178 0 0.1973763208394673 0.08002032720436178 0 0.22413452496331809 0.086501593458585962 0 0.1973763208394673 0.08002032720436178 0 0.21155544327336909 0.093494818701204518 0 0.22413452496331809 0.086501593458585962 0 0.1973763208394673 0.08002032720436178 0 0.21581045027983861 0.072515516379325212 0 0.22413452496331809 0.086501593458585962 0 0.20055037116402991 0.091606906531847498 0 0.1973763208394673 0.08002032720436178 0 0.21155544327336909 0.093494818701204518 0 0.20238686903042469 0.063311819413239129 0 0.21581045027983861 0.072515516379325212 0 0.22639199231908241 0.060148967164815811 0 0.20238686903042469 0.063311819413239129 0 0.1973763208394673 0.08002032720436178 0 0.21581045027983861 0.072515516379325212 0 0.21581045027983861 0.072515516379325212 0 0.22413452496331809 0.086501593458585962 0 0.23571274181676019 0.070187616308315881 0 0.21581045027983861 0.072515516379325212 0 0.23571274181676019 0.070187616308315881 0 0.22639199231908241 0.060148967164815811 0 0.23571274181676019 0.070187616308315881 0 0.23935269316475091 0.05797056278501677 0 0.22639199231908241 0.060148967164815811 0 0.22413452496331809 0.086501593458585962 0 0.25089272908716931 0.092982859712809007 0 0.22413452496331809 0.086501593458585962 0 0.23571274181676019 0.070187616308315881 0 0.25089272908716931 0.092982859712809007 0 0.23238347446995899 0.09878858498409393 0 0.22413452496331809 0.086501593458585962 0 0.25089272908716931 0.092982859712809007 0 0.23571274181676019 0.070187616308315881 0 0.25089272908716931 0.092982859712809007 0 0.23571274181676019 0.070187616308315881 0 0.25282536794073712 0.073272794188635415 0 0.25089272908716931 0.092982859712809007 0 0.23935269316475091 0.05797056278501677 0 0.25425538404847059 0.057624927133231481 0 0.25282536794073712 0.073272794188635415 0 0.23571274181676019 0.070187616308315881 0 0.23935269316475091 0.05797056278501677 0 0.25282536794073712 0.073272794188635415 0 0.2368345322212535 0.044434942105003657 0 0.25425538404847059 0.057624927133231481 0 0.23935269316475091 0.05797056278501677 0 0.2368345322212535 0.044434942105003657 0 0.25425538404847059 0.057624927133231481 0 0.23935269316475091 0.05797056278501677 0 0.2368345322212535 0.044434942105003657 0 0.23127016951469481 0.052559852354376588 0 0.2368345322212535 0.044434942105003657 0 0.25291178968964928 0.037547667281027097 0 0.25425538404847059 0.057624927133231481 0 0.2368345322212535 0.044434942105003657 0 0.24190969492169709 0.024768393557462999 0 0.25291178968964928 0.037547667281027097 0 0.2368345322212535 0.044434942105003657 0 0.21941368039403211 0.031244957076781411 0 0.2368345322212535 0.044434942105003657 0 0.22121604545690071 0.040326540279582428 0 0.22250146035369231 0.047684937362670127 0 0.2368345322212535 0.044434942105003657 0 0.22121604545690071 0.040326540279582428 0 0.21941368039403211 0.031244957076781411 0 0.2368345322212535 0.044434942105003657 0 0.24190969492169709 0.024768393557462999 0 0.21941368039403211 0.031244957076781411 0 0.22121604545690071 0.040326540279582428 0 0.22250146035369231 0.047684937362670127 0 0.2151241054634794 0.043140718643033253 0 0.22250146035369231 0.047684937362670127 0 0.22639199231908241 0.060148967164815811 0 0.21464985550632831 0.05254647609126252 0 0.23935269316475091 0.05797056278501677 0 0.22639199231908241 0.060148967164815811 0 0.23127016951469481 0.052559852354376588 0 0.2368345322212535 0.044434942105003657 0 0.22250146035369231 0.047684937362670127 0 0.23127016951469481 0.052559852354376588 0 0.22250146035369231 0.047684937362670127 0 0.22639199231908241 0.060148967164815811 0 0.23127016951469481 0.052559852354376588 0 0.23517440673197429 0.0051848507458196356 0 0.24190969492169709 0.024768393557462999 0 0.22860778246280219 0.01441509204728152 0 0.23517440673197429 0.0051848507458196356 0 0.2485551203034157 0.0102848256948572 0 0.24190969492169709 0.024768393557462999 0 0.23517440673197429 0.0051848507458196356 0 0.2429424487767215 0.0026164120279975069 0 0.24005113852307369 -0.0027355710512556022 0 0.23517440673197429 0.0051848507458196356 0 0.2429424487767215 0.0026164120279975069 0 0.2485551203034157 0.0102848256948572 0 0.2429424487767215 0.0026164120279975069 0 0.2485551203034157 0.0102848256948572 0 0.2479891295484222 -0.0022684572774312019 0 0.2237082671027216 0.020648212041472009 0 0.22100796739575951 0.001216664300799794 0 0.21337432104441539 0.026672329963493752 0 0.24190969492169709 0.024768393557462999 0 0.21941368039403211 0.031244957076781411 0 0.24190969492169709 0.024768393557462999 0 0.21941368039403211 0.031244957076781411 0 0.2237082671027216 0.020648212041472009 0 0.24190969492169709 0.024768393557462999 0 0.2237082671027216 0.020648212041472009 0 0.22860778246280219 0.01441509204728152 0 0.21941368039403211 0.031244957076781411 0 0.2237082671027216 0.020648212041472009 0 0.21337432104441539 0.026672329963493752 0 0.2237082671027216 0.020648212041472009 0 0.22860778246280219 0.01441509204728152 0 0.22100796739575951 0.001216664300799794 0 0.23517440673197429 0.0051848507458196356 0 0.22860778246280219 0.01441509204728152 0 0.22100796739575951 0.001216664300799794 0 0.22100796739575951 0.001216664300799794 0 0.21337432104441539 0.026672329963493752 0 0.22100796739575951 0.001216664300799794 0 0.21213365429295861 0.01041237886839381 0 0.21337432104441539 0.026672329963493752 0 0.20938161325362409 0.0025060029461209908 0 0.21213365429295861 0.01041237886839381 0 0.19981118715584381 0.0070254328827108366 0 0.20938161325362409 0.0025060029461209908 0 0.19981118715584381 0.0070254328827108366 0 0.20239897911060981 -0.0049616950454924097 0 0.22100796739575951 0.001216664300799794 0 0.21476518088515931 0.0026345493870347861 0 0.21213365429295861 0.01041237886839381 0 0.20938161325362409 0.0025060029461209908 0 0.21476518088515931 0.0026345493870347861 0 0.21653748859829491 -0.0035968485671754561 0 0.20938161325362409 0.0025060029461209908 0 0.21476518088515931 0.0026345493870347861 0 0.21213365429295861 0.01041237886839381 0 0.22100796739575951 0.001216664300799794 0 0.21476518088515931 0.0026345493870347861 0 0.21653748859829491 -0.0035968485671754561 0 0.21213365429295861 0.01041237886839381 0 0.20775643638324501 0.022418817258943329 0 0.19981118715584381 0.0070254328827108366 0 0.20775643638324501 0.022418817258943329 0 0.19981118715584381 0.0070254328827108366 0 0.21213365429295861 0.01041237886839381 0 0.20775643638324501 0.022418817258943329 0 0.21337432104441539 0.026672329963493752 0 0.20775643638324501 0.022418817258943329 0 0.21337432104441539 0.026672329963493752 0 0.21211661331991941 0.030866365927793071 0 0.21941368039403211 0.031244957076781411 0 0.21337432104441539 0.026672329963493752 0 0.21211661331991941 0.030866365927793071 0 0.21941368039403211 0.031244957076781411 0 0.21337432104441539 0.026672329963493752 0 0.21337432104441539 0.026672329963493752 0 0.21211661331991941 0.030866365927793071 0 0.20775643638324501 0.022418817258943329 0 0.21211661331991941 0.030866365927793071 0 0.2008624239423544 0.027751844864101351 0 0.21211661331991941 0.030866365927793071 0 0.2008624239423544 0.027751844864101351 0 0.21130283169949521 0.033580056331867662 0 0.20775643638324501 0.022418817258943329 0 0.21211661331991941 0.030866365927793071 0 0.20775643638324501 0.022418817258943329 0 0.21337432104441539 0.026672329963493752 0 0.2008624239423544 0.027751844864101351 0 0.1914807756371078 0.039286791852227318 0 0.1874867753674215 0.0231110496262097 0 0.2008624239423544 0.027751844864101351 0 0.19503111124693581 0.017247988187571551 0 0.1874867753674215 0.0231110496262097 0 0.19503111124693581 0.017247988187571551 0 0.18734518720319909 0.015281891910368059 0 0.1874867753674215 0.0231110496262097 0 0.20775643638324501 0.022418817258943329 0 0.2008624239423544 0.027751844864101351 0 0.19503111124693581 0.017247988187571551 0 0.20775643638324501 0.022418817258943329 0 0.19503111124693581 0.017247988187571551 0 0.18660242445042999 0.0064023156866817926 0 0.20775643638324501 0.022418817258943329 0 0.18660242445042999 0.0064023156866817926 0 0.20775643638324501 0.022418817258943329 0 0.1894192936343001 0.0060385698470956234 0 0.19981118715584381 0.0070254328827108366 0 0.20775643638324501 0.022418817258943329 0 0.1894192936343001 0.0060385698470956234 0 0.18660242445042999 0.0064023156866817926 0 0.19503111124693581 0.017247988187571551 0 0.18832376542685261 0.012450231659139751 0 0.18660242445042999 0.0064023156866817926 0 0.19503111124693581 0.017247988187571551 0 0.18832376542685261 0.012450231659139751 0 0.18734518720319909 0.015281891910368059 0 0.1894192936343001 0.0060385698470956234 0 0.19981118715584381 0.0070254328827108366 0 0.1918659379284415 -0.0083679514935210662 0 0.20238686903042469 0.063311819413239129 0 0.22639199231908241 0.060148967164815811 0 0.21464985550632831 0.05254647609126252 0 0.20238686903042469 0.063311819413239129 0 0.22639199231908241 0.060148967164815811 0 0.20238686903042469 0.063311819413239129 0 0.20684485036496281 0.04844593787255428 0 0.21464985550632831 0.05254647609126252 0 0.20238686903042469 0.063311819413239129 0 0.20684485036496281 0.04844593787255428 0 0.20684485036496281 0.04844593787255428 0 0.21464985550632831 0.05254647609126252 0 0.2151241054634794 0.043140718643033253 0 0.22250146035369231 0.047684937362670127 0 0.21464985550632831 0.05254647609126252 0 0.2151241054634794 0.043140718643033253 0 0.20684485036496281 0.04844593787255428 0 0.2151241054634794 0.043140718643033253 0 0.21130283169949521 0.033580056331867662 0 0.20684485036496281 0.04844593787255428 0 0.21130283169949521 0.033580056331867662 0 0.1914807756371078 0.039286791852227318 0 0.2151241054634794 0.043140718643033253 0 0.21130283169949521 0.033580056331867662 0 0.21323078658658201 0.03302500146766809 0 0.22121604545690071 0.040326540279582428 0 0.2151241054634794 0.043140718643033253 0 0.21323078658658201 0.03302500146766809 0 0.22121604545690071 0.040326540279582428 0 0.21941368039403211 0.031244957076781411 0 0.21323078658658201 0.03302500146766809 0 0.21941368039403211 0.031244957076781411 0 0.21211661331991941 0.030866365927793071 0 0.21323078658658201 0.03302500146766809 0 0.21941368039403211 0.031244957076781411 0 0.21323078658658201 0.03302500146766809 0 0.21130283169949521 0.033580056331867662 0 0.21323078658658201 0.03302500146766809 0 0.21211661331991941 0.030866365927793071 0 0.21130283169949521 0.033580056331867662 0 0.21323078658658201 0.03302500146766809 0 0.21211661331991941 0.030866365927793071 0 0.21130283169949521 0.033580056331867662 0 0.21211661331991941 0.030866365927793071 0 0.21323078658658201 0.03302500146766809 0 0.20684485036496281 0.04844593787255428 0 0.21130283169949521 0.033580056331867662 0 0.20684485036496281 0.04844593787255428 0 0.1914807756371078 0.039286791852227318 0 0.1906326876700713 0.052439029979298252 0 0.21130283169949521 0.033580056331867662 0 0.1914807756371078 0.039286791852227318 0 0.2008624239423544 0.027751844864101351 0 0.21130283169949521 0.033580056331867662 0 0.1914807756371078 0.039286791852227318 0 0.20238686903042469 0.063311819413239129 0 0.20684485036496281 0.04844593787255428 0 0.1906326876700713 0.052439029979298252 0 0.20238686903042469 0.063311819413239129 0 0.1906326876700713 0.052439029979298252 0 0.18079222374313991 0.066157073385880324 0 0.1906326876700713 0.052439029979298252 0 0.1716587195747214 0.044993527372590117 0 0.18079222374313991 0.066157073385880324 0 0.1914807756371078 0.039286791852227318 0 0.17895959729017549 0.03270519686463521 0 0.1874867753674215 0.0231110496262097 0 0.1914807756371078 0.039286791852227318 0 0.1906326876700713 0.052439029979298252 0 0.1716587195747214 0.044993527372590117 0 0.1914807756371078 0.039286791852227318 0 0.1716587195747214 0.044993527372590117 0 0.1914807756371078 0.039286791852227318 0 0.17895959729017549 0.03270519686463521 0 0.1716587195747214 0.044993527372590117 0 0.17895959729017549 0.03270519686463521 0 0.1716587195747214 0.044993527372590117 0 0.1692336025848987 0.033942773786365128 0 0.1716587195747214 0.044993527372590117 0 0.1692336025848987 0.033942773786365128 0 0.1566962317421734 0.039838803654011962 0 0.1716587195747214 0.044993527372590117 0 0.1566962317421734 0.039838803654011962 0 0.15183666351233449 0.050700262892952028 0 0.1692336025848987 0.033942773786365128 0 0.1566962317421734 0.039838803654011962 0 0.158601754226253 0.030081739901262169 0 0.1716587195747214 0.044993527372590117 0 0.15183666351233449 0.050700262892952028 0 0.15919757845585511 0.069002327358520896 0 0.1716587195747214 0.044993527372590117 0 0.18079222374313991 0.066157073385880324 0 0.15919757845585511 0.069002327358520896 0 0.1716587195747214 0.044993527372590117 0 0.15183666351233449 0.050700262892952028 0 0.17227434920368959 0.00081991249798677823 0 0.17658810010716819 0.0040568459827444014 0 0.17786282304025339 -0.001583287003114023 0 0.17227434920368959 0.00081991249798677823 0 0.17658810010716819 0.0040568459827444014 0 0.17233771352019589 0.0083561011481188656 0 0.17658810010716819 0.0040568459827444014 0 0.18177514670000741 0.0039010391453388991 0 0.17943453638861959 0.0091511058078182841 0 0.17658810010716819 0.0040568459827444014 0 0.17943453638861959 0.0091511058078182841 0 0.17233771352019589 0.0083561011481188656 0 0.17658810010716819 0.0040568459827444014 0 0.18177514670000741 0.0039010391453388991 0 0.17786282304025339 -0.001583287003114023 0 0.18177514670000741 0.0039010391453388991 0 0.18580903226614379 -0.0011502469314075439 0 0.17786282304025339 -0.001583287003114023 0 0.1894192936343001 0.0060385698470956234 0 0.18660242445042999 0.0064023156866817926 0 0.18580903226614379 -0.0011502469314075439 0 0.18177514670000741 0.0039010391453388991 0 0.18660242445042999 0.0064023156866817926 0 0.18580903226614379 -0.0011502469314075439 0 0.18177514670000741 0.0039010391453388991 0 0.18660242445042999 0.0064023156866817926 0 0.18303211158647559 0.0075807978729441382 0 0.18177514670000741 0.0039010391453388991 0 0.18303211158647559 0.0075807978729441382 0 0.17943453638861959 0.0091511058078182841 0 0.18303211158647559 0.0075807978729441382 0 0.18431633880684531 0.01086873085193758 0 0.17943453638861959 0.0091511058078182841 0 0.18660242445042999 0.0064023156866817926 0 0.18303211158647559 0.0075807978729441382 0 0.18431633880684531 0.01086873085193758 0 0.18832376542685261 0.012450231659139751 0 0.18660242445042999 0.0064023156866817926 0 0.18431633880684531 0.01086873085193758 0 0.18431633880684531 0.01086873085193758 0 0.18734518720319909 0.015281891910368059 0 0.18195036267736389 0.015275800378046231 0 0.18832376542685261 0.012450231659139751 0 0.18431633880684531 0.01086873085193758 0 0.18734518720319909 0.015281891910368059 0 0.18431633880684531 0.01086873085193758 0 0.18195036267736389 0.015275800378046231 0 0.17943453638861959 0.0091511058078182841 0 0.18195036267736389 0.015275800378046231 0 0.1761571917665653 0.013806221612761949 0 0.17943453638861959 0.0091511058078182841 0 0.1761571917665653 0.013806221612761949 0 0.17943453638861959 0.0091511058078182841 0 0.17233771352019589 0.0083561011481188656 0 0.1761571917665653 0.013806221612761949 0 0.17233771352019589 0.0083561011481188656 0 0.1709247624247007 0.01466984692398882 0 0.1761571917665653 0.013806221612761949 0 0.17493811328672779 0.022191841685783802 0 0.1709247624247007 0.01466984692398882 0 0.18195036267736389 0.015275800378046231 0 0.1761571917665653 0.013806221612761949 0 0.17493811328672779 0.022191841685783802 0 0.18734518720319909 0.015281891910368059 0 0.18195036267736389 0.015275800378046231 0 0.1874867753674215 0.0231110496262097 0 0.18195036267736389 0.015275800378046231 0 0.17493811328672779 0.022191841685783802 0 0.1874867753674215 0.0231110496262097 0 0.17895959729017549 0.03270519686463521 0 0.17493811328672779 0.022191841685783802 0 0.1874867753674215 0.0231110496262097 0 0.17895959729017549 0.03270519686463521 0 0.1692336025848987 0.033942773786365128 0 0.17493811328672779 0.022191841685783802 0 0.1692336025848987 0.033942773786365128 0 0.1660519956958274 0.025200646889517071 0 0.158601754226253 0.030081739901262169 0 0.1692336025848987 0.033942773786365128 0 0.17493811328672779 0.022191841685783802 0 0.1660519956958274 0.025200646889517071 0 0.1660519956958274 0.025200646889517071 0 0.158601754226253 0.030081739901262169 0 0.15656323758401319 0.020842958383828041 0 0.15656323758401319 0.020842958383828041 0 0.1655425680131333 0.017645951334422452 0 0.15799820797772829 0.01069464001977203 0 0.1660519956958274 0.025200646889517071 0 0.15656323758401319 0.020842958383828041 0 0.1655425680131333 0.017645951334422452 0 0.17493811328672779 0.022191841685783802 0 0.1660519956958274 0.025200646889517071 0 0.1655425680131333 0.017645951334422452 0 0.17493811328672779 0.022191841685783802 0 0.1655425680131333 0.017645951334422452 0 0.1709247624247007 0.01466984692398882 0 0.17233771352019589 0.0083561011481188656 0 0.1709247624247007 0.01466984692398882 0 0.16528784937855559 0.0099045707114697821 0 0.1655425680131333 0.017645951334422452 0 0.1709247624247007 0.01466984692398882 0 0.16528784937855559 0.0099045707114697821 0 0.1655425680131333 0.017645951334422452 0 0.16528784937855559 0.0099045707114697821 0 0.15799820797772829 0.01069464001977203 0 0.16528784937855559 0.0099045707114697821 0 0.15830422717032419 0.0026668804518291322 0 0.16550177429739321 0.001625335581948511 0 0.16528784937855559 0.0099045707114697821 0 0.15799820797772829 0.01069464001977203 0 0.15830422717032419 0.0026668804518291322 0 0.17233771352019589 0.0083561011481188656 0 0.16528784937855559 0.0099045707114697821 0 0.16550177429739321 0.001625335581948511 0 0.17227434920368959 0.00081991249798677823 0 0.17233771352019589 0.0083561011481188656 0 0.16550177429739321 0.001625335581948511 0 0.14127976741107601 0.00215554095495248 0 0.15230472087545879 0.0045339035350271751 0 0.14873370341600839 0.01190124285016711 0 0.15799820797772829 0.01069464001977203 0 0.15830422717032419 0.0026668804518291322 0 0.15230472087545879 0.0045339035350271751 0 0.14127976741107601 0.00215554095495248 0 0.15230472087545879 0.0045339035350271751 0 0.1552076984021574 -0.0047487866015848753 0 0.15830422717032419 0.0026668804518291322 0 0.15230472087545879 0.0045339035350271751 0 0.1552076984021574 -0.0047487866015848753 0 0.15656323758401319 0.020842958383828041 0 0.15799820797772829 0.01069464001977203 0 0.14873370341600839 0.01190124285016711 0 0.15799820797772829 0.01069464001977203 0 0.15230472087545879 0.0045339035350271751 0 0.14873370341600839 0.01190124285016711 0 0.14873370341600839 0.01190124285016711 0 0.1458857290053831 0.021389540043380069 0 0.13967636330765321 0.013174792475989121 0 0.14127976741107601 0.00215554095495248 0 0.14873370341600839 0.01190124285016711 0 0.13967636330765321 0.013174792475989121 0 0.1458857290053831 0.021389540043380069 0 0.13916191736165201 0.019633136795163032 0 0.13967636330765321 0.013174792475989121 0 0.1458857290053831 0.021389540043380069 0 0.14010063181871271 0.02585166497444577 0 0.13916191736165201 0.019633136795163032 0 0.15656323758401319 0.020842958383828041 0 0.1458857290053831 0.021389540043380069 0 0.15175299049851881 0.02729842449465077 0 0.15656323758401319 0.020842958383828041 0 0.14873370341600839 0.01190124285016711 0 0.1458857290053831 0.021389540043380069 0 0.158601754226253 0.030081739901262169 0 0.15656323758401319 0.020842958383828041 0 0.15175299049851881 0.02729842449465077 0 0.158601754226253 0.030081739901262169 0 0.15175299049851881 0.02729842449465077 0 0.15159127196488009 0.032471007951428398 0 0.15175299049851881 0.02729842449465077 0 0.14523576613563741 0.02976945682372012 0 0.15159127196488009 0.032471007951428398 0 0.1458857290053831 0.021389540043380069 0 0.14523576613563741 0.02976945682372012 0 0.14010063181871271 0.02585166497444577 0 0.14523576613563741 0.02976945682372012 0 0.14010063181871271 0.02585166497444577 0 0.1391322595465444 0.03699933077486834 0 0.1458857290053831 0.021389540043380069 0 0.15175299049851881 0.02729842449465077 0 0.14523576613563741 0.02976945682372012 0 0.1309849453148588 0.01811654968683717 0 0.1391322595465444 0.03699933077486834 0 0.14010063181871271 0.02585166497444577 0 0.1309849453148588 0.01811654968683717 0 0.1391322595465444 0.03699933077486834 0 0.11917198148314 0.002581966002757949 0 0.13034027439662041 0.028127834929059549 0 0.1309849453148588 0.01811654968683717 0 0.13034027439662041 0.028127834929059549 0 0.1309849453148588 0.01811654968683717 0 0.1391322595465444 0.03699933077486834 0 0.1309849453148588 0.01811654968683717 0 0.13916191736165201 0.019633136795163032 0 0.13967636330765321 0.013174792475989121 0 0.14010063181871271 0.02585166497444577 0 0.1309849453148588 0.01811654968683717 0 0.13916191736165201 0.019633136795163032 0 0.14127976741107601 0.00215554095495248 0 0.13362755423293271 0.0080562160832345926 0 0.1228376310831711 -0.00076623140119310329 0 0.1309849453148588 0.01811654968683717 0 0.13362755423293271 0.0080562160832345926 0 0.1228376310831711 -0.00076623140119310329 0 0.1309849453148588 0.01811654968683717 0 0.1228376310831711 -0.00076623140119310329 0 0.1309849453148588 0.01811654968683717 0 0.13362755423293271 0.0080562160832345926 0 0.13967636330765321 0.013174792475989121 0 0.14127976741107601 0.00215554095495248 0 0.13362755423293271 0.0080562160832345926 0 0.13967636330765321 0.013174792475989121 0 0.15183666351233449 0.050700262892952028 0 0.15919757845585511 0.069002327358520896 0 0.15048711395973299 0.060532750562707877 0 0.15183666351233449 0.050700262892952028 0 0.15919757845585511 0.069002327358520896 0 0.14215194880052681 0.055145346777992182 0 0.15048711395973299 0.060532750562707877 0 0.13253998066004699 0.064315925604492674 0 0.1415085673101022 0.053673703855360522 0 0.14215194880052681 0.055145346777992182 0 0.15183666351233449 0.050700262892952028 0 0.1415085673101022 0.053673703855360522 0 0.15183666351233449 0.050700262892952028 0 0.1415085673101022 0.053673703855360522 0 0.15183666351233449 0.050700262892952028 0 0.14453550543306221 0.044729731242042367 0 0.1415085673101022 0.053673703855360522 0 0.14215194880052681 0.055145346777992182 0 0.14215194880052681 0.055145346777992182 0 0.15048711395973299 0.060532750562707877 0 0.15183666351233449 0.050700262892952028 0 0.1415085673101022 0.053673703855360522 0 0.14453550543306221 0.044729731242042367 0 0.1391322595465444 0.03699933077486834 0 0.15183666351233449 0.050700262892952028 0 0.14566961722181801 0.035366614883496988 0 0.1566962317421734 0.039838803654011962 0 0.15183666351233449 0.050700262892952028 0 0.14566961722181801 0.035366614883496988 0 0.1566962317421734 0.039838803654011962 0 0.15159127196488009 0.032471007951428398 0 0.14566961722181801 0.035366614883496988 0 0.1566962317421734 0.039838803654011962 0 0.158601754226253 0.030081739901262169 0 0.15159127196488009 0.032471007951428398 0 0.14566961722181801 0.035366614883496988 0 0.14453550543306221 0.044729731242042367 0 0.1391322595465444 0.03699933077486834 0 0.14523576613563741 0.02976945682372012 0 0.15159127196488009 0.032471007951428398 0 0.14566961722181801 0.035366614883496988 0 0.14523576613563741 0.02976945682372012 0 0.14566961722181801 0.035366614883496988 0 0.1391322595465444 0.03699933077486834 0 0.15183666351233449 0.050700262892952028 0 0.14566961722181801 0.035366614883496988 0 0.14453550543306221 0.044729731242042367 0 0.13034027439662041 0.028127834929059549 0 0.1415085673101022 0.053673703855360522 0 0.13034027439662041 0.028127834929059549 0 0.1415085673101022 0.053673703855360522 0 0.1391322595465444 0.03699933077486834 0 0.12367169586596689 0.04413069599522032 0 0.13034027439662041 0.028127834929059549 0 0.1415085673101022 0.053673703855360522 0 0.11892469151436 0.060175562481194378 0 0.12367169586596689 0.04413069599522032 0 0.1415085673101022 0.053673703855360522 0 0.11892469151436 0.060175562481194378 0 0.1415085673101022 0.053673703855360522 0 0.11892469151436 0.060175562481194378 0 0.1415085673101022 0.053673703855360522 0 0.13253998066004699 0.064315925604492674 0 0.1415085673101022 0.053673703855360522 0 0.14215194880052681 0.055145346777992182 0 0.13253998066004699 0.064315925604492674 0 0.13253998066004699 0.064315925604492674 0 0.13121537104960351 0.072689189806444385 0 0.15446329543616341 0.069626104104570485 0 0.1243405792371938 0.066503547411893488 0 0.13253998066004699 0.064315925604492674 0 0.13121537104960351 0.072689189806444385 0 0.11892469151436 0.060175562481194378 0 0.1243405792371938 0.066503547411893488 0 0.13253998066004699 0.064315925604492674 0 0.13121537104960351 0.072689189806444385 0 0.14336397744542301 0.076431171561807093 0 0.13288821721910599 0.083857800247139097 0 0.15048711395973299 0.060532750562707877 0 0.13253998066004699 0.064315925604492674 0 0.15446329543616341 0.069626104104570485 0 0.13121537104960351 0.072689189806444385 0 0.15446329543616341 0.069626104104570485 0 0.13121537104960351 0.072689189806444385 0 0.14336397744542301 0.076431171561807093 0 0.15446329543616341 0.069626104104570485 0 0.13253998066004699 0.064315925604492674 0 0.15446329543616341 0.069626104104570485 0 0.14336397744542301 0.076431171561807093 0 0.15145508435945571 0.07730097997971673 0 0.15446329543616341 0.069626104104570485 0 0.15145508435945571 0.07730097997971673 0 0.15998651034928929 0.070963915351755544 0 0.15635019231632599 0.084708360937410687 0 0.15145508435945571 0.07730097997971673 0 0.15446329543616341 0.069626104104570485 0 0.15998651034928929 0.070963915351755544 0 0.15048711395973299 0.060532750562707877 0 0.15446329543616341 0.069626104104570485 0 0.15919757845585511 0.069002327358520896 0 0.1449478564828334 0.088262465871273704 0 0.15304430801011831 0.09759233646353245 0 0.15635019231632599 0.084708360937410687 0 0.15145508435945571 0.07730097997971673 0 0.1449478564828334 0.088262465871273704 0 0.15635019231632599 0.084708360937410687 0 0.14336397744542301 0.076431171561807093 0 0.15145508435945571 0.07730097997971673 0 0.1449478564828334 0.088262465871273704 0 0.1449478564828334 0.088262465871273704 0 0.13288821721910599 0.083857800247139097 0 0.1333435253298102 0.095432768439741328 0 0.14336397744542301 0.076431171561807093 0 0.1449478564828334 0.088262465871273704 0 0.13288821721910599 0.083857800247139097 0 0.1225478872688979 0.090713611373926736 0 0.1210037722340596 0.082520495593825793 0 0.13288821721910599 0.083857800247139097 0 0.1210037722340596 0.082520495593825793 0 0.13121537104960351 0.072689189806444385 0 0.13288821721910599 0.083857800247139097 0 0.1225478872688979 0.090713611373926736 0 0.13288821721910599 0.083857800247139097 0 0.1333435253298102 0.095432768439741328 0 0.1449478564828334 0.088262465871273704 0 0.1368974078767736 0.107501873099266 0 0.1333435253298102 0.095432768439741328 0 0.12018819637303869 0.10164151191590461 0 0.1368974078767736 0.107501873099266 0 0.1333435253298102 0.095432768439741328 0 0.12018819637303869 0.10164151191590461 0 0.1225478872688979 0.090713611373926736 0 0.1333435253298102 0.095432768439741328 0 0.11707998843366239 0.12090166170324231 0 0.14061487869327599 0.12738787364596069 0 0.1368974078767736 0.107501873099266 0 0.14061487869327599 0.12738787364596069 0 0.1368974078767736 0.107501873099266 0 0.1574927946018469 0.1127881056222175 0 0.14061487869327599 0.12738787364596069 0 0.16208469833826319 0.13464304631642149 0 0.1574927946018469 0.1127881056222175 0 0.1368974078767736 0.107501873099266 0 0.15304430801011831 0.09759233646353245 0 0.1574927946018469 0.1127881056222175 0 0.1449478564828334 0.088262465871273704 0 0.1368974078767736 0.107501873099266 0 0.15304430801011831 0.09759233646353245 0 0.15304430801011831 0.09759233646353245 0 0.1695332887728116 0.094700876787494351 0 0.1574927946018469 0.1127881056222175 0 0.1695332887728116 0.094700876787494351 0 0.1574927946018469 0.1127881056222175 0 0.1790800671963392 0.1184378382232308 0 0.16208469833826319 0.13464304631642149 0 0.1574927946018469 0.1127881056222175 0 0.1790800671963392 0.1184378382232308 0 0.1885688884481975 0.1093901779912298 0 0.1790800671963392 0.1184378382232308 0 0.1832996600419958 0.1003897382564244 0 0.1885688884481975 0.1093901779912298 0 0.1790800671963392 0.1184378382232308 0 0.1858372065203453 0.1184994265274882 0 0.1885688884481975 0.1093901779912298 0 0.1858372065203453 0.1184994265274882 0 0.1885688884481975 0.1093901779912298 0 0.1790800671963392 0.1184378382232308 0 0.19325819231563421 0.12959887947710741 0 0.1790800671963392 0.1184378382232308 0 0.1858372065203453 0.1184994265274882 0 0.1695332887728116 0.094700876787494351 0 0.1790800671963392 0.1184378382232308 0 0.1695332887728116 0.094700876787494351 0 0.1790800671963392 0.1184378382232308 0 0.1832996600419958 0.1003897382564244 0 0.1695332887728116 0.094700876787494351 0 0.1832996600419958 0.1003897382564244 0 0.18493574174144031 0.087819629641268118 0 0.1929726046438287 0.094705252597794665 0 0.1832996600419958 0.1003897382564244 0 0.18493574174144031 0.087819629641268118 0 0.1973763208394673 0.08002032720436178 0 0.18493574174144031 0.087819629641268118 0 0.17868141559437861 0.075492121278057239 0 0.1695332887728116 0.094700876787494351 0 0.18493574174144031 0.087819629641268118 0 0.17868141559437861 0.075492121278057239 0 0.1973763208394673 0.08002032720436178 0 0.17868141559437861 0.075492121278057239 0 0.18079222374313991 0.066157073385880324 0 0.17868141559437861 0.075492121278057239 0 0.18079222374313991 0.066157073385880324 0 0.15998651034928929 0.070963915351755544 0 0.18079222374313991 0.066157073385880324 0 0.15919757845585511 0.069002327358520896 0 0.18079222374313991 0.066157073385880324 0 0.15919757845585511 0.069002327358520896 0 0.15998651034928929 0.070963915351755544 0 0.17868141559437861 0.075492121278057239 0 0.15998651034928929 0.070963915351755544 0 0.15446329543616341 0.069626104104570485 0 0.15919757845585511 0.069002327358520896 0 0.15998651034928929 0.070963915351755544 0 0.15446329543616341 0.069626104104570485 0 0.15919757845585511 0.069002327358520896 0 0.15446329543616341 0.069626104104570485 0 0.15998651034928929 0.070963915351755544 0 0.15919757845585511 0.069002327358520896 0 0.15998651034928929 0.070963915351755544 0 0.1695332887728116 0.094700876787494351 0 0.17868141559437861 0.075492121278057239 0 0.15998651034928929 0.070963915351755544 0 0.15304430801011831 0.09759233646353245 0 0.1695332887728116 0.094700876787494351 0 0.15635019231632599 0.084708360937410687 0 0.1695332887728116 0.094700876787494351 0 0.15998651034928929 0.070963915351755544 0 0.1695332887728116 0.094700876787494351 0 0.15998651034928929 0.070963915351755544 0 0.15635019231632599 0.084708360937410687 0 0.097740131103692757 0.47211576306312553 0 0.10228396963995549 0.48764264937867408 0 0.092199203719590395 0.48872928857719472 0 0.097740131103692757 0.47211576306312553 0 0.1146358595090817 0.48605788153156299 0 0.097740131103692757 0.47211576306312553 0 0.10228396963995549 0.48764264937867408 0 0.1146358595090817 0.48605788153156299 0 0.1038255785689283 0.5 0 0.10228396963995549 0.48764264937867408 0 0.092199203719590395 0.48872928857719472 0 0.1038255785689283 0.5 0 0.10228396963995549 0.48764264937867408 0 0.1146358595090817 0.48605788153156299 0 0.1146358595090817 0.48605788153156299 0 0.13153158791447089 0.50000000000000033 0 0.1038255785689283 0.5 0 0.1146358595090817 0.48605788153156299 0 0.13153158791447089 0.50000000000000033 0 0.097740131103692757 0.47211576306312553 0 0.1146358595090817 0.48605788153156299 0 0.1160915578241386 0.4641835533930308 0 0.1146358595090817 0.48605788153156299 0 0.1160915578241386 0.4641835533930308 0 0.13792901651589951 0.46760966493884959 0 0.1160915578241386 0.4641835533930308 0 0.1237280261196836 0.44463014715047522 0 0.10202961426548091 0.45002724093957291 0 0.1237280261196836 0.44463014715047522 0 0.1057649319772677 0.43759517983083812 0 0.10202961426548091 0.45002724093957291 0 0.1057649319772677 0.43759517983083812 0 0.10202961426548091 0.45002724093957291 0 0.08764391112498858 0.43163178618934439 0 0.097740131103692757 0.47211576306312553 0 0.1160915578241386 0.4641835533930308 0 0.10202961426548091 0.45002724093957291 0 0.080844402698305312 0.45817364459468618 0 0.076730675362011974 0.47423156549521001 0 0.097740131103692757 0.47211576306312553 0 0.080844402698305312 0.45817364459468618 0 0.097740131103692757 0.47211576306312553 0 0.10202961426548091 0.45002724093957291 0 0.080844402698305312 0.45817364459468618 0 0.097740131103692757 0.47211576306312553 0 0.080844402698305312 0.45817364459468618 0 0.076730675362011974 0.47423156549521001 0 0.080844402698305312 0.45817364459468618 0 0.08764391112498858 0.43163178618934439 0 0.10202961426548091 0.45002724093957291 0 0.080844402698305312 0.45817364459468618 0 0.08764391112498858 0.43163178618934439 0 0.080844402698305312 0.45817364459468618 0 0.07540768018483697 0.44030754071393319 0 0.08764391112498858 0.43163178618934439 0 0.080844402698305312 0.45817364459468618 0 0.07540768018483697 0.44030754071393319 0 0.061556592319121653 0.44225761358074578 0 0.080844402698305312 0.45817364459468618 0 0.061556592319121653 0.44225761358074578 0 0.080844402698305312 0.45817364459468618 0 0.067859653170709522 0.45426422462270638 0 0.061556592319121653 0.44225761358074578 0 0.080844402698305312 0.45817364459468618 0 0.064346854003363874 0.46736183993319841 0 0.076730675362011974 0.47423156549521001 0 0.064346854003363874 0.46736183993319841 0 0.067859653170709522 0.45426422462270638 0 0.056076759981020123 0.44443419347066321 0 0.080844402698305312 0.45817364459468618 0 0.064346854003363874 0.46736183993319841 0 0.067859653170709522 0.45426422462270638 0 0.076730675362011974 0.47423156549521001 0 0.072616948025712127 0.490289486395732 0 0.064346854003363874 0.46736183993319841 0 0.072616948025712127 0.490289486395732 0 0.058055043786226751 0.49051055052906067 0 0.064346854003363874 0.46736183993319841 0 0.072616948025712127 0.490289486395732 0 0.064346854003363874 0.46736183993319841 0 0.076730675362011974 0.47423156549521001 0 0.072616948025712127 0.490289486395732 0 0.076730675362011974 0.47423156549521001 0 0.082075002421626492 0.48449271935339733 0 0.072616948025712127 0.490289486395732 0 0.097740131103692757 0.47211576306312553 0 0.076730675362011974 0.47423156549521001 0 0.082075002421626492 0.48449271935339733 0 0.097740131103692757 0.47211576306312553 0 0.092199203719590395 0.48872928857719472 0 0.082075002421626492 0.48449271935339733 0 0.1038255785689283 0.5 0 0.092199203719590395 0.48872928857719472 0 0.076119569223385697 0.50000000000000089 0 0.092199203719590395 0.48872928857719472 0 0.082075002421626492 0.48449271935339733 0 0.076119569223385697 0.50000000000000089 0 0.072616948025712127 0.490289486395732 0 0.07012930311136284 0.49999999999999661 0 0.076119569223385697 0.50000000000000089 0 0.072616948025712127 0.490289486395732 0 0.07012930311136284 0.49999999999999661 0 0.076119569223385697 0.50000000000000089 0 0.072616948025712127 0.490289486395732 0 0.082075002421626492 0.48449271935339733 0 0.076119569223385697 0.50000000000000089 0 0.072616948025712127 0.490289486395732 0 0.072616948025712127 0.490289486395732 0 0.07012930311136284 0.49999999999999661 0 0.058055043786226751 0.49051055052906067 0 0.058055043786226751 0.49051055052906067 0 0.046280597366186747 0.47957307303049429 0 0.044860440428939378 0.4999999999999995 0 0.07012930311136284 0.49999999999999661 0 0.058055043786226751 0.49051055052906067 0 0.044860440428939378 0.4999999999999995 0 0.064346854003363874 0.46736183993319841 0 0.058055043786226751 0.49051055052906067 0 0.046280597366186747 0.47957307303049429 0 0.046280597366186747 0.47957307303049429 0 0.047700754303434179 0.45914614606098908 0 0.046280597366186747 0.47957307303049429 0 0.029897162037545319 0.4839753813588808 0 0.03521852719449324 0.46736449501777538 0 0.044860440428939378 0.4999999999999995 0 0.01907995414838232 0.5 0 0.029897162037545319 0.4839753813588808 0 0.046280597366186747 0.47957307303049429 0 0.044860440428939378 0.4999999999999995 0 0.046280597366186747 0.47957307303049429 0 0.044860440428939378 0.4999999999999995 0 0.029897162037545319 0.4839753813588808 0 0.01907995414838232 0.5 0 0.029897162037545319 0.4839753813588808 0 0.01223017135109394 0.48399563131022733 0 0.029897162037545319 0.4839753813588808 0 0.02313076419329519 0.4718947066398041 0 0.01223017135109394 0.48399563131022733 0 0.029897162037545319 0.4839753813588808 0 0.02313076419329519 0.4718947066398041 0 0.03521852719449324 0.46736449501777538 0 0.02313076419329519 0.4718947066398041 0 0.01223017135109394 0.48399563131022733 0 0.01319884020628341 0.47022233111689332 0 -0.003880604538310756 0.48346324919380129 0 0.01223017135109394 0.48399563131022733 0 0.0050866533922729329 0.47701524235381432 0 0.01223017135109394 0.48399563131022733 0 0.01319884020628341 0.47022233111689332 0 0.0050866533922729329 0.47701524235381432 0 0.01319884020628341 0.47022233111689332 0 0.0053167838454733218 0.46943384557929257 0 0.0050866533922729329 0.47701524235381432 0 -0.001026908195020756 0.47486914558720472 0 0.0053167838454733218 0.46943384557929257 0 0.0050866533922729329 0.47701524235381432 0 -0.003880604538310756 0.48346324919380129 0 -0.001026908195020756 0.47486914558720472 0 0.0050866533922729329 0.47701524235381432 0 -0.0067005321321746969 0.5 0 0.01907995414838232 0.5 0 0.01223017135109394 0.48399563131022733 0 -0.0067005321321746969 0.5 0 -0.003880604538310756 0.48346324919380129 0 0.01223017135109394 0.48399563131022733 0 0.0094816941431487278 0.45086042579757712 0 0.01399183751309625 0.44462120914047132 0 0.0048617880261327502 0.44584476697033082 0 0.0094816941431487278 0.45086042579757712 0 0.01399183751309625 0.44462120914047132 0 0.016302396861864351 0.45114502888407948 0 0.01049598620797234 0.43767394788706171 0 0.01399183751309625 0.44462120914047132 0 0.0048617880261327502 0.44584476697033082 0 0.01049598620797234 0.43767394788706171 0 0.01399183751309625 0.44462120914047132 0 0.020379531913139331 0.43685778481219928 0 0.01049598620797234 0.43767394788706171 0 0.0048617880261327502 0.44584476697033082 0 0.01049598620797234 0.43767394788706171 0 0.0048617880261327502 0.44584476697033082 0 0.0065189226172944724 0.43188650626448272 0 0.0094816941431487278 0.45086042579757712 0 0.0048617880261327502 0.44584476697033082 0 0.0015605482097463411 0.45063228640423969 0 0.0048617880261327502 0.44584476697033082 0 0.0015605482097463411 0.45063228640423969 0 0.0094816941431487278 0.45086042579757712 0 0.0048617880261327502 0.44584476697033082 0 0.0015605482097463411 0.45063228640423969 0 0.0080738590363113663 0.46132998490476868 0 0.01222090350615627 0.45893997922115709 0 0.0015605482097463411 0.45063228640423969 0 0.01222090350615627 0.45893997922115709 0 -0.0094095992007081283 0.46654139838691122 0 0.0053167838454733218 0.46943384557929257 0 0.0080738590363113663 0.46132998490476868 0 0.0094816941431487278 0.45086042579757712 0 0.0015605482097463411 0.45063228640423969 0 0.01222090350615627 0.45893997922115709 0 -0.0094095992007081283 0.46654139838691122 0 0.0015605482097463411 0.45063228640423969 0 0.0080738590363113663 0.46132998490476868 0 0.0080738590363113663 0.46132998490476868 0 0.01222090350615627 0.45893997922115709 0 0.025557317273330941 0.45611857142262657 0 0.01319884020628341 0.47022233111689332 0 0.0080738590363113663 0.46132998490476868 0 0.025557317273330941 0.45611857142262657 0 0.01319884020628341 0.47022233111689332 0 0.0053167838454733218 0.46943384557929257 0 0.0080738590363113663 0.46132998490476868 0 0.0094816941431487278 0.45086042579757712 0 0.01222090350615627 0.45893997922115709 0 0.016302396861864351 0.45114502888407948 0 0.01222090350615627 0.45893997922115709 0 0.025557317273330941 0.45611857142262657 0 0.016302396861864351 0.45114502888407948 0 0.0080738590363113663 0.46132998490476868 0 0.025557317273330941 0.45611857142262657 0 0.02313076419329519 0.4718947066398041 0 0.01319884020628341 0.47022233111689332 0 0.025557317273330941 0.45611857142262657 0 0.02313076419329519 0.4718947066398041 0 0.025557317273330941 0.45611857142262657 0 0.03521852719449324 0.46736449501777538 0 0.025557317273330941 0.45611857142262657 0 0.029497972404799989 0.4465970104894148 0 0.021231693005787571 0.44530579808828252 0 0.025557317273330941 0.45611857142262657 0 0.016302396861864351 0.45114502888407948 0 0.021231693005787571 0.44530579808828252 0 0.01399183751309625 0.44462120914047132 0 0.016302396861864351 0.45114502888407948 0 0.021231693005787571 0.44530579808828252 0 0.01399183751309625 0.44462120914047132 0 0.021231693005787571 0.44530579808828252 0 0.020379531913139331 0.43685778481219928 0 0.029497972404799989 0.4465970104894148 0 0.021231693005787571 0.44530579808828252 0 0.030311313049230751 0.43763339856834432 0 0.021231693005787571 0.44530579808828252 0 0.030311313049230751 0.43763339856834432 0 0.020379531913139331 0.43685778481219928 0 0.038697605999956301 0.44825738244890739 0 0.047700754303434179 0.45914614606098908 0 0.049120911240681603 0.43871921909148398 0 0.029497972404799989 0.4465970104894148 0 0.038697605999956301 0.44825738244890739 0 0.040333793699140981 0.43958103258297831 0 0.029497972404799989 0.4465970104894148 0 0.030311313049230751 0.43763339856834432 0 0.040333793699140981 0.43958103258297831 0 0.025557317273330941 0.45611857142262657 0 0.029497972404799989 0.4465970104894148 0 0.038697605999956301 0.44825738244890739 0 0.038697605999956301 0.44825738244890739 0 0.040333793699140981 0.43958103258297831 0 0.049120911240681603 0.43871921909148398 0 0.046280597366186747 0.47957307303049429 0 0.03521852719449324 0.46736449501777538 0 0.047700754303434179 0.45914614606098908 0 0.025557317273330941 0.45611857142262657 0 0.038697605999956301 0.44825738244890739 0 0.03521852719449324 0.46736449501777538 0 0.038697605999956301 0.44825738244890739 0 0.03521852719449324 0.46736449501777538 0 0.047700754303434179 0.45914614606098908 0 0.064346854003363874 0.46736183993319841 0 0.056076759981020123 0.44443419347066321 0 0.064346854003363874 0.46736183993319841 0 0.046280597366186747 0.47957307303049429 0 0.047700754303434179 0.45914614606098908 0 0.064346854003363874 0.46736183993319841 0 0.047700754303434179 0.45914614606098908 0 0.056076759981020123 0.44443419347066321 0 0.047700754303434179 0.45914614606098908 0 0.049120911240681603 0.43871921909148398 0 0.056076759981020123 0.44443419347066321 0 0.047700754303434179 0.45914614606098908 0 0.049120911240681603 0.43871921909148398 0 0.067859653170709522 0.45426422462270638 0 0.056076759981020123 0.44443419347066321 0 0.061556592319121653 0.44225761358074578 0 0.056076759981020123 0.44443419347066321 0 0.061556592319121653 0.44225761358074578 0 0.059201111644200437 0.43099696977894508 0 0.056076759981020123 0.44443419347066321 0 0.047806665958676359 0.42150654700812801 0 0.049120911240681603 0.43871921909148398 0 0.056076759981020123 0.44443419347066321 0 0.047806665958676359 0.42150654700812801 0 0.056076759981020123 0.44443419347066321 0 0.059201111644200437 0.43099696977894508 0 0.047806665958676359 0.42150654700812801 0 0.059201111644200437 0.43099696977894508 0 0.058979725365252707 0.4176193763442323 0 0.047806665958676359 0.42150654700812801 0 0.058979725365252707 0.4176193763442323 0 0.039536571936328653 0.39857890054559408 0 0.063240005814886313 0.40658319209587829 0 0.058979725365252707 0.4176193763442323 0 0.047806665958676359 0.42150654700812801 0 0.039536571936328653 0.39857890054559408 0 0.035113551011259521 0.41687403621696922 0 0.02872917033170445 0.40503675834663061 0 0.039536571936328653 0.39857890054559408 0 0.047806665958676359 0.42150654700812801 0 0.039536571936328653 0.39857890054559408 0 0.047806665958676359 0.42150654700812801 0 0.035113551011259521 0.41687403621696922 0 0.039536571936328653 0.39857890054559408 0 0.049120911240681603 0.43871921909148398 0 0.047806665958676359 0.42150654700812801 0 0.039708047704291503 0.4306454839277386 0 0.040333793699140981 0.43958103258297831 0 0.049120911240681603 0.43871921909148398 0 0.039708047704291503 0.4306454839277386 0 0.047806665958676359 0.42150654700812801 0 0.035113551011259521 0.41687403621696922 0 0.039708047704291503 0.4306454839277386 0 0.035113551011259521 0.41687403621696922 0 0.039708047704291503 0.4306454839277386 0 0.028741688689164512 0.42811504149697438 0 0.030311313049230751 0.43763339856834432 0 0.039708047704291503 0.4306454839277386 0 0.028741688689164512 0.42811504149697438 0 0.030311313049230751 0.43763339856834432 0 0.040333793699140981 0.43958103258297831 0 0.039708047704291503 0.4306454839277386 0 0.030311313049230751 0.43763339856834432 0 0.020379531913139331 0.43685778481219928 0 0.028741688689164512 0.42811504149697438 0 0.01049598620797234 0.43767394788706171 0 0.020379531913139331 0.43685778481219928 0 0.01750467301358458 0.42779731369206181 0 0.020379531913139331 0.43685778481219928 0 0.01750467301358458 0.42779731369206181 0 0.028741688689164512 0.42811504149697438 0 0.01750467301358458 0.42779731369206181 0 0.028741688689164512 0.42811504149697438 0 0.02615916144738779 0.41736148597675132 0 0.035113551011259521 0.41687403621696922 0 0.028741688689164512 0.42811504149697438 0 0.02615916144738779 0.41736148597675132 0 0.02615916144738779 0.41736148597675132 0 0.010437450069317761 0.40463061763750507 0 0.02872917033170445 0.40503675834663061 0 0.02615916144738779 0.41736148597675132 0 0.01517065216307991 0.41806138940930709 0 0.010437450069317761 0.40463061763750507 0 0.035113551011259521 0.41687403621696922 0 0.02615916144738779 0.41736148597675132 0 0.02872917033170445 0.40503675834663061 0 0.01750467301358458 0.42779731369206181 0 0.02615916144738779 0.41736148597675132 0 0.01517065216307991 0.41806138940930709 0 -0.003174347114314008 0.41591217031924949 0 0.0065813241220295041 0.42245614033091039 0 0.010437450069317761 0.40463061763750507 0 -0.0064316016559190746 0.3999483233353413 0 -0.003174347114314008 0.41591217031924949 0 0.010437450069317761 0.40463061763750507 0 0.01517065216307991 0.41806138940930709 0 0.0065813241220295041 0.42245614033091039 0 0.010437450069317761 0.40463061763750507 0 -0.003174347114314008 0.41591217031924949 0 0.010437450069317761 0.40463061763750507 0 -0.003174347114314008 0.41591217031924949 0 0.0065813241220295041 0.42245614033091039 0 -0.0026301228576318379 0.42717885202372191 0 -0.003174347114314008 0.41591217031924949 0 0.0065813241220295041 0.42245614033091039 0 -0.0026301228576318379 0.42717885202372191 0 0.0065813241220295041 0.42245614033091039 0 0.0065189226172944724 0.43188650626448272 0 -0.0026301228576318379 0.42717885202372191 0 0.0048617880261327502 0.44584476697033082 0 0.0065189226172944724 0.43188650626448272 0 0.01049598620797234 0.43767394788706171 0 0.01750467301358458 0.42779731369206181 0 0.0065189226172944724 0.43188650626448272 0 0.01750467301358458 0.42779731369206181 0 0.0065813241220295041 0.42245614033091039 0 0.0065189226172944724 0.43188650626448272 0 0.01750467301358458 0.42779731369206181 0 0.01517065216307991 0.41806138940930709 0 0.0065813241220295041 0.42245614033091039 0 -0.0042030409966118051 0.38380869400061962 0 0.01009735409817194 0.38238429504652488 0 0.02404924725294803 0.393349064955759 0 -0.0042030409966118051 0.38380869400061962 0 0.02404924725294803 0.393349064955759 0 0.01009735409817194 0.38238429504652488 0 0.0197357255374827 0.37571737083264412 0 0.011110712074150059 0.37343232972227269 0 -0.001064505034491721 0.37161458349227261 0 0.01009735409817194 0.38238429504652488 0 0.011110712074150059 0.37343232972227269 0 -0.001064505034491721 0.37161458349227261 0 -0.0042030409966118051 0.38380869400061962 0 0.01009735409817194 0.38238429504652488 0 -0.0042030409966118051 0.38380869400061962 0 0.01009735409817194 0.38238429504652488 0 -0.0042030409966118051 0.38380869400061962 0 0.010437450069317761 0.40463061763750507 0 0.02404924725294803 0.393349064955759 0 0.010437450069317761 0.40463061763750507 0 0.02872917033170445 0.40503675834663061 0 0.02404924725294803 0.393349064955759 0 0.010437450069317761 0.40463061763750507 0 0.02404924725294803 0.393349064955759 0 0.02872917033170445 0.40503675834663061 0 0.02404924725294803 0.393349064955759 0 0.039536571936328653 0.39857890054559408 0 0.02404924725294803 0.393349064955759 0 0.034519904376963118 0.38467091111880503 0 0.02404924725294803 0.393349064955759 0 0.0197357255374827 0.37571737083264412 0 0.034519904376963118 0.38467091111880503 0 0.01009735409817194 0.38238429504652488 0 0.02404924725294803 0.393349064955759 0 0.0197357255374827 0.37571737083264412 0 0.034519904376963118 0.38467091111880503 0 0.050307067216076778 0.37158640017128619 0 0.034519904376963118 0.38467091111880503 0 0.039536571936328653 0.39857890054559408 0 0.056773536515482913 0.38908479613358171 0 0.02404924725294803 0.393349064955759 0 0.039536571936328653 0.39857890054559408 0 0.034519904376963118 0.38467091111880503 0 0.039536571936328653 0.39857890054559408 0 0.02404924725294803 0.393349064955759 0 0.034519904376963118 0.38467091111880503 0 0.039536571936328653 0.39857890054559408 0 0.039536571936328653 0.39857890054559408 0 0.063240005814886313 0.40658319209587829 0 0.039536571936328653 0.39857890054559408 0 0.056773536515482913 0.38908479613358171 0 0.063240005814886313 0.40658319209587829 0 0.056773536515482913 0.38908479613358171 0 0.063240005814886313 0.40658319209587829 0 0.056773536515482913 0.38908479613358171 0 0.059721524030669819 0.37431687333309788 0 0.050307067216076778 0.37158640017128619 0 0.056773536515482913 0.38908479613358171 0 0.050307067216076778 0.37158640017128619 0 0.034519904376963118 0.38467091111880503 0 0.056773536515482913 0.38908479613358171 0 0.050307067216076778 0.37158640017128619 0 0.056773536515482913 0.38908479613358171 0 0.069041936002645535 0.37820082441249081 0 0.059721524030669819 0.37431687333309788 0 0.056773536515482913 0.38908479613358171 0 0.069041936002645535 0.37820082441249081 0 0.068225210254675303 0.39186969982647402 0 0.069041936002645535 0.37820082441249081 0 0.078928226936330073 0.3918395352538776 0 0.068225210254675303 0.39186969982647402 0 0.069041936002645535 0.37820082441249081 0 0.087739402474845588 0.37833299208434412 0 0.078928226936330073 0.3918395352538776 0 0.087739402474845588 0.37833299208434412 0 0.078928226936330073 0.3918395352538776 0 0.094443419551670932 0.40508992778400232 0 0.078928226936330073 0.3918395352538776 0 0.080832552055978585 0.40498983155533402 0 0.094443419551670932 0.40508992778400232 0 0.080832552055978585 0.40498983155533402 0 0.073695702888484968 0.40005040040525608 0 0.075088081656536507 0.41058410832735293 0 0.078928226936330073 0.3918395352538776 0 0.080832552055978585 0.40498983155533402 0 0.073695702888484968 0.40005040040525608 0 0.056773536515482913 0.38908479613358171 0 0.068225210254675303 0.39186969982647402 0 0.063240005814886313 0.40658319209587829 0 0.073695702888484968 0.40005040040525608 0 0.063240005814886313 0.40658319209587829 0 0.075088081656536507 0.41058410832735293 0 0.078928226936330073 0.3918395352538776 0 0.073695702888484968 0.40005040040525608 0 0.068225210254675303 0.39186969982647402 0 0.073695702888484968 0.40005040040525608 0 0.068225210254675303 0.39186969982647402 0 0.063240005814886313 0.40658319209587829 0 0.058979725365252707 0.4176193763442323 0 0.063240005814886313 0.40658319209587829 0 0.071585814596931419 0.42916711849095618 0 0.063240005814886313 0.40658319209587829 0 0.075088081656536507 0.41058410832735293 0 0.071585814596931419 0.42916711849095618 0 0.063240005814886313 0.40658319209587829 0 0.071585814596931419 0.42916711849095618 0 0.063240005814886313 0.40658319209587829 0 0.075088081656536507 0.41058410832735293 0 0.075088081656536507 0.41058410832735293 0 0.071585814596931419 0.42916711849095618 0 0.082007329246870417 0.41738518600618091 0 0.061556592319121653 0.44225761358074578 0 0.059201111644200437 0.43099696977894508 0 0.071585814596931419 0.42916711849095618 0 0.07540768018483697 0.44030754071393319 0 0.061556592319121653 0.44225761358074578 0 0.071585814596931419 0.42916711849095618 0 0.059201111644200437 0.43099696977894508 0 0.058979725365252707 0.4176193763442323 0 0.071585814596931419 0.42916711849095618 0 0.07540768018483697 0.44030754071393319 0 0.071585814596931419 0.42916711849095618 0 0.08764391112498858 0.43163178618934439 0 0.071585814596931419 0.42916711849095618 0 0.08764391112498858 0.43163178618934439 0 0.082007329246870417 0.41738518600618091 0 0.08764391112498858 0.43163178618934439 0 0.082007329246870417 0.41738518600618091 0 0.094443419551670932 0.40508992778400232 0 0.08764391112498858 0.43163178618934439 0 0.094443419551670932 0.40508992778400232 0 0.080832552055978585 0.40498983155533402 0 0.075088081656536507 0.41058410832735293 0 0.082007329246870417 0.41738518600618091 0 0.080832552055978585 0.40498983155533402 0 0.082007329246870417 0.41738518600618091 0 0.094443419551670932 0.40508992778400232 0 0.08764391112498858 0.43163178618934439 0 0.1096581763989177 0.42409154504396013 0 0.094443419551670932 0.40508992778400232 0 0.1096581763989177 0.42409154504396013 0 0.11163148259572971 0.40863234267508453 0 0.094443419551670932 0.40508992778400232 0 0.1057649319772677 0.43759517983083812 0 0.08764391112498858 0.43163178618934439 0 0.1096581763989177 0.42409154504396013 0 0.1237280261196836 0.44463014715047522 0 0.1096581763989177 0.42409154504396013 0 0.13502200614688589 0.42010390008240672 0 0.1237280261196836 0.44463014715047522 0 0.1057649319772677 0.43759517983083812 0 0.1096581763989177 0.42409154504396013 0 0.11163148259572971 0.40863234267508453 0 0.1236499924648251 0.3984302041169589 0 0.13502200614688589 0.42010390008240672 0 0.1096581763989177 0.42409154504396013 0 0.11163148259572971 0.40863234267508453 0 0.13502200614688589 0.42010390008240672 0 0.11163148259572971 0.40863234267508453 0 0.1236499924648251 0.3984302041169589 0 0.10863659533572551 0.39290197353284961 0 0.10863659533572551 0.39290197353284961 0 0.114060711710889 0.37342974127053702 0 0.12550685613774351 0.37951055496914998 0 0.1236499924648251 0.3984302041169589 0 0.10863659533572551 0.39290197353284961 0 0.12550685613774351 0.37951055496914998 0 0.1012429279783533 0.37854806937866009 0 0.10863659533572551 0.39290197353284961 0 0.114060711710889 0.37342974127053702 0 0.087739402474845588 0.37833299208434412 0 0.1012429279783533 0.37854806937866009 0 0.094443419551670932 0.40508992778400232 0 0.11163148259572971 0.40863234267508453 0 0.10863659533572551 0.39290197353284961 0 0.094443419551670932 0.40508992778400232 0 0.1012429279783533 0.37854806937866009 0 0.094443419551670932 0.40508992778400232 0 0.1012429279783533 0.37854806937866009 0 0.10863659533572551 0.39290197353284961 0 0.094443419551670932 0.40508992778400232 0 0.10055213054656729 0.36013865237867942 0 0.1100489009895301 0.33374314175173209 0 0.10055213054656729 0.36013865237867942 0 0.1100489009895301 0.33374314175173209 0 0.08625589277749264 0.346999797836966 0 0.1069344999541316 0.36147573913557879 0 0.10055213054656729 0.36013865237867942 0 0.1165634558871128 0.3492406052842485 0 0.10055213054656729 0.36013865237867942 0 0.1165634558871128 0.3492406052842485 0 0.1100489009895301 0.33374314175173209 0 0.087739402474845588 0.37833299208434412 0 0.1012429279783533 0.37854806937866009 0 0.1069344999541316 0.36147573913557879 0 0.1012429279783533 0.37854806937866009 0 0.1069344999541316 0.36147573913557879 0 0.114060711710889 0.37342974127053702 0 0.1069344999541316 0.36147573913557879 0 0.10055213054656729 0.36013865237867942 0 0.081229983254247365 0.36650003300062722 0 0.1069344999541316 0.36147573913557879 0 0.081229983254247365 0.36650003300062722 0 0.114060711710889 0.37342974127053702 0 0.1326390166540157 0.35645144527053041 0 0.12550685613774351 0.37951055496914998 0 0.1069344999541316 0.36147573913557879 0 0.114060711710889 0.37342974127053702 0 0.1326390166540157 0.35645144527053041 0 0.1069344999541316 0.36147573913557879 0 0.1165634558871128 0.3492406052842485 0 0.1326390166540157 0.35645144527053041 0 0.1069344999541316 0.36147573913557879 0 0.1326390166540157 0.35645144527053041 0 0.1165634558871128 0.3492406052842485 0 0.1100489009895301 0.33374314175173209 0 0.13264273129131951 0.33439404788472138 0 0.1100489009895301 0.33374314175173209 0 0.099713977183769634 0.31807175575135088 0 0.11954567143249289 0.30734763112478491 0 0.1100489009895301 0.33374314175173209 0 0.11954567143249289 0.30734763112478491 0 0.13264273129131951 0.33439404788472138 0 0.1100489009895301 0.33374314175173209 0 0.11954567143249289 0.30734763112478491 0 0.1100489009895301 0.33374314175173209 0 0.099713977183769634 0.31807175575135088 0 0.083894735805945045 0.32735700357097808 0 0.1100489009895301 0.33374314175173209 0 0.083894735805945045 0.32735700357097808 0 0.08625589277749264 0.346999797836966 0 0.083894735805945045 0.32735700357097808 0 0.068148884279383815 0.34110740296781622 0 0.08625589277749264 0.346999797836966 0 0.099713977183769634 0.31807175575135088 0 0.083894735805945045 0.32735700357097808 0 0.079241751540062577 0.3091409184095229 0 0.083894735805945045 0.32735700357097808 0 0.067542665246266162 0.32227296773822012 0 0.079241751540062577 0.3091409184095229 0 0.067542665246266162 0.32227296773822012 0 0.068148884279383815 0.34110740296781622 0 0.052098030758102709 0.32848813316288678 0 0.083894735805945045 0.32735700357097808 0 0.067542665246266162 0.32227296773822012 0 0.068148884279383815 0.34110740296781622 0 0.068148884279383815 0.34110740296781622 0 0.072981575438615956 0.35429511825148829 0 0.08625589277749264 0.346999797836966 0 0.068148884279383815 0.34110740296781622 0 0.072981575438615956 0.35429511825148829 0 0.059971533893319953 0.35265308331869138 0 0.072981575438615956 0.35429511825148829 0 0.066555082361941326 0.36578627017444021 0 0.059971533893319953 0.35265308331869138 0 0.10055213054656729 0.36013865237867942 0 0.08625589277749264 0.346999797836966 0 0.081229983254247365 0.36650003300062722 0 0.072981575438615956 0.35429511825148829 0 0.08625589277749264 0.346999797836966 0 0.081229983254247365 0.36650003300062722 0 0.087739402474845588 0.37833299208434412 0 0.1069344999541316 0.36147573913557879 0 0.081229983254247365 0.36650003300062722 0 0.069041936002645535 0.37820082441249081 0 0.087739402474845588 0.37833299208434412 0 0.081229983254247365 0.36650003300062722 0 0.069041936002645535 0.37820082441249081 0 0.081229983254247365 0.36650003300062722 0 0.066555082361941326 0.36578627017444021 0 0.072981575438615956 0.35429511825148829 0 0.081229983254247365 0.36650003300062722 0 0.066555082361941326 0.36578627017444021 0 0.069041936002645535 0.37820082441249081 0 0.066555082361941326 0.36578627017444021 0 0.059721524030669819 0.37431687333309788 0 0.055929998057201551 0.36692607577369102 0 0.050307067216076778 0.37158640017128619 0 0.041108453413194898 0.34669476624024848 0 0.066555082361941326 0.36578627017444021 0 0.059721524030669819 0.37431687333309788 0 0.055929998057201551 0.36692607577369102 0 0.059721524030669819 0.37431687333309788 0 0.055929998057201551 0.36692607577369102 0 0.050307067216076778 0.37158640017128619 0 0.066555082361941326 0.36578627017444021 0 0.055929998057201551 0.36692607577369102 0 0.059971533893319953 0.35265308331869138 0 0.055929998057201551 0.36692607577369102 0 0.050307067216076778 0.37158640017128619 0 0.055929998057201551 0.36692607577369102 0 0.059971533893319953 0.35265308331869138 0 0.041108453413194898 0.34669476624024848 0 0.059971533893319953 0.35265308331869138 0 0.041108453413194898 0.34669476624024848 0 0.053731959496234848 0.34189436452501393 0 0.068148884279383815 0.34110740296781622 0 0.059971533893319953 0.35265308331869138 0 0.053731959496234848 0.34189436452501393 0 0.050307067216076778 0.37158640017128619 0 0.041108453413194898 0.34669476624024848 0 0.036325720293778493 0.35734230210966361 0 0.050307067216076778 0.37158640017128619 0 0.041108453413194898 0.34669476624024848 0 0.041108453413194898 0.34669476624024848 0 0.036325720293778493 0.35734230210966361 0 0.028822601092593811 0.34272768621728472 0 0.034519904376963118 0.38467091111880503 0 0.036565816098641138 0.36791040757449411 0 0.02482466364838485 0.35779225034500489 0 0.034519904376963118 0.38467091111880503 0 0.050307067216076778 0.37158640017128619 0 0.036565816098641138 0.36791040757449411 0 0.050307067216076778 0.37158640017128619 0 0.036325720293778493 0.35734230210966361 0 0.036565816098641138 0.36791040757449411 0 0.036325720293778493 0.35734230210966361 0 0.036565816098641138 0.36791040757449411 0 0.02482466364838485 0.35779225034500489 0 0.034519904376963118 0.38467091111880503 0 0.02482466364838485 0.35779225034500489 0 0.0197357255374827 0.37571737083264412 0 0.034519904376963118 0.38467091111880503 0 0.02482466364838485 0.35779225034500489 0 0.0197357255374827 0.37571737083264412 0 0.015674273695437339 0.36401306951764911 0 0.02482466364838485 0.35779225034500489 0 0.015674273695437339 0.36401306951764911 0 0.02482466364838485 0.35779225034500489 0 0.015768167676543349 0.35713923686247862 0 0.02482466364838485 0.35779225034500489 0 0.01512942291980679 0.33091358957120492 0 0.02482466364838485 0.35779225034500489 0 0.01512942291980679 0.33091358957120492 0 0.028822601092593811 0.34272768621728472 0 0.036325720293778493 0.35734230210966361 0 0.02482466364838485 0.35779225034500489 0 0.028822601092593811 0.34272768621728472 0 0.02482466364838485 0.35779225034500489 0 0.012196298529549159 0.34905700984651278 0 0.01512942291980679 0.33091358957120492 0 0.02482466364838485 0.35779225034500489 0 0.015768167676543349 0.35713923686247862 0 0.012196298529549159 0.34905700984651278 0 0.01037743483280206 0.35769461774074762 0 0.012196298529549159 0.34905700984651278 0 0.0032447233134405931 0.35422125060834359 0 0.015768167676543349 0.35713923686247862 0 0.01037743483280206 0.35769461774074762 0 0.012196298529549159 0.34905700984651278 0 -0.002583240235104544 0.34489224502179239 0 0.012196298529549159 0.34905700984651278 0 0.0065182143906638264 0.33911035096943482 0 -0.002583240235104544 0.34489224502179239 0 0.012196298529549159 0.34905700984651278 0 0.0032447233134405931 0.35422125060834359 0 0.01037743483280206 0.35769461774074762 0 0.0032447233134405931 0.35422125060834359 0 0.0039428335920915006 0.36531030276633031 0 -0.0064988099748367559 0.35299106404641623 0 0.0032447233134405931 0.35422125060834359 0 0.0039428335920915006 0.36531030276633031 0 -0.001064505034491721 0.37161458349227261 0 0.015674273695437339 0.36401306951764911 0 0.0039428335920915006 0.36531030276633031 0 -0.001064505034491721 0.37161458349227261 0 0.015674273695437339 0.36401306951764911 0 0.011110712074150059 0.37343232972227269 0 -0.001064505034491721 0.37161458349227261 0 0.015674273695437339 0.36401306951764911 0 0.0197357255374827 0.37571737083264412 0 0.015674273695437339 0.36401306951764911 0 0.011110712074150059 0.37343232972227269 0 0.015674273695437339 0.36401306951764911 0 0.01037743483280206 0.35769461774074762 0 0.0039428335920915006 0.36531030276633031 0 0.015674273695437339 0.36401306951764911 0 0.015768167676543349 0.35713923686247862 0 0.01037743483280206 0.35769461774074762 0 -0.00058836015198596755 0.32088344941533808 0 0.01512942291980679 0.33091358957120492 0 0.0054341821912287152 0.30403492879740468 0 0.01512942291980679 0.33091358957120492 0 0.0054341821912287152 0.30403492879740468 0 0.01512942291980679 0.33091358957120492 0 0.018796167632194181 0.3134157872639986 0 0.0054341821912287152 0.30403492879740468 0 0.012196298529549159 0.34905700984651278 0 0.01512942291980679 0.33091358957120492 0 0.0065182143906638264 0.33911035096943482 0 -0.0025616559074486049 0.3329031852911295 0 -0.00058836015198596755 0.32088344941533808 0 0.01512942291980679 0.33091358957120492 0 -0.0025616559074486049 0.3329031852911295 0 0.01512942291980679 0.33091358957120492 0 0.0065182143906638264 0.33911035096943482 0 -0.0025616559074486049 0.3329031852911295 0 -0.002583240235104544 0.34489224502179239 0 0.0065182143906638264 0.33911035096943482 0 0.01512942291980679 0.33091358957120492 0 0.028822601092593811 0.34272768621728472 0 0.031909839610312053 0.3218031323092112 0 0.01512942291980679 0.33091358957120492 0 0.018796167632194181 0.3134157872639986 0 0.031909839610312053 0.3218031323092112 0 0.031909839610312053 0.3218031323092112 0 0.052098030758102709 0.32848813316288678 0 0.054329923847836643 0.30527138057989611 0 0.041108453413194898 0.34669476624024848 0 0.031909839610312053 0.3218031323092112 0 0.041108453413194898 0.34669476624024848 0 0.028822601092593811 0.34272768621728472 0 0.031909839610312053 0.3218031323092112 0 0.041108453413194898 0.34669476624024848 0 0.031909839610312053 0.3218031323092112 0 0.052098030758102709 0.32848813316288678 0 0.041108453413194898 0.34669476624024848 0 0.052098030758102709 0.32848813316288678 0 0.053731959496234848 0.34189436452501393 0 0.068148884279383815 0.34110740296781622 0 0.052098030758102709 0.32848813316288678 0 0.053731959496234848 0.34189436452501393 0 0.067542665246266162 0.32227296773822012 0 0.052098030758102709 0.32848813316288678 0 0.054329923847836643 0.30527138057989611 0 0.054329923847836643 0.30527138057989611 0 0.058643640903709077 0.2841886380467647 0 0.070108093408202884 0.28237758711201172 0 0.054329923847836643 0.30527138057989611 0 0.058643640903709077 0.2841886380467647 0 0.046708945964444748 0.28470371633566799 0 0.054329923847836643 0.30527138057989611 0 0.070108093408202884 0.28237758711201172 0 0.033299114928103571 0.2853556706935409 0 0.038381760441483573 0.30030485014671859 0 0.022711225807429191 0.29691149837817382 0 0.054329923847836643 0.30527138057989611 0 0.046708945964444748 0.28470371633566799 0 0.038381760441483573 0.30030485014671859 0 0.046708945964444748 0.28470371633566799 0 0.033299114928103571 0.2853556706935409 0 0.038381760441483573 0.30030485014671859 0 0.031909839610312053 0.3218031323092112 0 0.054329923847836643 0.30527138057989611 0 0.038381760441483573 0.30030485014671859 0 0.031909839610312053 0.3218031323092112 0 0.022711225807429191 0.29691149837817382 0 0.018796167632194181 0.3134157872639986 0 0.031909839610312053 0.3218031323092112 0 0.022711225807429191 0.29691149837817382 0 0.018796167632194181 0.3134157872639986 0 0.022711225807429191 0.29691149837817382 0 0.0054341821912287152 0.30403492879740468 0 0.031909839610312053 0.3218031323092112 0 0.038381760441483573 0.30030485014671859 0 0.022711225807429191 0.29691149837817382 0 0.022711225807429191 0.29691149837817382 0 0.0097135815956244098 0.28932323485025419 0 0.01496997692118909 0.27919024420183391 0 0.033299114928103571 0.2853556706935409 0 0.022711225807429191 0.29691149837817382 0 0.01496997692118909 0.27919024420183391 0 -0.0042610585373493576 0.2771562680236046 0 0.0097135815956244098 0.28932323485025419 0 0.01496997692118909 0.27919024420183391 0 -0.0042610585373493576 0.2771562680236046 0 0.0097135815956244098 0.28932323485025419 0 0.0054341821912287152 0.30403492879740468 0 0.022711225807429191 0.29691149837817382 0 0.0097135815956244098 0.28932323485025419 0 0.0054341821912287152 0.30403492879740468 0 -0.0042610585373493576 0.2771562680236046 0 0.0054341821912287152 0.30403492879740468 0 0.012156823249103331 0.25259817100369902 0 0.0071094060709509964 0.26564087220093879 0 0.023079021189564172 0.26593697868694532 0 -0.0082457657602449386 0.25246627485226031 0 0.012156823249103331 0.25259817100369902 0 0.0071094060709509964 0.26564087220093879 0 0.0071094060709509964 0.26564087220093879 0 0.01496997692118909 0.27919024420183391 0 0.023079021189564172 0.26593697868694532 0 -0.0042610585373493576 0.2771562680236046 0 0.0071094060709509964 0.26564087220093879 0 0.01496997692118909 0.27919024420183391 0 0.033299114928103571 0.2853556706935409 0 0.01496997692118909 0.27919024420183391 0 0.023079021189564172 0.26593697868694532 0 0.012156823249103331 0.25259817100369902 0 0.023079021189564172 0.26593697868694532 0 0.030652172791378579 0.25229956247347313 0 0.023079021189564172 0.26593697868694532 0 0.030652172791378579 0.25229956247347313 0 0.04073495957405681 0.26035892983227987 0 0.044937254539659167 0.2379713478153713 0 0.030652172791378579 0.25229956247347313 0 0.04073495957405681 0.26035892983227987 0 0.033299114928103571 0.2853556706935409 0 0.023079021189564172 0.26593697868694532 0 0.04073495957405681 0.26035892983227987 0 0.033299114928103571 0.2853556706935409 0 0.04073495957405681 0.26035892983227987 0 0.046708945964444748 0.28470371633566799 0 0.033299114928103571 0.2853556706935409 0 0.04073495957405681 0.26035892983227987 0 0.046708945964444748 0.28470371633566799 0 0.04073495957405681 0.26035892983227987 0 0.054656664038459993 0.27221644551962948 0 0.058643640903709077 0.2841886380467647 0 0.046708945964444748 0.28470371633566799 0 0.054656664038459993 0.27221644551962948 0 0.054656664038459993 0.27221644551962948 0 0.05595459183600883 0.25980758553240452 0 0.063151913248908592 0.26702092668087168 0 0.054656664038459993 0.27221644551962948 0 0.063151913248908592 0.26702092668087168 0 0.062868354845155253 0.27542318723842002 0 0.058643640903709077 0.2841886380467647 0 0.054656664038459993 0.27221644551962948 0 0.062868354845155253 0.27542318723842002 0 0.058643640903709077 0.2841886380467647 0 0.062868354845155253 0.27542318723842002 0 0.06481936793225318 0.27971168374165578 0 0.052294646587479003 0.2493466198794505 0 0.04073495957405681 0.26035892983227987 0 0.05595459183600883 0.25980758553240452 0 0.04073495957405681 0.26035892983227987 0 0.054656664038459993 0.27221644551962948 0 0.05595459183600883 0.25980758553240452 0 0.05595459183600883 0.25980758553240452 0 0.066495423171073403 0.25816184380531082 0 0.063151913248908592 0.26702092668087168 0 0.052294646587479003 0.2493466198794505 0 0.05595459183600883 0.25980758553240452 0 0.06034442261467237 0.25120339486286308 0 0.05595459183600883 0.25980758553240452 0 0.06034442261467237 0.25120339486286308 0 0.066495423171073403 0.25816184380531082 0 0.067445722382230539 0.24771064348785149 0 0.066495423171073403 0.25816184380531082 0 0.074707437689247702 0.25389633834412328 0 0.067445722382230539 0.24771064348785149 0 0.06034442261467237 0.25120339486286308 0 0.066495423171073403 0.25816184380531082 0 0.066495423171073403 0.25816184380531082 0 0.070468357435777063 0.2657419037057816 0 0.063151913248908592 0.26702092668087168 0 0.066495423171073403 0.25816184380531082 0 0.074357597956477339 0.26064435546358339 0 0.070468357435777063 0.2657419037057816 0 0.074357597956477339 0.26064435546358339 0 0.075194191089397802 0.26640127341757941 0 0.070468357435777063 0.2657419037057816 0 0.074357597956477339 0.26064435546358339 0 0.080427883817154544 0.25791465254204288 0 0.078852294536213494 0.26175012096666261 0 0.074357597956477339 0.26064435546358339 0 0.078852294536213494 0.26175012096666261 0 0.075194191089397802 0.26640127341757941 0 0.066495423171073403 0.25816184380531082 0 0.074357597956477339 0.26064435546358339 0 0.074707437689247702 0.25389633834412328 0 0.074357597956477339 0.26064435546358339 0 0.074707437689247702 0.25389633834412328 0 0.080427883817154544 0.25791465254204288 0 0.085975255819246227 0.24304742420893821 0 0.080478695998155714 0.25165019938018113 0 0.085886262968569133 0.25948379364412733 0 0.080478695998155714 0.25165019938018113 0 0.080427883817154544 0.25791465254204288 0 0.085886262968569133 0.25948379364412733 0 0.10166443252893551 0.23659000017624271 0 0.085886262968569133 0.25948379364412733 0 0.093061372415253377 0.25945310375487363 0 0.074707437689247702 0.25389633834412328 0 0.080478695998155714 0.25165019938018113 0 0.080427883817154544 0.25791465254204288 0 0.078852294536213494 0.26175012096666261 0 0.085886262968569133 0.25948379364412733 0 0.075194191089397802 0.26640127341757941 0 0.080427883817154544 0.25791465254204288 0 0.078852294536213494 0.26175012096666261 0 0.085886262968569133 0.25948379364412733 0 0.093061372415253377 0.25945310375487363 0 0.088669334409182038 0.27365465257629329 0 0.074192652952093263 0.28111713417870732 0 0.093061372415253377 0.25945310375487363 0 0.074192652952093263 0.28111713417870732 0 0.085886262968569133 0.25948379364412733 0 0.093061372415253377 0.25945310375487363 0 0.074192652952093263 0.28111713417870732 0 0.088669334409182038 0.27365465257629329 0 0.090629520296699906 0.27989165378522829 0 0.096617072050330918 0.27420358010706619 0 0.088669334409182038 0.27365465257629329 0 0.090629520296699906 0.27989165378522829 0 0.083300485689734874 0.28178689503457671 0 0.093061372415253377 0.25945310375487363 0 0.088669334409182038 0.27365465257629329 0 0.097208854645582696 0.26674380090640232 0 0.088669334409182038 0.27365465257629329 0 0.074192652952093263 0.28111713417870732 0 0.083300485689734874 0.28178689503457671 0 0.085886262968569133 0.25948379364412733 0 0.072732619288592745 0.27411268144752271 0 0.070108093408202884 0.28237758711201172 0 0.085886262968569133 0.25948379364412733 0 0.074192652952093263 0.28111713417870732 0 0.070108093408202884 0.28237758711201172 0 0.085886262968569133 0.25948379364412733 0 0.070108093408202884 0.28237758711201172 0 0.085886262968569133 0.25948379364412733 0 0.072732619288592745 0.27411268144752271 0 0.075194191089397802 0.26640127341757941 0 0.072732619288592745 0.27411268144752271 0 0.075194191089397802 0.26640127341757941 0 0.068678803079962825 0.27092621584326698 0 0.075194191089397802 0.26640127341757941 0 0.070468357435777063 0.2657419037057816 0 0.068678803079962825 0.27092621584326698 0 0.068678803079962825 0.27092621584326698 0 0.063151913248908592 0.26702092668087168 0 0.062868354845155253 0.27542318723842002 0 0.070468357435777063 0.2657419037057816 0 0.068678803079962825 0.27092621584326698 0 0.063151913248908592 0.26702092668087168 0 0.072732619288592745 0.27411268144752271 0 0.067657382571945521 0.27685732256942691 0 0.070108093408202884 0.28237758711201172 0 0.067657382571945521 0.27685732256942691 0 0.06481936793225318 0.27971168374165578 0 0.070108093408202884 0.28237758711201172 0 0.072732619288592745 0.27411268144752271 0 0.068678803079962825 0.27092621584326698 0 0.067657382571945521 0.27685732256942691 0 0.067657382571945521 0.27685732256942691 0 0.062868354845155253 0.27542318723842002 0 0.06481936793225318 0.27971168374165578 0 0.068678803079962825 0.27092621584326698 0 0.067657382571945521 0.27685732256942691 0 0.062868354845155253 0.27542318723842002 0 0.058643640903709077 0.2841886380467647 0 0.06481936793225318 0.27971168374165578 0 0.070108093408202884 0.28237758711201172 0 0.054329923847836643 0.30527138057989611 0 0.070108093408202884 0.28237758711201172 0 0.07616196246918229 0.29401120062856562 0 0.070108093408202884 0.28237758711201172 0 0.07616196246918229 0.29401120062856562 0 0.077305327314718786 0.28670206069564769 0 0.074192652952093263 0.28111713417870732 0 0.070108093408202884 0.28237758711201172 0 0.077305327314718786 0.28670206069564769 0 0.054329923847836643 0.30527138057989611 0 0.07616196246918229 0.29401120062856562 0 0.079241751540062577 0.3091409184095229 0 0.067542665246266162 0.32227296773822012 0 0.054329923847836643 0.30527138057989611 0 0.079241751540062577 0.3091409184095229 0 0.07616196246918229 0.29401120062856562 0 0.079241751540062577 0.3091409184095229 0 0.093760017070794913 0.30048783451418309 0 0.099713977183769634 0.31807175575135088 0 0.079241751540062577 0.3091409184095229 0 0.093760017070794913 0.30048783451418309 0 0.07616196246918229 0.29401120062856562 0 0.086675975183887061 0.28808357667035972 0 0.093760017070794913 0.30048783451418309 0 0.074192652952093263 0.28111713417870732 0 0.077305327314718786 0.28670206069564769 0 0.083300485689734874 0.28178689503457671 0 0.077305327314718786 0.28670206069564769 0 0.083300485689734874 0.28178689503457671 0 0.086675975183887061 0.28808357667035972 0 0.07616196246918229 0.29401120062856562 0 0.077305327314718786 0.28670206069564769 0 0.086675975183887061 0.28808357667035972 0 0.090629520296699906 0.27989165378522829 0 0.083300485689734874 0.28178689503457671 0 0.086675975183887061 0.28808357667035972 0 0.090629520296699906 0.27989165378522829 0 0.086675975183887061 0.28808357667035972 0 0.1012207646153751 0.28627192450051492 0 0.086675975183887061 0.28808357667035972 0 0.1012207646153751 0.28627192450051492 0 0.093760017070794913 0.30048783451418309 0 0.099713977183769634 0.31807175575135088 0 0.093760017070794913 0.30048783451418309 0 0.11954567143249289 0.30734763112478491 0 0.1012207646153751 0.28627192450051492 0 0.093760017070794913 0.30048783451418309 0 0.11954567143249289 0.30734763112478491 0 0.11954567143249289 0.30734763112478491 0 0.1141818460752707 0.27714397317686529 0 0.12904244187545569 0.2809521204978378 0 0.1012207646153751 0.28627192450051492 0 0.11954567143249289 0.30734763112478491 0 0.1141818460752707 0.27714397317686529 0 0.11954567143249289 0.30734763112478491 0 0.12904244187545569 0.2809521204978378 0 0.1141818460752707 0.27714397317686529 0 0.11615378911320511 0.26032519799560372 0 0.1048644735931679 0.26655228778042589 0 0.1141818460752707 0.27714397317686529 0 0.11615378911320511 0.26032519799560372 0 0.12904244187545569 0.2809521204978378 0 0.1152979079485152 0.2467056018988516 0 0.1250676346401875 0.24796443701554319 0 0.11615378911320511 0.26032519799560372 0 0.1152979079485152 0.2467056018988516 0 0.11615378911320511 0.26032519799560372 0 0.10650461767427161 0.25132517155921902 0 0.11615378911320511 0.26032519799560372 0 0.1028320207599793 0.25985538031335248 0 0.1048644735931679 0.26655228778042589 0 0.1028320207599793 0.25985538031335248 0 0.097208854645582696 0.26674380090640232 0 0.1048644735931679 0.26655228778042589 0 0.11615378911320511 0.26032519799560372 0 0.1028320207599793 0.25985538031335248 0 0.10650461767427161 0.25132517155921902 0 0.093061372415253377 0.25945310375487363 0 0.1028320207599793 0.25985538031335248 0 0.10650461767427161 0.25132517155921902 0 0.093061372415253377 0.25945310375487363 0 0.1028320207599793 0.25985538031335248 0 0.097208854645582696 0.26674380090640232 0 0.088669334409182038 0.27365465257629329 0 0.097208854645582696 0.26674380090640232 0 0.096617072050330918 0.27420358010706619 0 0.097208854645582696 0.26674380090640232 0 0.096617072050330918 0.27420358010706619 0 0.1048644735931679 0.26655228778042589 0 0.1141818460752707 0.27714397317686529 0 0.096617072050330918 0.27420358010706619 0 0.1048644735931679 0.26655228778042589 0 0.1012207646153751 0.28627192450051492 0 0.1141818460752707 0.27714397317686529 0 0.096617072050330918 0.27420358010706619 0 0.090629520296699906 0.27989165378522829 0 0.1012207646153751 0.28627192450051492 0 0.096617072050330918 0.27420358010706619 0 0.1384713120865835 0.25773302092121009 0 0.12904244187545569 0.2809521204978378 0 0.15915390062653459 0.27760612704708998 0 0.1514273965657848 0.24085309905483679 0 0.1384713120865835 0.25773302092121009 0 0.156278998070083 0.25778272565978 0 0.1384713120865835 0.25773302092121009 0 0.15915390062653459 0.27760612704708998 0 0.156278998070083 0.25778272565978 0 0.1250676346401875 0.24796443701554319 0 0.11615378911320511 0.26032519799560372 0 0.1384713120865835 0.25773302092121009 0 0.11615378911320511 0.26032519799560372 0 0.1384713120865835 0.25773302092121009 0 0.12904244187545569 0.2809521204978378 0 0.11954567143249289 0.30734763112478491 0 0.12904244187545569 0.2809521204978378 0 0.14488164426314301 0.29594920495010729 0 0.11954567143249289 0.30734763112478491 0 0.14488164426314301 0.29594920495010729 0 0.15139514334923471 0.31791608062108467 0 0.14488164426314301 0.29594920495010729 0 0.16637322996135739 0.30016678813796199 0 0.15139514334923471 0.31791608062108467 0 0.12904244187545569 0.2809521204978378 0 0.14488164426314301 0.29594920495010729 0 0.15915390062653459 0.27760612704708998 0 0.14488164426314301 0.29594920495010729 0 0.16637322996135739 0.30016678813796199 0 0.15915390062653459 0.27760612704708998 0 0.16637322996135739 0.30016678813796199 0 0.18265278236186541 0.28020603593405619 0 0.15915390062653459 0.27760612704708998 0 0.16637322996135739 0.30016678813796199 0 0.18588027836364171 0.30417070427619303 0 0.17427563080372541 0.32515257599924119 0 0.16637322996135739 0.30016678813796199 0 0.18588027836364171 0.30417070427619303 0 0.18265278236186541 0.28020603593405619 0 0.18265278236186541 0.28020603593405619 0 0.15915390062653459 0.27760612704708998 0 0.17660728565697029 0.25284173787090108 0 0.18265278236186541 0.28020603593405619 0 0.17660728565697029 0.25284173787090108 0 0.20178717474815569 0.26483037668696541 0 0.1514273965657848 0.24085309905483679 0 0.156278998070083 0.25778272565978 0 0.17660728565697029 0.25284173787090108 0 0.15915390062653459 0.27760612704708998 0 0.156278998070083 0.25778272565978 0 0.17660728565697029 0.25284173787090108 0 0.1971008006350988 0.24422433182354611 0 0.17660728565697029 0.25284173787090108 0 0.20178717474815569 0.26483037668696541 0 0.17660728565697029 0.25284173787090108 0 0.20178717474815569 0.26483037668696541 0 0.18265278236186541 0.28020603593405619 0 0.20178717474815569 0.26483037668696541 0 0.20721699074389299 0.28586320426344869 0 0.20178717474815569 0.26483037668696541 0 0.22696706383934109 0.27681901550302962 0 0.20721699074389299 0.28586320426344869 0 0.20178717474815569 0.26483037668696541 0 0.22696706383934109 0.27681901550302962 0 0.1971008006350988 0.24422433182354611 0 0.20178717474815569 0.26483037668696541 0 0.2257125065402284 0.25431107802280528 0 0.20178717474815569 0.26483037668696541 0 0.2257125065402284 0.25431107802280528 0 0.22696706383934109 0.27681901550302962 0 0.2257125065402284 0.25431107802280528 0 0.23435940432808119 0.2558835225658645 0 0.2376751292839718 0.27741240132337408 0 0.2257125065402284 0.25431107802280528 0 0.22696706383934109 0.27681901550302962 0 0.2376751292839718 0.27741240132337408 0 0.2257125065402284 0.25431107802280528 0 0.2376751292839718 0.27741240132337408 0 0.22696706383934109 0.27681901550302962 0 0.2376751292839718 0.27741240132337408 0 0.2318681827461313 0.28775992326468519 0 0.23435940432808119 0.2558835225658645 0 0.2434397278092077 0.27846069768541332 0 0.2376751292839718 0.27741240132337408 0 0.23435940432808119 0.2558835225658645 0 0.2434397278092077 0.27846069768541332 0 0.23435940432808119 0.2558835225658645 0 0.2434397278092077 0.27846069768541332 0 0.24763005152173001 0.25910176257370959 0 0.2459873280094696 0.23707215699401071 0 0.23435940432808119 0.2558835225658645 0 0.24763005152173001 0.25910176257370959 0 0.24963775202771521 0.30051372462394288 0 0.22557231514573739 0.29747977878921561 0 0.2305146992996441 0.31691702429977642 0 0.2376751292839718 0.27741240132337408 0 0.24963775202771521 0.30051372462394288 0 0.2318681827461313 0.28775992326468519 0 0.2434397278092077 0.27846069768541332 0 0.25252005129033422 0.30103787280496203 0 0.2434397278092077 0.27846069768541332 0 0.2376751292839718 0.27741240132337408 0 0.24963775202771521 0.30051372462394288 0 0.2434397278092077 0.27846069768541332 0 0.24963775202771521 0.30051372462394288 0 0.25252005129033422 0.30103787280496203 0 0.24963775202771521 0.30051372462394288 0 0.2318681827461313 0.28775992326468519 0 0.22557231514573739 0.29747977878921561 0 0.2376751292839718 0.27741240132337408 0 0.24963775202771521 0.30051372462394288 0 0.22696706383934109 0.27681901550302962 0 0.2318681827461313 0.28775992326468519 0 0.22192971392309441 0.28686454206331458 0 0.2318681827461313 0.28775992326468519 0 0.22192971392309441 0.28686454206331458 0 0.22557231514573739 0.29747977878921561 0 0.22557231514573739 0.29747977878921561 0 0.21067009246602381 0.31050760251916348 0 0.2305146992996441 0.31691702429977642 0 0.22557231514573739 0.29747977878921561 0 0.2305146992996441 0.31691702429977642 0 0.22557231514573739 0.29747977878921561 0 0.21067009246602381 0.31050760251916348 0 0.20721699074389299 0.28586320426344869 0 0.22192971392309441 0.28686454206331458 0 0.22557231514573739 0.29747977878921561 0 0.20721699074389299 0.28586320426344869 0 0.22696706383934109 0.27681901550302962 0 0.22192971392309441 0.28686454206331458 0 0.20721699074389299 0.28586320426344869 0 0.18588027836364171 0.30417070427619303 0 0.18265278236186541 0.28020603593405619 0 0.20721699074389299 0.28586320426344869 0 0.18588027836364171 0.30417070427619303 0 0.21067009246602381 0.31050760251916348 0 0.20721699074389299 0.28586320426344869 0 0.18588027836364171 0.30417070427619303 0 0.21067009246602381 0.31050760251916348 0 0.1975742485098208 0.32622361772240582 0 0.1975742485098208 0.32622361772240582 0 0.2097525667536678 0.34137856367538538 0 0.18404805005378369 0.34640285754043382 0 0.1975742485098208 0.32622361772240582 0 0.2097525667536678 0.34137856367538538 0 0.2167937380965417 0.3262762156054137 0 0.21067009246602381 0.31050760251916348 0 0.1975742485098208 0.32622361772240582 0 0.2167937380965417 0.3262762156054137 0 0.21067009246602381 0.31050760251916348 0 0.2167937380965417 0.3262762156054137 0 0.2305146992996441 0.31691702429977642 0 0.2305146992996441 0.31691702429977642 0 0.2354570834535519 0.33635426981033711 0 0.2167937380965417 0.3262762156054137 0 0.2305146992996441 0.31691702429977642 0 0.2354570834535519 0.33635426981033711 0 0.2097525667536678 0.34137856367538538 0 0.2167937380965417 0.3262762156054137 0 0.2354570834535519 0.33635426981033711 0 0.2097525667536678 0.34137856367538538 0 0.2354570834535519 0.33635426981033711 0 0.2097525667536678 0.34137856367538538 0 0.2354570834535519 0.33635426981033711 0 0.22572342153310379 0.35183723080414581 0 0.2354570834535519 0.33635426981033711 0 0.24833100513142109 0.32161764704062729 0 0.26518788721623437 0.33054298393043219 0 0.24963775202771521 0.30051372462394288 0 0.2305146992996441 0.31691702429977642 0 0.24833100513142109 0.32161764704062729 0 0.2305146992996441 0.31691702429977642 0 0.2354570834535519 0.33635426981033711 0 0.24833100513142109 0.32161764704062729 0 0.2354570834535519 0.33635426981033711 0 0.24217950803475169 0.36279199964721098 0 0.25397109136889212 0.34953950795812871 0 0.2354570834535519 0.33635426981033711 0 0.24217950803475169 0.36279199964721098 0 0.22572342153310379 0.35183723080414581 0 0.2354570834535519 0.33635426981033711 0 0.24217950803475169 0.36279199964721098 0 0.24217950803475169 0.36279199964721098 0 0.22572342153310379 0.35183723080414581 0 0.21637712922286109 0.36651385017664678 0 0.24217950803475169 0.36279199964721098 0 0.21637712922286109 0.36651385017664678 0 0.22693728272114971 0.38251641872149622 0 0.2097525667536678 0.34137856367538538 0 0.22572342153310379 0.35183723080414581 0 0.21637712922286109 0.36651385017664678 0 0.2097525667536678 0.34137856367538538 0 0.21637712922286109 0.36651385017664678 0 0.19198276408895759 0.36846918068195189 0 0.2097525667536678 0.34137856367538538 0 0.19198276408895759 0.36846918068195189 0 0.18404805005378369 0.34640285754043382 0 0.2097525667536678 0.34137856367538538 0 0.18404805005378369 0.34640285754043382 0 0.21637712922286109 0.36651385017664678 0 0.19198276408895759 0.36846918068195189 0 0.2008438189570996 0.38963870543367402 0 0.1583435333538997 0.35142715140548209 0 0.18404805005378369 0.34640285754043382 0 0.17157629822801171 0.38002160271682978 0 0.19198276408895759 0.36846918068195189 0 0.18404805005378369 0.34640285754043382 0 0.17157629822801171 0.38002160271682978 0 0.1583435333538997 0.35142715140548209 0 0.14756927440754089 0.37573381366887992 0 0.17157629822801171 0.38002160271682978 0 0.1583435333538997 0.35142715140548209 0 0.18404805005378369 0.34640285754043382 0 0.1583435333538997 0.35142715140548209 0 0.17427563080372541 0.32515257599924119 0 0.15139514334923471 0.31791608062108467 0 0.1975742485098208 0.32622361772240582 0 0.18404805005378369 0.34640285754043382 0 0.17427563080372541 0.32515257599924119 0 0.1583435333538997 0.35142715140548209 0 0.18404805005378369 0.34640285754043382 0 0.17427563080372541 0.32515257599924119 0 0.18588027836364171 0.30417070427619303 0 0.1975742485098208 0.32622361772240582 0 0.17427563080372541 0.32515257599924119 0 0.16637322996135739 0.30016678813796199 0 0.17427563080372541 0.32515257599924119 0 0.15139514334923471 0.31791608062108467 0 0.1583435333538997 0.35142715140548209 0 0.15139514334923471 0.31791608062108467 0 0.13264273129131951 0.33439404788472138 0 0.11954567143249289 0.30734763112478491 0 0.15139514334923471 0.31791608062108467 0 0.13264273129131951 0.33439404788472138 0 0.1165634558871128 0.3492406052842485 0 0.13264273129131951 0.33439404788472138 0 0.1326390166540157 0.35645144527053041 0 0.1326390166540157 0.35645144527053041 0 0.14756927440754089 0.37573381366887992 0 0.12550685613774351 0.37951055496914998 0 0.1583435333538997 0.35142715140548209 0 0.1326390166540157 0.35645144527053041 0 0.14756927440754089 0.37573381366887992 0 0.1583435333538997 0.35142715140548209 0 0.1326390166540157 0.35645144527053041 0 0.1583435333538997 0.35142715140548209 0 0.13264273129131951 0.33439404788472138 0 0.1326390166540157 0.35645144527053041 0 0.1528019220027558 0.40532518960412911 0 0.14756927440754089 0.37573381366887992 0 0.13567422075440499 0.38715007620423969 0 0.14756927440754089 0.37573381366887992 0 0.12550685613774351 0.37951055496914998 0 0.13567422075440499 0.38715007620423969 0 0.1236499924648251 0.3984302041169589 0 0.12550685613774351 0.37951055496914998 0 0.13567422075440499 0.38715007620423969 0 0.1236499924648251 0.3984302041169589 0 0.1528019220027558 0.40532518960412911 0 0.13567422075440499 0.38715007620423969 0 0.1528019220027558 0.40532518960412911 0 0.13502200614688589 0.42010390008240672 0 0.17098438647877001 0.42850314348833868 0 0.13502200614688589 0.42010390008240672 0 0.17098438647877001 0.42850314348833868 0 0.1532788809183856 0.44756588495706878 0 0.1236499924648251 0.3984302041169589 0 0.1528019220027558 0.40532518960412911 0 0.13502200614688589 0.42010390008240672 0 0.1237280261196836 0.44463014715047522 0 0.13502200614688589 0.42010390008240672 0 0.1532788809183856 0.44756588495706878 0 0.1528019220027558 0.40532518960412911 0 0.17098438647877001 0.42850314348833868 0 0.1528019220027558 0.40532518960412911 0 0.17098438647877001 0.42850314348833868 0 0.17902253221663289 0.40492788695933207 0 0.17098438647877001 0.42850314348833868 0 0.19890623541652749 0.42115079355368912 0 0.18916685095478419 0.4516810973725483 0 0.17098438647877001 0.42850314348833868 0 0.17902253221663289 0.40492788695933207 0 0.19890623541652749 0.42115079355368912 0 0.17902253221663289 0.40492788695933207 0 0.17157629822801171 0.38002160271682978 0 0.2008438189570996 0.38963870543367402 0 0.1528019220027558 0.40532518960412911 0 0.17902253221663289 0.40492788695933207 0 0.17157629822801171 0.38002160271682978 0 0.1528019220027558 0.40532518960412911 0 0.14756927440754089 0.37573381366887992 0 0.17157629822801171 0.38002160271682978 0 0.17902253221663289 0.40492788695933207 0 0.2008438189570996 0.38963870543367402 0 0.19890623541652749 0.42115079355368912 0 0.19198276408895759 0.36846918068195189 0 0.17157629822801171 0.38002160271682978 0 0.2008438189570996 0.38963870543367402 0 0.2008438189570996 0.38963870543367402 0 0.22638402477508329 0.40440780886586492 0 0.19890623541652749 0.42115079355368912 0 0.2008438189570996 0.38963870543367402 0 0.22693728272114971 0.38251641872149622 0 0.22638402477508329 0.40440780886586492 0 0.21637712922286109 0.36651385017664678 0 0.2008438189570996 0.38963870543367402 0 0.22693728272114971 0.38251641872149622 0 0.22693728272114971 0.38251641872149622 0 0.22638402477508329 0.40440780886586492 0 0.24890193261595259 0.38922972948408457 0 0.22638402477508329 0.40440780886586492 0 0.24890193261595259 0.38922972948408457 0 0.25562435719715348 0.41566745932095828 0 0.24217950803475169 0.36279199964721098 0 0.24890193261595259 0.38922972948408457 0 0.24217950803475169 0.36279199964721098 0 0.22693728272114971 0.38251641872149622 0 0.24890193261595259 0.38922972948408457 0 0.22638402477508329 0.40440780886586492 0 0.23929670148200641 0.42651558303428039 0 0.25562435719715348 0.41566745932095828 0 0.22638402477508329 0.40440780886586492 0 0.23929670148200641 0.42651558303428039 0 0.21947817947708001 0.42577831055793047 0 0.23929670148200641 0.42651558303428039 0 0.21947817947708001 0.42577831055793047 0 0.23265016418236131 0.44461914726881641 0 0.21947817947708001 0.42577831055793047 0 0.19890623541652749 0.42115079355368912 0 0.21144352365240529 0.44700262568134053 0 0.22638402477508329 0.40440780886586492 0 0.21947817947708001 0.42577831055793047 0 0.19890623541652749 0.42115079355368912 0 0.19890623541652749 0.42115079355368912 0 0.18916685095478419 0.4516810973725483 0 0.21144352365240529 0.44700262568134053 0 0.18916685095478419 0.4516810973725483 0 0.20734931543079829 0.47485905125675792 0 0.18916685095478419 0.4516810973725483 0 0.21144352365240529 0.44700262568134053 0 0.20734931543079829 0.47485905125675792 0 0.21144352365240529 0.44700262568134053 0 0.22111039645288069 0.46392735407830132 0 0.20734931543079829 0.47485905125675792 0 0.21144352365240529 0.44700262568134053 0 0.23265016418236131 0.44461914726881641 0 0.22111039645288069 0.46392735407830132 0 0.21947817947708001 0.42577831055793047 0 0.21144352365240529 0.44700262568134053 0 0.23265016418236131 0.44461914726881641 0 0.23265016418236131 0.44461914726881641 0 0.22111039645288069 0.46392735407830132 0 0.24508980140621781 0.46623513653650361 0 0.22111039645288069 0.46392735407830132 0 0.24508980140621781 0.46623513653650361 0 0.23265016418236131 0.44461914726881641 0 0.24508980140621781 0.46623513653650361 0 0.26234678177835441 0.44210518915783192 0 0.23929670148200641 0.42651558303428039 0 0.23265016418236131 0.44461914726881641 0 0.26234678177835441 0.44210518915783192 0 0.2479606543192433 0.5 0 0.23772208332050199 0.48786840683281429 0 0.2255317799068125 0.49803700514096738 0 0.2479606543192433 0.5 0 0.23772208332050199 0.48786840683281429 0 0.25513941322049821 0.48355515434954122 0 0.24508980140621781 0.46623513653650361 0 0.23688712964706901 0.4763018139788181 0 0.25513941322049821 0.48355515434954122 0 0.23772208332050199 0.48786840683281429 0 0.23688712964706901 0.4763018139788181 0 0.25513941322049821 0.48355515434954122 0 0.22111039645288069 0.46392735407830132 0 0.23688712964706901 0.4763018139788181 0 0.22537395383524639 0.47992301809693011 0 0.22537395383524639 0.47992301809693011 0 0.2255317799068125 0.49803700514096738 0 0.20734931543079829 0.47485905125675792 0 0.23772208332050199 0.48786840683281429 0 0.23688712964706901 0.4763018139788181 0 0.22537395383524639 0.47992301809693011 0 0.22111039645288069 0.46392735407830132 0 0.24508980140621781 0.46623513653650361 0 0.23688712964706901 0.4763018139788181 0 0.23772208332050199 0.48786840683281429 0 0.22537395383524639 0.47992301809693011 0 0.2255317799068125 0.49803700514096738 0 0.2479606543192433 0.5 0 0.21885338771805021 0.5 0 0.2255317799068125 0.49803700514096738 0 0.21885338771805021 0.5 0 0.2255317799068125 0.49803700514096738 0 0.20734931543079829 0.47485905125675792 0 0.21885338771805021 0.5 0 0.20734931543079829 0.47485905125675792 0 0.1897461211168571 0.5 0 0.2255317799068125 0.49803700514096738 0 0.20734931543079829 0.47485905125675792 0 0.22111039645288069 0.46392735407830132 0 0.22537395383524639 0.47992301809693011 0 0.20734931543079829 0.47485905125675792 0 0.18916685095478419 0.4516810973725483 0 0.20734931543079829 0.47485905125675792 0 0.18375498264642379 0.4799820804674747 0 0.20734931543079829 0.47485905125675792 0 0.1897461211168571 0.5 0 0.18375498264642379 0.4799820804674747 0 0.1897461211168571 0.5 0 0.1606388545156639 0.5 0 0.18375498264642379 0.4799820804674747 0 0.1606388545156639 0.5 0 0.16284299929429041 0.47286735670979418 0 0.18375498264642379 0.4799820804674747 0 0.17098438647877001 0.42850314348833868 0 0.18916685095478419 0.4516810973725483 0 0.1532788809183856 0.44756588495706878 0 0.18916685095478419 0.4516810973725483 0 0.16284299929429041 0.47286735670979418 0 0.18375498264642379 0.4799820804674747 0 0.18916685095478419 0.4516810973725483 0 0.16284299929429041 0.47286735670979418 0 0.1532788809183856 0.44756588495706878 0 0.17098438647877001 0.42850314348833868 0 0.18916685095478419 0.4516810973725483 0 0.16284299929429041 0.47286735670979418 0 0.1532788809183856 0.44756588495706878 0 0.13792901651589951 0.46760966493884959 0 0.1160915578241386 0.4641835533930308 0 0.1237280261196836 0.44463014715047522 0 0.13792901651589951 0.46760966493884959 0 0.1237280261196836 0.44463014715047522 0 0.1532788809183856 0.44756588495706878 0 0.13792901651589951 0.46760966493884959 0 0.1146358595090817 0.48605788153156299 0 0.13792901651589951 0.46760966493884959 0 0.14375381424303349 0.48699105670781317 0 0.1146358595090817 0.48605788153156299 0 0.13153158791447089 0.50000000000000033 0 0.14375381424303349 0.48699105670781317 0 0.1606388545156639 0.5 0 0.13153158791447089 0.50000000000000033 0 0.14375381424303349 0.48699105670781317 0 0.1606388545156639 0.5 0 0.16284299929429041 0.47286735670979418 0 0.14375381424303349 0.48699105670781317 0 0.16284299929429041 0.47286735670979418 0 0.13792901651589951 0.46760966493884959 0 0.14375381424303349 0.48699105670781317 0 0.35818797179075601 0.47458138126870081 0 0.34642182508771258 0.48585203466637861 0 0.33573625410597768 0.47071191077640329 0 0.35818797179075601 0.47458138126870081 0 0.34642182508771258 0.48585203466637861 0 0.35839011049240282 0.5 0 0.34642182508771258 0.48585203466637861 0 0.35839011049240282 0.5 0 0.33128271396841408 0.5 0 0.35818797179075601 0.47458138126870081 0 0.35839011049240282 0.5 0 0.37951078222479251 0.47868038482078018 0 0.35839011049240282 0.5 0 0.37951078222479251 0.47868038482078018 0 0.38549750701639152 0.5 0 0.35818797179075601 0.47458138126870081 0 0.37565915938479377 0.45849116020829678 0 0.37951078222479251 0.47868038482078018 0 0.35818797179075601 0.47458138126870081 0 0.35384759317055892 0.4558722467826386 0 0.37565915938479377 0.45849116020829678 0 0.3672128213662551 0.44140310366938379 0 0.35384759317055892 0.4558722467826386 0 0.37565915938479377 0.45849116020829678 0 0.35041805056504127 0.44039830756831011 0 0.35384759317055892 0.4558722467826386 0 0.33587130181052999 0.44964761720473639 0 0.3672128213662551 0.44140310366938379 0 0.35041805056504127 0.44039830756831011 0 0.35384759317055892 0.4558722467826386 0 0.35818797179075601 0.47458138126870081 0 0.35384759317055892 0.4558722467826386 0 0.33573625410597768 0.47071191077640329 0 0.33587130181052999 0.44964761720473639 0 0.32245641590876828 0.45710047073305682 0 0.33573625410597768 0.47071191077640329 0 0.35384759317055892 0.4558722467826386 0 0.33587130181052999 0.44964761720473639 0 0.33573625410597768 0.47071191077640329 0 0.35041805056504127 0.44039830756831011 0 0.33587130181052999 0.44964761720473639 0 0.34011375395909899 0.42827966665244982 0 0.33587130181052999 0.44964761720473639 0 0.32313042491148092 0.43915640659962429 0 0.34011375395909899 0.42827966665244982 0 0.33587130181052999 0.44964761720473639 0 0.32313042491148092 0.43915640659962429 0 0.32245641590876828 0.45710047073305682 0 0.32313042491148092 0.43915640659962429 0 0.32245641590876828 0.45710047073305682 0 0.3069723578181176 0.44921026163567479 0 0.32313042491148092 0.43915640659962429 0 0.3069723578181176 0.44921026163567479 0 0.30967478190587899 0.43248339293908478 0 0.32245641590876828 0.45710047073305682 0 0.31479002533830769 0.47294309924184441 0 0.33573625410597768 0.47071191077640329 0 0.32245641590876828 0.45710047073305682 0 0.31479002533830769 0.47294309924184441 0 0.3069723578181176 0.44921026163567479 0 0.31479002533830769 0.47294309924184441 0 0.33573625410597768 0.47071191077640329 0 0.33128271396841408 0.5 0 0.34642182508771258 0.48585203466637861 0 0.33573625410597768 0.47071191077640329 0 0.33128271396841408 0.5 0 0.31479002533830769 0.47294309924184441 0 0.33128271396841408 0.5 0 0.30417531744442527 0.5 0 0.31479002533830769 0.47294309924184441 0 0.30417531744442527 0.5 0 0.29074220063683293 0.48758109823480927 0 0.31479002533830769 0.47294309924184441 0 0.29192961584893129 0.47074300911827521 0 0.29074220063683293 0.48758109823480927 0 0.31479002533830769 0.47294309924184441 0 0.29192961584893129 0.47074300911827521 0 0.29192961584893129 0.47074300911827521 0 0.29074220063683293 0.48758109823480927 0 0.27306856363999571 0.4842714594973539 0 0.30417531744442527 0.5 0 0.29074220063683293 0.48758109823480927 0 0.27706792092043642 0.500000000000002 0 0.27706792092043642 0.500000000000002 0 0.27306856363999571 0.4842714594973539 0 0.25513941322049821 0.48355515434954122 0 0.29074220063683293 0.48758109823480927 0 0.27706792092043642 0.500000000000002 0 0.27306856363999571 0.4842714594973539 0 0.27706792092043642 0.500000000000002 0 0.27306856363999571 0.4842714594973539 0 0.29192961584893129 0.47074300911827521 0 0.26906920635955489 0.46854291899470579 0 0.27306856363999571 0.4842714594973539 0 0.25513941322049821 0.48355515434954122 0 0.26906920635955489 0.46854291899470579 0 0.29192961584893129 0.47074300911827521 0 0.27306856363999571 0.4842714594973539 0 0.26906920635955489 0.46854291899470579 0 0.27306856363999571 0.4842714594973539 0 0.26906920635955489 0.46854291899470579 0 0.24508980140621781 0.46623513653650361 0 0.25513941322049821 0.48355515434954122 0 0.26906920635955489 0.46854291899470579 0 0.2479606543192433 0.5 0 0.27706792092043642 0.500000000000002 0 0.25513941322049821 0.48355515434954122 0 0.24508980140621781 0.46623513653650361 0 0.26906920635955489 0.46854291899470579 0 0.24508980140621781 0.46623513653650361 0 0.26234678177835441 0.44210518915783192 0 0.26906920635955489 0.46854291899470579 0 0.29192961584893129 0.47074300911827521 0 0.26906920635955489 0.46854291899470579 0 0.2825318911539082 0.44937975844880462 0 0.26234678177835441 0.44210518915783192 0 0.26906920635955489 0.46854291899470579 0 0.26234678177835441 0.44210518915783192 0 0.26906920635955489 0.46854291899470579 0 0.2825318911539082 0.44937975844880462 0 0.26234678177835441 0.44210518915783192 0 0.2825318911539082 0.44937975844880462 0 0.2735489225425754 0.42398780939214897 0 0.2825318911539082 0.44937975844880462 0 0.3069723578181176 0.44921026163567479 0 0.29424437368670248 0.43173942196487358 0 0.29192961584893129 0.47074300911827521 0 0.2825318911539082 0.44937975844880462 0 0.3069723578181176 0.44921026163567479 0 0.31479002533830769 0.47294309924184441 0 0.29192961584893129 0.47074300911827521 0 0.3069723578181176 0.44921026163567479 0 0.3069723578181176 0.44921026163567479 0 0.30967478190587899 0.43248339293908478 0 0.29424437368670248 0.43173942196487358 0 0.30967478190587899 0.43248339293908478 0 0.3045281829251868 0.41996349248923659 0 0.31949857018790712 0.42234738200601463 0 0.30967478190587899 0.43248339293908478 0 0.3045281829251868 0.41996349248923659 0 0.29424437368670248 0.43173942196487358 0 0.31221380766262308 0.41141105291454111 0 0.3045281829251868 0.41996349248923659 0 0.30175255758949709 0.40539483602959481 0 0.31221380766262308 0.41141105291454111 0 0.3045281829251868 0.41996349248923659 0 0.31949857018790712 0.42234738200601463 0 0.3045281829251868 0.41996349248923659 0 0.29116822628179151 0.41527777958226658 0 0.30175255758949709 0.40539483602959481 0 0.29116822628179151 0.41527777958226658 0 0.2735489225425754 0.42398780939214897 0 0.28009549588900451 0.40671294327225221 0 0.29116822628179151 0.41527777958226658 0 0.29046685710439091 0.40365495696152731 0 0.30175255758949709 0.40539483602959481 0 0.29116822628179151 0.41527777958226658 0 0.28009549588900451 0.40671294327225221 0 0.29046685710439091 0.40365495696152731 0 0.29116822628179151 0.41527777958226658 0 0.29424437368670248 0.43173942196487358 0 0.2735489225425754 0.42398780939214897 0 0.3045281829251868 0.41996349248923659 0 0.29116822628179151 0.41527777958226658 0 0.29424437368670248 0.43173942196487358 0 0.2825318911539082 0.44937975844880462 0 0.29424437368670248 0.43173942196487358 0 0.2735489225425754 0.42398780939214897 0 0.2735489225425754 0.42398780939214897 0 0.28009549588900451 0.40671294327225221 0 0.26594594197715632 0.40587542564026857 0 0.2735489225425754 0.42398780939214897 0 0.25562435719715348 0.41566745932095828 0 0.26594594197715632 0.40587542564026857 0 0.26234678177835441 0.44210518915783192 0 0.25562435719715348 0.41566745932095828 0 0.23929670148200641 0.42651558303428039 0 0.26234678177835441 0.44210518915783192 0 0.25562435719715348 0.41566745932095828 0 0.26234678177835441 0.44210518915783192 0 0.2735489225425754 0.42398780939214897 0 0.25562435719715348 0.41566745932095828 0 0.24890193261595259 0.38922972948408457 0 0.27155900164109531 0.39377918673189899 0 0.26817635423288699 0.37969346344739391 0 0.24890193261595259 0.38922972948408457 0 0.26817635423288699 0.37969346344739391 0 0.26082178769032438 0.36496323128775521 0 0.24890193261595259 0.38922972948408457 0 0.25562435719715348 0.41566745932095828 0 0.24890193261595259 0.38922972948408457 0 0.27155900164109531 0.39377918673189899 0 0.26594594197715632 0.40587542564026857 0 0.24890193261595259 0.38922972948408457 0 0.25562435719715348 0.41566745932095828 0 0.26594594197715632 0.40587542564026857 0 0.28009549588900451 0.40671294327225221 0 0.27155900164109531 0.39377918673189899 0 0.26594594197715632 0.40587542564026857 0 0.28009549588900451 0.40671294327225221 0 0.27155900164109531 0.39377918673189899 0 0.2841626669368148 0.39603484022980262 0 0.27155900164109531 0.39377918673189899 0 0.27917556467927279 0.38707504911542251 0 0.2841626669368148 0.39603484022980262 0 0.27917556467927279 0.38707504911542251 0 0.27737653217987568 0.3763299637903077 0 0.28641533258273322 0.38531457319514678 0 0.27155900164109531 0.39377918673189899 0 0.27917556467927279 0.38707504911542251 0 0.26817635423288699 0.37969346344739391 0 0.26817635423288699 0.37969346344739391 0 0.27737653217987568 0.3763299637903077 0 0.26995518240551242 0.36922466410125959 0 0.27917556467927279 0.38707504911542251 0 0.26817635423288699 0.37969346344739391 0 0.27737653217987568 0.3763299637903077 0 0.27917556467927279 0.38707504911542251 0 0.28749669470930389 0.39059918652862902 0 0.28641533258273322 0.38531457319514678 0 0.28749669470930389 0.39059918652862902 0 0.28641533258273322 0.38531457319514678 0 0.29321390271680048 0.38636149671614523 0 0.28641533258273322 0.38531457319514678 0 0.29321390271680048 0.38636149671614523 0 0.29155132770994241 0.38145409056705559 0 0.28749669470930389 0.39059918652862902 0 0.29321390271680048 0.38636149671614523 0 0.2951553388248469 0.39485438569372039 0 0.29321390271680048 0.38636149671614523 0 0.2951553388248469 0.39485438569372039 0 0.30172663999730548 0.38411556817588999 0 0.2951337916801352 0.37545299726164849 0 0.29155132770994241 0.38145409056705559 0 0.29028041611347422 0.37131190521640561 0 0.29650911823343812 0.38027524721939082 0 0.2951337916801352 0.37545299726164849 0 0.29155132770994241 0.38145409056705559 0 0.29321390271680048 0.38636149671614523 0 0.29650911823343812 0.38027524721939082 0 0.29155132770994241 0.38145409056705559 0 0.28009549588900451 0.40671294327225221 0 0.2841626669368148 0.39603484022980262 0 0.29046685710439091 0.40365495696152731 0 0.27917556467927279 0.38707504911542251 0 0.28749669470930389 0.39059918652862902 0 0.2841626669368148 0.39603484022980262 0 0.28749669470930389 0.39059918652862902 0 0.2841626669368148 0.39603484022980262 0 0.2951553388248469 0.39485438569372039 0 0.2841626669368148 0.39603484022980262 0 0.2951553388248469 0.39485438569372039 0 0.29046685710439091 0.40365495696152731 0 0.2951553388248469 0.39485438569372039 0 0.29046685710439091 0.40365495696152731 0 0.30175255758949709 0.40539483602959481 0 0.2951553388248469 0.39485438569372039 0 0.30416997859767031 0.39496190780794832 0 0.30172663999730548 0.38411556817588999 0 0.2951553388248469 0.39485438569372039 0 0.30175255758949709 0.40539483602959481 0 0.30416997859767031 0.39496190780794832 0 0.30416997859767031 0.39496190780794832 0 0.31194754139156228 0.39992908639018659 0 0.31058504665001713 0.38993607806902841 0 0.31221380766262308 0.41141105291454111 0 0.30175255758949709 0.40539483602959481 0 0.31194754139156228 0.39992908639018659 0 0.30175255758949709 0.40539483602959481 0 0.30416997859767031 0.39496190780794832 0 0.31194754139156228 0.39992908639018659 0 0.29650911823343812 0.38027524721939082 0 0.30172663999730548 0.38411556817588999 0 0.30091992906300691 0.3739920833762147 0 0.30172663999730548 0.38411556817588999 0 0.31077839752677883 0.37658419253607489 0 0.30091992906300691 0.3739920833762147 0 0.29650911823343812 0.38027524721939082 0 0.2951337916801352 0.37545299726164849 0 0.30091992906300691 0.3739920833762147 0 0.29321390271680048 0.38636149671614523 0 0.29650911823343812 0.38027524721939082 0 0.30172663999730548 0.38411556817588999 0 0.30416997859767031 0.39496190780794832 0 0.30172663999730548 0.38411556817588999 0 0.31058504665001713 0.38993607806902841 0 0.30172663999730548 0.38411556817588999 0 0.31058504665001713 0.38993607806902841 0 0.31077839752677883 0.37658419253607489 0 0.31077839752677883 0.37658419253607489 0 0.31867525833463911 0.38494833593070971 0 0.32306703930603953 0.37623237809600169 0 0.31058504665001713 0.38993607806902841 0 0.31867525833463911 0.38494833593070971 0 0.31878199461777879 0.39362573130725731 0 0.31058504665001713 0.38993607806902841 0 0.31077839752677883 0.37658419253607489 0 0.31867525833463911 0.38494833593070971 0 0.31867525833463911 0.38494833593070971 0 0.32306703930603953 0.37623237809600169 0 0.32934203852673438 0.38871677178939867 0 0.31867525833463911 0.38494833593070971 0 0.32934203852673438 0.38871677178939867 0 0.31878199461777879 0.39362573130725731 0 0.32306703930603953 0.37623237809600169 0 0.33555471090824662 0.37714848622012531 0 0.32934203852673438 0.38871677178939867 0 0.33555471090824662 0.37714848622012531 0 0.32934203852673438 0.38871677178939867 0 0.34865402358820241 0.38746960960344728 0 0.32934203852673438 0.38871677178939867 0 0.33838050486014071 0.40132571833470809 0 0.34865402358820241 0.38746960960344728 0 0.32934203852673438 0.38871677178939867 0 0.33838050486014071 0.40132571833470809 0 0.32336008818594092 0.40459838435696299 0 0.32934203852673438 0.38871677178939867 0 0.32336008818594092 0.40459838435696299 0 0.31878199461777879 0.39362573130725731 0 0.31194754139156228 0.39992908639018659 0 0.31058504665001713 0.38993607806902841 0 0.31878199461777879 0.39362573130725731 0 0.31221380766262308 0.41141105291454111 0 0.31194754139156228 0.39992908639018659 0 0.32336008818594092 0.40459838435696299 0 0.31194754139156228 0.39992908639018659 0 0.32336008818594092 0.40459838435696299 0 0.31878199461777879 0.39362573130725731 0 0.31221380766262308 0.41141105291454111 0 0.32336008818594092 0.40459838435696299 0 0.31949857018790712 0.42234738200601463 0 0.32336008818594092 0.40459838435696299 0 0.31949857018790712 0.42234738200601463 0 0.33335541567677851 0.41413927737501682 0 0.32313042491148092 0.43915640659962429 0 0.31949857018790712 0.42234738200601463 0 0.34011375395909899 0.42827966665244982 0 0.32313042491148092 0.43915640659962429 0 0.30967478190587899 0.43248339293908478 0 0.31949857018790712 0.42234738200601463 0 0.31949857018790712 0.42234738200601463 0 0.34011375395909899 0.42827966665244982 0 0.33335541567677851 0.41413927737501682 0 0.34011375395909899 0.42827966665244982 0 0.33335541567677851 0.41413927737501682 0 0.35251535500997389 0.4097633894025835 0 0.33838050486014071 0.40132571833470809 0 0.33335541567677851 0.41413927737501682 0 0.35251535500997389 0.4097633894025835 0 0.33838050486014071 0.40132571833470809 0 0.32336008818594092 0.40459838435696299 0 0.33335541567677851 0.41413927737501682 0 0.34011375395909899 0.42827966665244982 0 0.35251535500997389 0.4097633894025835 0 0.3591301267131588 0.42602683944016839 0 0.3672128213662551 0.44140310366938379 0 0.35041805056504127 0.44039830756831011 0 0.3591301267131588 0.42602683944016839 0 0.35041805056504127 0.44039830756831011 0 0.34011375395909899 0.42827966665244982 0 0.3591301267131588 0.42602683944016839 0 0.3672128213662551 0.44140310366938379 0 0.3591301267131588 0.42602683944016839 0 0.37786999239799629 0.42201923841731348 0 0.3591301267131588 0.42602683944016839 0 0.36674031876838431 0.41287021939491358 0 0.37786999239799629 0.42201923841731348 0 0.35251535500997389 0.4097633894025835 0 0.36674031876838431 0.41287021939491358 0 0.36672310374365391 0.3972274770167053 0 0.36674031876838431 0.41287021939491358 0 0.37714557779446961 0.40580011292323048 0 0.37786999239799629 0.42201923841731348 0 0.35251535500997389 0.4097633894025835 0 0.3591301267131588 0.42602683944016839 0 0.36674031876838431 0.41287021939491358 0 0.36674031876838431 0.41287021939491358 0 0.36672310374365391 0.3972274770167053 0 0.37714557779446961 0.40580011292323048 0 0.36672310374365391 0.3972274770167053 0 0.34865402358820241 0.38746960960344728 0 0.36927583114563117 0.37168826674887129 0 0.36672310374365391 0.3972274770167053 0 0.36927583114563117 0.37168826674887129 0 0.38594138320053972 0.39504117240748449 0 0.34865402358820241 0.38746960960344728 0 0.34769055634412588 0.36745966958429022 0 0.36927583114563117 0.37168826674887129 0 0.33555471090824662 0.37714848622012531 0 0.34865402358820241 0.38746960960344728 0 0.34769055634412588 0.36745966958429022 0 0.35251535500997389 0.4097633894025835 0 0.36672310374365391 0.3972274770167053 0 0.34865402358820241 0.38746960960344728 0 0.33838050486014071 0.40132571833470809 0 0.35251535500997389 0.4097633894025835 0 0.34865402358820241 0.38746960960344728 0 0.35261027909072251 0.34833536109025781 0 0.34769055634412588 0.36745966958429022 0 0.33944519881702218 0.35670643516570921 0 0.35261027909072251 0.34833536109025781 0 0.34769055634412588 0.36745966958429022 0 0.36927583114563117 0.37168826674887129 0 0.35261027909072251 0.34833536109025781 0 0.36927583114563117 0.37168826674887129 0 0.35261027909072251 0.34833536109025781 0 0.36927583114563117 0.37168826674887129 0 0.38014707859742553 0.358601566133181 0 0.35261027909072251 0.34833536109025781 0 0.37418757138316661 0.34003979241565702 0 0.38014707859742553 0.358601566133181 0 0.37418757138316661 0.34003979241565702 0 0.36114413796306788 0.32433110896381118 0 0.38634354889032002 0.32367976249598251 0 0.35261027909072251 0.34833536109025781 0 0.37418757138316661 0.34003979241565702 0 0.36114413796306788 0.32433110896381118 0 0.36114413796306788 0.32433110896381118 0 0.38634354889032002 0.32367976249598251 0 0.36114413796306788 0.32433110896381118 0 0.36246687595182442 0.30494518477727961 0 0.38634354889032002 0.32367976249598251 0 0.36114413796306788 0.32433110896381118 0 0.33594472703581602 0.32498245543164278 0 0.36114413796306788 0.32433110896381118 0 0.33594472703581602 0.32498245543164278 0 0.34448717235649018 0.30756264321984922 0 0.35261027909072251 0.34833536109025781 0 0.36114413796306788 0.32433110896381118 0 0.33594472703581602 0.32498245543164278 0 0.35261027909072251 0.34833536109025781 0 0.33594472703581602 0.32498245543164278 0 0.35261027909072251 0.34833536109025781 0 0.33361265820108371 0.33601463685995558 0 0.33594472703581602 0.32498245543164278 0 0.35261027909072251 0.34833536109025781 0 0.33361265820108371 0.33601463685995558 0 0.33117650937159632 0.34590223044488833 0 0.33361265820108371 0.33601463685995558 0 0.33594472703581602 0.32498245543164278 0 0.32592845192929348 0.32524135296818618 0 0.33361265820108371 0.33601463685995558 0 0.32240332357799001 0.33561178436480271 0 0.33117650937159632 0.34590223044488833 0 0.33594472703581602 0.32498245543164278 0 0.32420479997372442 0.30853167071016102 0 0.33594472703581602 0.32498245543164278 0 0.32592845192929348 0.32524135296818618 0 0.32420479997372442 0.30853167071016102 0 0.33594472703581602 0.32498245543164278 0 0.32420479997372442 0.30853167071016102 0 0.34448717235649018 0.30756264321984922 0 0.33594472703581602 0.32498245543164278 0 0.32592845192929348 0.32524135296818618 0 0.32592845192929348 0.32524135296818618 0 0.31778971146991503 0.31788997842391498 0 0.32420479997372442 0.30853167071016102 0 0.32592845192929348 0.32524135296818618 0 0.31591730865868939 0.32743152395768732 0 0.31778971146991503 0.31788997842391498 0 0.31591730865868939 0.32743152395768732 0 0.31778971146991503 0.31788997842391498 0 0.30920411140212778 0.3196886032463338 0 0.32240332357799001 0.33561178436480271 0 0.31863003654071292 0.34601962911411782 0 0.33117650937159632 0.34590223044488833 0 0.33361265820108371 0.33601463685995558 0 0.32592845192929348 0.32524135296818618 0 0.32240332357799001 0.33561178436480271 0 0.32592845192929348 0.32524135296818618 0 0.31591730865868939 0.32743152395768732 0 0.32240332357799001 0.33561178436480271 0 0.31591730865868939 0.32743152395768732 0 0.32240332357799001 0.33561178436480271 0 0.31164832743931292 0.33689503642828789 0 0.32240332357799001 0.33561178436480271 0 0.31863003654071292 0.34601962911411782 0 0.31164832743931292 0.33689503642828789 0 0.31863003654071292 0.34601962911411782 0 0.30992842843050988 0.3457112388019602 0 0.31164832743931292 0.33689503642828789 0 0.31863003654071292 0.34601962911411782 0 0.30992842843050988 0.3457112388019602 0 0.31160887743439081 0.35478490180041172 0 0.32445766980723489 0.35579424438156659 0 0.31686549990355672 0.36548826773678422 0 0.31160887743439081 0.35478490180041172 0 0.31863003654071292 0.34601962911411782 0 0.32445766980723489 0.35579424438156659 0 0.31160887743439081 0.35478490180041172 0 0.31863003654071292 0.34601962911411782 0 0.32445766980723489 0.35579424438156659 0 0.33117650937159632 0.34590223044488833 0 0.35261027909072251 0.34833536109025781 0 0.33117650937159632 0.34590223044488833 0 0.33944519881702218 0.35670643516570921 0 0.32445766980723489 0.35579424438156659 0 0.33117650937159632 0.34590223044488833 0 0.33944519881702218 0.35670643516570921 0 0.33555471090824662 0.37714848622012531 0 0.34769055634412588 0.36745966958429022 0 0.3290198967761308 0.36586400202748842 0 0.34769055634412588 0.36745966958429022 0 0.33944519881702218 0.35670643516570921 0 0.3290198967761308 0.36586400202748842 0 0.32445766980723489 0.35579424438156659 0 0.33944519881702218 0.35670643516570921 0 0.3290198967761308 0.36586400202748842 0 0.32306703930603953 0.37623237809600169 0 0.33555471090824662 0.37714848622012531 0 0.3290198967761308 0.36586400202748842 0 0.32306703930603953 0.37623237809600169 0 0.3290198967761308 0.36586400202748842 0 0.31686549990355672 0.36548826773678422 0 0.32445766980723489 0.35579424438156659 0 0.3290198967761308 0.36586400202748842 0 0.31686549990355672 0.36548826773678422 0 0.31077839752677883 0.37658419253607489 0 0.32306703930603953 0.37623237809600169 0 0.31686549990355672 0.36548826773678422 0 0.31077839752677883 0.37658419253607489 0 0.30653952356419251 0.36486132392814918 0 0.30091992906300691 0.3739920833762147 0 0.31077839752677883 0.37658419253607489 0 0.31686549990355672 0.36548826773678422 0 0.30653952356419251 0.36486132392814918 0 0.31686549990355672 0.36548826773678422 0 0.30653952356419251 0.36486132392814918 0 0.31160887743439081 0.35478490180041172 0 0.30653952356419251 0.36486132392814918 0 0.29956039950038399 0.36055845947794762 0 0.29968882481084308 0.36620473963642819 0 0.30653952356419251 0.36486132392814918 0 0.29956039950038399 0.36055845947794762 0 0.30450437459886343 0.35739179545954242 0 0.29956039950038399 0.36055845947794762 0 0.29968882481084308 0.36620473963642819 0 0.2946843591870788 0.36349444767638139 0 0.29968882481084308 0.36620473963642819 0 0.30091992906300691 0.3739920833762147 0 0.29515321138997108 0.36891281366618561 0 0.30653952356419251 0.36486132392814918 0 0.29968882481084308 0.36620473963642819 0 0.30091992906300691 0.3739920833762147 0 0.2951337916801352 0.37545299726164849 0 0.30091992906300691 0.3739920833762147 0 0.29515321138997108 0.36891281366618561 0 0.30992842843050988 0.3457112388019602 0 0.31160887743439081 0.35478490180041172 0 0.30300584901730271 0.34938636887413438 0 0.30992842843050988 0.3457112388019602 0 0.30300584901730271 0.34938636887413438 0 0.30284961949963451 0.34180688944884569 0 0.31160887743439081 0.35478490180041172 0 0.30450437459886343 0.35739179545954242 0 0.30300584901730271 0.34938636887413438 0 0.30653952356419251 0.36486132392814918 0 0.31160887743439081 0.35478490180041172 0 0.30450437459886343 0.35739179545954242 0 0.30450437459886343 0.35739179545954242 0 0.29772286606791931 0.35422336501427332 0 0.30300584901730271 0.34938636887413438 0 0.29956039950038399 0.36055845947794762 0 0.30450437459886343 0.35739179545954242 0 0.29772286606791931 0.35422336501427332 0 0.29772286606791931 0.35422336501427332 0 0.30300584901730271 0.34938636887413438 0 0.29508057650716829 0.34607515835053693 0 0.30300584901730271 0.34938636887413438 0 0.29508057650716829 0.34607515835053693 0 0.30284961949963451 0.34180688944884569 0 0.29508057650716829 0.34607515835053693 0 0.29128433478161492 0.3514692197730912 0 0.28696318970460172 0.34507386829548542 0 0.29772286606791931 0.35422336501427332 0 0.29508057650716829 0.34607515835053693 0 0.29128433478161492 0.3514692197730912 0 0.29128433478161492 0.3514692197730912 0 0.29260686737414288 0.35803349489433017 0 0.28831593146678952 0.35482697607295582 0 0.29772286606791931 0.35422336501427332 0 0.29128433478161492 0.3514692197730912 0 0.29260686737414288 0.35803349489433017 0 0.29956039950038399 0.36055845947794762 0 0.29772286606791931 0.35422336501427332 0 0.29260686737414288 0.35803349489433017 0 0.29260686737414288 0.35803349489433017 0 0.28714468874269172 0.35854684035017659 0 0.29097547274489571 0.36086700820637557 0 0.29260686737414288 0.35803349489433017 0 0.28714468874269172 0.35854684035017659 0 0.28831593146678952 0.35482697607295582 0 0.28714468874269172 0.35854684035017659 0 0.28946597567566928 0.3633932499046143 0 0.27836960746308909 0.35599853724874359 0 0.28714468874269172 0.35854684035017659 0 0.28392422607346179 0.35383006020545288 0 0.27836960746308909 0.35599853724874359 0 0.28714468874269172 0.35854684035017659 0 0.28392422607346179 0.35383006020545288 0 0.28831593146678952 0.35482697607295582 0 0.28392422607346179 0.35383006020545288 0 0.28273558166129192 0.34922596943765521 0 0.28101653893848899 0.35208327708388421 0 0.28392422607346179 0.35383006020545288 0 0.28831593146678952 0.35482697607295582 0 0.2863539578433606 0.35136140079780598 0 0.29128433478161492 0.3514692197730912 0 0.28831593146678952 0.35482697607295582 0 0.2863539578433606 0.35136140079780598 0 0.29128433478161492 0.3514692197730912 0 0.2863539578433606 0.35136140079780598 0 0.28696318970460172 0.34507386829548542 0 0.2863539578433606 0.35136140079780598 0 0.28273558166129192 0.34922596943765521 0 0.28696318970460172 0.34507386829548542 0 0.28392422607346179 0.35383006020545288 0 0.2863539578433606 0.35136140079780598 0 0.28273558166129192 0.34922596943765521 0 0.28696318970460172 0.34507386829548542 0 0.28013569367420871 0.34584772387197749 0 0.28119375649751349 0.3415044430455576 0 0.28273558166129192 0.34922596943765521 0 0.28696318970460172 0.34507386829548542 0 0.28013569367420871 0.34584772387197749 0 0.29155132770994241 0.38145409056705559 0 0.29028041611347422 0.37131190521640561 0 0.27836960746308909 0.35599853724874359 0 0.28641533258273322 0.38531457319514678 0 0.29155132770994241 0.38145409056705559 0 0.2754302243437341 0.35800137086985789 0 0.29155132770994241 0.38145409056705559 0 0.2754302243437341 0.35800137086985789 0 0.27836960746308909 0.35599853724874359 0 0.29155132770994241 0.38145409056705559 0 0.27836960746308909 0.35599853724874359 0 0.29028041611347422 0.37131190521640561 0 0.29515321138997108 0.36891281366618561 0 0.28946597567566928 0.3633932499046143 0 0.2951337916801352 0.37545299726164849 0 0.29028041611347422 0.37131190521640561 0 0.29515321138997108 0.36891281366618561 0 0.29968882481084308 0.36620473963642819 0 0.29515321138997108 0.36891281366618561 0 0.2946843591870788 0.36349444767638139 0 0.29515321138997108 0.36891281366618561 0 0.2946843591870788 0.36349444767638139 0 0.28946597567566928 0.3633932499046143 0 0.29956039950038399 0.36055845947794762 0 0.29260686737414288 0.35803349489433017 0 0.2946843591870788 0.36349444767638139 0 0.28714468874269172 0.35854684035017659 0 0.29097547274489571 0.36086700820637557 0 0.28946597567566928 0.3633932499046143 0 0.2946843591870788 0.36349444767638139 0 0.29097547274489571 0.36086700820637557 0 0.28946597567566928 0.3633932499046143 0 0.29260686737414288 0.35803349489433017 0 0.2946843591870788 0.36349444767638139 0 0.29097547274489571 0.36086700820637557 0 0.29028041611347422 0.37131190521640561 0 0.28946597567566928 0.3633932499046143 0 0.27836960746308909 0.35599853724874359 0 0.28641533258273322 0.38531457319514678 0 0.2754302243437341 0.35800137086985789 0 0.27737653217987568 0.3763299637903077 0 0.28641533258273322 0.38531457319514678 0 0.2754302243437341 0.35800137086985789 0 0.27737653217987568 0.3763299637903077 0 0.27292546410526491 0.36629585246079138 0 0.2754302243437341 0.35800137086985789 0 0.27737653217987568 0.3763299637903077 0 0.26995518240551242 0.36922466410125959 0 0.27292546410526491 0.36629585246079138 0 0.26817635423288699 0.37969346344739391 0 0.26995518240551242 0.36922466410125959 0 0.26082178769032438 0.36496323128775521 0 0.26995518240551242 0.36922466410125959 0 0.26893991749193752 0.36162741108174062 0 0.26082178769032438 0.36496323128775521 0 0.26893991749193752 0.36162741108174062 0 0.27292546410526491 0.36629585246079138 0 0.2754302243437341 0.35800137086985789 0 0.26995518240551242 0.36922466410125959 0 0.26893991749193752 0.36162741108174062 0 0.27292546410526491 0.36629585246079138 0 0.2754302243437341 0.35800137086985789 0 0.26518788721623437 0.33054298393043219 0 0.2754302243437341 0.35800137086985789 0 0.27836960746308909 0.35599853724874359 0 0.26518788721623437 0.33054298393043219 0 0.2754302243437341 0.35800137086985789 0 0.26469999689944002 0.35285812485780471 0 0.26518788721623437 0.33054298393043219 0 0.27836960746308909 0.35599853724874359 0 0.28101653893848899 0.35208327708388421 0 0.2797945401242129 0.34946851842389731 0 0.28392422607346179 0.35383006020545288 0 0.27836960746308909 0.35599853724874359 0 0.28101653893848899 0.35208327708388421 0 0.27836960746308909 0.35599853724874359 0 0.2797945401242129 0.34946851842389731 0 0.27671527888398562 0.3441870844772259 0 0.28013569367420871 0.34584772387197749 0 0.2797945401242129 0.34946851842389731 0 0.27671527888398562 0.3441870844772259 0 0.28013569367420871 0.34584772387197749 0 0.27671527888398562 0.3441870844772259 0 0.28119375649751349 0.3415044430455576 0 0.28273558166129192 0.34922596943765521 0 0.28013569367420871 0.34584772387197749 0 0.2797945401242129 0.34946851842389731 0 0.28273558166129192 0.34922596943765521 0 0.28101653893848899 0.35208327708388421 0 0.2797945401242129 0.34946851842389731 0 0.26893991749193752 0.36162741108174062 0 0.2754302243437341 0.35800137086985789 0 0.26469999689944002 0.35285812485780471 0 0.26469999689944002 0.35285812485780471 0 0.25397109136889212 0.34953950795812871 0 0.26518788721623437 0.33054298393043219 0 0.26469999689944002 0.35285812485780471 0 0.25397109136889212 0.34953950795812871 0 0.26082178769032438 0.36496323128775521 0 0.24217950803475169 0.36279199964721098 0 0.25397109136889212 0.34953950795812871 0 0.26082178769032438 0.36496323128775521 0 0.24217950803475169 0.36279199964721098 0 0.24890193261595259 0.38922972948408457 0 0.26082178769032438 0.36496323128775521 0 0.26893991749193752 0.36162741108174062 0 0.26469999689944002 0.35285812485780471 0 0.26082178769032438 0.36496323128775521 0 0.26160037477145948 0.32361504792451118 0 0.26961523156275707 0.31863310602586059 0 0.25252005129033422 0.30103787280496203 0 0.24833100513142109 0.32161764704062729 0 0.26160037477145948 0.32361504792451118 0 0.26518788721623437 0.33054298393043219 0 0.24963775202771521 0.30051372462394288 0 0.24833100513142109 0.32161764704062729 0 0.26160037477145948 0.32361504792451118 0 0.26160037477145948 0.32361504792451118 0 0.26518788721623437 0.33054298393043219 0 0.26731122343739822 0.32545953491366858 0 0.26160037477145948 0.32361504792451118 0 0.26518788721623437 0.33054298393043219 0 0.2354570834535519 0.33635426981033711 0 0.26518788721623437 0.33054298393043219 0 0.2354570834535519 0.33635426981033711 0 0.25397109136889212 0.34953950795812871 0 0.26518788721623437 0.33054298393043219 0 0.27836960746308909 0.35599853724874359 0 0.27671527888398562 0.3441870844772259 0 0.26518788721623437 0.33054298393043219 0 0.26518788721623437 0.33054298393043219 0 0.2728414001991406 0.32904700177387047 0 0.26518788721623437 0.33054298393043219 0 0.2728414001991406 0.32904700177387047 0 0.26731122343739822 0.32545953491366858 0 0.27836960746308909 0.35599853724874359 0 0.26518788721623437 0.33054298393043219 0 0.26518788721623437 0.33054298393043219 0 0.2728414001991406 0.32904700177387047 0 0.27786043041236869 0.33471626715991409 0 0.27671527888398562 0.3441870844772259 0 0.26518788721623437 0.33054298393043219 0 0.27786043041236869 0.33471626715991409 0 0.27671527888398562 0.3441870844772259 0 0.28119375649751349 0.3415044430455576 0 0.27786043041236869 0.33471626715991409 0 0.2728414001991406 0.32904700177387047 0 0.27786043041236869 0.33471626715991409 0 0.27936204924768121 0.32498307102898349 0 0.27786043041236869 0.33471626715991409 0 0.27936204924768121 0.32498307102898349 0 0.28525590824973168 0.33019860290154568 0 0.2728414001991406 0.32904700177387047 0 0.27936204924768121 0.32498307102898349 0 0.26961523156275707 0.31863310602586059 0 0.2728414001991406 0.32904700177387047 0 0.26731122343739822 0.32545953491366858 0 0.26961523156275707 0.31863310602586059 0 0.26160037477145948 0.32361504792451118 0 0.26731122343739822 0.32545953491366858 0 0.26961523156275707 0.31863310602586059 0 0.27936204924768121 0.32498307102898349 0 0.26961523156275707 0.31863310602586059 0 0.28133089707177739 0.31565660162935461 0 0.26961523156275707 0.31863310602586059 0 0.28133089707177739 0.31565660162935461 0 0.27162220014601168 0.30819847959926649 0 0.28133089707177739 0.31565660162935461 0 0.28926842799031183 0.32164684668335553 0 0.29289622389348391 0.31173450207074938 0 0.27936204924768121 0.32498307102898349 0 0.28926842799031183 0.32164684668335553 0 0.28525590824973168 0.33019860290154568 0 0.27936204924768121 0.32498307102898349 0 0.28133089707177739 0.31565660162935461 0 0.28926842799031183 0.32164684668335553 0 0.28926842799031183 0.32164684668335553 0 0.29270679870612148 0.33133919612790758 0 0.29864702146159328 0.32643954785611667 0 0.28926842799031183 0.32164684668335553 0 0.28525590824973168 0.33019860290154568 0 0.29270679870612148 0.33133919612790758 0 0.28926842799031183 0.32164684668335553 0 0.30057412006284873 0.3182848580649148 0 0.29864702146159328 0.32643954785611667 0 0.28926842799031183 0.32164684668335553 0 0.30057412006284873 0.3182848580649148 0 0.29289622389348391 0.31173450207074938 0 0.28696318970460172 0.34507386829548542 0 0.28119375649751349 0.3415044430455576 0 0.28563489893157912 0.33697664508827291 0 0.28696318970460172 0.34507386829548542 0 0.28563489893157912 0.33697664508827291 0 0.29440715639490739 0.33866623850310912 0 0.28119375649751349 0.3415044430455576 0 0.27786043041236869 0.33471626715991409 0 0.28563489893157912 0.33697664508827291 0 0.28563489893157912 0.33697664508827291 0 0.28525590824973168 0.33019860290154568 0 0.29270679870612148 0.33133919612790758 0 0.27786043041236869 0.33471626715991409 0 0.28563489893157912 0.33697664508827291 0 0.28525590824973168 0.33019860290154568 0 0.29270679870612148 0.33133919612790758 0 0.29440715639490739 0.33866623850310912 0 0.30302737920860612 0.33410729573504611 0 0.28563489893157912 0.33697664508827291 0 0.29270679870612148 0.33133919612790758 0 0.29440715639490739 0.33866623850310912 0 0.29508057650716829 0.34607515835053693 0 0.28696318970460172 0.34507386829548542 0 0.29440715639490739 0.33866623850310912 0 0.29508057650716829 0.34607515835053693 0 0.29440715639490739 0.33866623850310912 0 0.30284961949963451 0.34180688944884569 0 0.29440715639490739 0.33866623850310912 0 0.30284961949963451 0.34180688944884569 0 0.30302737920860612 0.33410729573504611 0 0.29270679870612148 0.33133919612790758 0 0.30302737920860612 0.33410729573504611 0 0.29864702146159328 0.32643954785611667 0 0.30302737920860612 0.33410729573504611 0 0.29864702146159328 0.32643954785611667 0 0.30648676239126638 0.32698903389663531 0 0.30302737920860612 0.33410729573504611 0 0.31164832743931292 0.33689503642828789 0 0.30648676239126638 0.32698903389663531 0 0.31591730865868939 0.32743152395768732 0 0.31164832743931292 0.33689503642828789 0 0.30648676239126638 0.32698903389663531 0 0.30284961949963451 0.34180688944884569 0 0.30302737920860612 0.33410729573504611 0 0.31164832743931292 0.33689503642828789 0 0.30992842843050988 0.3457112388019602 0 0.30284961949963451 0.34180688944884569 0 0.31164832743931292 0.33689503642828789 0 0.30057412006284873 0.3182848580649148 0 0.3075048900192453 0.30846754722968978 0 0.29289622389348391 0.31173450207074938 0 0.30057412006284873 0.3182848580649148 0 0.29864702146159328 0.32643954785611667 0 0.30648676239126638 0.32698903389663531 0 0.30057412006284873 0.3182848580649148 0 0.30648676239126638 0.32698903389663531 0 0.30920411140212778 0.3196886032463338 0 0.31591730865868939 0.32743152395768732 0 0.30648676239126638 0.32698903389663531 0 0.30920411140212778 0.3196886032463338 0 0.30057412006284873 0.3182848580649148 0 0.30920411140212778 0.3196886032463338 0 0.3075048900192453 0.30846754722968978 0 0.31778971146991503 0.31788997842391498 0 0.30920411140212778 0.3196886032463338 0 0.3075048900192453 0.30846754722968978 0 0.3075048900192453 0.30846754722968978 0 0.29694347339530303 0.29848366127231912 0 0.31246487291163488 0.29208088598867771 0 0.3075048900192453 0.30846754722968978 0 0.29694347339530303 0.29848366127231912 0 0.29289622389348391 0.31173450207074938 0 0.31246487291163488 0.29208088598867771 0 0.29888580149873889 0.28140566667868477 0 0.31966717048778492 0.28020807462702291 0 0.29694347339530303 0.29848366127231912 0 0.31246487291163488 0.29208088598867771 0 0.29888580149873889 0.28140566667868477 0 0.29694347339530303 0.29848366127231912 0 0.29888580149873889 0.28140566667868477 0 0.28532215262680061 0.29218967158653381 0 0.29888580149873889 0.28140566667868477 0 0.28532215262680061 0.29218967158653381 0 0.27597263544757811 0.27926985653850322 0 0.29694347339530303 0.29848366127231912 0 0.29289622389348391 0.31173450207074938 0 0.28421062956037713 0.3046253325656294 0 0.29694347339530303 0.29848366127231912 0 0.28532215262680061 0.29218967158653381 0 0.28421062956037713 0.3046253325656294 0 0.28133089707177739 0.31565660162935461 0 0.29289622389348391 0.31173450207074938 0 0.28421062956037713 0.3046253325656294 0 0.28133089707177739 0.31565660162935461 0 0.28421062956037713 0.3046253325656294 0 0.27162220014601168 0.30819847959926649 0 0.28421062956037713 0.3046253325656294 0 0.27162220014601168 0.30819847959926649 0 0.27073357959762612 0.29469717476731772 0 0.28532215262680061 0.29218967158653381 0 0.28421062956037713 0.3046253325656294 0 0.27073357959762612 0.29469717476731772 0 0.27073357959762612 0.29469717476731772 0 0.25964825064670849 0.2811944406245902 0 0.27597263544757811 0.27926985653850322 0 0.28532215262680061 0.29218967158653381 0 0.27073357959762612 0.29469717476731772 0 0.27597263544757811 0.27926985653850322 0 0.2434397278092077 0.27846069768541332 0 0.25252005129033422 0.30103787280496203 0 0.25964825064670849 0.2811944406245902 0 0.27073357959762612 0.29469717476731772 0 0.25252005129033422 0.30103787280496203 0 0.25964825064670849 0.2811944406245902 0 0.24963775202771521 0.30051372462394288 0 0.26160037477145948 0.32361504792451118 0 0.26160037477145948 0.32361504792451118 0 0.25252005129033422 0.30103787280496203 0 0.24963775202771521 0.30051372462394288 0 0.26160037477145948 0.32361504792451118 0 0.25252005129033422 0.30103787280496203 0 0.27162220014601168 0.30819847959926649 0 0.27073357959762612 0.29469717476731772 0 0.25252005129033422 0.30103787280496203 0 0.26961523156275707 0.31863310602586059 0 0.27162220014601168 0.30819847959926649 0 0.25252005129033422 0.30103787280496203 0 0.26005695654466249 0.26476207857526007 0 0.25877170878786238 0.25302463852503437 0 0.26784118605052742 0.25766384122118591 0 0.26005695654466249 0.26476207857526007 0 0.26877199542094288 0.271185286046489 0 0.26784118605052742 0.25766384122118591 0 0.24763005152173001 0.25910176257370959 0 0.26005695654466249 0.26476207857526007 0 0.25877170878786238 0.25302463852503437 0 0.26005695654466249 0.26476207857526007 0 0.25964825064670849 0.2811944406245902 0 0.26877199542094288 0.271185286046489 0 0.2434397278092077 0.27846069768541332 0 0.26005695654466249 0.26476207857526007 0 0.25964825064670849 0.2811944406245902 0 0.2434397278092077 0.27846069768541332 0 0.24763005152173001 0.25910176257370959 0 0.26005695654466249 0.26476207857526007 0 0.25964825064670849 0.2811944406245902 0 0.26877199542094288 0.271185286046489 0 0.27597263544757811 0.27926985653850322 0 0.26877199542094288 0.271185286046489 0 0.27597263544757811 0.27926985653850322 0 0.27647749418933931 0.26389562134405542 0 0.27597263544757811 0.27926985653850322 0 0.27647749418933931 0.26389562134405542 0 0.28921799240021828 0.26815650339571012 0 0.27647749418933931 0.26389562134405542 0 0.27542464597538868 0.25681776053554017 0 0.28272693040926428 0.25881526167589219 0 0.27647749418933931 0.26389562134405542 0 0.26784118605052742 0.25766384122118591 0 0.27542464597538868 0.25681776053554017 0 0.26877199542094288 0.271185286046489 0 0.27647749418933931 0.26389562134405542 0 0.26784118605052742 0.25766384122118591 0 0.26784118605052742 0.25766384122118591 0 0.27542464597538868 0.25681776053554017 0 0.27283394916361492 0.24742619336605559 0 0.25877170878786238 0.25302463852503437 0 0.26784118605052742 0.25766384122118591 0 0.27283394916361492 0.24742619336605559 0 0.27542464597538868 0.25681776053554017 0 0.28272693040926428 0.25881526167589219 0 0.27283394916361492 0.24742619336605559 0 0.28272693040926428 0.25881526167589219 0 0.29968057031776052 0.25778022973809978 0 0.27283394916361492 0.24742619336605559 0 0.28272693040926428 0.25881526167589219 0 0.28921799240021828 0.26815650339571012 0 0.29968057031776052 0.25778022973809978 0 0.29968057031776052 0.25778022973809978 0 0.27283394916361492 0.24742619336605559 0 0.29968057031776052 0.25778022973809978 0 0.27283394916361492 0.24742619336605559 0 0.3016365876598241 0.24719201463661561 0 0.27647749418933931 0.26389562134405542 0 0.28272693040926428 0.25881526167589219 0 0.28921799240021828 0.26815650339571012 0 0.28921799240021828 0.26815650339571012 0 0.29917140266547992 0.2696271248040239 0 0.29968057031776052 0.25778022973809978 0 0.29888580149873889 0.28140566667868477 0 0.27597263544757811 0.27926985653850322 0 0.28921799240021828 0.26815650339571012 0 0.29888580149873889 0.28140566667868477 0 0.28921799240021828 0.26815650339571012 0 0.29917140266547992 0.2696271248040239 0 0.30890124644520212 0.27116609940360098 0 0.29968057031776052 0.25778022973809978 0 0.32652719147190618 0.26813426611014402 0 0.29888580149873889 0.28140566667868477 0 0.30890124644520212 0.27116609940360098 0 0.31966717048778492 0.28020807462702291 0 0.29888580149873889 0.28140566667868477 0 0.29917140266547992 0.2696271248040239 0 0.30890124644520212 0.27116609940360098 0 0.29917140266547992 0.2696271248040239 0 0.30890124644520212 0.27116609940360098 0 0.29968057031776052 0.25778022973809978 0 0.29968057031776052 0.25778022973809978 0 0.31432639173362298 0.2563396134856944 0 0.3016365876598241 0.24719201463661561 0 0.29968057031776052 0.25778022973809978 0 0.32652719147190618 0.26813426611014402 0 0.29968057031776052 0.25778022973809978 0 0.31432639173362298 0.2563396134856944 0 0.32652719147190618 0.26813426611014402 0 0.31432639173362298 0.2563396134856944 0 0.32946121748500129 0.25225194345791829 0 0.3016365876598241 0.24719201463661561 0 0.31432639173362298 0.2563396134856944 0 0.32946121748500129 0.25225194345791829 0 0.32652719147190618 0.26813426611014402 0 0.32946121748500129 0.25225194345791829 0 0.35728584731017871 0.25731187227922109 0 0.32946121748500129 0.25225194345791829 0 0.33854302537622011 0.27351786473126699 0 0.35728584731017871 0.25731187227922109 0 0.32946121748500129 0.25225194345791829 0 0.33854302537622011 0.27351786473126699 0 0.32652719147190618 0.26813426611014402 0 0.33854302537622011 0.27351786473126699 0 0.32652719147190618 0.26813426611014402 0 0.31966717048778492 0.28020807462702291 0 0.30890124644520212 0.27116609940360098 0 0.32652719147190618 0.26813426611014402 0 0.31966717048778492 0.28020807462702291 0 0.31246487291163488 0.29208088598867771 0 0.31966717048778492 0.28020807462702291 0 0.33172871425663403 0.29269405324557379 0 0.31778971146991503 0.31788997842391498 0 0.3075048900192453 0.30846754722968978 0 0.32420479997372442 0.30853167071016102 0 0.31246487291163488 0.29208088598867771 0 0.32420479997372442 0.30853167071016102 0 0.31246487291163488 0.29208088598867771 0 0.32420479997372442 0.30853167071016102 0 0.33172871425663403 0.29269405324557379 0 0.3075048900192453 0.30846754722968978 0 0.31246487291163488 0.29208088598867771 0 0.32420479997372442 0.30853167071016102 0 0.32420479997372442 0.30853167071016102 0 0.33172871425663403 0.29269405324557379 0 0.34448717235649018 0.30756264321984922 0 0.33854302537622011 0.27351786473126699 0 0.31966717048778492 0.28020807462702291 0 0.33172871425663403 0.29269405324557379 0 0.33172871425663403 0.29269405324557379 0 0.3503635169770366 0.28966006865463678 0 0.34448717235649018 0.30756264321984922 0 0.33854302537622011 0.27351786473126699 0 0.33172871425663403 0.29269405324557379 0 0.3503635169770366 0.28966006865463678 0 0.3503635169770366 0.28966006865463678 0 0.34448717235649018 0.30756264321984922 0 0.36246687595182442 0.30494518477727961 0 0.36114413796306788 0.32433110896381118 0 0.34448717235649018 0.30756264321984922 0 0.36246687595182442 0.30494518477727961 0 0.36246687595182442 0.30494518477727961 0 0.37008896088821891 0.27907488192658342 0 0.38127772340545701 0.29855436992749679 0 0.3503635169770366 0.28966006865463678 0 0.36246687595182442 0.30494518477727961 0 0.37008896088821891 0.27907488192658342 0 0.37008896088821891 0.27907488192658342 0 0.35728584731017871 0.25731187227922109 0 0.35441181453934328 0.27463334472066592 0 0.37008896088821891 0.27907488192658342 0 0.35728584731017871 0.25731187227922109 0 0.38511047713535562 0.2623718011005241 0 0.35728584731017871 0.25731187227922109 0 0.38511047713535562 0.2623718011005241 0 0.37293454716760283 0.2396311516560117 0 0.35728584731017871 0.25731187227922109 0 0.38511047713535562 0.2623718011005241 0 0.33854302537622011 0.27351786473126699 0 0.3503635169770366 0.28966006865463678 0 0.35441181453934328 0.27463334472066592 0 0.33854302537622011 0.27351786473126699 0 0.35728584731017871 0.25731187227922109 0 0.35441181453934328 0.27463334472066592 0 0.3503635169770366 0.28966006865463678 0 0.37008896088821891 0.27907488192658342 0 0.35441181453934328 0.27463334472066592 0 0.4059739891301799 0.26616584566893298 0 0.38511047713535562 0.2623718011005241 0 0.39575362435311728 0.2822497143692822 0 0.4059739891301799 0.26616584566893298 0 0.39575362435311728 0.2822497143692822 0 0.41466985898722469 0.28617745239982811 0 0.4059739891301799 0.26616584566893298 0 0.38511047713535562 0.2623718011005241 0 0.39933451681408499 0.24222051247515669 0 0.4059739891301799 0.26616584566893298 0 0.38511047713535562 0.2623718011005241 0 0.38511047713535562 0.2623718011005241 0 0.37293454716760283 0.2396311516560117 0 0.37008896088821891 0.27907488192658342 0 0.38511047713535562 0.2623718011005241 0 0.39575362435311728 0.2822497143692822 0 0.38511047713535562 0.2623718011005241 0 0.39575362435311728 0.2822497143692822 0 0.37008896088821891 0.27907488192658342 0 0.38127772340545701 0.29855436992749679 0 0.39575362435311728 0.2822497143692822 0 0.38127772340545701 0.29855436992749679 0 0.39341545683502421 0.31015448597301559 0 0.38634354889032002 0.32367976249598251 0 0.38127772340545701 0.29855436992749679 0 0.38634354889032002 0.32367976249598251 0 0.36246687595182442 0.30494518477727961 0 0.38127772340545701 0.29855436992749679 0 0.38634354889032002 0.32367976249598251 0 0.38127772340545701 0.29855436992749679 0 0.39341545683502421 0.31015448597301559 0 0.40639677157087911 0.30212762763804019 0 0.39341545683502421 0.31015448597301559 0 0.40639677157087911 0.30212762763804019 0 0.4081981699382346 0.3139513768470385 0 0.39575362435311728 0.2822497143692822 0 0.40639677157087911 0.30212762763804019 0 0.38127772340545701 0.29855436992749679 0 0.39575362435311728 0.2822497143692822 0 0.40639677157087911 0.30212762763804019 0 0.39575362435311728 0.2822497143692822 0 0.41466985898722469 0.28617745239982811 0 0.40639677157087911 0.30212762763804019 0 0.41466985898722469 0.28617745239982811 0 0.40639677157087911 0.30212762763804019 0 0.42063747895650733 0.30228076741981708 0 0.40639677157087911 0.30212762763804019 0 0.417039918788641 0.32200554090679828 0 0.40639677157087911 0.30212762763804019 0 0.42063747895650733 0.30228076741981708 0 0.41590325438833858 0.31571238371771643 0 0.42063747895650733 0.30228076741981708 0 0.43554340190627211 0.31006971119553528 0 0.43241978878766019 0.29428086906555412 0 0.42063747895650733 0.30228076741981708 0 0.43554340190627211 0.31006971119553528 0 0.41590325438833858 0.31571238371771643 0 0.43241978878766019 0.29428086906555412 0 0.42683750112500368 0.26995989023734401 0 0.43795337608323548 0.28151673092589807 0 0.41466985898722469 0.28617745239982811 0 0.43241978878766019 0.29428086906555412 0 0.42683750112500368 0.26995989023734401 0 0.43241978878766019 0.29428086906555412 0 0.42683750112500368 0.26995989023734401 0 0.41466985898722469 0.28617745239982811 0 0.42063747895650733 0.30228076741981708 0 0.43241978878766019 0.29428086906555412 0 0.4059739891301799 0.26616584566893298 0 0.42683750112500368 0.26995989023734401 0 0.4059739891301799 0.26616584566893298 0 0.41466985898722469 0.28617745239982811 0 0.42683750112500368 0.26995989023734401 0 0.4059739891301799 0.26616584566893298 0 0.42683750112500368 0.26995989023734401 0 0.42092918023873821 0.24421844589255121 0 0.4059739891301799 0.26616584566893298 0 0.39933451681408499 0.24222051247515669 0 0.42092918023873821 0.24421844589255121 0 0.42683750112500368 0.26995989023734401 0 0.44089414042045799 0.25771217685885472 0 0.42092918023873821 0.24421844589255121 0 0.42683750112500368 0.26995989023734401 0 0.42092918023873821 0.24421844589255121 0 0.44089414042045799 0.25771217685885472 0 0.45301423403414209 0.26007999789895508 0 0.4569230610569987 0.24819013429900669 0 0.44089414042045799 0.25771217685885472 0 0.45301423403414209 0.26007999789895508 0 0.44973892600361531 0.27412453072026172 0 0.42683750112500368 0.26995989023734401 0 0.44089414042045799 0.25771217685885472 0 0.44973892600361531 0.27412453072026172 0 0.42683750112500368 0.26995989023734401 0 0.44973892600361531 0.27412453072026172 0 0.43795337608323548 0.28151673092589807 0 0.42683750112500368 0.26995989023734401 0 0.44973892600361531 0.27412453072026172 0 0.44973892600361531 0.27412453072026172 0 0.46478170596961249 0.26323965275109401 0 0.47264035088222628 0.27828917120318131 0 0.44973892600361531 0.27412453072026172 0 0.47264035088222628 0.27828917120318131 0 0.44973892600361531 0.27412453072026172 0 0.47264035088222628 0.27828917120318131 0 0.46226850420995219 0.28814127863090738 0 0.45301423403414209 0.26007999789895508 0 0.44973892600361531 0.27412453072026172 0 0.46478170596961249 0.26323965275109401 0 0.46478170596961249 0.26323965275109401 0 0.47264035088222628 0.27828917120318131 0 0.46478170596961249 0.26323965275109401 0 0.4569230610569987 0.24819013429900669 0 0.45301423403414209 0.26007999789895508 0 0.46478170596961249 0.26323965275109401 0 0.4569230610569987 0.24819013429900669 0 0.46478170596961249 0.26323965275109401 0 0.46750550623703407 0.25349570762290419 0 0.47341939214644252 0.26170481890296848 0 0.46478170596961249 0.26323965275109401 0 0.46750550623703407 0.25349570762290419 0 0.4569230610569987 0.24819013429900669 0 0.47341939214644252 0.26170481890296848 0 0.48489893488970792 0.25686202981026901 0 0.47278153852907701 0.24486280325581439 0 0.46750550623703407 0.25349570762290419 0 0.47341939214644252 0.26170481890296848 0 0.47278153852907701 0.24486280325581439 0 0.47341939214644252 0.26170481890296848 0 0.47278153852907701 0.24486280325581439 0 0.47341939214644252 0.26170481890296848 0 0.48000757765913032 0.26759533659828072 0 0.48489893488970792 0.25686202981026901 0 0.47341939214644252 0.26170481890296848 0 0.47405724576380859 0.27854683455012252 0 0.48000757765913032 0.26759533659828072 0 0.47341939214644252 0.26170481890296848 0 0.47264035088222628 0.27828917120318131 0 0.47405724576380859 0.27854683455012252 0 0.46478170596961249 0.26323965275109401 0 0.47341939214644252 0.26170481890296848 0 0.47264035088222628 0.27828917120318131 0 0.47405724576380859 0.27854683455012252 0 0.47415752390174082 0.28119459874267072 0 0.50000000000001354 0.28326454295050368 0 0.47341939214644252 0.26170481890296848 0 0.47405724576380859 0.27854683455012252 0 0.47264035088222628 0.27828917120318131 0 0.47405724576380859 0.27854683455012252 0 0.47405724576380859 0.27854683455012252 0 0.47415752390174082 0.28119459874267072 0 0.47264035088222628 0.27828917120318131 0 0.47405724576380859 0.27854683455012252 0 0.47415752390174082 0.28119459874267072 0 0.47264035088222628 0.27828917120318131 0 0.47415752390174082 0.28119459874267072 0 0.47405724576380859 0.27854683455012252 0 0.48000757765913032 0.26759533659828072 0 0.48909471086131839 0.26954423778064313 0 0.47405724576380859 0.27854683455012252 0 0.50000000000001354 0.28326454295050368 0 0.47405724576380859 0.27854683455012252 0 0.48909471086131839 0.26954423778064313 0 0.50000000000001354 0.28326454295050368 0 0.48909471086131839 0.26954423778064313 0 0.5 0.25553121794514477 0 0.50000000000001354 0.28326454295050368 0 0.5 0.25553121794514477 0 0.48489893488970792 0.25686202981026901 0 0.48903365503734891 0.24299047468837701 0 0.48909471086131839 0.26954423778064313 0 0.5 0.25553121794514477 0 0.48489893488970792 0.25686202981026901 0 0.48000757765913032 0.26759533659828072 0 0.48909471086131839 0.26954423778064313 0 0.48489893488970792 0.25686202981026901 0 0.48223131843763373 0.29665613456690521 0 0.49274985611107969 0.31679941989990179 0 0.48223131843763373 0.29665613456690521 0 0.49274985611107969 0.31679941989990179 0 0.48532411314893581 0.31403081790115361 0 0.49298554246438231 0.30475618362627349 0 0.48223131843763373 0.29665613456690521 0 0.49274985611107969 0.31679941989990179 0 0.49298554246438231 0.30475618362627349 0 0.4969609953088156 0.2924242547978898 0 0.5 0.31314492524039728 0 0.49298554246438231 0.30475618362627349 0 0.4969609953088156 0.2924242547978898 0 0.48223131843763373 0.29665613456690521 0 0.49298554246438231 0.30475618362627349 0 0.49274985611107969 0.31679941989990179 0 0.5 0.31314492524039728 0 0.4969609953088156 0.2924242547978898 0 0.50000000000001354 0.28326454295050368 0 0.5 0.31314492524039728 0 0.47415752390174082 0.28119459874267072 0 0.4969609953088156 0.2924242547978898 0 0.50000000000001354 0.28326454295050368 0 0.47415752390174082 0.28119459874267072 0 0.4969609953088156 0.2924242547978898 0 0.48223131843763373 0.29665613456690521 0 0.4969609953088156 0.2924242547978898 0 0.48223131843763373 0.29665613456690521 0 0.47415752390174082 0.28119459874267072 0 0.47482369694213911 0.29878436615117387 0 0.47415752390174082 0.28119459874267072 0 0.47482369694213911 0.29878436615117387 0 0.46226850420995219 0.28814127863090738 0 0.47415752390174082 0.28119459874267072 0 0.48223131843763373 0.29665613456690521 0 0.47482369694213911 0.29878436615117387 0 0.47415752390174082 0.28119459874267072 0 0.48223131843763373 0.29665613456690521 0 0.47264035088222628 0.27828917120318131 0 0.47415752390174082 0.28119459874267072 0 0.46226850420995219 0.28814127863090738 0 0.48223131843763373 0.29665613456690521 0 0.48022688714188239 0.30485617861310249 0 0.48532411314893581 0.31403081790115361 0 0.47482369694213911 0.29878436615117387 0 0.4785284200388214 0.30995339583317788 0 0.47567910166728178 0.32137064515506791 0 0.47482369694213911 0.29878436615117387 0 0.46683928615616721 0.31034493157342358 0 0.47567910166728178 0.32137064515506791 0 0.47482369694213911 0.29878436615117387 0 0.47567910166728178 0.32137064515506791 0 0.47482369694213911 0.29878436615117387 0 0.48022688714188239 0.30485617861310249 0 0.4785284200388214 0.30995339583317788 0 0.48223131843763373 0.29665613456690521 0 0.47482369694213911 0.29878436615117387 0 0.48022688714188239 0.30485617861310249 0 0.48223131843763373 0.29665613456690521 0 0.47482369694213911 0.29878436615117387 0 0.48022688714188239 0.30485617861310249 0 0.4785284200388214 0.30995339583317788 0 0.48532411314893581 0.31403081790115361 0 0.47482369694213911 0.29878436615117387 0 0.46683928615616721 0.31034493157342358 0 0.45518354942420552 0.3044270386733543 0 0.47482369694213911 0.29878436615117387 0 0.45518354942420552 0.3044270386733543 0 0.46683928615616721 0.31034493157342358 0 0.45518354942420552 0.3044270386733543 0 0.46090063033065398 0.31457074158430443 0 0.47482369694213911 0.29878436615117387 0 0.45518354942420552 0.3044270386733543 0 0.46226850420995219 0.28814127863090738 0 0.45518354942420552 0.3044270386733543 0 0.46226850420995219 0.28814127863090738 0 0.44650245416143669 0.29205179777212908 0 0.44973892600361531 0.27412453072026172 0 0.46226850420995219 0.28814127863090738 0 0.44650245416143669 0.29205179777212908 0 0.44973892600361531 0.27412453072026172 0 0.44650245416143669 0.29205179777212908 0 0.43795337608323548 0.28151673092589807 0 0.43241978878766019 0.29428086906555412 0 0.44650245416143669 0.29205179777212908 0 0.43795337608323548 0.28151673092589807 0 0.43554340190627211 0.31006971119553528 0 0.45518354942420552 0.3044270386733543 0 0.44650245416143669 0.29205179777212908 0 0.43554340190627211 0.31006971119553528 0 0.43241978878766019 0.29428086906555412 0 0.44650245416143669 0.29205179777212908 0 0.43554340190627211 0.31006971119553528 0 0.45518354942420552 0.3044270386733543 0 0.44590058407496119 0.32214035093537202 0 0.43554340190627211 0.31006971119553528 0 0.45518354942420552 0.3044270386733543 0 0.44438162939182968 0.33527616080122319 0 0.43941431748234389 0.34697694962204328 0 0.43138153093963261 0.33684778794266318 0 0.44438162939182968 0.33527616080122319 0 0.43138153093963261 0.33684778794266318 0 0.43736796180383269 0.33070162376080392 0 0.44590058407496119 0.32214035093537202 0 0.44438162939182968 0.33527616080122319 0 0.43736796180383269 0.33070162376080392 0 0.44590058407496119 0.32214035093537202 0 0.44438162939182968 0.33527616080122319 0 0.45938090137280319 0.33331169935871768 0 0.44438162939182968 0.33527616080122319 0 0.45466128638888681 0.34537342559846479 0 0.43941431748234389 0.34697694962204328 0 0.44438162939182968 0.33527616080122319 0 0.45938090137280319 0.33331169935871768 0 0.45466128638888681 0.34537342559846479 0 0.45938090137280319 0.33331169935871768 0 0.47648750655815691 0.34271593104932652 0 0.45466128638888681 0.34537342559846479 0 0.45518354942420552 0.3044270386733543 0 0.44590058407496119 0.32214035093537202 0 0.46090063033065398 0.31457074158430443 0 0.44590058407496119 0.32214035093537202 0 0.47567910166728178 0.32137064515506791 0 0.44590058407496119 0.32214035093537202 0 0.45938090137280319 0.33331169935871768 0 0.47567910166728178 0.32137064515506791 0 0.44590058407496119 0.32214035093537202 0 0.46090063033065398 0.31457074158430443 0 0.47567910166728178 0.32137064515506791 0 0.46683928615616721 0.31034493157342358 0 0.46090063033065398 0.31457074158430443 0 0.47567910166728178 0.32137064515506791 0 0.4785284200388214 0.30995339583317788 0 0.48037384835626529 0.31664076505113292 0 0.47567910166728178 0.32137064515506791 0 0.48037384835626529 0.31664076505113292 0 0.48196375857002199 0.32120820131513239 0 0.47567910166728178 0.32137064515506791 0 0.48037384835626529 0.31664076505113292 0 0.48196375857002199 0.32120820131513239 0 0.48532411314893581 0.31403081790115361 0 0.4785284200388214 0.30995339583317788 0 0.48037384835626529 0.31664076505113292 0 0.48532411314893581 0.31403081790115361 0 0.48196375857002199 0.32120820131513239 0 0.48271443300740718 0.32966898805558448 0 0.48700966075600671 0.32276244140519528 0 0.48196375857002199 0.32120820131513239 0 0.47567910166728178 0.32137064515506791 0 0.48271443300740718 0.32966898805558448 0 0.48196375857002199 0.32120820131513239 0 0.47567910166728178 0.32137064515506791 0 0.47567910166728178 0.32137064515506791 0 0.47648750655815691 0.34271593104932652 0 0.47567910166728178 0.32137064515506791 0 0.47648750655815691 0.34271593104932652 0 0.48271443300740718 0.32966898805558448 0 0.45938090137280319 0.33331169935871768 0 0.47567910166728178 0.32137064515506791 0 0.47648750655815691 0.34271593104932652 0 0.47648750655815691 0.34271593104932652 0 0.48271443300740718 0.32966898805558448 0 0.49227852706914571 0.3310448133387906 0 0.47648750655815691 0.34271593104932652 0 0.5 0.34302530753029081 0 0.49227852706914571 0.3310448133387906 0 0.5 0.34302530753029081 0 0.49227852706914571 0.3310448133387906 0 0.5 0.31314492524039728 0 0.49227852706914571 0.3310448133387906 0 0.49274985611107969 0.31679941989990179 0 0.5 0.31314492524039728 0 0.48196375857002199 0.32120820131513239 0 0.48532411314893581 0.31403081790115361 0 0.48700966075600671 0.32276244140519528 0 0.49274985611107969 0.31679941989990179 0 0.48532411314893581 0.31403081790115361 0 0.48700966075600671 0.32276244140519528 0 0.48271443300740718 0.32966898805558448 0 0.49227852706914571 0.3310448133387906 0 0.48700966075600671 0.32276244140519528 0 0.49227852706914571 0.3310448133387906 0 0.49274985611107969 0.31679941989990179 0 0.48700966075600671 0.32276244140519528 0 0.5 0.37290568982018429 0 0.48906820236105919 0.3579654986752378 0 0.48477613844387402 0.38021688004838439 0 0.47648750655815691 0.34271593104932652 0 0.5 0.34302530753029081 0 0.48906820236105919 0.3579654986752378 0 0.5 0.34302530753029081 0 0.5 0.37290568982018429 0 0.48906820236105919 0.3579654986752378 0 0.47648750655815691 0.34271593104932652 0 0.4736556537454587 0.3678330253399309 0 0.4628011452372443 0.35721885356897543 0 0.47648750655815691 0.34271593104932652 0 0.48906820236105919 0.3579654986752378 0 0.4736556537454587 0.3678330253399309 0 0.48906820236105919 0.3579654986752378 0 0.4736556537454587 0.3678330253399309 0 0.48477613844387402 0.38021688004838439 0 0.4736556537454587 0.3678330253399309 0 0.45151374504626951 0.36758660991241321 0 0.46980882541715813 0.38208294099771128 0 0.4736556537454587 0.3678330253399309 0 0.4628011452372443 0.35721885356897543 0 0.45151374504626951 0.36758660991241321 0 0.47648750655815691 0.34271593104932652 0 0.4628011452372443 0.35721885356897543 0 0.45466128638888681 0.34537342559846479 0 0.4628011452372443 0.35721885356897543 0 0.45466128638888681 0.34537342559846479 0 0.45151374504626951 0.36758660991241321 0 0.43941431748234389 0.34697694962204328 0 0.45151374504626951 0.36758660991241321 0 0.43248649325656402 0.35912170041613489 0 0.45466128638888681 0.34537342559846479 0 0.43941431748234389 0.34697694962204328 0 0.45151374504626951 0.36758660991241321 0 0.45151374504626951 0.36758660991241321 0 0.4343808670510142 0.37207818795490849 0 0.43248649325656402 0.35912170041613489 0 0.4343808670510142 0.37207818795490849 0 0.41565945607251759 0.36236511110304392 0 0.42235721568131929 0.38220686924127689 0 0.4343808670510142 0.37207818795490849 0 0.41565945607251759 0.36236511110304392 0 0.43248649325656402 0.35912170041613489 0 0.41565945607251759 0.36236511110304392 0 0.40683499004542412 0.37566900985645529 0 0.42235721568131929 0.38220686924127689 0 0.41565945607251759 0.36236511110304392 0 0.42423344021441339 0.3469403641650044 0 0.40881868850316022 0.34319093436892228 0 0.41565945607251759 0.36236511110304392 0 0.40881868850316022 0.34319093436892228 0 0.40255325820206211 0.35440744329028528 0 0.41565945607251759 0.36236511110304392 0 0.42423344021441339 0.3469403641650044 0 0.43248649325656402 0.35912170041613489 0 0.43941431748234389 0.34697694962204328 0 0.42423344021441339 0.3469403641650044 0 0.43248649325656402 0.35912170041613489 0 0.43941431748234389 0.34697694962204328 0 0.42423344021441339 0.3469403641650044 0 0.43138153093963261 0.33684778794266318 0 0.43138153093963261 0.33684778794266318 0 0.43736796180383269 0.33070162376080392 0 0.42780810280890752 0.32854219536395729 0 0.43138153093963261 0.33684778794266318 0 0.42780810280890752 0.32854219536395729 0 0.41974391964010321 0.33544292333485398 0 0.42780810280890752 0.32854219536395729 0 0.41816216709540432 0.32913892271221878 0 0.41974391964010321 0.33544292333485398 0 0.42423344021441339 0.3469403641650044 0 0.43138153093963261 0.33684778794266318 0 0.41974391964010321 0.33544292333485398 0 0.44590058407496119 0.32214035093537202 0 0.417039918788641 0.32200554090679828 0 0.43554340190627211 0.31006971119553528 0 0.42610184512817068 0.31856760869421968 0 0.41590325438833858 0.31571238371771643 0 0.44590058407496119 0.32214035093537202 0 0.42610184512817068 0.31856760869421968 0 0.417039918788641 0.32200554090679828 0 0.44590058407496119 0.32214035093537202 0 0.42780810280890752 0.32854219536395729 0 0.417039918788641 0.32200554090679828 0 0.44590058407496119 0.32214035093537202 0 0.43736796180383269 0.33070162376080392 0 0.42780810280890752 0.32854219536395729 0 0.43554340190627211 0.31006971119553528 0 0.41590325438833858 0.31571238371771643 0 0.43554340190627211 0.31006971119553528 0 0.44590058407496119 0.32214035093537202 0 0.42610184512817068 0.31856760869421968 0 0.40639677157087911 0.30212762763804019 0 0.417039918788641 0.32200554090679828 0 0.4081981699382346 0.3139513768470385 0 0.40639677157087911 0.30212762763804019 0 0.41590325438833858 0.31571238371771643 0 0.417039918788641 0.32200554090679828 0 0.42610184512817068 0.31856760869421968 0 0.41590325438833858 0.31571238371771643 0 0.417039918788641 0.32200554090679828 0 0.417039918788641 0.32200554090679828 0 0.41816216709540432 0.32913892271221878 0 0.41176425843116088 0.33156610519561941 0 0.42780810280890752 0.32854219536395729 0 0.417039918788641 0.32200554090679828 0 0.41816216709540432 0.32913892271221878 0 0.42423344021441339 0.3469403641650044 0 0.41974391964010321 0.33544292333485398 0 0.40881868850316022 0.34319093436892228 0 0.41816216709540432 0.32913892271221878 0 0.41974391964010321 0.33544292333485398 0 0.41176425843116088 0.33156610519561941 0 0.417039918788641 0.32200554090679828 0 0.41176425843116088 0.33156610519561941 0 0.40171431040203109 0.33103781916521291 0 0.41176425843116088 0.33156610519561941 0 0.40881868850316022 0.34319093436892228 0 0.40171431040203109 0.33103781916521291 0 0.41974391964010321 0.33544292333485398 0 0.41176425843116088 0.33156610519561941 0 0.40881868850316022 0.34319093436892228 0 0.40171431040203109 0.33103781916521291 0 0.38634354889032002 0.32367976249598251 0 0.39069281237429682 0.34525116339505252 0 0.40881868850316022 0.34319093436892228 0 0.40171431040203109 0.33103781916521291 0 0.39069281237429682 0.34525116339505252 0 0.417039918788641 0.32200554090679828 0 0.40171431040203109 0.33103781916521291 0 0.38634354889032002 0.32367976249598251 0 0.417039918788641 0.32200554090679828 0 0.4081981699382346 0.3139513768470385 0 0.38634354889032002 0.32367976249598251 0 0.39341545683502421 0.31015448597301559 0 0.4081981699382346 0.3139513768470385 0 0.38634354889032002 0.32367976249598251 0 0.417039918788641 0.32200554090679828 0 0.38634354889032002 0.32367976249598251 0 0.38634354889032002 0.32367976249598251 0 0.39069281237429682 0.34525116339505252 0 0.37418757138316661 0.34003979241565702 0 0.38634354889032002 0.32367976249598251 0 0.39069281237429682 0.34525116339505252 0 0.37418757138316661 0.34003979241565702 0 0.38014707859742553 0.358601566133181 0 0.39069281237429682 0.34525116339505252 0 0.38014707859742553 0.358601566133181 0 0.39504207585827378 0.36682256429412252 0 0.39069281237429682 0.34525116339505252 0 0.36927583114563117 0.37168826674887129 0 0.38014707859742553 0.358601566133181 0 0.3861818138235471 0.37714139125663793 0 0.38014707859742553 0.358601566133181 0 0.39504207585827378 0.36682256429412252 0 0.3861818138235471 0.37714139125663793 0 0.41565945607251759 0.36236511110304392 0 0.39504207585827378 0.36682256429412252 0 0.40683499004542412 0.37566900985645529 0 0.41565945607251759 0.36236511110304392 0 0.39504207585827378 0.36682256429412252 0 0.40255325820206211 0.35440744329028528 0 0.39504207585827378 0.36682256429412252 0 0.40255325820206211 0.35440744329028528 0 0.39069281237429682 0.34525116339505252 0 0.40881868850316022 0.34319093436892228 0 0.40255325820206211 0.35440744329028528 0 0.39069281237429682 0.34525116339505252 0 0.39504207585827378 0.36682256429412252 0 0.39069281237429682 0.34525116339505252 0 0.3993913393422508 0.38839396519319253 0 0.39020643165102042 0.40750290438779102 0 0.40342788129008578 0.41136751416027151 0 0.3993913393422508 0.38839396519319253 0 0.40342788129008578 0.41136751416027151 0 0.41247484703898341 0.39668929567888889 0 0.3993913393422508 0.38839396519319253 0 0.38594138320053972 0.39504117240748449 0 0.39020643165102042 0.40750290438779102 0 0.39504207585827378 0.36682256429412252 0 0.3993913393422508 0.38839396519319253 0 0.40683499004542412 0.37566900985645529 0 0.39504207585827378 0.36682256429412252 0 0.3993913393422508 0.38839396519319253 0 0.39504207585827378 0.36682256429412252 0 0.3993913393422508 0.38839396519319253 0 0.3861818138235471 0.37714139125663793 0 0.3993913393422508 0.38839396519319253 0 0.41247484703898341 0.39668929567888889 0 0.40683499004542412 0.37566900985645529 0 0.36927583114563117 0.37168826674887129 0 0.38594138320053972 0.39504117240748449 0 0.3993913393422508 0.38839396519319253 0 0.3861818138235471 0.37714139125663793 0 0.38594138320053972 0.39504117240748449 0 0.36927583114563117 0.37168826674887129 0 0.3861818138235471 0.37714139125663793 0 0.38594138320053972 0.39504117240748449 0 0.36672310374365391 0.3972274770167053 0 0.38594138320053972 0.39504117240748449 0 0.37714557779446961 0.40580011292323048 0 0.38594138320053972 0.39504117240748449 0 0.37714557779446961 0.40580011292323048 0 0.39020643165102042 0.40750290438779102 0 0.37714557779446961 0.40580011292323048 0 0.39020643165102042 0.40750290438779102 0 0.37786999239799629 0.42201923841731348 0 0.39020643165102042 0.40750290438779102 0 0.37786999239799629 0.42201923841731348 0 0.39620875860206523 0.42610388639599522 0 0.3672128213662551 0.44140310366938379 0 0.37786999239799629 0.42201923841731348 0 0.38861509636247821 0.44175005125570632 0 0.37786999239799629 0.42201923841731348 0 0.39620875860206523 0.42610388639599522 0 0.38861509636247821 0.44175005125570632 0 0.39620875860206523 0.42610388639599522 0 0.40342788129008578 0.41136751416027151 0 0.4165515890159211 0.43106581875832262 0 0.39020643165102042 0.40750290438779102 0 0.39620875860206523 0.42610388639599522 0 0.40342788129008578 0.41136751416027151 0 0.40342788129008578 0.41136751416027151 0 0.4194649070479346 0.41075775866906961 0 0.4165515890159211 0.43106581875832262 0 0.40342788129008578 0.41136751416027151 0 0.4194649070479346 0.41075775866906961 0 0.41247484703898341 0.39668929567888889 0 0.39620875860206523 0.42610388639599522 0 0.4165515890159211 0.43106581875832262 0 0.40679533173472487 0.44514780784289609 0 0.4165515890159211 0.43106581875832262 0 0.44107028692003247 0.43153611533185032 0 0.4165515890159211 0.43106581875832262 0 0.43527838440837918 0.41507327228856877 0 0.44107028692003247 0.43153611533185032 0 0.4194649070479346 0.41075775866906961 0 0.4165515890159211 0.43106581875832262 0 0.43527838440837918 0.41507327228856877 0 0.4194649070479346 0.41075775866906961 0 0.43527838440837918 0.41507327228856877 0 0.42844040697821201 0.39890611008127758 0 0.43527838440837918 0.41507327228856877 0 0.42844040697821201 0.39890611008127758 0 0.44356544647064411 0.40084295107477419 0 0.42844040697821201 0.39890611008127758 0 0.43978627658039499 0.38550810048347522 0 0.44356544647064411 0.40084295107477419 0 0.4194649070479346 0.41075775866906961 0 0.42844040697821201 0.39890611008127758 0 0.41247484703898341 0.39668929567888889 0 0.42844040697821201 0.39890611008127758 0 0.41247484703898341 0.39668929567888889 0 0.42235721568131929 0.38220686924127689 0 0.41247484703898341 0.39668929567888889 0 0.40683499004542412 0.37566900985645529 0 0.42235721568131929 0.38220686924127689 0 0.4343808670510142 0.37207818795490849 0 0.42235721568131929 0.38220686924127689 0 0.43978627658039499 0.38550810048347522 0 0.42844040697821201 0.39890611008127758 0 0.42235721568131929 0.38220686924127689 0 0.43978627658039499 0.38550810048347522 0 0.45151374504626951 0.36758660991241321 0 0.4343808670510142 0.37207818795490849 0 0.43978627658039499 0.38550810048347522 0 0.45151374504626951 0.36758660991241321 0 0.43978627658039499 0.38550810048347522 0 0.45722528454721961 0.3906654768237981 0 0.43978627658039499 0.38550810048347522 0 0.44356544647064411 0.40084295107477419 0 0.45722528454721961 0.3906654768237981 0 0.44356544647064411 0.40084295107477419 0 0.45722528454721961 0.3906654768237981 0 0.45594545333092312 0.41337501331873322 0 0.45722528454721961 0.3906654768237981 0 0.47568108772685191 0.39367102650606373 0 0.46881626912638691 0.40427363304328218 0 0.45722528454721961 0.3906654768237981 0 0.46881626912638691 0.40427363304328218 0 0.45594545333092312 0.41337501331873322 0 0.45151374504626951 0.36758660991241321 0 0.45722528454721961 0.3906654768237981 0 0.46980882541715813 0.38208294099771128 0 0.45722528454721961 0.3906654768237981 0 0.46980882541715813 0.38208294099771128 0 0.47568108772685191 0.39367102650606373 0 0.4736556537454587 0.3678330253399309 0 0.46980882541715813 0.38208294099771128 0 0.48477613844387402 0.38021688004838439 0 0.47568108772685191 0.39367102650606373 0 0.48702766555901961 0.39491075051184021 0 0.48477613844387402 0.38021688004838439 0 0.46980882541715813 0.38208294099771128 0 0.47568108772685191 0.39367102650606373 0 0.48477613844387402 0.38021688004838439 0 0.47568108772685191 0.39367102650606373 0 0.46881626912638691 0.40427363304328218 0 0.48151606592710777 0.40452093291302588 0 0.47568108772685191 0.39367102650606373 0 0.48151606592710777 0.40452093291302588 0 0.48702766555901961 0.39491075051184021 0 0.48702766555901961 0.39491075051184021 0 0.49874079622209128 0.38660437256818281 0 0.49442423947517328 0.40954054052354433 0 0.5 0.40278607211007789 0 0.49874079622209128 0.38660437256818281 0 0.49442423947517328 0.40954054052354433 0 0.49874079622209128 0.38660437256818281 0 0.49442423947517328 0.40954054052354433 0 0.48151606592710777 0.40452093291302588 0 0.48702766555901961 0.39491075051184021 0 0.49442423947517328 0.40954054052354433 0 0.5 0.37290568982018429 0 0.5 0.40278607211007789 0 0.49874079622209128 0.38660437256818281 0 0.5 0.37290568982018429 0 0.49874079622209128 0.38660437256818281 0 0.48477613844387402 0.38021688004838439 0 0.48702766555901961 0.39491075051184021 0 0.49874079622209128 0.38660437256818281 0 0.48477613844387402 0.38021688004838439 0 0.49010768272825528 0.43247670847890568 0 0.49999999999999839 0.43266645439997159 0 0.49442423947517328 0.40954054052354433 0 0.49010768272825528 0.43247670847890568 0 0.49999999999999839 0.43266645439997159 0 0.5 0.40278607211007789 0 0.49999999999999839 0.43266645439997159 0 0.49442423947517328 0.40954054052354433 0 0.49010768272825528 0.43247670847890568 0 0.49442423947517328 0.40954054052354433 0 0.47768739680387268 0.41777805257305989 0 0.48151606592710777 0.40452093291302588 0 0.49442423947517328 0.40954054052354433 0 0.47768739680387268 0.41777805257305989 0 0.49010768272825528 0.43247670847890568 0 0.49442423947517328 0.40954054052354433 0 0.46881626912638691 0.40427363304328218 0 0.48151606592710777 0.40452093291302588 0 0.47768739680387268 0.41777805257305989 0 0.49010768272825528 0.43247670847890568 0 0.47768739680387268 0.41777805257305989 0 0.4655889848241439 0.43200641190537797 0 0.49010768272825528 0.43247670847890568 0 0.4655889848241439 0.43200641190537797 0 0.47536631759922843 0.44556886167195853 0 0.49010768272825528 0.43247670847890568 0 0.4655889848241439 0.43200641190537797 0 0.4655889848241439 0.43200641190537797 0 0.44107028692003247 0.43153611533185032 0 0.4655889848241439 0.43200641190537797 0 0.45594545333092312 0.41337501331873322 0 0.44107028692003247 0.43153611533185032 0 0.4655889848241439 0.43200641190537797 0 0.44107028692003247 0.43153611533185032 0 0.4606865760628292 0.44801704672434101 0 0.47768739680387268 0.41777805257305989 0 0.4655889848241439 0.43200641190537797 0 0.45594545333092312 0.41337501331873322 0 0.46881626912638691 0.40427363304328218 0 0.47768739680387268 0.41777805257305989 0 0.45594545333092312 0.41337501331873322 0 0.43527838440837918 0.41507327228856877 0 0.45594545333092312 0.41337501331873322 0 0.44107028692003247 0.43153611533185032 0 0.43527838440837918 0.41507327228856877 0 0.44356544647064411 0.40084295107477419 0 0.45594545333092312 0.41337501331873322 0 0.49999999999999839 0.43266645439997159 0 0.48505572566105232 0.45932045051458531 0 0.5 0.5 0 0.44107028692003247 0.43153611533185032 0 0.44376664188615123 0.45979150936037488 0 0.4606865760628292 0.44801704672434101 0 0.44376664188615123 0.45979150936037488 0 0.46112241578244989 0.46478661640483648 0 0.45121200239437631 0.4807671998253365 0 0.44376664188615123 0.45979150936037488 0 0.46112241578244989 0.46478661640483648 0 0.4606865760628292 0.44801704672434101 0 0.46112241578244989 0.46478661640483648 0 0.4606865760628292 0.44801704672434101 0 0.47539261871986088 0.45602369073658289 0 0.4655889848241439 0.43200641190537797 0 0.4606865760628292 0.44801704672434101 0 0.47536631759922843 0.44556886167195853 0 0.49010768272825528 0.43247670847890568 0 0.47536631759922843 0.44556886167195853 0 0.48505572566105232 0.45932045051458531 0 0.4606865760628292 0.44801704672434101 0 0.47536631759922843 0.44556886167195853 0 0.47539261871986088 0.45602369073658289 0 0.47539261871986088 0.45602369073658289 0 0.47110615765410929 0.47801184536829172 0 0.47539261871986088 0.45602369073658289 0 0.48505572566105232 0.45932045051458531 0 0.47110615765410929 0.47801184536829172 0 0.46112241578244989 0.46478661640483648 0 0.47539261871986088 0.45602369073658289 0 0.47110615765410929 0.47801184536829172 0 0.47536631759922843 0.44556886167195853 0 0.47539261871986088 0.45602369073658289 0 0.48505572566105232 0.45932045051458531 0 0.49010768272825528 0.43247670847890568 0 0.48505572566105232 0.45932045051458531 0 0.49010768272825528 0.43247670847890568 0 0.49999999999999839 0.43266645439997159 0 0.48505572566105232 0.45932045051458531 0 0.48505572566105232 0.45932045051458531 0 0.5 0.5 0 0.48000376859384941 0.48616419255026477 0 0.5 0.5 0 0.48000376859384941 0.48616419255026477 0 0.46681969658835759 0.50000000000000044 0 0.48505572566105232 0.45932045051458531 0 0.47110615765410929 0.47801184536829172 0 0.48000376859384941 0.48616419255026477 0 0.48505572566105232 0.45932045051458531 0 0.48000376859384941 0.48616419255026477 0 0.47110615765410929 0.47801184536829172 0 0.46681969658835759 0.50000000000000044 0 0.47110615765410929 0.47801184536829172 0 0.48000376859384941 0.48616419255026477 0 0.46681969658835759 0.50000000000000044 0 0.47110615765410929 0.47801184536829172 0 0.46681969658835759 0.50000000000000044 0 0.45121200239437631 0.4807671998253365 0 0.46112241578244989 0.46478661640483648 0 0.47110615765410929 0.47801184536829172 0 0.45121200239437631 0.4807671998253365 0 0.44376664188615123 0.45979150936037488 0 0.45121200239437631 0.4807671998253365 0 0.42408561830569141 0.47732830779616442 0 0.46681969658835759 0.50000000000000044 0 0.45121200239437631 0.4807671998253365 0 0.43971230006436901 0.5 0 0.45121200239437631 0.4807671998253365 0 0.43971230006436901 0.5 0 0.42408561830569141 0.47732830779616442 0 0.43971230006436901 0.5 0 0.41260490354038032 0.5 0 0.42408561830569141 0.47732830779616442 0 0.41260490354038032 0.5 0 0.42408561830569141 0.47732830779616442 0 0.40044085355502113 0.48368683573266119 0 0.42408561830569141 0.47732830779616442 0 0.40050545668784993 0.46242548604636152 0 0.40044085355502113 0.48368683573266119 0 0.44376664188615123 0.45979150936037488 0 0.42408561830569141 0.47732830779616442 0 0.42267709028742451 0.45339185591380432 0 0.44107028692003247 0.43153611533185032 0 0.44376664188615123 0.45979150936037488 0 0.42267709028742451 0.45339185591380432 0 0.4165515890159211 0.43106581875832262 0 0.44107028692003247 0.43153611533185032 0 0.42267709028742451 0.45339185591380432 0 0.4165515890159211 0.43106581875832262 0 0.42267709028742451 0.45339185591380432 0 0.40679533173472487 0.44514780784289609 0 0.42408561830569141 0.47732830779616442 0 0.42267709028742451 0.45339185591380432 0 0.40050545668784993 0.46242548604636152 0 0.42267709028742451 0.45339185591380432 0 0.40679533173472487 0.44514780784289609 0 0.40050545668784993 0.46242548604636152 0 0.40679533173472487 0.44514780784289609 0 0.40050545668784993 0.46242548604636152 0 0.38861509636247821 0.44175005125570632 0 0.39620875860206523 0.42610388639599522 0 0.40679533173472487 0.44514780784289609 0 0.38861509636247821 0.44175005125570632 0 0.3672128213662551 0.44140310366938379 0 0.38861509636247821 0.44175005125570632 0 0.37565915938479377 0.45849116020829678 0 0.40050545668784993 0.46242548604636152 0 0.37565915938479377 0.45849116020829678 0 0.37951078222479251 0.47868038482078018 0 0.40050545668784993 0.46242548604636152 0 0.38861509636247821 0.44175005125570632 0 0.37565915938479377 0.45849116020829678 0 0.37951078222479251 0.47868038482078018 0 0.38549750701639152 0.5 0 0.40044085355502113 0.48368683573266119 0 0.41260490354038032 0.5 0 0.38549750701639152 0.5 0 0.40044085355502113 0.48368683573266119 0 0.40050545668784993 0.46242548604636152 0 0.37951078222479251 0.47868038482078018 0 0.40044085355502113 0.48368683573266119 0 0.3285700774521132 0.069227507684709172 0 0.34376262838779448 0.090160381808613591 0 0.3285700774521132 0.069227507684709172 0 0.34376262838779448 0.090160381808613591 0 0.3570119940846016 0.07655140493877155 0 0.3285700774521132 0.069227507684709172 0 0.31851483003181857 0.089032350953859848 0 0.34376262838779448 0.090160381808613591 0 0.3285700774521132 0.069227507684709172 0 0.31851483003181857 0.089032350953859848 0 0.30262144479489489 0.063472250579192202 0 0.31851483003181857 0.089032350953859848 0 0.32257158209111758 0.11034462767622299 0 0.33741607394213652 0.1036774965936159 0 0.31851483003181857 0.089032350953859848 0 0.32257158209111758 0.11034462767622299 0 0.29867863108980142 0.1045573716884185 0 0.32257158209111758 0.11034462767622299 0 0.32933038512457441 0.1245201253257071 0 0.3207185438207466 0.1263919595033525 0 0.32257158209111758 0.11034462767622299 0 0.31156748461804079 0.12537242366950921 0 0.3207185438207466 0.1263919595033525 0 0.32933038512457441 0.1245201253257071 0 0.34646453309243358 0.11613188366402739 0 0.34441400131097022 0.1288917011053414 0 0.32257158209111758 0.11034462767622299 0 0.33741607394213652 0.1036774965936159 0 0.34646453309243358 0.11613188366402739 0 0.32257158209111758 0.11034462767622299 0 0.34646453309243358 0.11613188366402739 0 0.32257158209111758 0.11034462767622299 0 0.32933038512457441 0.1245201253257071 0 0.34646453309243358 0.11613188366402739 0 0.31851483003181857 0.089032350953859848 0 0.33741607394213652 0.1036774965936159 0 0.34376262838779448 0.090160381808613591 0 0.35895517932347593 0.111093255932518 0 0.36286728541875429 0.096218484345557367 0 0.34376262838779448 0.090160381808613591 0 0.33741607394213652 0.1036774965936159 0 0.35895517932347593 0.111093255932518 0 0.34376262838779448 0.090160381808613591 0 0.35895517932347593 0.111093255932518 0 0.34376262838779448 0.090160381808613591 0 0.34646453309243358 0.11613188366402739 0 0.35895517932347593 0.111093255932518 0 0.37035748409374952 0.12191913965183331 0 0.34646453309243358 0.11613188366402739 0 0.37035748409374952 0.12191913965183331 0 0.33741607394213652 0.1036774965936159 0 0.34646453309243358 0.11613188366402739 0 0.35895517932347593 0.111093255932518 0 0.34646453309243358 0.11613188366402739 0 0.37035748409374952 0.12191913965183331 0 0.34441400131097022 0.1288917011053414 0 0.35895517932347593 0.111093255932518 0 0.36901916600157941 0.1100142775002767 0 0.37035748409374952 0.12191913965183331 0 0.36901916600157941 0.1100142775002767 0 0.37035748409374952 0.12191913965183331 0 0.37815432920295677 0.1109533992790251 0 0.37035748409374952 0.12191913965183331 0 0.37511757494472903 0.123072110010257 0 0.37035748409374952 0.12191913965183331 0 0.37169283910029199 0.12815165521797289 0 0.37511757494472903 0.123072110010257 0 0.36286728541875429 0.096218484345557367 0 0.37455144446510141 0.10193275935197101 0 0.37400882161871279 0.083619613235024759 0 0.35895517932347593 0.111093255932518 0 0.36901916600157941 0.1100142775002767 0 0.36286728541875429 0.096218484345557367 0 0.36901916600157941 0.1100142775002767 0 0.36286728541875429 0.096218484345557367 0 0.37455144446510141 0.10193275935197101 0 0.36901916600157941 0.1100142775002767 0 0.37455144446510141 0.10193275935197101 0 0.37815432920295677 0.1109533992790251 0 0.36286728541875429 0.096218484345557367 0 0.37400882161871279 0.083619613235024759 0 0.3570119940846016 0.07655140493877155 0 0.36286728541875429 0.096218484345557367 0 0.34376262838779448 0.090160381808613591 0 0.3570119940846016 0.07655140493877155 0 0.3285700774521132 0.069227507684709172 0 0.3570119940846016 0.07655140493877155 0 0.3540274811898364 0.057481719132925622 0 0.37400882161871279 0.083619613235024759 0 0.3570119940846016 0.07655140493877155 0 0.37883567044039879 0.062600723425798879 0 0.3570119940846016 0.07655140493877155 0 0.3540274811898364 0.057481719132925622 0 0.37883567044039879 0.062600723425798879 0 0.36884998715724038 0.048654936693666287 0 0.3540274811898364 0.057481719132925622 0 0.37883567044039879 0.062600723425798879 0 0.36884998715724038 0.048654936693666287 0 0.36096242836060388 0.032492650360987897 0 0.3540274811898364 0.057481719132925622 0 0.36884998715724038 0.048654936693666287 0 0.36096242836060388 0.032492650360987897 0 0.38366251926208489 0.041581833616573027 0 0.36096242836060388 0.032492650360987897 0 0.3540274811898364 0.057481719132925622 0 0.33343548863743699 0.044422356914628619 0 0.36096242836060388 0.032492650360987897 0 0.34150772405548108 0.025325389551572871 0 0.33343548863743699 0.044422356914628619 0 0.36096242836060388 0.032492650360987897 0 0.33343548863743699 0.044422356914628619 0 0.36934971840039982 0.01412264887454192 0 0.38120377069012762 0.010554394007073271 0 0.36845156083710567 -0.0060515153414843056 0 0.36934971840039982 0.01412264887454192 0 0.35188933009005469 0.012921367503740049 0 0.36845156083710567 -0.0060515153414843056 0 0.36096242836060388 0.032492650360987897 0 0.38848936808377088 0.020562943807347231 0 0.36096242836060388 0.032492650360987897 0 0.36934971840039982 0.01412264887454192 0 0.35188933009005469 0.012921367503740049 0 0.36096242836060388 0.032492650360987897 0 0.36934971840039982 0.01412264887454192 0 0.38848936808377088 0.020562943807347231 0 0.36096242836060388 0.032492650360987897 0 0.35188933009005469 0.012921367503740049 0 0.34150772405548108 0.025325389551572871 0 0.35188933009005469 0.012921367503740049 0 0.36845156083710567 -0.0060515153414843056 0 0.34114057903213352 -0.00099436838624600288 0 0.32992396985460443 0.01263339996306794 0 0.31382959722716158 0.0040627785689932028 0 0.34114057903213352 -0.00099436838624600288 0 0.35188933009005469 0.012921367503740049 0 0.32992396985460443 0.01263339996306794 0 0.34114057903213352 -0.00099436838624600288 0 0.32992396985460443 0.01263339996306794 0 0.34150772405548108 0.025325389551572871 0 0.32077834005703848 0.02927741351548363 0 0.35188933009005469 0.012921367503740049 0 0.32992396985460443 0.01263339996306794 0 0.34150772405548108 0.025325389551572871 0 0.32992396985460443 0.01263339996306794 0 0.32077834005703848 0.02927741351548363 0 0.31391214704691389 0.015516024244919061 0 0.32992396985460443 0.01263339996306794 0 0.31391214704691389 0.015516024244919061 0 0.31382959722716158 0.0040627785689932028 0 0.31382959722716158 0.0040627785689932028 0 0.34183048761771712 -0.0039986291523161147 0 0.31382959722716158 0.0040627785689932028 0 0.34114057903213352 -0.00099436838624600288 0 0.31382959722716158 0.0040627785689932028 0 0.30752965714041391 0.0058765203804442539 0 0.32194573769061952 -0.0077676308935595512 0 0.3285700774521132 0.069227507684709172 0 0.3540274811898364 0.057481719132925622 0 0.33343548863743699 0.044422356914628619 0 0.34150772405548108 0.025325389551572871 0 0.32077834005703848 0.02927741351548363 0 0.33343548863743699 0.044422356914628619 0 0.32077834005703848 0.02927741351548363 0 0.33343548863743699 0.044422356914628619 0 0.31337752651643169 0.04829463356080467 0 0.3285700774521132 0.069227507684709172 0 0.31337752651643169 0.04829463356080467 0 0.3285700774521132 0.069227507684709172 0 0.33343548863743699 0.044422356914628619 0 0.31337752651643169 0.04829463356080467 0 0.3285700774521132 0.069227507684709172 0 0.31337752651643169 0.04829463356080467 0 0.30262144479489489 0.063472250579192202 0 0.31337752651643169 0.04829463356080467 0 0.29190445549758398 0.041801895735158197 0 0.30262144479489489 0.063472250579192202 0 0.31337752651643169 0.04829463356080467 0 0.29818497558074802 0.027361759436901809 0 0.31337752651643169 0.04829463356080467 0 0.29190445549758398 0.041801895735158197 0 0.29818497558074802 0.027361759436901809 0 0.32077834005703848 0.02927741351548363 0 0.31337752651643169 0.04829463356080467 0 0.29818497558074802 0.027361759436901809 0 0.29190445549758398 0.041801895735158197 0 0.29818497558074802 0.027361759436901809 0 0.28149235485467722 0.028426230672526639 0 0.29190445549758398 0.041801895735158197 0 0.28562393541442521 0.056242032033416753 0 0.26921605588191849 0.040519794607793452 0 0.29190445549758398 0.041801895735158197 0 0.29818497558074802 0.027361759436901809 0 0.29190445549758398 0.041801895735158197 0 0.28562393541442521 0.056242032033416753 0 0.29190445549758398 0.041801895735158197 0 0.28562393541442521 0.056242032033416753 0 0.30262144479489489 0.063472250579192202 0 0.2978295874258669 0.0070254842464454832 0 0.30752965714041391 0.0058765203804442539 0 0.2978295874258669 0.0070254842464454832 0 0.30752965714041391 0.0058765203804442539 0 0.29396858594285019 -0.001032612778502764 0 0.31382959722716158 0.0040627785689932028 0 0.30752965714041391 0.0058765203804442539 0 0.31391214704691389 0.015516024244919061 0 0.30752965714041391 0.0058765203804442539 0 0.30398999522707459 0.014014891057021139 0 0.30752965714041391 0.0058765203804442539 0 0.30398999522707459 0.014014891057021139 0 0.31391214704691389 0.015516024244919061 0 0.31382959722716158 0.0040627785689932028 0 0.30752965714041391 0.0058765203804442539 0 0.2978295874258669 0.0070254842464454832 0 0.30752965714041391 0.0058765203804442539 0 0.30398999522707459 0.014014891057021139 0 0.2978295874258669 0.0070254842464454832 0 0.30398999522707459 0.014014891057021139 0 0.31391214704691389 0.015516024244919061 0 0.30398999522707459 0.014014891057021139 0 0.29818497558074802 0.027361759436901809 0 0.32077834005703848 0.02927741351548363 0 0.31391214704691389 0.015516024244919061 0 0.29818497558074802 0.027361759436901809 0 0.30398999522707459 0.014014891057021139 0 0.29818497558074802 0.027361759436901809 0 0.30398999522707459 0.014014891057021139 0 0.29818497558074802 0.027361759436901809 0 0.28690172397702512 0.011815266518820099 0 0.29818497558074802 0.027361759436901809 0 0.28149235485467722 0.028426230672526639 0 0.28690172397702512 0.011815266518820099 0 0.29818497558074802 0.027361759436901809 0 0.28690172397702512 0.011815266518820099 0 0.28690172397702512 0.011815266518820099 0 0.28687677889875068 0.001725005618485562 0 0.27267603034966698 -0.0077854348569651906 0 0.2978295874258669 0.0070254842464454832 0 0.30398999522707459 0.014014891057021139 0 0.28690172397702512 0.011815266518820099 0 0.2978295874258669 0.0070254842464454832 0 0.28690172397702512 0.011815266518820099 0 0.29376575238797509 0.0077779804816672602 0 0.2978295874258669 0.0070254842464454832 0 0.28690172397702512 0.011815266518820099 0 0.2978295874258669 0.0070254842464454832 0 0.28687677889875068 0.001725005618485562 0 0.29376575238797509 0.0077779804816672602 0 0.28690172397702512 0.011815266518820099 0 0.28687677889875068 0.001725005618485562 0 0.29376575238797509 0.0077779804816672602 0 0.2978295874258669 0.0070254842464454832 0 0.29376575238797509 0.0077779804816672602 0 0.28690172397702512 0.011815266518820099 0 0.26939274767164711 0.0040745279013861191 0 0.27267603034966698 -0.0077854348569651906 0 0.28690172397702512 0.011815266518820099 0 0.26440570944936082 0.018291830038140541 0 0.28690172397702512 0.011815266518820099 0 0.26939274767164711 0.0040745279013861191 0 0.26440570944936082 0.018291830038140541 0 0.28690172397702512 0.011815266518820099 0 0.27267603034966698 -0.0077854348569651906 0 0.28149235485467722 0.028426230672526639 0 0.26440570944936082 0.018291830038140541 0 0.26921605588191849 0.040519794607793452 0 0.28149235485467722 0.028426230672526639 0 0.28690172397702512 0.011815266518820099 0 0.26440570944936082 0.018291830038140541 0 0.24190969492169709 0.024768393557462999 0 0.26440570944936082 0.018291830038140541 0 0.2485551203034157 0.0102848256948572 0 0.24190969492169709 0.024768393557462999 0 0.26440570944936082 0.018291830038140541 0 0.24190969492169709 0.024768393557462999 0 0.26440570944936082 0.018291830038140541 0 0.25291178968964928 0.037547667281027097 0 0.2485551203034157 0.0102848256948572 0 0.26440570944936082 0.018291830038140541 0 0.25894279220913391 0.003459445712386486 0 0.26939274767164711 0.0040745279013861191 0 0.26440570944936082 0.018291830038140541 0 0.25894279220913391 0.003459445712386486 0 0.2485551203034157 0.0102848256948572 0 0.25894279220913391 0.003459445712386486 0 0.2479891295484222 -0.0022684572774312019 0 0.26939274767164711 0.0040745279013861191 0 0.25894279220913391 0.003459445712386486 0 0.26317147738524183 -0.0038637327990410169 0 0.28562393541442521 0.056242032033416753 0 0.27026274557325353 0.056119745337220257 0 0.26921605588191849 0.040519794607793452 0 0.28562393541442521 0.056242032033416753 0 0.27026274557325353 0.056119745337220257 0 0.27167623587568768 0.070814912161459326 0 0.29190445549758398 0.041801895735158197 0 0.28149235485467722 0.028426230672526639 0 0.26921605588191849 0.040519794607793452 0 0.26921605588191849 0.040519794607793452 0 0.25291178968964928 0.037547667281027097 0 0.25425538404847059 0.057624927133231481 0 0.26440570944936082 0.018291830038140541 0 0.26921605588191849 0.040519794607793452 0 0.25291178968964928 0.037547667281027097 0 0.27026274557325353 0.056119745337220257 0 0.26921605588191849 0.040519794607793452 0 0.25425538404847059 0.057624927133231481 0 0.27026274557325353 0.056119745337220257 0 0.25425538404847059 0.057624927133231481 0 0.27167623587568768 0.070814912161459326 0 0.25425538404847059 0.057624927133231481 0 0.27167623587568768 0.070814912161459326 0 0.25282536794073712 0.073272794188635415 0 0.26618138576237349 0.084067315497028519 0 0.27167623587568768 0.070814912161459326 0 0.25425538404847059 0.057624927133231481 0 0.25282536794073712 0.073272794188635415 0 0.27167623587568768 0.070814912161459326 0 0.25089272908716931 0.092982859712809007 0 0.26618138576237349 0.084067315497028519 0 0.27478568008848531 0.098770115700614086 0 0.25282536794073712 0.073272794188635415 0 0.25089272908716931 0.092982859712809007 0 0.26618138576237349 0.084067315497028519 0 0.26618138576237349 0.084067315497028519 0 0.28181267844286689 0.084890460016538952 0 0.27478568008848531 0.098770115700614086 0 0.26618138576237349 0.084067315497028519 0 0.27167623587568768 0.070814912161459326 0 0.28181267844286689 0.084890460016538952 0 0.27167623587568768 0.070814912161459326 0 0.2870451550563029 0.071072764848292863 0 0.28181267844286689 0.084890460016538952 0 0.2870451550563029 0.071072764848292863 0 0.29673814540623761 0.08207029957157172 0 0.30262144479489489 0.063472250579192202 0 0.28562393541442521 0.056242032033416753 0 0.2870451550563029 0.071072764848292863 0 0.30262144479489489 0.063472250579192202 0 0.28562393541442521 0.056242032033416753 0 0.27167623587568768 0.070814912161459326 0 0.2870451550563029 0.071072764848292863 0 0.2870451550563029 0.071072764848292863 0 0.28181267844286689 0.084890460016538952 0 0.29673814540623761 0.08207029957157172 0 0.28181267844286689 0.084890460016538952 0 0.29673814540623761 0.08207029957157172 0 0.29867863108980142 0.1045573716884185 0 0.31851483003181857 0.089032350953859848 0 0.29673814540623761 0.08207029957157172 0 0.30262144479489489 0.063472250579192202 0 0.31851483003181857 0.089032350953859848 0 0.29673814540623761 0.08207029957157172 0 0.29867863108980142 0.1045573716884185 0 0.2991284260398443 0.1226428311133997 0 0.29867863108980142 0.1045573716884185 0 0.31156748461804079 0.12537242366950921 0 0.32257158209111758 0.11034462767622299 0 0.29867863108980142 0.1045573716884185 0 0.31156748461804079 0.12537242366950921 0 0.32257158209111758 0.11034462767622299 0 0.29867863108980142 0.1045573716884185 0 0.29867863108980142 0.1045573716884185 0 0.27478568008848531 0.098770115700614086 0 0.29867863108980142 0.1045573716884185 0 0.27783009132198788 0.1122622341296569 0 0.27478568008848531 0.098770115700614086 0 0.28181267844286689 0.084890460016538952 0 0.29867863108980142 0.1045573716884185 0 0.27478568008848531 0.098770115700614086 0 0.2991284260398443 0.1226428311133997 0 0.29867863108980142 0.1045573716884185 0 0.28707615928971691 0.1208096883177448 0 0.29867863108980142 0.1045573716884185 0 0.28707615928971691 0.1208096883177448 0 0.27783009132198788 0.1122622341296569 0 0.2991284260398443 0.1226428311133997 0 0.28707615928971691 0.1208096883177448 0 0.29671346303214241 0.12961196471325551 0 0.26302281242735981 0.111198171579071 0 0.27515289576754948 0.1294134834453334 0 0.28707615928971691 0.1208096883177448 0 0.27783009132198788 0.1122622341296569 0 0.27515289576754948 0.1294134834453334 0 0.27783009132198788 0.1122622341296569 0 0.26302281242735981 0.111198171579071 0 0.27515289576754948 0.1294134834453334 0 0.26302281242735981 0.111198171579071 0 0.26007351669183237 0.1253037732749688 0 0.27515289576754948 0.1294134834453334 0 0.27783009132198788 0.1122622341296569 0 0.27478568008848531 0.098770115700614086 0 0.26302281242735981 0.111198171579071 0 0.25089272908716931 0.092982859712809007 0 0.26302281242735981 0.111198171579071 0 0.2496952397761337 0.1160329650041991 0 0.25089272908716931 0.092982859712809007 0 0.26302281242735981 0.111198171579071 0 0.25089272908716931 0.092982859712809007 0 0.27478568008848531 0.098770115700614086 0 0.26302281242735981 0.111198171579071 0 0.25089272908716931 0.092982859712809007 0 0.27478568008848531 0.098770115700614086 0 0.2471064899150823 0.133463067737116 0 0.2496952397761337 0.1160329650041991 0 0.26007351669183237 0.1253037732749688 0 0.2496952397761337 0.1160329650041991 0 0.26302281242735981 0.111198171579071 0 0.26007351669183237 0.1253037732749688 0 0.2471064899150823 0.133463067737116 0 0.26212056590251792 0.13860634342131159 0 0.25227113898158787 0.14916335431643429 0 0.2471064899150823 0.133463067737116 0 0.26212056590251792 0.13860634342131159 0 0.26007351669183237 0.1253037732749688 0 0.27515289576754948 0.1294134834453334 0 0.28728297910773942 0.14762879531159581 0 0.27515289576754948 0.1294134834453334 0 0.27408945104382287 0.14431330872834849 0 0.28728297910773942 0.14762879531159581 0 0.26212056590251792 0.13860634342131159 0 0.26007351669183237 0.1253037732749688 0 0.27515289576754948 0.1294134834453334 0 0.26212056590251792 0.13860634342131159 0 0.27515289576754948 0.1294134834453334 0 0.27408945104382287 0.14431330872834849 0 0.27408945104382287 0.14431330872834849 0 0.27716137478162928 0.15889869399298601 0 0.28728297910773942 0.14762879531159581 0 0.26212056590251792 0.13860634342131159 0 0.27408945104382287 0.14431330872834849 0 0.26493391480523859 0.14953421755469451 0 0.27408945104382287 0.14431330872834849 0 0.26493391480523859 0.14953421755469451 0 0.27716137478162928 0.15889869399298601 0 0.26493391480523859 0.14953421755469451 0 0.25227113898158787 0.14916335431643429 0 0.25784869618064837 0.16117632967822779 0 0.26212056590251792 0.13860634342131159 0 0.26493391480523859 0.14953421755469451 0 0.25227113898158787 0.14916335431643429 0 0.24342118736862761 0.16410875332904781 0 0.25227113898158787 0.14916335431643429 0 0.25784869618064837 0.16117632967822779 0 0.24342118736862761 0.16410875332904781 0 0.25784869618064837 0.16117632967822779 0 0.25421457754785548 0.17528354573505059 0 0.25784869618064837 0.16117632967822779 0 0.25421457754785548 0.17528354573505059 0 0.26798999978846311 0.16999528723303189 0 0.25421457754785548 0.17528354573505059 0 0.26688833639653942 0.18474270353269559 0 0.25113643024109478 0.19094495075723769 0 0.25421457754785548 0.17528354573505059 0 0.26688833639653942 0.18474270353269559 0 0.26798999978846311 0.16999528723303189 0 0.26688833639653942 0.18474270353269559 0 0.27899922157627788 0.1740987885831469 0 0.26798999978846311 0.16999528723303189 0 0.26688833639653942 0.18474270353269559 0 0.27899922157627788 0.1740987885831469 0 0.28165513110548479 0.1855437801635878 0 0.25784869618064837 0.16117632967822779 0 0.26798999978846311 0.16999528723303189 0 0.27716137478162928 0.15889869399298601 0 0.26493391480523859 0.14953421755469451 0 0.25784869618064837 0.16117632967822779 0 0.27716137478162928 0.15889869399298601 0 0.27899922157627788 0.1740987885831469 0 0.26798999978846311 0.16999528723303189 0 0.27716137478162928 0.15889869399298601 0 0.27716137478162928 0.15889869399298601 0 0.28838527260411961 0.16768800255462621 0 0.29642958482603432 0.1586868689393966 0 0.27899922157627788 0.1740987885831469 0 0.27716137478162928 0.15889869399298601 0 0.28838527260411961 0.16768800255462621 0 0.28838527260411961 0.16768800255462621 0 0.29642958482603432 0.1586868689393966 0 0.2990812202460017 0.16972771789266669 0 0.28165513110548479 0.1855437801635878 0 0.29057456817046978 0.17841330338653549 0 0.29442149412013968 0.19018242885082931 0 0.27899922157627788 0.1740987885831469 0 0.28165513110548479 0.1855437801635878 0 0.29057456817046978 0.17841330338653549 0 0.27899922157627788 0.1740987885831469 0 0.28838527260411961 0.16768800255462621 0 0.29057456817046978 0.17841330338653549 0 0.28838527260411961 0.16768800255462621 0 0.29057456817046978 0.17841330338653549 0 0.2990812202460017 0.16972771789266669 0 0.29057456817046978 0.17841330338653549 0 0.30085032626191438 0.18018504882584371 0 0.2990812202460017 0.16972771789266669 0 0.29057456817046978 0.17841330338653549 0 0.30085032626191438 0.18018504882584371 0 0.29442149412013968 0.19018242885082931 0 0.30085032626191438 0.18018504882584371 0 0.29442149412013968 0.19018242885082931 0 0.3080553032197017 0.1887293017033026 0 0.30085032626191438 0.18018504882584371 0 0.31056514142368619 0.1744383831500049 0 0.2990812202460017 0.16972771789266669 0 0.30085032626191438 0.18018504882584371 0 0.31056514142368619 0.1744383831500049 0 0.3080553032197017 0.1887293017033026 0 0.29642958482603432 0.1586868689393966 0 0.30747502192119819 0.16230778928688711 0 0.30151933753066762 0.14970454816787401 0 0.29642958482603432 0.1586868689393966 0 0.2990812202460017 0.16972771789266669 0 0.30747502192119819 0.16230778928688711 0 0.31056514142368619 0.1744383831500049 0 0.2990812202460017 0.16972771789266669 0 0.30747502192119819 0.16230778928688711 0 0.30747502192119819 0.16230778928688711 0 0.30151933753066762 0.14970454816787401 0 0.3129765302581462 0.1494710021231663 0 0.30151933753066762 0.14970454816787401 0 0.29882590938581222 0.14264553562683399 0 0.30718649112507979 0.14443915855455869 0 0.30151933753066762 0.14970454816787401 0 0.30718649112507979 0.14443915855455869 0 0.3129765302581462 0.1494710021231663 0 0.29882590938581222 0.14264553562683399 0 0.30718649112507979 0.14443915855455869 0 0.31229822968882548 0.13781435906697939 0 0.30718649112507979 0.14443915855455869 0 0.31229822968882548 0.13781435906697939 0 0.3129765302581462 0.1494710021231663 0 0.31229822968882548 0.13781435906697939 0 0.28502845800881449 0.13413009067030229 0 0.31229822968882548 0.13781435906697939 0 0.29671346303214241 0.12961196471325551 0 0.28502845800881449 0.13413009067030229 0 0.29882590938581222 0.14264553562683399 0 0.31229822968882548 0.13781435906697939 0 0.28502845800881449 0.13413009067030229 0 0.2991284260398443 0.1226428311133997 0 0.31156748461804079 0.12537242366950921 0 0.30438347209902411 0.12928289016934871 0 0.31229822968882548 0.13781435906697939 0 0.31156748461804079 0.12537242366950921 0 0.30438347209902411 0.12928289016934871 0 0.31229822968882548 0.13781435906697939 0 0.30438347209902411 0.12928289016934871 0 0.29671346303214241 0.12961196471325551 0 0.2991284260398443 0.1226428311133997 0 0.30438347209902411 0.12928289016934871 0 0.29671346303214241 0.12961196471325551 0 0.27515289576754948 0.1294134834453334 0 0.28502845800881449 0.13413009067030229 0 0.28728297910773942 0.14762879531159581 0 0.28707615928971691 0.1208096883177448 0 0.29671346303214241 0.12961196471325551 0 0.28502845800881449 0.13413009067030229 0 0.28707615928971691 0.1208096883177448 0 0.27515289576754948 0.1294134834453334 0 0.28502845800881449 0.13413009067030229 0 0.27716137478162928 0.15889869399298601 0 0.29642958482603432 0.1586868689393966 0 0.28728297910773942 0.14762879531159581 0 0.29642958482603432 0.1586868689393966 0 0.30151933753066762 0.14970454816787401 0 0.28728297910773942 0.14762879531159581 0 0.30151933753066762 0.14970454816787401 0 0.29882590938581222 0.14264553562683399 0 0.28728297910773942 0.14762879531159581 0 0.29882590938581222 0.14264553562683399 0 0.28502845800881449 0.13413009067030229 0 0.28728297910773942 0.14762879531159581 0 0.2459873280094696 0.23707215699401071 0 0.27381195783464701 0.24213208581531279 0 0.2459873280094696 0.23707215699401071 0 0.27381195783464701 0.24213208581531279 0 0.27283394916361492 0.24742619336605559 0 0.2459873280094696 0.23707215699401071 0 0.27283394916361492 0.24742619336605559 0 0.2459873280094696 0.23707215699401071 0 0.25877170878786238 0.25302463852503437 0 0.27283394916361492 0.24742619336605559 0 0.2459873280094696 0.23707215699401071 0 0.24763005152173001 0.25910176257370959 0 0.25877170878786238 0.25302463852503437 0 0.24332195560292991 0.2175119837032847 0 0.2459873280094696 0.23707215699401071 0 0.26947725056793032 0.22188821543332771 0 0.2459873280094696 0.23707215699401071 0 0.27381195783464701 0.24213208581531279 0 0.26947725056793032 0.22188821543332771 0 0.24332195560292991 0.2175119837032847 0 0.26947725056793032 0.22188821543332771 0 0.27381195783464701 0.24213208581531279 0 0.26947725056793032 0.22188821543332771 0 0.29563254553293061 0.22626444716337071 0 0.26947725056793032 0.22188821543332771 0 0.26383894902510108 0.20488334565775601 0 0.28252807440433819 0.20448568929014271 0 0.24828008483854189 0.20295934428596721 0 0.24332195560292991 0.2175119837032847 0 0.26383894902510108 0.20488334565775601 0 0.24332195560292991 0.2175119837032847 0 0.26947725056793032 0.22188821543332771 0 0.26383894902510108 0.20488334565775601 0 0.26688833639653942 0.18474270353269559 0 0.26383894902510108 0.20488334565775601 0 0.25113643024109478 0.19094495075723769 0 0.24828008483854189 0.20295934428596721 0 0.26383894902510108 0.20488334565775601 0 0.25113643024109478 0.19094495075723769 0 0.26688833639653942 0.18474270353269559 0 0.26383894902510108 0.20488334565775601 0 0.27369942293731819 0.19569303942008121 0 0.26383894902510108 0.20488334565775601 0 0.27369942293731819 0.19569303942008121 0 0.28252807440433819 0.20448568929014271 0 0.28165513110548479 0.1855437801635878 0 0.27369942293731819 0.19569303942008121 0 0.28252807440433819 0.20448568929014271 0 0.26688833639653942 0.18474270353269559 0 0.28165513110548479 0.1855437801635878 0 0.27369942293731819 0.19569303942008121 0 0.28165513110548479 0.1855437801635878 0 0.29442149412013968 0.19018242885082931 0 0.28252807440433819 0.20448568929014271 0 0.29442149412013968 0.19018242885082931 0 0.30168066081365352 0.2029210297493958 0 0.28252807440433819 0.20448568929014271 0 0.29442149412013968 0.19018242885082931 0 0.3080553032197017 0.1887293017033026 0 0.30168066081365352 0.2029210297493958 0 0.3080553032197017 0.1887293017033026 0 0.30168066081365352 0.2029210297493958 0 0.31674655555173881 0.19902842766084339 0 0.30168066081365352 0.2029210297493958 0 0.29563254553293061 0.22626444716337071 0 0.31377845179643721 0.21458276756770189 0 0.30168066081365352 0.2029210297493958 0 0.31377845179643721 0.21458276756770189 0 0.31674655555173881 0.19902842766084339 0 0.30168066081365352 0.2029210297493958 0 0.28252807440433819 0.20448568929014271 0 0.29563254553293061 0.22626444716337071 0 0.26947725056793032 0.22188821543332771 0 0.28252807440433819 0.20448568929014271 0 0.29563254553293061 0.22626444716337071 0 0.26947725056793032 0.22188821543332771 0 0.29563254553293061 0.22626444716337071 0 0.29563254553293061 0.22626444716337071 0 0.3217878404979308 0.23064067889341369 0 0.31377845179643721 0.21458276756770189 0 0.29563254553293061 0.22626444716337071 0 0.3217878404979308 0.23064067889341369 0 0.29563254553293061 0.22626444716337071 0 0.3016365876598241 0.24719201463661561 0 0.3217878404979308 0.23064067889341369 0 0.27381195783464701 0.24213208581531279 0 0.29563254553293061 0.22626444716337071 0 0.3016365876598241 0.24719201463661561 0 0.27381195783464701 0.24213208581531279 0 0.3016365876598241 0.24719201463661561 0 0.27381195783464701 0.24213208581531279 0 0.27283394916361492 0.24742619336605559 0 0.3016365876598241 0.24719201463661561 0 0.32946121748500129 0.25225194345791829 0 0.3217878404979308 0.23064067889341369 0 0.34556910970536658 0.23921390462248199 0 0.32946121748500129 0.25225194345791829 0 0.3016365876598241 0.24719201463661561 0 0.3217878404979308 0.23064067889341369 0 0.32946121748500129 0.25225194345791829 0 0.3016365876598241 0.24719201463661561 0 0.3217878404979308 0.23064067889341369 0 0.33460182177363001 0.21999966289075409 0 0.31377845179643721 0.21458276756770189 0 0.3217878404979308 0.23064067889341369 0 0.33460182177363001 0.21999966289075409 0 0.34556910970536658 0.23921390462248199 0 0.33460182177363001 0.21999966289075409 0 0.3278776259658665 0.2076214509036243 0 0.34419695055865512 0.20542025302645439 0 0.33460182177363001 0.21999966289075409 0 0.31377845179643721 0.21458276756770189 0 0.3278776259658665 0.2076214509036243 0 0.31377845179643721 0.21458276756770189 0 0.3278776259658665 0.2076214509036243 0 0.31674655555173881 0.19902842766084339 0 0.3278776259658665 0.2076214509036243 0 0.31674655555173881 0.19902842766084339 0 0.32893527636844411 0.194937601908272 0 0.3080553032197017 0.1887293017033026 0 0.31674655555173881 0.19902842766084339 0 0.32122387935841612 0.1836610840160959 0 0.31674655555173881 0.19902842766084339 0 0.32893527636844411 0.194937601908272 0 0.32122387935841612 0.1836610840160959 0 0.32893527636844411 0.194937601908272 0 0.34419695055865512 0.20542025302645439 0 0.33967484433078321 0.18584068278097349 0 0.32893527636844411 0.194937601908272 0 0.32122387935841612 0.1836610840160959 0 0.33967484433078321 0.18584068278097349 0 0.3278776259658665 0.2076214509036243 0 0.32893527636844411 0.194937601908272 0 0.34419695055865512 0.20542025302645439 0 0.35368837148756882 0.19334260062126429 0 0.34419695055865512 0.20542025302645439 0 0.33967484433078321 0.18584068278097349 0 0.35368837148756882 0.19334260062126429 0 0.36735815001373812 0.20351917688449569 0 0.34419695055865512 0.20542025302645439 0 0.36735815001373812 0.20351917688449569 0 0.36699199379966768 0.18628457072029089 0 0.38367398474104891 0.18179268717308689 0 0.35368837148756882 0.19334260062126429 0 0.36735815001373812 0.20351917688449569 0 0.36699199379966768 0.18628457072029089 0 0.36735815001373812 0.20351917688449569 0 0.35440095211752448 0.2225189223308488 0 0.37280151553833601 0.22024831863616021 0 0.36735815001373812 0.20351917688449569 0 0.37280151553833601 0.22024831863616021 0 0.38406378734192298 0.20777210545990279 0 0.36735815001373812 0.20351917688449569 0 0.34419695055865512 0.20542025302645439 0 0.35440095211752448 0.2225189223308488 0 0.33460182177363001 0.21999966289075409 0 0.34419695055865512 0.20542025302645439 0 0.35440095211752448 0.2225189223308488 0 0.35440095211752448 0.2225189223308488 0 0.37293454716760283 0.2396311516560117 0 0.34556910970536658 0.23921390462248199 0 0.33460182177363001 0.21999966289075409 0 0.35440095211752448 0.2225189223308488 0 0.34556910970536658 0.23921390462248199 0 0.35440095211752448 0.2225189223308488 0 0.37280151553833601 0.22024831863616021 0 0.37293454716760283 0.2396311516560117 0 0.32946121748500129 0.25225194345791829 0 0.35728584731017871 0.25731187227922109 0 0.34556910970536658 0.23921390462248199 0 0.35728584731017871 0.25731187227922109 0 0.37293454716760283 0.2396311516560117 0 0.34556910970536658 0.23921390462248199 0 0.33789665254535572 0.15537308983460499 0 0.33956800136883641 0.14149862746365649 0 0.32484504322689201 0.150618498474763 0 0.33789665254535572 0.15537308983460499 0 0.32484504322689201 0.150618498474763 0 0.32925575641373173 0.1625602653078303 0 0.33789665254535572 0.15537308983460499 0 0.33956800136883641 0.14149862746365649 0 0.35085012880757988 0.15547460686614431 0 0.31847051852819058 0.13586426255884801 0 0.34441400131097022 0.1288917011053414 0 0.32933038512457441 0.1245201253257071 0 0.31847051852819058 0.13586426255884801 0 0.34441400131097022 0.1288917011053414 0 0.33956800136883641 0.14149862746365649 0 0.31847051852819058 0.13586426255884801 0 0.34441400131097022 0.1288917011053414 0 0.31229822968882548 0.13781435906697939 0 0.33956800136883641 0.14149862746365649 0 0.31229822968882548 0.13781435906697939 0 0.33956800136883641 0.14149862746365649 0 0.31847051852819058 0.13586426255884801 0 0.32933038512457441 0.1245201253257071 0 0.3207185438207466 0.1263919595033525 0 0.31847051852819058 0.13586426255884801 0 0.31156748461804079 0.12537242366950921 0 0.3207185438207466 0.1263919595033525 0 0.31847051852819058 0.13586426255884801 0 0.31229822968882548 0.13781435906697939 0 0.31156748461804079 0.12537242366950921 0 0.31847051852819058 0.13586426255884801 0 0.31229822968882548 0.13781435906697939 0 0.33956800136883641 0.14149862746365649 0 0.32484504322689201 0.150618498474763 0 0.31229822968882548 0.13781435906697939 0 0.32484504322689201 0.150618498474763 0 0.3129765302581462 0.1494710021231663 0 0.32484504322689201 0.150618498474763 0 0.3129765302581462 0.1494710021231663 0 0.31772009751989111 0.15842714336302041 0 0.30747502192119819 0.16230778928688711 0 0.3129765302581462 0.1494710021231663 0 0.31772009751989111 0.15842714336302041 0 0.30747502192119819 0.16230778928688711 0 0.31772009751989111 0.15842714336302041 0 0.32080742045079952 0.16866520015094741 0 0.31056514142368619 0.1744383831500049 0 0.30747502192119819 0.16230778928688711 0 0.32080742045079952 0.16866520015094741 0 0.32080742045079952 0.16866520015094741 0 0.33131907253280629 0.1738795647946571 0 0.32925575641373173 0.1625602653078303 0 0.32484504322689201 0.150618498474763 0 0.31772009751989111 0.15842714336302041 0 0.32925575641373173 0.1625602653078303 0 0.31772009751989111 0.15842714336302041 0 0.32080742045079952 0.16866520015094741 0 0.32925575641373173 0.1625602653078303 0 0.31056514142368619 0.1744383831500049 0 0.3080553032197017 0.1887293017033026 0 0.32122387935841612 0.1836610840160959 0 0.31056514142368619 0.1744383831500049 0 0.32080742045079952 0.16866520015094741 0 0.32122387935841612 0.1836610840160959 0 0.32080742045079952 0.16866520015094741 0 0.32122387935841612 0.1836610840160959 0 0.33131907253280629 0.1738795647946571 0 0.33131907253280629 0.1738795647946571 0 0.33967484433078321 0.18584068278097349 0 0.34294625220664587 0.1683980952289891 0 0.32122387935841612 0.1836610840160959 0 0.33131907253280629 0.1738795647946571 0 0.33967484433078321 0.18584068278097349 0 0.33131907253280629 0.1738795647946571 0 0.32925575641373173 0.1625602653078303 0 0.34294625220664587 0.1683980952289891 0 0.33789665254535572 0.15537308983460499 0 0.32925575641373173 0.1625602653078303 0 0.34294625220664587 0.1683980952289891 0 0.34294625220664587 0.1683980952289891 0 0.35531914635495271 0.16562513299740311 0 0.35085012880757988 0.15547460686614431 0 0.33789665254535572 0.15537308983460499 0 0.34294625220664587 0.1683980952289891 0 0.35085012880757988 0.15547460686614431 0 0.34294625220664587 0.1683980952289891 0 0.35531914635495271 0.16562513299740311 0 0.35387202203434698 0.17803066266241011 0 0.35531914635495271 0.16562513299740311 0 0.35387202203434698 0.17803066266241011 0 0.36550295271590683 0.1690726970215666 0 0.35531914635495271 0.16562513299740311 0 0.36342437601028388 0.15714960320790561 0 0.35085012880757988 0.15547460686614431 0 0.33967484433078321 0.18584068278097349 0 0.34294625220664587 0.1683980952289891 0 0.35387202203434698 0.17803066266241011 0 0.35368837148756882 0.19334260062126429 0 0.33967484433078321 0.18584068278097349 0 0.35387202203434698 0.17803066266241011 0 0.35368837148756882 0.19334260062126429 0 0.35387202203434698 0.17803066266241011 0 0.36699199379966768 0.18628457072029089 0 0.37486327834919952 0.17324080595030389 0 0.36699199379966768 0.18628457072029089 0 0.36550295271590683 0.1690726970215666 0 0.35387202203434698 0.17803066266241011 0 0.36699199379966768 0.18628457072029089 0 0.36550295271590683 0.1690726970215666 0 0.36342437601028388 0.15714960320790561 0 0.36550295271590683 0.1690726970215666 0 0.38328418214017468 0.15581326888627101 0 0.37486327834919952 0.17324080595030389 0 0.36550295271590683 0.1690726970215666 0 0.38328418214017468 0.15581326888627101 0 0.35531914635495271 0.16562513299740311 0 0.36342437601028388 0.15714960320790561 0 0.36550295271590683 0.1690726970215666 0 0.36342437601028388 0.15714960320790561 0 0.36683777304884752 0.14518289586033359 0 0.38328418214017468 0.15581326888627101 0 0.36342437601028388 0.15714960320790561 0 0.36683777304884752 0.14518289586033359 0 0.35085012880757988 0.15547460686614431 0 0.33956800136883641 0.14149862746365649 0 0.36683777304884752 0.14518289586033359 0 0.33956800136883641 0.14149862746365649 0 0.36683777304884752 0.14518289586033359 0 0.35085012880757988 0.15547460686614431 0 0.37035748409374952 0.12191913965183331 0 0.34441400131097022 0.1288917011053414 0 0.33956800136883641 0.14149862746365649 0 0.34441400131097022 0.1288917011053414 0 0.35985245571789548 0.13256521397634091 0 0.37035748409374952 0.12191913965183331 0 0.34441400131097022 0.1288917011053414 0 0.35985245571789548 0.13256521397634091 0 0.33956800136883641 0.14149862746365649 0 0.36683777304884752 0.14518289586033359 0 0.35985245571789548 0.13256521397634091 0 0.36683777304884752 0.14518289586033359 0 0.37024230120578611 0.13336796185197819 0 0.3828943795393005 0.1298338505994551 0 0.36683777304884752 0.14518289586033359 0 0.35985245571789548 0.13256521397634091 0 0.37024230120578611 0.13336796185197819 0 0.35985245571789548 0.13256521397634091 0 0.37024230120578611 0.13336796185197819 0 0.37169283910029199 0.12815165521797289 0 0.37024230120578611 0.13336796185197819 0 0.37169283910029199 0.12815165521797289 0 0.3828943795393005 0.1298338505994551 0 0.37035748409374952 0.12191913965183331 0 0.35985245571789548 0.13256521397634091 0 0.37169283910029199 0.12815165521797289 0 0.37169283910029199 0.12815165521797289 0 0.3828943795393005 0.1298338505994551 0 0.37511757494472903 0.123072110010257 0 0.3828943795393005 0.1298338505994551 0 0.39816792615439378 0.12760480203569169 0 0.39443703245191569 0.14316330482662179 0 0.39816792615439378 0.12760480203569169 0 0.39443703245191569 0.14316330482662179 0 0.40813897635800228 0.13879757292358971 0 0.40355831469332321 0.14905262061052801 0 0.39443703245191569 0.14316330482662179 0 0.39831584160420508 0.1589856433255693 0 0.39443703245191569 0.14316330482662179 0 0.38328418214017468 0.15581326888627101 0 0.39831584160420508 0.1589856433255693 0 0.40355831469332321 0.14905262061052801 0 0.39831584160420508 0.1589856433255693 0 0.41313230378900101 0.1549252007201132 0 0.40355831469332321 0.14905262061052801 0 0.39443703245191569 0.14316330482662179 0 0.40813897635800228 0.13879757292358971 0 0.3828943795393005 0.1298338505994551 0 0.39443703245191569 0.14316330482662179 0 0.38328418214017468 0.15581326888627101 0 0.36683777304884752 0.14518289586033359 0 0.3828943795393005 0.1298338505994551 0 0.38328418214017468 0.15581326888627101 0 0.3828943795393005 0.1298338505994551 0 0.38328418214017468 0.15581326888627101 0 0.38328418214017468 0.15581326888627101 0 0.38367398474104891 0.18179268717308689 0 0.37486327834919952 0.17324080595030389 0 0.38328418214017468 0.15581326888627101 0 0.38367398474104891 0.18179268717308689 0 0.38328418214017468 0.15581326888627101 0 0.38367398474104891 0.18179268717308689 0 0.39626047774709761 0.17356948839180519 0 0.37486327834919952 0.17324080595030389 0 0.36699199379966768 0.18628457072029089 0 0.38367398474104891 0.18179268717308689 0 0.38367398474104891 0.18179268717308689 0 0.39626047774709761 0.17356948839180519 0 0.39402839101454218 0.18926537882500041 0 0.41201559310989622 0.1717711692121752 0 0.39402839101454218 0.18926537882500041 0 0.40911253846621609 0.1927355572029634 0 0.41201559310989622 0.1717711692121752 0 0.39402839101454218 0.18926537882500041 0 0.39626047774709761 0.17356948839180519 0 0.41201559310989622 0.1717711692121752 0 0.39402839101454218 0.18926537882500041 0 0.38328418214017468 0.15581326888627101 0 0.39626047774709761 0.17356948839180519 0 0.39831584160420508 0.1589856433255693 0 0.39626047774709761 0.17356948839180519 0 0.39831584160420508 0.1589856433255693 0 0.41201559310989622 0.1717711692121752 0 0.39831584160420508 0.1589856433255693 0 0.41201559310989622 0.1717711692121752 0 0.41313230378900101 0.1549252007201132 0 0.41201559310989622 0.1717711692121752 0 0.43000279520525009 0.1542769595993502 0 0.41201559310989622 0.1717711692121752 0 0.43000279520525009 0.1542769595993502 0 0.41313230378900101 0.1549252007201132 0 0.41201559310989622 0.1717711692121752 0 0.42496471626184562 0.18478050847474101 0 0.40911253846621609 0.1927355572029634 0 0.42496471626184562 0.18478050847474101 0 0.42886790669691233 0.1683305758749721 0 0.44390934378202151 0.1869955505783234 0 0.41201559310989622 0.1717711692121752 0 0.42496471626184562 0.18478050847474101 0 0.42886790669691233 0.1683305758749721 0 0.42886790669691233 0.1683305758749721 0 0.44390934378202151 0.1869955505783234 0 0.41201559310989622 0.1717711692121752 0 0.42886790669691233 0.1683305758749721 0 0.43000279520525009 0.1542769595993502 0 0.42886790669691233 0.1683305758749721 0 0.43000279520525009 0.1542769595993502 0 0.44221599041969212 0.16183818438693329 0 0.43000279520525009 0.1542769595993502 0 0.42332430940078591 0.1392784445062823 0 0.4479899973006039 0.1367827499865252 0 0.43000279520525009 0.1542769595993502 0 0.42332430940078591 0.1392784445062823 0 0.41313230378900101 0.1549252007201132 0 0.429848517254516 0.1255917524949702 0 0.42332430940078591 0.1392784445062823 0 0.41384889774502859 0.12525543762671809 0 0.429848517254516 0.1255917524949702 0 0.42332430940078591 0.1392784445062823 0 0.4479899973006039 0.1367827499865252 0 0.39816792615439378 0.12760480203569169 0 0.41384889774502859 0.12525543762671809 0 0.40813897635800228 0.13879757292358971 0 0.42332430940078591 0.1392784445062823 0 0.41384889774502859 0.12525543762671809 0 0.40813897635800228 0.13879757292358971 0 0.40355831469332321 0.14905262061052801 0 0.40813897635800228 0.13879757292358971 0 0.41313230378900101 0.1549252007201132 0 0.42332430940078591 0.1392784445062823 0 0.40813897635800228 0.13879757292358971 0 0.41313230378900101 0.1549252007201132 0 0.38511047713535562 0.2623718011005241 0 0.37293454716760283 0.2396311516560117 0 0.39933451681408499 0.24222051247515669 0 0.37293454716760283 0.2396311516560117 0 0.39933451681408499 0.24222051247515669 0 0.39045396999845727 0.2225958518425987 0 0.37280151553833601 0.22024831863616021 0 0.37293454716760283 0.2396311516560117 0 0.39045396999845727 0.2225958518425987 0 0.39933451681408499 0.24222051247515669 0 0.39045396999845727 0.2225958518425987 0 0.41502085935247712 0.2184770015477572 0 0.39045396999845727 0.2225958518425987 0 0.39965272480706299 0.2061417744041574 0 0.38406378734192298 0.20777210545990279 0 0.39045396999845727 0.2225958518425987 0 0.39965272480706299 0.2061417744041574 0 0.41502085935247712 0.2184770015477572 0 0.37280151553833601 0.22024831863616021 0 0.39045396999845727 0.2225958518425987 0 0.38406378734192298 0.20777210545990279 0 0.36735815001373812 0.20351917688449569 0 0.38367398474104891 0.18179268717308689 0 0.38406378734192298 0.20777210545990279 0 0.38367398474104891 0.18179268717308689 0 0.38406378734192298 0.20777210545990279 0 0.38367398474104891 0.18179268717308689 0 0.38406378734192298 0.20777210545990279 0 0.39402839101454218 0.18926537882500041 0 0.39965272480706299 0.2061417744041574 0 0.38406378734192298 0.20777210545990279 0 0.39402839101454218 0.18926537882500041 0 0.39965272480706299 0.2061417744041574 0 0.39402839101454218 0.18926537882500041 0 0.40911253846621609 0.1927355572029634 0 0.42496471626184562 0.18478050847474101 0 0.40911253846621609 0.1927355572029634 0 0.43133039545531981 0.20312972213906441 0 0.42496471626184562 0.18478050847474101 0 0.43133039545531981 0.20312972213906441 0 0.44390934378202151 0.1869955505783234 0 0.43133039545531981 0.20312972213906441 0 0.41502085935247712 0.2184770015477572 0 0.43839838412078092 0.2247149777195776 0 0.40911253846621609 0.1927355572029634 0 0.41502085935247712 0.2184770015477572 0 0.40911253846621609 0.1927355572029634 0 0.43133039545531981 0.20312972213906441 0 0.41502085935247712 0.2184770015477572 0 0.39965272480706299 0.2061417744041574 0 0.40911253846621609 0.1927355572029634 0 0.41502085935247712 0.2184770015477572 0 0.41502085935247712 0.2184770015477572 0 0.42092918023873821 0.24421844589255121 0 0.41502085935247712 0.2184770015477572 0 0.42092918023873821 0.24421844589255121 0 0.43839838412078092 0.2247149777195776 0 0.42092918023873821 0.24421844589255121 0 0.44272868649399699 0.2414724783298311 0 0.43839838412078092 0.2247149777195776 0 0.44089414042045799 0.25771217685885472 0 0.42092918023873821 0.24421844589255121 0 0.44272868649399699 0.2414724783298311 0 0.39933451681408499 0.24222051247515669 0 0.41502085935247712 0.2184770015477572 0 0.42092918023873821 0.24421844589255121 0 0.46750550623703407 0.25349570762290419 0 0.4569230610569987 0.24819013429900669 0 0.47278153852907701 0.24486280325581439 0 0.4569230610569987 0.24819013429900669 0 0.45723446189795819 0.23161380727854039 0 0.47278153852907701 0.24486280325581439 0 0.4569230610569987 0.24819013429900669 0 0.44272868649399699 0.2414724783298311 0 0.45723446189795819 0.23161380727854039 0 0.44089414042045799 0.25771217685885472 0 0.4569230610569987 0.24819013429900669 0 0.44272868649399699 0.2414724783298311 0 0.43839838412078092 0.2247149777195776 0 0.45723446189795819 0.23161380727854039 0 0.45895078086713059 0.20566052528167461 0 0.44272868649399699 0.2414724783298311 0 0.43839838412078092 0.2247149777195776 0 0.45723446189795819 0.23161380727854039 0 0.45723446189795819 0.23161380727854039 0 0.47399221795223978 0.22432549998502579 0 0.47278153852907701 0.24486280325581439 0 0.45723446189795819 0.23161380727854039 0 0.45895078086713059 0.20566052528167461 0 0.47399221795223978 0.22432549998502579 0 0.45895078086713059 0.20566052528167461 0 0.47399221795223978 0.22432549998502579 0 0.43133039545531981 0.20312972213906441 0 0.43839838412078092 0.2247149777195776 0 0.45895078086713059 0.20566052528167461 0 0.43133039545531981 0.20312972213906441 0 0.45895078086713059 0.20566052528167461 0 0.44390934378202151 0.1869955505783234 0 0.45895078086713059 0.20566052528167461 0 0.44390934378202151 0.1869955505783234 0 0.45895078086713059 0.20566052528167461 0 0.44390934378202151 0.1869955505783234 0 0.47471792995388828 0.18435875067661631 0 0.45895078086713059 0.20566052528167461 0 0.47967819324703809 0.2043502093285503 0 0.47471792995388828 0.18435875067661631 0 0.5 0.20006456793442701 0 0.47967819324703809 0.2043502093285503 0 0.47471792995388828 0.18435875067661631 0 0.5 0.20006456793442701 0 0.48813206750880261 0.21755351138133391 0 0.47967819324703809 0.2043502093285503 0 0.5 0.20006456793442701 0 0.48813206750880261 0.21755351138133391 0 0.5 0.22779789293978581 0 0.45895078086713059 0.20566052528167461 0 0.47967819324703809 0.2043502093285503 0 0.47399221795223978 0.22432549998502579 0 0.48813206750880261 0.21755351138133391 0 0.47967819324703809 0.2043502093285503 0 0.47399221795223978 0.22432549998502579 0 0.48813206750880261 0.21755351138133391 0 0.47399221795223978 0.22432549998502579 0 0.48903365503734891 0.24299047468837701 0 0.47399221795223978 0.22432549998502579 0 0.48903365503734891 0.24299047468837701 0 0.48813206750880261 0.21755351138133391 0 0.5 0.22779789293978581 0 0.48903365503734891 0.24299047468837701 0 0.5 0.25553121794514477 0 0.5 0.22779789293978581 0 0.48903365503734891 0.24299047468837701 0 0.48489893488970792 0.25686202981026901 0 0.48903365503734891 0.24299047468837701 0 0.47278153852907701 0.24486280325581439 0 0.47399221795223978 0.22432549998502579 0 0.48903365503734891 0.24299047468837701 0 0.47278153852907701 0.24486280325581439 0 0.4479899973006039 0.1367827499865252 0 0.46030990911367259 0.16280508589549539 0 0.47332178232586258 0.14483424446409521 0 0.4479899973006039 0.1367827499865252 0 0.47332178232586258 0.14483424446409521 0 0.46597719939595772 0.11928854037370019 0 0.4479899973006039 0.1367827499865252 0 0.46597719939595772 0.11928854037370019 0 0.429848517254516 0.1255917524949702 0 0.4479899973006039 0.1367827499865252 0 0.44441253831551758 0.1138689947079024 0 0.43000279520525009 0.1542769595993502 0 0.4479899973006039 0.1367827499865252 0 0.44221599041969212 0.16183818438693329 0 0.43000279520525009 0.1542769595993502 0 0.4479899973006039 0.1367827499865252 0 0.4479899973006039 0.1367827499865252 0 0.44221599041969212 0.16183818438693329 0 0.46030990911367259 0.16280508589549539 0 0.44221599041969212 0.16183818438693329 0 0.44390934378202151 0.1869955505783234 0 0.46030990911367259 0.16280508589549539 0 0.42886790669691233 0.1683305758749721 0 0.44221599041969212 0.16183818438693329 0 0.44390934378202151 0.1869955505783234 0 0.44390934378202151 0.1869955505783234 0 0.46030990911367259 0.16280508589549539 0 0.47471792995388828 0.18435875067661631 0 0.46030990911367259 0.16280508589549539 0 0.48162298028441808 0.16304382698580119 0 0.47332178232586258 0.14483424446409521 0 0.46030990911367259 0.16280508589549539 0 0.48162298028441808 0.16304382698580119 0 0.47471792995388828 0.18435875067661631 0 0.5 0.20006456793442701 0 0.47471792995388828 0.18435875067661631 0 0.5 0.17233124292906801 0 0.48162298028441808 0.16304382698580119 0 0.47471792995388828 0.18435875067661631 0 0.5 0.17233124292906801 0 0.48162298028441808 0.16304382698580119 0 0.5 0.17233124292906801 0 0.5 0.14459791792370899 0 0.48162298028441808 0.16304382698580119 0 0.5 0.14459791792370899 0 0.47332178232586258 0.14483424446409521 0 0.47332178232586258 0.14483424446409521 0 0.48369720064842647 0.1280225697211729 0 0.46597719939595772 0.11928854037370019 0 0.5 0.14459791792370899 0 0.48369720064842647 0.1280225697211729 0 0.5 0.1168645929183502 0 0.5 0.14459791792370899 0 0.47332178232586258 0.14483424446409521 0 0.48369720064842647 0.1280225697211729 0 0.48369720064842647 0.1280225697211729 0 0.5 0.1168645929183502 0 0.47911227232856668 0.09907818001940101 0 0.5 0.1168645929183502 0 0.47911227232856668 0.09907818001940101 0 0.5 0.089131267912991197 0 0.48369720064842647 0.1280225697211729 0 0.47911227232856668 0.09907818001940101 0 0.46597719939595772 0.11928854037370019 0 0.48592231416185638 0.0752646054103117 0 0.5 0.089131267912991197 0 0.5 0.06139794290763223 0 0.47911227232856668 0.09907818001940101 0 0.48592231416185638 0.0752646054103117 0 0.5 0.089131267912991197 0 0.47911227232856668 0.09907818001940101 0 0.48592231416185638 0.0752646054103117 0 0.46599422920766509 0.071585542922595516 0 0.48592231416185638 0.0752646054103117 0 0.46599422920766509 0.071585542922595516 0 0.47969083044660421 0.050503904472553283 0 0.47911227232856668 0.09907818001940101 0 0.46599422920766509 0.071585542922595516 0 0.45660210543223351 0.096238293732025512 0 0.46599422920766509 0.071585542922595516 0 0.44319262383460789 0.070531660330671375 0 0.45660210543223351 0.096238293732025512 0 0.44319262383460789 0.070531660330671375 0 0.45660210543223351 0.096238293732025512 0 0.43559540491542181 0.095634413362833848 0 0.46597719939595772 0.11928854037370019 0 0.45660210543223351 0.096238293732025512 0 0.44441253831551758 0.1138689947079024 0 0.47911227232856668 0.09907818001940101 0 0.46597719939595772 0.11928854037370019 0 0.45660210543223351 0.096238293732025512 0 0.45660210543223351 0.096238293732025512 0 0.44441253831551758 0.1138689947079024 0 0.43559540491542181 0.095634413362833848 0 0.4479899973006039 0.1367827499865252 0 0.46597719939595772 0.11928854037370019 0 0.44441253831551758 0.1138689947079024 0 0.429848517254516 0.1255917524949702 0 0.44441253831551758 0.1138689947079024 0 0.42416274095453271 0.1101558860989641 0 0.429848517254516 0.1255917524949702 0 0.41384889774502859 0.12525543762671809 0 0.42416274095453271 0.1101558860989641 0 0.41384889774502859 0.12525543762671809 0 0.42416274095453271 0.1101558860989641 0 0.40716605829359193 0.1120264799895512 0 0.39816792615439378 0.12760480203569169 0 0.41384889774502859 0.12525543762671809 0 0.40716605829359193 0.1120264799895512 0 0.40716605829359193 0.1120264799895512 0 0.41525133388600899 0.093407911538609431 0 0.39656535672550852 0.092974877928873267 0 0.42416274095453271 0.1101558860989641 0 0.40716605829359193 0.1120264799895512 0 0.41525133388600899 0.093407911538609431 0 0.42416274095453271 0.1101558860989641 0 0.43559540491542181 0.095634413362833848 0 0.41525133388600899 0.093407911538609431 0 0.44441253831551758 0.1138689947079024 0 0.42416274095453271 0.1101558860989641 0 0.43559540491542181 0.095634413362833848 0 0.43559540491542181 0.095634413362833848 0 0.4195547633014628 0.073570994746074828 0 0.41525133388600899 0.093407911538609431 0 0.43559540491542181 0.095634413362833848 0 0.4195547633014628 0.073570994746074828 0 0.44319262383460789 0.070531660330671375 0 0.43559540491542181 0.095634413362833848 0 0.4195547633014628 0.073570994746074828 0 0.44319262383460789 0.070531660330671375 0 0.4195547633014628 0.073570994746074828 0 0.42728191937221521 0.050914286525162993 0 0.4195547633014628 0.073570994746074828 0 0.39780951386322527 0.071813900777571313 0 0.40351412168750378 0.051507576129315842 0 0.4195547633014628 0.073570994746074828 0 0.40351412168750378 0.051507576129315842 0 0.4195547633014628 0.073570994746074828 0 0.41525133388600899 0.093407911538609431 0 0.39780951386322527 0.071813900777571313 0 0.41525133388600899 0.093407911538609431 0 0.39656535672550852 0.092974877928873267 0 0.39780951386322527 0.071813900777571313 0 0.37400882161871279 0.083619613235024759 0 0.37883567044039879 0.062600723425798879 0 0.39780951386322527 0.071813900777571313 0 0.37883567044039879 0.062600723425798879 0 0.3909554563133032 0.056876008487314757 0 0.37400882161871279 0.083619613235024759 0 0.39780951386322527 0.071813900777571313 0 0.37883567044039879 0.062600723425798879 0 0.37400882161871279 0.083619613235024759 0 0.39656535672550852 0.092974877928873267 0 0.38808178026068268 0.10392801007035141 0 0.37400882161871279 0.083619613235024759 0 0.39656535672550852 0.092974877928873267 0 0.39780951386322527 0.071813900777571313 0 0.37455144446510141 0.10193275935197101 0 0.37400882161871279 0.083619613235024759 0 0.38808178026068268 0.10392801007035141 0 0.37455144446510141 0.10193275935197101 0 0.38808178026068268 0.10392801007035141 0 0.37815432920295677 0.1109533992790251 0 0.37035748409374952 0.12191913965183331 0 0.38876177119367089 0.116972809820693 0 0.37035748409374952 0.12191913965183331 0 0.37511757494472903 0.123072110010257 0 0.38876177119367089 0.116972809820693 0 0.37035748409374952 0.12191913965183331 0 0.37815432920295677 0.1109533992790251 0 0.38876177119367089 0.116972809820693 0 0.3828943795393005 0.1298338505994551 0 0.37511757494472903 0.123072110010257 0 0.38876177119367089 0.116972809820693 0 0.3828943795393005 0.1298338505994551 0 0.39816792615439378 0.12760480203569169 0 0.38876177119367089 0.116972809820693 0 0.38808178026068268 0.10392801007035141 0 0.37815432920295677 0.1109533992790251 0 0.38876177119367089 0.116972809820693 0 0.40716605829359193 0.1120264799895512 0 0.38876177119367089 0.116972809820693 0 0.39816792615439378 0.12760480203569169 0 0.40716605829359193 0.1120264799895512 0 0.38876177119367089 0.116972809820693 0 0.40716605829359193 0.1120264799895512 0 0.38808178026068268 0.10392801007035141 0 0.38876177119367089 0.116972809820693 0 0.40716605829359193 0.1120264799895512 0 0.39656535672550852 0.092974877928873267 0 0.38808178026068268 0.10392801007035141 0 0.39895333728429933 0.027539300906755181 0 0.38848936808377088 0.020562943807347231 0 0.4122691541308795 0.010257189796790951 0 0.39895333728429933 0.027539300906755181 0 0.38848936808377088 0.020562943807347231 0 0.38747348007354487 0.029444157512556919 0 0.39212595536292472 0.0047271407553128551 0 0.4122691541308795 0.010257189796790951 0 0.40542454288086849 -0.004070234290400764 0 0.38848936808377088 0.020562943807347231 0 0.4122691541308795 0.010257189796790951 0 0.39212595536292472 0.0047271407553128551 0 0.38848936808377088 0.020562943807347231 0 0.4122691541308795 0.010257189796790951 0 0.39212595536292472 0.0047271407553128551 0 0.38120377069012762 0.010554394007073271 0 0.36845156083710567 -0.0060515153414843056 0 0.36934971840039982 0.01412264887454192 0 0.38120377069012762 0.010554394007073271 0 0.38848936808377088 0.020562943807347231 0 0.39212595536292472 0.0047271407553128551 0 0.38120377069012762 0.010554394007073271 0 0.38848936808377088 0.020562943807347231 0 0.39212595536292472 0.0047271407553128551 0 0.38848936808377088 0.020562943807347231 0 0.38848936808377088 0.020562943807347231 0 0.38747348007354487 0.029444157512556919 0 0.38366251926208489 0.041581833616573027 0 0.38848936808377088 0.020562943807347231 0 0.38366251926208489 0.041581833616573027 0 0.36096242836060388 0.032492650360987897 0 0.38848936808377088 0.020562943807347231 0 0.38366251926208489 0.041581833616573027 0 0.37883567044039879 0.062600723425798879 0 0.38366251926208489 0.041581833616573027 0 0.3909554563133032 0.056876008487314757 0 0.37883567044039879 0.062600723425798879 0 0.38366251926208489 0.041581833616573027 0 0.36884998715724038 0.048654936693666287 0 0.37883567044039879 0.062600723425798879 0 0.38366251926208489 0.041581833616573027 0 0.38366251926208489 0.041581833616573027 0 0.40351412168750378 0.051507576129315842 0 0.3909554563133032 0.056876008487314757 0 0.39780951386322527 0.071813900777571313 0 0.40351412168750378 0.051507576129315842 0 0.3909554563133032 0.056876008487314757 0 0.38747348007354487 0.029444157512556919 0 0.40351412168750378 0.051507576129315842 0 0.39895333728429933 0.027539300906755181 0 0.40351412168750378 0.051507576129315842 0 0.40867742594100492 0.02913313449165824 0 0.39895333728429933 0.027539300906755181 0 0.38747348007354487 0.029444157512556919 0 0.40351412168750378 0.051507576129315842 0 0.38747348007354487 0.029444157512556919 0 0.38366251926208489 0.041581833616573027 0 0.40351412168750378 0.051507576129315842 0 0.40351412168750378 0.051507576129315842 0 0.41712069737947322 0.039684074088297272 0 0.40867742594100492 0.02913313449165824 0 0.41712069737947322 0.039684074088297272 0 0.42900932251716922 0.027181299207052031 0 0.40867742594100492 0.02913313449165824 0 0.40351412168750378 0.051507576129315842 0 0.41712069737947322 0.039684074088297272 0 0.42728191937221521 0.050914286525162993 0 0.4195547633014628 0.073570994746074828 0 0.40351412168750378 0.051507576129315842 0 0.42728191937221521 0.050914286525162993 0 0.41712069737947322 0.039684074088297272 0 0.42728191937221521 0.050914286525162993 0 0.42900932251716922 0.027181299207052031 0 0.42728191937221521 0.050914286525162993 0 0.42900932251716922 0.027181299207052031 0 0.45357816737839107 0.043281393992262968 0 0.42900932251716922 0.027181299207052031 0 0.40867742594100492 0.02913313449165824 0 0.4122691541308795 0.010257189796790951 0 0.39895333728429933 0.027539300906755181 0 0.40867742594100492 0.02913313449165824 0 0.4122691541308795 0.010257189796790951 0 0.4122691541308795 0.010257189796790951 0 0.42733427856619571 -0.0085863840744332814 0 0.43604894017798812 -4.8564213765240817e-05 0 0.42900932251716922 0.027181299207052031 0 0.4122691541308795 0.010257189796790951 0 0.43604894017798812 -4.8564213765240817e-05 0 0.4122691541308795 0.010257189796790951 0 0.43604894017798812 -4.8564213765240817e-05 0 0.45021491583924189 0.016350560368503721 0 0.45982872622509668 -0.01035431822432146 0 0.43604894017798812 -4.8564213765240817e-05 0 0.42900932251716922 0.027181299207052031 0 0.45021491583924189 0.016350560368503721 0 0.43604894017798812 -4.8564213765240817e-05 0 0.42900932251716922 0.027181299207052031 0 0.45021491583924189 0.016350560368503721 0 0.45357816737839107 0.043281393992262968 0 0.45021491583924189 0.016350560368503721 0 0.45357816737839107 0.043281393992262968 0 0.47265027193171238 0.017829323700243871 0 0.45021491583924189 0.016350560368503721 0 0.47265027193171238 0.017829323700243871 0 0.45982872622509668 -0.01035431822432146 0 0.45357816737839107 0.043281393992262968 0 0.47969083044660421 0.050503904472553283 0 0.47265027193171238 0.017829323700243871 0 0.44319262383460789 0.070531660330671375 0 0.42728191937221521 0.050914286525162993 0 0.45357816737839107 0.043281393992262968 0 0.46599422920766509 0.071585542922595516 0 0.44319262383460789 0.070531660330671375 0 0.45357816737839107 0.043281393992262968 0 0.46599422920766509 0.071585542922595516 0 0.45357816737839107 0.043281393992262968 0 0.47969083044660421 0.050503904472553283 0 0.47969083044660421 0.050503904472553283 0 0.5 0.033664617902273368 0 0.47265027193171238 0.017829323700243871 0 0.48592231416185638 0.0752646054103117 0 0.47969083044660421 0.050503904472553283 0 0.5 0.06139794290763223 0 0.47969083044660421 0.050503904472553283 0 0.5 0.033664617902273368 0 0.5 0.06139794290763223 0 0.5 0.033664617902273368 0 0.47265027193171238 0.017829323700243871 0 0.5 0.0059312928969145204 0 0.47265027193171238 0.017829323700243871 0 0.5 0.0059312928969145204 0 0.48261795830076532 -0.0084137270416950408 0 0.5 0.0059312928969145204 0 0.48261795830076532 -0.0084137270416950408 0 0.5 -0.021802032108444391 0 0.47265027193171238 0.017829323700243871 0 0.48261795830076532 -0.0084137270416950408 0 0.45982872622509668 -0.01035431822432146 0 0.48261795830076532 -0.0084137270416950408 0 0.48385521188952352 -0.03103713942335571 0 0.45982872622509668 -0.01035431822432146 0 0.48385521188952352 -0.03103713942335571 0 0.46768790053651399 -0.040232759786602873 0 0.45982872622509668 -0.01035431822432146 0 0.48261795830076532 -0.0084137270416950408 0 0.48385521188952352 -0.03103713942335571 0 0.5 -0.021802032108444391 0 0.48385521188952352 -0.03103713942335571 0 0.49518245524492172 -0.045789595090724652 0 0.49482530481253351 -0.04804557135493729 0 0.5 -0.021802032108444391 0 0.49518245524492172 -0.045789595090724652 0 0.49999999999998263 -0.049535357113803247 0 0.48385521188952352 -0.03103713942335571 0 0.5 -0.021802032108444391 0 0.49518245524492172 -0.045789595090724652 0 0.49482530481253351 -0.04804557135493729 0 0.47636674367150789 -0.060588545727567042 0 0.49016972248203172 -0.07745302065780417 0 0.49999999999998263 -0.049535357113803247 0 0.49482530481253351 -0.04804557135493729 0 0.49016972248203172 -0.07745302065780417 0 0.49999999999998263 -0.049535357113803247 0 0.49482530481253351 -0.04804557135493729 0 0.49518245524492172 -0.045789595090724652 0 0.49999999999998263 -0.049535357113803247 0 0.49482530481253351 -0.04804557135493729 0 0.49518245524492172 -0.045789595090724652 0 0.49482530481253351 -0.04804557135493729 0 0.49482530481253351 -0.04804557135493729 0 0.47636674367150789 -0.060588545727567042 0 0.46768790053651399 -0.040232759786602873 0 0.49482530481253351 -0.04804557135493729 0 0.46768790053651399 -0.040232759786602873 0 0.48385521188952352 -0.03103713942335571 0 0.49482530481253351 -0.04804557135493729 0 0.46768790053651399 -0.040232759786602873 0 0.46768790053651399 -0.040232759786602873 0 0.44055049626049481 -0.03241994821826754 0 0.47636674367150789 -0.060588545727567042 0 0.46768790053651399 -0.040232759786602873 0 0.44971823816913109 -0.058611894661768998 0 0.46768790053651399 -0.040232759786602873 0 0.44971823816913109 -0.058611894661768998 0 0.44055049626049481 -0.03241994821826754 0 0.44971823816913109 -0.058611894661768998 0 0.44055049626049481 -0.03241994821826754 0 0.42776585910878662 -0.047462582859365887 0 0.44055049626049481 -0.03241994821826754 0 0.43862233638968018 -0.01433991032473066 0 0.45982872622509668 -0.01035431822432146 0 0.45982872622509668 -0.01035431822432146 0 0.43604894017798812 -4.8564213765240817e-05 0 0.43862233638968018 -0.01433991032473066 0 0.45982872622509668 -0.01035431822432146 0 0.43604894017798812 -4.8564213765240817e-05 0 0.46768790053651399 -0.040232759786602873 0 0.44055049626049481 -0.03241994821826754 0 0.45982872622509668 -0.01035431822432146 0 0.47499259514944292 -0.1202547269832886 0 0.48551414015152222 -0.10686046996066979 0 0.48085855782101261 -0.13626791926353529 0 0.47418157221881441 -0.11112465676427991 0 0.47528951870947961 -0.09927779745641295 0 0.46093003486481321 -0.11810563265674839 0 0.48551414015152222 -0.10686046996066979 0 0.48085855782101261 -0.13626791926353529 0 0.47499259514944292 -0.1202547269832886 0 0.46093003486481321 -0.11810563265674839 0 0.47239045088042492 -0.13005034139104371 0 0.47499259514944292 -0.1202547269832886 0 0.47418157221881441 -0.11112465676427991 0 0.46093003486481321 -0.11810563265674839 0 0.47499259514944292 -0.1202547269832886 0 0.47418157221881441 -0.11112465676427991 0 0.48551414015152222 -0.10686046996066979 0 0.48986304781109291 -0.1242692167884092 0 0.49384429699065369 -0.1173080088948287 0 0.48551414015152222 -0.10686046996066979 0 0.48986304781109291 -0.1242692167884092 0 0.48551414015152222 -0.10686046996066979 0 0.48085855782101261 -0.13626791926353529 0 0.49384429699065369 -0.1173080088948287 0 0.5 -0.1051480109548549 0 0.5 -0.13295433787538069 0 0.48986304781109291 -0.1242692167884092 0 0.49384429699065369 -0.1173080088948287 0 0.5 -0.13295433787538069 0 0.49384429699065369 -0.1173080088948287 0 0.48551414015152222 -0.10686046996066979 0 0.5 -0.1051480109548549 0 0.48551414015152222 -0.10686046996066979 0 0.5 -0.1051480109548549 0 0.49016972248203172 -0.07745302065780417 0 0.48551414015152222 -0.10686046996066979 0 0.47528951870947961 -0.09927779745641295 0 0.4786949329242487 -0.090297096352784045 0 0.47418157221881441 -0.11112465676427991 0 0.48551414015152222 -0.10686046996066979 0 0.47528951870947961 -0.09927779745641295 0 0.47494193394216588 -0.078729965701305249 0 0.4786949329242487 -0.090297096352784045 0 0.46755934933604398 -0.089164227987728051 0 0.47528951870947961 -0.09927779745641295 0 0.4786949329242487 -0.090297096352784045 0 0.46755934933604398 -0.089164227987728051 0 0.47494193394216588 -0.078729965701305249 0 0.4786949329242487 -0.090297096352784045 0 0.49016972248203172 -0.07745302065780417 0 0.48551414015152222 -0.10686046996066979 0 0.49016972248203172 -0.07745302065780417 0 0.5 -0.1051480109548549 0 0.49016972248203172 -0.07745302065780417 0 0.5 -0.077341684034329061 0 0.48551414015152222 -0.10686046996066979 0 0.4786949329242487 -0.090297096352784045 0 0.49016972248203172 -0.07745302065780417 0 0.49999999999998263 -0.049535357113803247 0 0.49016972248203172 -0.07745302065780417 0 0.5 -0.077341684034329061 0 0.49482530481253351 -0.04804557135493729 0 0.49016972248203172 -0.07745302065780417 0 0.47636674367150789 -0.060588545727567042 0 0.47494193394216588 -0.078729965701305249 0 0.49016972248203172 -0.07745302065780417 0 0.47636674367150789 -0.060588545727567042 0 0.47494193394216588 -0.078729965701305249 0 0.4592808493329405 -0.078369632624057675 0 0.47636674367150789 -0.060588545727567042 0 0.44971823816913109 -0.058611894661768998 0 0.4592808493329405 -0.078369632624057675 0 0.47636674367150789 -0.060588545727567042 0 0.4592808493329405 -0.078369632624057675 0 0.44971823816913109 -0.058611894661768998 0 0.44126951216661869 -0.079236189142810429 0 0.42731029070553322 -0.068277018127587574 0 0.44971823816913109 -0.058611894661768998 0 0.44126951216661869 -0.079236189142810429 0 0.4592808493329405 -0.078369632624057675 0 0.4592808493329405 -0.078369632624057675 0 0.44219495499437311 -0.096150719520548239 0 0.44126951216661869 -0.079236189142810429 0 0.4592808493329405 -0.078369632624057675 0 0.44219495499437311 -0.096150719520548239 0 0.47494193394216588 -0.078729965701305249 0 0.4592808493329405 -0.078369632624057675 0 0.46755934933604398 -0.089164227987728051 0 0.4592808493329405 -0.078369632624057675 0 0.46755934933604398 -0.089164227987728051 0 0.44219495499437311 -0.096150719520548239 0 0.46755934933604398 -0.089164227987728051 0 0.46093003486481321 -0.11810563265674839 0 0.46755934933604398 -0.089164227987728051 0 0.44219495499437311 -0.096150719520548239 0 0.46093003486481321 -0.11810563265674839 0 0.47528951870947961 -0.09927779745641295 0 0.46755934933604398 -0.089164227987728051 0 0.46093003486481321 -0.11810563265674839 0 0.441730170532879 -0.1159420230490274 0 0.46093003486481321 -0.11810563265674839 0 0.44582693855797939 -0.1311402400572215 0 0.44219495499437311 -0.096150719520548239 0 0.441730170532879 -0.1159420230490274 0 0.46093003486481321 -0.11810563265674839 0 0.42510906065580589 -0.11393180641703871 0 0.40802316631723889 -0.13171289331352951 0 0.40725115801851319 -0.1169919833964142 0 0.42510906065580589 -0.11393180641703871 0 0.40802316631723889 -0.13171289331352951 0 0.40725115801851319 -0.1169919833964142 0 0.42510906065580589 -0.11393180641703871 0 0.4147200547274239 -0.1079547067436207 0 0.40725115801851319 -0.1169919833964142 0 0.4147200547274239 -0.1079547067436207 0 0.40692444267373179 -0.1088204768843429 0 0.441730170532879 -0.1159420230490274 0 0.42510906065580589 -0.11393180641703871 0 0.43087782981676859 -0.131879285754128 0 0.44219495499437311 -0.096150719520548239 0 0.42510906065580589 -0.11393180641703871 0 0.44219495499437311 -0.096150719520548239 0 0.441730170532879 -0.1159420230490274 0 0.42510906065580589 -0.11393180641703871 0 0.44219495499437311 -0.096150719520548239 0 0.42510906065580589 -0.11393180641703871 0 0.4234909377050316 -0.092737982748798881 0 0.42510906065580589 -0.11393180641703871 0 0.4147200547274239 -0.1079547067436207 0 0.4234909377050316 -0.092737982748798881 0 0.4147200547274239 -0.1079547067436207 0 0.40904120664506322 -0.09935874077938342 0 0.4234909377050316 -0.092737982748798881 0 0.4147200547274239 -0.1079547067436207 0 0.40692444267373179 -0.1088204768843429 0 0.40904120664506322 -0.09935874077938342 0 0.40904120664506322 -0.09935874077938342 0 0.4234909377050316 -0.092737982748798881 0 0.40226126486411301 -0.082186696628613137 0 0.4234909377050316 -0.092737982748798881 0 0.42731029070553322 -0.068277018127587574 0 0.40226126486411301 -0.082186696628613137 0 0.44126951216661869 -0.079236189142810429 0 0.4234909377050316 -0.092737982748798881 0 0.42731029070553322 -0.068277018127587574 0 0.44126951216661869 -0.079236189142810429 0 0.44219495499437311 -0.096150719520548239 0 0.4234909377050316 -0.092737982748798881 0 0.42731029070553322 -0.068277018127587574 0 0.40226126486411301 -0.082186696628613137 0 0.40783717842429862 -0.053396916639273179 0 0.40226126486411301 -0.082186696628613137 0 0.40783717842429862 -0.053396916639273179 0 0.38429333219820472 -0.067131704106828338 0 0.40226126486411301 -0.082186696628613137 0 0.40783717842429862 -0.053396916639273179 0 0.38429333219820472 -0.067131704106828338 0 0.38199460798391838 -0.085246791459625215 0 0.40226126486411301 -0.082186696628613137 0 0.38199460798391838 -0.085246791459625215 0 0.40226126486411301 -0.082186696628613137 0 0.39106825526090561 -0.1007030293946076 0 0.40226126486411301 -0.082186696628613137 0 0.39106825526090561 -0.1007030293946076 0 0.39668535130392929 -0.1109764766179535 0 0.40904120664506322 -0.09935874077938342 0 0.40226126486411301 -0.082186696628613137 0 0.39668535130392929 -0.1109764766179535 0 0.40226126486411301 -0.082186696628613137 0 0.39668535130392929 -0.1109764766179535 0 0.40692444267373179 -0.1088204768843429 0 0.40904120664506322 -0.09935874077938342 0 0.39668535130392929 -0.1109764766179535 0 0.39106825526090561 -0.1007030293946076 0 0.39668535130392929 -0.1109764766179535 0 0.39106825526090561 -0.1007030293946076 0 0.3799934613124491 -0.1141351934829782 0 0.39668535130392929 -0.1109764766179535 0 0.38199460798391838 -0.085246791459625215 0 0.39106825526090561 -0.1007030293946076 0 0.37706007999693841 -0.1011775095245466 0 0.39106825526090561 -0.1007030293946076 0 0.37706007999693841 -0.1011775095245466 0 0.3799934613124491 -0.1141351934829782 0 0.3799934613124491 -0.1141351934829782 0 0.39668535130392929 -0.1109764766179535 0 0.3932705088567644 -0.1286081277708763 0 0.3799934613124491 -0.1141351934829782 0 0.37104303648388809 -0.1272612894930944 0 0.3932705088567644 -0.1286081277708763 0 0.40224748518751269 -0.1211494002184121 0 0.3932705088567644 -0.1286081277708763 0 0.39668535130392929 -0.1109764766179535 0 0.3932705088567644 -0.1286081277708763 0 0.39668535130392929 -0.1109764766179535 0 0.40224748518751269 -0.1211494002184121 0 0.3932705088567644 -0.1286081277708763 0 0.40725115801851319 -0.1169919833964142 0 0.39668535130392929 -0.1109764766179535 0 0.40224748518751269 -0.1211494002184121 0 0.39668535130392929 -0.1109764766179535 0 0.40224748518751269 -0.1211494002184121 0 0.40725115801851319 -0.1169919833964142 0 0.40692444267373179 -0.1088204768843429 0 0.39668535130392929 -0.1109764766179535 0 0.40725115801851319 -0.1169919833964142 0 0.40224748518751269 -0.1211494002184121 0 0.40725115801851319 -0.1169919833964142 0 0.40224748518751269 -0.1211494002184121 0 0.40802316631723889 -0.13171289331352951 0 0.42156842614681772 -0.015954947998216139 0 0.41341309198447568 -0.024607136649931451 0 0.42934924071862562 -0.02029033689286578 0 0.41341309198447568 -0.024607136649931451 0 0.41617709331797431 -0.010335934375633319 0 0.42156842614681772 -0.015954947998216139 0 0.41341309198447568 -0.024607136649931451 0 0.41617709331797431 -0.010335934375633319 0 0.41341309198447568 -0.024607136649931451 0 0.40231254689356027 -0.037392070823486202 0 0.40309603266908228 -0.02802239201193971 0 0.41341309198447568 -0.024607136649931451 0 0.41078796895048542 -0.01389090533175278 0 0.39783226839882679 -0.020121444594939791 0 0.41341309198447568 -0.024607136649931451 0 0.41078796895048542 -0.01389090533175278 0 0.41617709331797431 -0.010335934375633319 0 0.41078796895048542 -0.01389090533175278 0 0.41617709331797431 -0.010335934375633319 0 0.40542454288086849 -0.004070234290400764 0 0.4122691541308795 0.010257189796790951 0 0.41617709331797431 -0.010335934375633319 0 0.40542454288086849 -0.004070234290400764 0 0.4122691541308795 0.010257189796790951 0 0.41617709331797431 -0.010335934375633319 0 0.42733427856619571 -0.0085863840744332814 0 0.42156842614681772 -0.015954947998216139 0 0.41617709331797431 -0.010335934375633319 0 0.42733427856619571 -0.0085863840744332814 0 0.42156842614681772 -0.015954947998216139 0 0.42733427856619571 -0.0085863840744332814 0 0.42934924071862562 -0.02029033689286578 0 0.43862233638968018 -0.01433991032473066 0 0.42733427856619571 -0.0085863840744332814 0 0.43604894017798812 -4.8564213765240817e-05 0 0.43862233638968018 -0.01433991032473066 0 0.42733427856619571 -0.0085863840744332814 0 0.42934924071862562 -0.02029033689286578 0 0.44055049626049481 -0.03241994821826754 0 0.43862233638968018 -0.01433991032473066 0 0.42934924071862562 -0.02029033689286578 0 0.44055049626049481 -0.03241994821826754 0 0.41341309198447568 -0.024607136649931451 0 0.42934924071862562 -0.02029033689286578 0 0.44055049626049481 -0.03241994821826754 0 0.41341309198447568 -0.024607136649931451 0 0.44055049626049481 -0.03241994821826754 0 0.41341309198447568 -0.024607136649931451 0 0.42776585910878662 -0.047462582859365887 0 0.44971823816913109 -0.058611894661768998 0 0.42731029070553322 -0.068277018127587574 0 0.42776585910878662 -0.047462582859365887 0 0.42731029070553322 -0.068277018127587574 0 0.42776585910878662 -0.047462582859365887 0 0.40783717842429862 -0.053396916639273179 0 0.41341309198447568 -0.024607136649931451 0 0.42776585910878662 -0.047462582859365887 0 0.40783717842429862 -0.053396916639273179 0 0.41341309198447568 -0.024607136649931451 0 0.40783717842429862 -0.053396916639273179 0 0.40231254689356027 -0.037392070823486202 0 0.41341309198447568 -0.024607136649931451 0 0.40783717842429862 -0.053396916639273179 0 0.40231254689356027 -0.037392070823486202 0 0.3981973431289102 -0.028872790202489229 0 0.40309603266908228 -0.02802239201193971 0 0.40231254689356027 -0.037392070823486202 0 0.38732801778773829 -0.04651698367670077 0 0.38934459454031273 -0.029067224222560958 0 0.40783717842429862 -0.053396916639273179 0 0.40231254689356027 -0.037392070823486202 0 0.38732801778773829 -0.04651698367670077 0 0.40231254689356027 -0.037392070823486202 0 0.38934459454031273 -0.029067224222560958 0 0.3981973431289102 -0.028872790202489229 0 0.38429333219820472 -0.067131704106828338 0 0.40783717842429862 -0.053396916639273179 0 0.38732801778773829 -0.04651698367670077 0 0.38429333219820472 -0.067131704106828338 0 0.38732801778773829 -0.04651698367670077 0 0.37042415964797237 -0.053058901563766692 0 0.38732801778773829 -0.04651698367670077 0 0.37068698927403948 -0.035605583580554698 0 0.37042415964797237 -0.053058901563766692 0 0.38732801778773829 -0.04651698367670077 0 0.38934459454031273 -0.029067224222560958 0 0.37068698927403948 -0.035605583580554698 0 0.38934459454031273 -0.029067224222560958 0 0.36983137800827248 -0.01206003687362641 0 0.37068698927403948 -0.035605583580554698 0 0.38934459454031273 -0.029067224222560958 0 0.39783226839882679 -0.020121444594939791 0 0.36983137800827248 -0.01206003687362641 0 0.39783226839882679 -0.020121444594939791 0 0.36983137800827248 -0.01206003687362641 0 0.38934459454031273 -0.029067224222560958 0 0.3981973431289102 -0.028872790202489229 0 0.39783226839882679 -0.020121444594939791 0 0.41341309198447568 -0.024607136649931451 0 0.39783226839882679 -0.020121444594939791 0 0.41341309198447568 -0.024607136649931451 0 0.39783226839882679 -0.020121444594939791 0 0.40309603266908228 -0.02802239201193971 0 0.3981973431289102 -0.028872790202489229 0 0.39783226839882679 -0.020121444594939791 0 0.40309603266908228 -0.02802239201193971 0 0.39212595536292472 0.0047271407553128551 0 0.39576254264207811 -0.011108662296721609 0 0.39212595536292472 0.0047271407553128551 0 0.40542454288086849 -0.004070234290400764 0 0.39576254264207811 -0.011108662296721609 0 0.41078796895048542 -0.01389090533175278 0 0.39783226839882679 -0.020121444594939791 0 0.39576254264207811 -0.011108662296721609 0 0.41078796895048542 -0.01389090533175278 0 0.39576254264207811 -0.011108662296721609 0 0.41078796895048542 -0.01389090533175278 0 0.40542454288086849 -0.004070234290400764 0 0.39576254264207811 -0.011108662296721609 0 0.39783226839882679 -0.020121444594939791 0 0.39576254264207811 -0.011108662296721609 0 0.39576254264207811 -0.011108662296721609 0 0.36983137800827248 -0.01206003687362641 0 0.36845156083710567 -0.0060515153414843056 0 0.39576254264207811 -0.011108662296721609 0 0.36845156083710567 -0.0060515153414843056 0 0.39212595536292472 0.0047271407553128551 0 0.39576254264207811 -0.011108662296721609 0 0.36845156083710567 -0.0060515153414843056 0 0.39783226839882679 -0.020121444594939791 0 0.39576254264207811 -0.011108662296721609 0 0.36983137800827248 -0.01206003687362641 0 0.36983137800827248 -0.01206003687362641 0 0.36845156083710567 -0.0060515153414843056 0 0.34183048761771712 -0.0039986291523161147 0 0.36983137800827248 -0.01206003687362641 0 0.35223914962217417 -0.02278106829858554 0 0.37068698927403948 -0.035605583580554698 0 0.36983137800827248 -0.01206003687362641 0 0.35223914962217417 -0.02278106829858554 0 0.34183048761771712 -0.0039986291523161147 0 0.36983137800827248 -0.01206003687362641 0 0.34183048761771712 -0.0039986291523161147 0 0.36845156083710567 -0.0060515153414843056 0 0.34114057903213352 -0.00099436838624600288 0 0.36845156083710567 -0.0060515153414843056 0 0.34183048761771712 -0.0039986291523161147 0 0.34114057903213352 -0.00099436838624600288 0 0.35223914962217417 -0.02278106829858554 0 0.34183048761771712 -0.0039986291523161147 0 0.33977780877024261 -0.017668132193127541 0 0.31382959722716158 0.0040627785689932028 0 0.34183048761771712 -0.0039986291523161147 0 0.34114057903213352 -0.00099436838624600288 0 0.34183048761771712 -0.0039986291523161147 0 0.33574973546384762 -0.01167659105592548 0 0.32194573769061952 -0.0077676308935595512 0 0.34183048761771712 -0.0039986291523161147 0 0.33574973546384762 -0.01167659105592548 0 0.33977780877024261 -0.017668132193127541 0 0.35223914962217417 -0.02278106829858554 0 0.33977780877024261 -0.017668132193127541 0 0.33879793226643329 -0.029417681387060649 0 0.33574973546384762 -0.01167659105592548 0 0.3302717388810405 -0.020466691071749941 0 0.3196214637881436 -0.021924893160697439 0 0.33977780877024261 -0.017668132193127541 0 0.33879793226643329 -0.029417681387060649 0 0.3302717388810405 -0.020466691071749941 0 0.33879793226643329 -0.029417681387060649 0 0.32862271298124018 -0.028919582591936679 0 0.3302717388810405 -0.020466691071749941 0 0.33574973546384762 -0.01167659105592548 0 0.33977780877024261 -0.017668132193127541 0 0.3302717388810405 -0.020466691071749941 0 0.3302717388810405 -0.020466691071749941 0 0.32526768976560849 -0.02407540610795475 0 0.3196214637881436 -0.021924893160697439 0 0.33574973546384762 -0.01167659105592548 0 0.3196214637881436 -0.021924893160697439 0 0.32862271298124018 -0.028919582591936679 0 0.3302717388810405 -0.020466691071749941 0 0.32526768976560849 -0.02407540610795475 0 0.32862271298124018 -0.028919582591936679 0 0.32095671603858011 -0.024994897592425049 0 0.3231679364015333 -0.033306441836977792 0 0.32862271298124018 -0.028919582591936679 0 0.32526768976560849 -0.02407540610795475 0 0.32095671603858011 -0.024994897592425049 0 0.32526768976560849 -0.02407540610795475 0 0.32095671603858011 -0.024994897592425049 0 0.3196214637881436 -0.021924893160697439 0 0.32095671603858011 -0.024994897592425049 0 0.3196214637881436 -0.021924893160697439 0 0.31660160940309118 -0.035871797032442469 0 0.32095671603858011 -0.024994897592425049 0 0.3196214637881436 -0.021924893160697439 0 0.33574973546384762 -0.01167659105592548 0 0.3196214637881436 -0.021924893160697439 0 0.32194573769061952 -0.0077676308935595512 0 0.30752965714041391 0.0058765203804442539 0 0.3196214637881436 -0.021924893160697439 0 0.32194573769061952 -0.0077676308935595512 0 0.31382959722716158 0.0040627785689932028 0 0.34183048761771712 -0.0039986291523161147 0 0.32194573769061952 -0.0077676308935595512 0 0.30752965714041391 0.0058765203804442539 0 0.3196214637881436 -0.021924893160697439 0 0.31292981148517318 -0.054457989835630861 0 0.33951515654934239 -0.057829064589421393 0 0.331762206516936 -0.074199649102278678 0 0.31292981148517318 -0.054457989835630861 0 0.32943454752299528 -0.042779626289088678 0 0.31292981148517318 -0.054457989835630861 0 0.32943454752299528 -0.042779626289088678 0 0.33951515654934239 -0.057829064589421393 0 0.31292981148517318 -0.054457989835630861 0 0.31660160940309118 -0.035871797032442469 0 0.32943454752299528 -0.042779626289088678 0 0.32095671603858011 -0.024994897592425049 0 0.31660160940309118 -0.035871797032442469 0 0.3231679364015333 -0.033306441836977792 0 0.32862271298124018 -0.028919582591936679 0 0.3231679364015333 -0.033306441836977792 0 0.32943454752299528 -0.042779626289088678 0 0.31660160940309118 -0.035871797032442469 0 0.3231679364015333 -0.033306441836977792 0 0.32943454752299528 -0.042779626289088678 0 0.33879793226643329 -0.029417681387060649 0 0.32943454752299528 -0.042779626289088678 0 0.35178468962230941 -0.045374559850196158 0 0.33879793226643329 -0.029417681387060649 0 0.32862271298124018 -0.028919582591936679 0 0.32943454752299528 -0.042779626289088678 0 0.32943454752299528 -0.042779626289088678 0 0.33951515654934239 -0.057829064589421393 0 0.35178468962230941 -0.045374559850196158 0 0.33951515654934239 -0.057829064589421393 0 0.35178468962230941 -0.045374559850196158 0 0.35802776935757019 -0.070665676604553529 0 0.35223914962217417 -0.02278106829858554 0 0.35178468962230941 -0.045374559850196158 0 0.37068698927403948 -0.035605583580554698 0 0.35223914962217417 -0.02278106829858554 0 0.33879793226643329 -0.029417681387060649 0 0.35178468962230941 -0.045374559850196158 0 0.35178468962230941 -0.045374559850196158 0 0.37068698927403948 -0.035605583580554698 0 0.37042415964797237 -0.053058901563766692 0 0.35178468962230941 -0.045374559850196158 0 0.37042415964797237 -0.053058901563766692 0 0.35802776935757019 -0.070665676604553529 0 0.38429333219820472 -0.067131704106828338 0 0.38199460798391838 -0.085246791459625215 0 0.35802776935757019 -0.070665676604553529 0 0.38429333219820472 -0.067131704106828338 0 0.37042415964797237 -0.053058901563766692 0 0.35802776935757019 -0.070665676604553529 0 0.38429333219820472 -0.067131704106828338 0 0.35802776935757019 -0.070665676604553529 0 0.38199460798391838 -0.085246791459625215 0 0.36577500316168848 -0.093055365242956031 0 0.35802776935757019 -0.070665676604553529 0 0.38199460798391838 -0.085246791459625215 0 0.37706007999693841 -0.1011775095245466 0 0.36577500316168848 -0.093055365242956031 0 0.35802776935757019 -0.070665676604553529 0 0.34487393367809682 -0.095216741312257352 0 0.331762206516936 -0.074199649102278678 0 0.36577500316168848 -0.093055365242956031 0 0.35802776935757019 -0.070665676604553529 0 0.34487393367809682 -0.095216741312257352 0 0.35802776935757019 -0.070665676604553529 0 0.331762206516936 -0.074199649102278678 0 0.3799934613124491 -0.1141351934829782 0 0.36192545204167298 -0.11208328153174781 0 0.37104303648388809 -0.1272612894930944 0 0.36192545204167298 -0.11208328153174781 0 0.35551888896884759 -0.1297027680154724 0 0.37104303648388809 -0.1272612894930944 0 0.37706007999693841 -0.1011775095245466 0 0.3799934613124491 -0.1141351934829782 0 0.36192545204167298 -0.11208328153174781 0 0.37706007999693841 -0.1011775095245466 0 0.36577500316168848 -0.093055365242956031 0 0.36192545204167298 -0.11208328153174781 0 0.36192545204167298 -0.11208328153174781 0 0.34487393367809682 -0.095216741312257352 0 0.34014121552940491 -0.1203166258242544 0 0.36577500316168848 -0.093055365242956031 0 0.36192545204167298 -0.11208328153174781 0 0.34487393367809682 -0.095216741312257352 0 0.36192545204167298 -0.11208328153174781 0 0.34014121552940491 -0.1203166258242544 0 0.35551888896884759 -0.1297027680154724 0 0.34014121552940491 -0.1203166258242544 0 0.32517348349888747 -0.118580130041643 0 0.32373683991627678 -0.1342707635111336 0 0.34014121552940491 -0.1203166258242544 0 0.32895182275083351 -0.1060869523066566 0 0.32517348349888747 -0.118580130041643 0 0.34487393367809682 -0.095216741312257352 0 0.34014121552940491 -0.1203166258242544 0 0.32895182275083351 -0.1060869523066566 0 0.34487393367809682 -0.095216741312257352 0 0.32895182275083351 -0.1060869523066566 0 0.32681031061177879 -0.089772122834636051 0 0.32895182275083351 -0.1060869523066566 0 0.31743464692623941 -0.099981704590172707 0 0.32681031061177879 -0.089772122834636051 0 0.31743464692623941 -0.099981704590172707 0 0.31638799147784608 -0.1118713826410174 0 0.30885616350321549 -0.1072846913931271 0 0.32895182275083351 -0.1060869523066566 0 0.31743464692623941 -0.099981704590172707 0 0.31638799147784608 -0.1118713826410174 0 0.32895182275083351 -0.1060869523066566 0 0.31638799147784608 -0.1118713826410174 0 0.32517348349888747 -0.118580130041643 0 0.31638799147784608 -0.1118713826410174 0 0.31399575267335023 -0.12250180558336519 0 0.30853123694459123 -0.1170064061326217 0 0.31638799147784608 -0.1118713826410174 0 0.31399575267335023 -0.12250180558336519 0 0.32517348349888747 -0.118580130041643 0 0.33951515654934239 -0.057829064589421393 0 0.35802776935757019 -0.070665676604553529 0 0.331762206516936 -0.074199649102278678 0 0.34487393367809682 -0.095216741312257352 0 0.331762206516936 -0.074199649102278678 0 0.32681031061177879 -0.089772122834636051 0 0.32681031061177879 -0.089772122834636051 0 0.30549664367630158 -0.077733621600003855 0 0.31220284993755582 -0.090742102146006851 0 0.331762206516936 -0.074199649102278678 0 0.32681031061177879 -0.089772122834636051 0 0.30549664367630158 -0.077733621600003855 0 0.31743464692623941 -0.099981704590172707 0 0.32681031061177879 -0.089772122834636051 0 0.31220284993755582 -0.090742102146006851 0 0.31292981148517318 -0.054457989835630861 0 0.331762206516936 -0.074199649102278678 0 0.30549664367630158 -0.077733621600003855 0 0.331762206516936 -0.074199649102278678 0 0.30549664367630158 -0.077733621600003855 0 0.31292981148517318 -0.054457989835630861 0 0.30549664367630158 -0.077733621600003855 0 0.29642507544735103 -0.06613635338217283 0 0.30549664367630158 -0.077733621600003855 0 0.29743178973804058 -0.092817056036521225 0 0.29642507544735103 -0.06613635338217283 0 0.29743178973804058 -0.092817056036521225 0 0.29642507544735103 -0.06613635338217283 0 0.31220284993755582 -0.090742102146006851 0 0.30524841693787119 -0.089877123387424693 0 0.30586238439958702 -0.098215713767166868 0 0.30549664367630158 -0.077733621600003855 0 0.31220284993755582 -0.090742102146006851 0 0.30524841693787119 -0.089877123387424693 0 0.30524841693787119 -0.089877123387424693 0 0.29743178973804058 -0.092817056036521225 0 0.30586238439958702 -0.098215713767166868 0 0.30549664367630158 -0.077733621600003855 0 0.30524841693787119 -0.089877123387424693 0 0.29743178973804058 -0.092817056036521225 0 0.29430385704143641 -0.093334685648855456 0 0.28333646668855839 -0.1038254721913715 0 0.27844545300264117 -0.078858311907156253 0 0.29743178973804058 -0.092817056036521225 0 0.29430385704143641 -0.093334685648855456 0 0.29347904805936648 -0.068220893163732282 0 0.29430385704143641 -0.093334685648855456 0 0.29347904805936648 -0.068220893163732282 0 0.27844545300264117 -0.078858311907156253 0 0.29430385704143641 -0.093334685648855456 0 0.29347904805936648 -0.068220893163732282 0 0.29743178973804058 -0.092817056036521225 0 0.29642507544735103 -0.06613635338217283 0 0.29347904805936648 -0.068220893163732282 0 0.28521560802072671 -0.062721316040594208 0 0.29347904805936648 -0.068220893163732282 0 0.27844545300264117 -0.078858311907156253 0 0.29347904805936648 -0.068220893163732282 0 0.27844545300264117 -0.078858311907156253 0 0.29642507544735103 -0.06613635338217283 0 0.29347904805936648 -0.068220893163732282 0 0.29301224914481439 -0.054007794946804598 0 0.29642507544735103 -0.06613635338217283 0 0.29347904805936648 -0.068220893163732282 0 0.29743178973804058 -0.092817056036521225 0 0.29843850402873079 -0.11949775869086959 0 0.29512866602350563 -0.1184484781339787 0 0.29843850402873079 -0.11949775869086959 0 0.29512866602350563 -0.1184484781339787 0 0.30010147488007238 -0.1276093355582181 0 0.29843850402873079 -0.11949775869086959 0 0.30554459793957989 -0.1238630007756472 0 0.30853123694459123 -0.1170064061326217 0 0.29843850402873079 -0.11949775869086959 0 0.30554459793957989 -0.1238630007756472 0 0.30010147488007238 -0.1276093355582181 0 0.31399575267335023 -0.12250180558336519 0 0.30554459793957989 -0.1238630007756472 0 0.30853123694459123 -0.1170064061326217 0 0.29843850402873079 -0.11949775869086959 0 0.30853123694459123 -0.1170064061326217 0 0.30885616350321549 -0.1072846913931271 0 0.31638799147784608 -0.1118713826410174 0 0.30853123694459123 -0.1170064061326217 0 0.30885616350321549 -0.1072846913931271 0 0.29843850402873079 -0.11949775869086959 0 0.30885616350321549 -0.1072846913931271 0 0.30586238439958702 -0.098215713767166868 0 0.29743178973804058 -0.092817056036521225 0 0.29843850402873079 -0.11949775869086959 0 0.30586238439958702 -0.098215713767166868 0 0.29743178973804058 -0.092817056036521225 0 0.29843850402873079 -0.11949775869086959 0 0.31743464692623941 -0.099981704590172707 0 0.30885616350321549 -0.1072846913931271 0 0.30586238439958702 -0.098215713767166868 0 0.31743464692623941 -0.099981704590172707 0 0.31220284993755582 -0.090742102146006851 0 0.30586238439958702 -0.098215713767166868 0 0.29430385704143641 -0.093334685648855456 0 0.29512866602350563 -0.1184484781339787 0 0.29430385704143641 -0.093334685648855456 0 0.28333646668855839 -0.1038254721913715 0 0.29512866602350563 -0.1184484781339787 0 0.29743178973804058 -0.092817056036521225 0 0.29430385704143641 -0.093334685648855456 0 0.29512866602350563 -0.1184484781339787 0 0.28333646668855839 -0.1038254721913715 0 0.29512866602350563 -0.1184484781339787 0 0.28822748037447399 -0.12879263247558709 0 0.28333646668855839 -0.1038254721913715 0 0.28822748037447399 -0.12879263247558709 0 0.26621118532108262 -0.1119181791838486 0 0.25741251913389712 -0.1305951081492244 0 0.28822748037447399 -0.12879263247558709 0 0.28333646668855839 -0.1038254721913715 0 0.26621118532108262 -0.1119181791838486 0 0.28822748037447399 -0.12879263247558709 0 0.28333646668855839 -0.1038254721913715 0 0.26621118532108262 -0.1119181791838486 0 0.26565518081306061 -0.08790840808238623 0 0.26621118532108262 -0.1119181791838486 0 0.25154255280112903 -0.1006059983499779 0 0.24954668948061209 -0.11284283178631641 0 0.26621118532108262 -0.1119181791838486 0 0.25154255280112903 -0.1006059983499779 0 0.26565518081306061 -0.08790840808238623 0 0.26621118532108262 -0.1119181791838486 0 0.25741251913389712 -0.1305951081492244 0 0.24954668948061209 -0.11284283178631641 0 0.27844545300264117 -0.078858311907156253 0 0.2741393958395883 -0.056877179510702792 0 0.28007443442101287 -0.061799103716356343 0 0.27844545300264117 -0.078858311907156253 0 0.2741393958395883 -0.056877179510702792 0 0.26628957168076178 -0.070692469674316694 0 0.27844545300264117 -0.078858311907156253 0 0.2741393958395883 -0.056877179510702792 0 0.28521560802072671 -0.062721316040594208 0 0.27844545300264117 -0.078858311907156253 0 0.28007443442101287 -0.061799103716356343 0 0.26628957168076178 -0.070692469674316694 0 0.27844545300264117 -0.078858311907156253 0 0.26565518081306061 -0.08790840808238623 0 0.28333646668855839 -0.1038254721913715 0 0.27844545300264117 -0.078858311907156253 0 0.26565518081306061 -0.08790840808238623 0 0.28333646668855839 -0.1038254721913715 0 0.27844545300264117 -0.078858311907156253 0 0.27844545300264117 -0.078858311907156253 0 0.26565518081306061 -0.08790840808238623 0 0.25154255280112903 -0.1006059983499779 0 0.25664035233608162 -0.078361863555500011 0 0.24390890644978661 -0.075150332687283522 0 0.25154255280112903 -0.1006059983499779 0 0.26565518081306061 -0.08790840808238623 0 0.25664035233608162 -0.078361863555500011 0 0.26628957168076178 -0.070692469674316694 0 0.26565518081306061 -0.08790840808238623 0 0.25664035233608162 -0.078361863555500011 0 0.25664035233608162 -0.078361863555500011 0 0.25256726729664603 -0.064532785491330763 0 0.24390890644978661 -0.075150332687283522 0 0.26628957168076178 -0.070692469674316694 0 0.25256726729664603 -0.064532785491330763 0 0.2741393958395883 -0.056877179510702792 0 0.26628957168076178 -0.070692469674316694 0 0.25664035233608162 -0.078361863555500011 0 0.25256726729664603 -0.064532785491330763 0 0.25256726729664603 -0.064532785491330763 0 0.25164978009717781 -0.053061021673298493 0 0.24617004458672351 -0.058202332164817121 0 0.25256726729664603 -0.064532785491330763 0 0.26131371929964131 -0.050907379716302707 0 0.27395317434556299 -0.0509436520349522 0 0.25256726729664603 -0.064532785491330763 0 0.25164978009717781 -0.053061021673298493 0 0.26131371929964131 -0.050907379716302707 0 0.25256726729664603 -0.064532785491330763 0 0.27395317434556299 -0.0509436520349522 0 0.25164978009717781 -0.053061021673298493 0 0.26131371929964131 -0.050907379716302707 0 0.2539732262079259 -0.044675773385505282 0 0.26131371929964131 -0.050907379716302707 0 0.26227784506780882 -0.045421506107560787 0 0.2539732262079259 -0.044675773385505282 0 0.26131371929964131 -0.050907379716302707 0 0.26742863268251632 -0.045985676557136583 0 0.26227784506780882 -0.045421506107560787 0 0.25256726729664603 -0.064532785491330763 0 0.27395317434556299 -0.0509436520349522 0 0.2741393958395883 -0.056877179510702792 0 0.26131371929964131 -0.050907379716302707 0 0.27395317434556299 -0.0509436520349522 0 0.26742863268251632 -0.045985676557136583 0 0.27395317434556299 -0.0509436520349522 0 0.2741393958395883 -0.056877179510702792 0 0.28351618772518777 -0.053458991616202503 0 0.2741393958395883 -0.056877179510702792 0 0.28007443442101287 -0.061799103716356343 0 0.28351618772518777 -0.053458991616202503 0 0.2807394014679111 -0.038000872253349499 0 0.27361436003936901 -0.034999677146069851 0 0.27240238673917438 -0.042113497984529957 0 0.2807394014679111 -0.038000872253349499 0 0.27361436003936901 -0.034999677146069851 0 0.28248009054126683 -0.027824818882371601 0 0.27395317434556299 -0.0509436520349522 0 0.2807394014679111 -0.038000872253349499 0 0.27240238673917438 -0.042113497984529957 0 0.27395317434556299 -0.0509436520349522 0 0.27240238673917438 -0.042113497984529957 0 0.26742863268251632 -0.045985676557136583 0 0.27361436003936901 -0.034999677146069851 0 0.27240238673917438 -0.042113497984529957 0 0.26639580208115188 -0.040117194771298603 0 0.27240238673917438 -0.042113497984529957 0 0.26742863268251632 -0.045985676557136583 0 0.26639580208115188 -0.040117194771298603 0 0.27361436003936901 -0.034999677146069851 0 0.26639580208115188 -0.040117194771298603 0 0.26859201328057281 -0.027442020841521631 0 0.2539732262079259 -0.044675773385505282 0 0.25845033672230949 -0.02738613623275089 0 0.26859201328057281 -0.027442020841521631 0 0.2539732262079259 -0.044675773385505282 0 0.25845033672230949 -0.02738613623275089 0 0.24422464309495209 -0.046986837608536558 0 0.25845033672230949 -0.02738613623275089 0 0.24422464309495209 -0.046986837608536558 0 0.26639580208115188 -0.040117194771298603 0 0.2539732262079259 -0.044675773385505282 0 0.26859201328057281 -0.027442020841521631 0 0.2539732262079259 -0.044675773385505282 0 0.26859201328057281 -0.027442020841521631 0 0.26639580208115188 -0.040117194771298603 0 0.26227784506780882 -0.045421506107560787 0 0.2539732262079259 -0.044675773385505282 0 0.26742863268251632 -0.045985676557136583 0 0.26639580208115188 -0.040117194771298603 0 0.26227784506780882 -0.045421506107560787 0 0.25013504981522988 -0.025019616072594848 0 0.25845033672230949 -0.02738613623275089 0 0.24524507923365879 -0.0330622213940093 0 0.25845033672230949 -0.02738613623275089 0 0.27267603034966698 -0.0077854348569651906 0 0.25845033672230949 -0.02738613623275089 0 0.25886508985187012 -0.013172853544477199 0 0.27267603034966698 -0.0077854348569651906 0 0.25013504981522988 -0.025019616072594848 0 0.25247407830029878 -0.019873092178793648 0 0.25845033672230949 -0.02738613623275089 0 0.25247407830029878 -0.019873092178793648 0 0.25845033672230949 -0.02738613623275089 0 0.25886508985187012 -0.013172853544477199 0 0.25598072684389089 -0.0058943492075353007 0 0.25006914023697918 -0.01208141302270524 0 0.2479891295484222 -0.0022684572774312019 0 0.25894279220913391 0.003459445712386486 0 0.25598072684389089 -0.0058943492075353007 0 0.2479891295484222 -0.0022684572774312019 0 0.25598072684389089 -0.0058943492075353007 0 0.25006914023697918 -0.01208141302270524 0 0.25886508985187012 -0.013172853544477199 0 0.25247407830029878 -0.019873092178793648 0 0.25006914023697918 -0.01208141302270524 0 0.25886508985187012 -0.013172853544477199 0 0.25886508985187012 -0.013172853544477199 0 0.26317147738524183 -0.0038637327990410169 0 0.27267603034966698 -0.0077854348569651906 0 0.25598072684389089 -0.0058943492075353007 0 0.25886508985187012 -0.013172853544477199 0 0.26317147738524183 -0.0038637327990410169 0 0.25894279220913391 0.003459445712386486 0 0.25598072684389089 -0.0058943492075353007 0 0.26317147738524183 -0.0038637327990410169 0 0.27267603034966698 -0.0077854348569651906 0 0.26859201328057281 -0.027442020841521631 0 0.28321080035321983 -0.010208268297538009 0 0.26939274767164711 0.0040745279013861191 0 0.26317147738524183 -0.0038637327990410169 0 0.27267603034966698 -0.0077854348569651906 0 0.28687677889875068 0.001725005618485562 0 0.27267603034966698 -0.0077854348569651906 0 0.28321080035321983 -0.010208268297538009 0 0.26859201328057281 -0.027442020841521631 0 0.28321080035321983 -0.010208268297538009 0 0.25845033672230949 -0.02738613623275089 0 0.27267603034966698 -0.0077854348569651906 0 0.26859201328057281 -0.027442020841521631 0 0.26859201328057281 -0.027442020841521631 0 0.28248009054126683 -0.027824818882371601 0 0.28321080035321983 -0.010208268297538009 0 0.27361436003936901 -0.034999677146069851 0 0.26859201328057281 -0.027442020841521631 0 0.28248009054126683 -0.027824818882371601 0 0.29465383366866438 -0.01919356567853802 0 0.28248009054126683 -0.027824818882371601 0 0.29533908139447967 -0.037354518578573179 0 0.29465383366866438 -0.01919356567853802 0 0.28248009054126683 -0.027824818882371601 0 0.28321080035321983 -0.010208268297538009 0 0.29465383366866438 -0.01919356567853802 0 0.29533908139447967 -0.037354518578573179 0 0.2978295874258669 0.0070254842464454832 0 0.28321080035321983 -0.010208268297538009 0 0.29396858594285019 -0.001032612778502764 0 0.2978295874258669 0.0070254842464454832 0 0.28687677889875068 0.001725005618485562 0 0.28321080035321983 -0.010208268297538009 0 0.29465383366866438 -0.01919356567853802 0 0.28321080035321983 -0.010208268297538009 0 0.29396858594285019 -0.001032612778502764 0 0.2978295874258669 0.0070254842464454832 0 0.28321080035321983 -0.010208268297538009 0 0.29465383366866438 -0.01919356567853802 0 0.29396858594285019 -0.001032612778502764 0 0.30752965714041391 0.0058765203804442539 0 0.29465383366866438 -0.01919356567853802 0 0.29396858594285019 -0.001032612778502764 0 0.30752965714041391 0.0058765203804442539 0 0.3196214637881436 -0.021924893160697439 0 0.29465383366866438 -0.01919356567853802 0 0.3196214637881436 -0.021924893160697439 0 0.29465383366866438 -0.01919356567853802 0 0.29533908139447967 -0.037354518578573179 0 0.3196214637881436 -0.021924893160697439 0 0.29533908139447967 -0.037354518578573179 0 0.3196214637881436 -0.021924893160697439 0 0.31660160940309118 -0.035871797032442469 0 0.29533908139447967 -0.037354518578573179 0 0.31292981148517318 -0.054457989835630861 0 0.31660160940309118 -0.035871797032442469 0 0.29533908139447967 -0.037354518578573179 0 0.31292981148517318 -0.054457989835630861 0 0.29642507544735103 -0.06613635338217283 0 0.31292981148517318 -0.054457989835630861 0 0.29642507544735103 -0.06613635338217283 0 0.29533908139447967 -0.037354518578573179 0 0.29642507544735103 -0.06613635338217283 0 0.29301224914481439 -0.054007794946804598 0 0.29533908139447967 -0.037354518578573179 0 0.27395317434556299 -0.0509436520349522 0 0.28351618772518777 -0.053458991616202503 0 0.29533908139447967 -0.037354518578573179 0 0.29301224914481439 -0.054007794946804598 0 0.28351618772518777 -0.053458991616202503 0 0.29533908139447967 -0.037354518578573179 0 0.29642507544735103 -0.06613635338217283 0 0.29533908139447967 -0.037354518578573179 0 0.29347904805936648 -0.068220893163732282 0 0.29301224914481439 -0.054007794946804598 0 0.28521560802072671 -0.062721316040594208 0 0.29347904805936648 -0.068220893163732282 0 0.29301224914481439 -0.054007794946804598 0 0.28521560802072671 -0.062721316040594208 0 0.29301224914481439 -0.054007794946804598 0 0.28351618772518777 -0.053458991616202503 0 0.28521560802072671 -0.062721316040594208 0 0.28007443442101287 -0.061799103716356343 0 0.28351618772518777 -0.053458991616202503 0 0.27395317434556299 -0.0509436520349522 0 0.29533908139447967 -0.037354518578573179 0 0.27395317434556299 -0.0509436520349522 0 0.2807394014679111 -0.038000872253349499 0 0.29533908139447967 -0.037354518578573179 0 0.2807394014679111 -0.038000872253349499 0 0.28248009054126683 -0.027824818882371601 0 0.29533908139447967 -0.037354518578573179 0 0.30290052143222262 -0.20369411332823331 0 0.28158405213751547 -0.22140539282722879 0 0.30290052143222262 -0.20369411332823331 0 0.28158405213751547 -0.22140539282722879 0 0.27747759048209231 -0.20168759245952969 0 0.28632476970011178 -0.18938030831719929 0 0.30290052143222262 -0.20369411332823331 0 0.2980095077463053 -0.17872695304401809 0 0.28632476970011178 -0.18938030831719929 0 0.30290052143222262 -0.20369411332823331 0 0.27747759048209231 -0.20168759245952969 0 0.30290052143222262 -0.20369411332823331 0 0.2980095077463053 -0.17872695304401809 0 0.32549301828835953 -0.18492261693889581 0 0.30290052143222262 -0.20369411332823331 0 0.2980095077463053 -0.17872695304401809 0 0.30290052143222262 -0.20369411332823331 0 0.30715254712033069 -0.22539943122446929 0 0.28158405213751547 -0.22140539282722879 0 0.30290052143222262 -0.20369411332823331 0 0.30715254712033069 -0.22539943122446929 0 0.30290052143222262 -0.20369411332823331 0 0.30715254712033069 -0.22539943122446929 0 0.32148368101975677 -0.2112815477794289 0 0.31140457280844042 -0.24710474912070499 0 0.29234931722919649 -0.23956849287787771 0 0.29718577407036301 -0.25519814195989071 0 0.30715254712033069 -0.22539943122446929 0 0.31140457280844042 -0.24710474912070499 0 0.29234931722919649 -0.23956849287787771 0 0.30715254712033069 -0.22539943122446929 0 0.31140457280844042 -0.24710474912070499 0 0.29234931722919649 -0.23956849287787771 0 0.27362138757170362 -0.2426007269765893 0 0.28009493911397709 -0.25531812806766069 0 0.29234931722919649 -0.23956849287787771 0 0.28158405213751547 -0.22140539282722879 0 0.27362138757170362 -0.2426007269765893 0 0.30715254712033069 -0.22539943122446929 0 0.29234931722919649 -0.23956849287787771 0 0.28158405213751547 -0.22140539282722879 0 0.28158405213751547 -0.22140539282722879 0 0.26621460642996558 -0.23052855599088379 0 0.27362138757170362 -0.2426007269765893 0 0.28158405213751547 -0.22140539282722879 0 0.26621460642996558 -0.23052855599088379 0 0.26307381511529532 -0.2143756044194241 0 0.26621460642996558 -0.23052855599088379 0 0.27362138757170362 -0.2426007269765893 0 0.26034160768121078 -0.2422716922893062 0 0.27362138757170362 -0.2426007269765893 0 0.26034160768121078 -0.2422716922893062 0 0.26515279713901752 -0.25474276698909742 0 0.26034160768121078 -0.2422716922893062 0 0.26515279713901752 -0.25474276698909742 0 0.25575058308532189 -0.25269357128633052 0 0.26034160768121078 -0.2422716922893062 0 0.25134951441318748 -0.22920843539767929 0 0.2499607574480687 -0.24385609709525671 0 0.25575058308532189 -0.25269357128633052 0 0.2462907050713771 -0.25204034373521428 0 0.2499607574480687 -0.24385609709525671 0 0.26034160768121078 -0.2422716922893062 0 0.25575058308532189 -0.25269357128633052 0 0.2499607574480687 -0.24385609709525671 0 0.26621460642996558 -0.23052855599088379 0 0.25134951441318748 -0.22920843539767929 0 0.26307381511529532 -0.2143756044194241 0 0.26621460642996558 -0.23052855599088379 0 0.26034160768121078 -0.2422716922893062 0 0.25134951441318748 -0.22920843539767929 0 0.25134951441318748 -0.22920843539767929 0 0.26307381511529532 -0.2143756044194241 0 0.24314545538918961 -0.20571013864437751 0 0.26307381511529532 -0.2143756044194241 0 0.2593871514889205 -0.19799184377322379 0 0.24314545538918961 -0.20571013864437751 0 0.26307381511529532 -0.2143756044194241 0 0.27747759048209231 -0.20168759245952969 0 0.2593871514889205 -0.19799184377322379 0 0.28158405213751547 -0.22140539282722879 0 0.26307381511529532 -0.2143756044194241 0 0.27747759048209231 -0.20168759245952969 0 0.27747759048209231 -0.20168759245952969 0 0.2593871514889205 -0.19799184377322379 0 0.269221803856454 -0.185599514949991 0 0.28632476970011178 -0.18938030831719929 0 0.27747759048209231 -0.20168759245952969 0 0.269221803856454 -0.185599514949991 0 0.2593871514889205 -0.19799184377322379 0 0.269221803856454 -0.185599514949991 0 0.2437278363918948 -0.18195096812212239 0 0.260919387449559 -0.16579352929295721 0 0.269221803856454 -0.185599514949991 0 0.2437278363918948 -0.18195096812212239 0 0.260919387449559 -0.16579352929295721 0 0.28401442498348639 -0.17719336780422379 0 0.260919387449559 -0.16579352929295721 0 0.27757308642867828 -0.16101723958663619 0 0.28401442498348639 -0.17719336780422379 0 0.260919387449559 -0.16579352929295721 0 0.27757308642867828 -0.16101723958663619 0 0.27224003922127837 -0.1473222684895614 0 0.260919387449559 -0.16579352929295721 0 0.269221803856454 -0.185599514949991 0 0.28401442498348639 -0.17719336780422379 0 0.28632476970011178 -0.18938030831719929 0 0.269221803856454 -0.185599514949991 0 0.28401442498348639 -0.17719336780422379 0 0.260919387449559 -0.16579352929295721 0 0.25452239946831973 -0.14829655140993131 0 0.27224003922127837 -0.1473222684895614 0 0.260919387449559 -0.16579352929295721 0 0.25452239946831973 -0.14829655140993131 0 0.23782434991563151 -0.15439369078169049 0 0.25741251913389712 -0.1305951081492244 0 0.25452239946831973 -0.14829655140993131 0 0.27224003922127837 -0.1473222684895614 0 0.27757308642867828 -0.16101723958663619 0 0.27224003922127837 -0.1473222684895614 0 0.2931184940603897 -0.15375979275980259 0 0.25741251913389712 -0.1305951081492244 0 0.27224003922127837 -0.1473222684895614 0 0.28822748037447399 -0.12879263247558709 0 0.29512866602350563 -0.1184484781339787 0 0.2959534750055749 -0.1435622706191019 0 0.29512866602350563 -0.1184484781339787 0 0.28822748037447399 -0.12879263247558709 0 0.2959534750055749 -0.1435622706191019 0 0.2959534750055749 -0.1435622706191019 0 0.2931184940603897 -0.15375979275980259 0 0.29606782433269818 -0.16881524064208181 0 0.28822748037447399 -0.12879263247558709 0 0.2959534750055749 -0.1435622706191019 0 0.2931184940603897 -0.15375979275980259 0 0.28822748037447399 -0.12879263247558709 0 0.2931184940603897 -0.15375979275980259 0 0.27224003922127837 -0.1473222684895614 0 0.28822748037447399 -0.12879263247558709 0 0.2931184940603897 -0.15375979275980259 0 0.2959534750055749 -0.1435622706191019 0 0.29606782433269818 -0.16881524064208181 0 0.2959534750055749 -0.1435622706191019 0 0.30786991093933941 -0.1327242262548293 0 0.31334084787329858 -0.14560100496875439 0 0.2959534750055749 -0.1435622706191019 0 0.30589655906226038 -0.156608858018214 0 0.31334084787329858 -0.14560100496875439 0 0.30589655906226038 -0.156608858018214 0 0.31666093946419188 -0.15748088094218049 0 0.31334084787329858 -0.14560100496875439 0 0.29512866602350563 -0.1184484781339787 0 0.2959534750055749 -0.1435622706191019 0 0.30010147488007238 -0.1276093355582181 0 0.2959534750055749 -0.1435622706191019 0 0.30786991093933941 -0.1327242262548293 0 0.30010147488007238 -0.1276093355582181 0 0.31399575267335023 -0.12250180558336519 0 0.30554459793957989 -0.1238630007756472 0 0.30786991093933941 -0.1327242262548293 0 0.30554459793957989 -0.1238630007756472 0 0.30786991093933941 -0.1327242262548293 0 0.30010147488007238 -0.1276093355582181 0 0.28401442498348639 -0.17719336780422379 0 0.29606782433269818 -0.16881524064208181 0 0.2980095077463053 -0.17872695304401809 0 0.28632476970011178 -0.18938030831719929 0 0.28401442498348639 -0.17719336780422379 0 0.2980095077463053 -0.17872695304401809 0 0.27757308642867828 -0.16101723958663619 0 0.2931184940603897 -0.15375979275980259 0 0.28401442498348639 -0.17719336780422379 0 0.2931184940603897 -0.15375979275980259 0 0.28401442498348639 -0.17719336780422379 0 0.29606782433269818 -0.16881524064208181 0 0.2931184940603897 -0.15375979275980259 0 0.29606782433269818 -0.16881524064208181 0 0.29606782433269818 -0.16881524064208181 0 0.30589655906226038 -0.156608858018214 0 0.31145366373618227 -0.1686264437044486 0 0.2959534750055749 -0.1435622706191019 0 0.29606782433269818 -0.16881524064208181 0 0.30589655906226038 -0.156608858018214 0 0.30589655906226038 -0.156608858018214 0 0.31145366373618227 -0.1686264437044486 0 0.31666093946419188 -0.15748088094218049 0 0.31145366373618227 -0.1686264437044486 0 0.2980095077463053 -0.17872695304401809 0 0.32549301828835953 -0.18492261693889581 0 0.29606782433269818 -0.16881524064208181 0 0.31145366373618227 -0.1686264437044486 0 0.2980095077463053 -0.17872695304401809 0 0.29606782433269818 -0.16881524064208181 0 0.2980095077463053 -0.17872695304401809 0 0.31145366373618227 -0.1686264437044486 0 0.32549301828835953 -0.18492261693889581 0 0.32738776678709508 -0.16545123116759969 0 0.31145366373618227 -0.1686264437044486 0 0.32738776678709508 -0.16545123116759969 0 0.31666093946419188 -0.15748088094218049 0 0.32738776678709508 -0.16545123116759969 0 0.31666093946419188 -0.15748088094218049 0 0.32968898845727718 -0.1497650634196834 0 0.32738776678709508 -0.16545123116759969 0 0.32968898845727718 -0.1497650634196834 0 0.34808551514449421 -0.1661511205495555 0 0.32549301828835953 -0.18492261693889581 0 0.32738776678709508 -0.16545123116759969 0 0.34808551514449421 -0.1661511205495555 0 0.32549301828835953 -0.18492261693889581 0 0.34808551514449421 -0.1661511205495555 0 0.32549301828835953 -0.18492261693889581 0 0.34808551514449421 -0.1661511205495555 0 0.34521429895780248 -0.1968392362703156 0 0.30786991093933941 -0.1327242262548293 0 0.32373683991627678 -0.1342707635111336 0 0.31334084787329858 -0.14560100496875439 0 0.31399575267335023 -0.12250180558336519 0 0.32517348349888747 -0.118580130041643 0 0.32373683991627678 -0.1342707635111336 0 0.31399575267335023 -0.12250180558336519 0 0.30786991093933941 -0.1327242262548293 0 0.32373683991627678 -0.1342707635111336 0 0.32373683991627678 -0.1342707635111336 0 0.31334084787329858 -0.14560100496875439 0 0.32968898845727718 -0.1497650634196834 0 0.31666093946419188 -0.15748088094218049 0 0.31334084787329858 -0.14560100496875439 0 0.32968898845727718 -0.1497650634196834 0 0.32373683991627678 -0.1342707635111336 0 0.32968898845727718 -0.1497650634196834 0 0.34485783347551252 -0.1433779188078016 0 0.32968898845727718 -0.1497650634196834 0 0.34485783347551252 -0.1433779188078016 0 0.34808551514449421 -0.1661511205495555 0 0.34014121552940491 -0.1203166258242544 0 0.32373683991627678 -0.1342707635111336 0 0.34485783347551252 -0.1433779188078016 0 0.34014121552940491 -0.1203166258242544 0 0.35551888896884759 -0.1297027680154724 0 0.34485783347551252 -0.1433779188078016 0 0.35551888896884759 -0.1297027680154724 0 0.34485783347551252 -0.1433779188078016 0 0.37067801200062889 -0.1473796241602153 0 0.34485783347551252 -0.1433779188078016 0 0.37067801200062889 -0.1473796241602153 0 0.34808551514449421 -0.1661511205495555 0 0.35551888896884759 -0.1297027680154724 0 0.37067801200062889 -0.1473796241602153 0 0.37104303648388809 -0.1272612894930944 0 0.34808551514449421 -0.1661511205495555 0 0.36752808638216261 -0.17990459429682831 0 0.34521429895780248 -0.1968392362703156 0 0.34808551514449421 -0.1661511205495555 0 0.37072349948513561 -0.1630779710757761 0 0.36752808638216261 -0.17990459429682831 0 0.37067801200062889 -0.1473796241602153 0 0.34808551514449421 -0.1661511205495555 0 0.37072349948513561 -0.1630779710757761 0 0.37067801200062889 -0.1473796241602153 0 0.34808551514449421 -0.1661511205495555 0 0.37072349948513561 -0.1630779710757761 0 0.36752808638216261 -0.17990459429682831 0 0.38565700028273392 -0.16791849986101029 0 0.36752808638216261 -0.17990459429682831 0 0.36890805570422369 -0.19954003101511669 0 0.34521429895780248 -0.1968392362703156 0 0.36752808638216261 -0.17990459429682831 0 0.36890805570422369 -0.19954003101511669 0 0.38551481473406651 -0.18910273675150999 0 0.36890805570422369 -0.19954003101511669 0 0.35851964138810982 -0.2171827375251118 0 0.37645297458065691 -0.21353851220024839 0 0.35851964138810982 -0.2171827375251118 0 0.34521429895780248 -0.1968392362703156 0 0.33865146772119931 -0.2184974665014994 0 0.36890805570422369 -0.19954003101511669 0 0.35851964138810982 -0.2171827375251118 0 0.34521429895780248 -0.1968392362703156 0 0.32549301828835953 -0.18492261693889581 0 0.34521429895780248 -0.1968392362703156 0 0.32148368101975677 -0.2112815477794289 0 0.34521429895780248 -0.1968392362703156 0 0.33865146772119931 -0.2184974665014994 0 0.32148368101975677 -0.2112815477794289 0 0.30290052143222262 -0.20369411332823331 0 0.32549301828835953 -0.18492261693889581 0 0.32148368101975677 -0.2112815477794289 0 0.30290052143222262 -0.20369411332823331 0 0.32549301828835953 -0.18492261693889581 0 0.31140457280844042 -0.24710474912070499 0 0.32841487832378857 -0.23419691532036521 0 0.32909477526671738 -0.25319804842994992 0 0.30715254712033069 -0.22539943122446929 0 0.31140457280844042 -0.24710474912070499 0 0.32841487832378857 -0.23419691532036521 0 0.30715254712033069 -0.22539943122446929 0 0.32148368101975677 -0.2112815477794289 0 0.32841487832378857 -0.23419691532036521 0 0.33865146772119931 -0.2184974665014994 0 0.32841487832378857 -0.23419691532036521 0 0.34678876975393269 -0.23153157971564481 0 0.33865146772119931 -0.2184974665014994 0 0.32148368101975677 -0.2112815477794289 0 0.32841487832378857 -0.23419691532036521 0 0.32841487832378857 -0.23419691532036521 0 0.34542116247921317 -0.24786541093840589 0 0.32909477526671738 -0.25319804842994992 0 0.32841487832378857 -0.23419691532036521 0 0.34542116247921317 -0.24786541093840589 0 0.34678876975393269 -0.23153157971564481 0 0.34542116247921317 -0.24786541093840589 0 0.36282952759798831 -0.23490181410806829 0 0.36211004630048071 -0.25874315800932568 0 0.34542116247921317 -0.24786541093840589 0 0.34678876975393269 -0.23153157971564481 0 0.36282952759798831 -0.23490181410806829 0 0.35851964138810982 -0.2171827375251118 0 0.33865146772119931 -0.2184974665014994 0 0.34678876975393269 -0.23153157971564481 0 0.35851964138810982 -0.2171827375251118 0 0.34678876975393269 -0.23153157971564481 0 0.36282952759798831 -0.23490181410806829 0 0.35851964138810982 -0.2171827375251118 0 0.37179579398026102 -0.22561915142401329 0 0.36282952759798831 -0.23490181410806829 0 0.35851964138810982 -0.2171827375251118 0 0.37179579398026102 -0.22561915142401329 0 0.37645297458065691 -0.21353851220024839 0 0.37179579398026102 -0.22561915142401329 0 0.36282952759798831 -0.23490181410806829 0 0.37754581309809132 -0.23651361028518689 0 0.36282952759798831 -0.23490181410806829 0 0.36876625398544938 -0.24898888889403961 0 0.36211004630048071 -0.25874315800932568 0 0.36282952759798831 -0.23490181410806829 0 0.36211004630048071 -0.25874315800932568 0 0.36282952759798831 -0.23490181410806829 0 0.36876625398544938 -0.24898888889403961 0 0.37754581309809132 -0.23651361028518689 0 0.37754581309809132 -0.23651361028518689 0 0.39300219267510322 -0.23842714914515989 0 0.3871149211879113 -0.25548270742864421 0 0.39300219267510322 -0.23842714914515989 0 0.3871149211879113 -0.25548270742864421 0 0.40207495352916539 -0.25113417058953519 0 0.39300219267510322 -0.23842714914515989 0 0.40723458142941671 -0.23497076085713389 0 0.40207495352916539 -0.25113417058953519 0 0.39851670543712209 -0.2244771902628257 0 0.41039622944065363 -0.2185270516157129 0 0.40723458142941671 -0.23497076085713389 0 0.39300219267510322 -0.23842714914515989 0 0.39851670543712209 -0.2244771902628257 0 0.40723458142941671 -0.23497076085713389 0 0.39300219267510322 -0.23842714914515989 0 0.39851670543712209 -0.2244771902628257 0 0.38505811203634721 -0.22522643630241351 0 0.39851670543712209 -0.2244771902628257 0 0.38505811203634721 -0.22522643630241351 0 0.39303519244684892 -0.21278300449704671 0 0.37754581309809132 -0.23651361028518689 0 0.39300219267510322 -0.23842714914515989 0 0.38505811203634721 -0.22522643630241351 0 0.37179579398026102 -0.22561915142401329 0 0.37754581309809132 -0.23651361028518689 0 0.38505811203634721 -0.22522643630241351 0 0.37179579398026102 -0.22561915142401329 0 0.38505811203634721 -0.22522643630241351 0 0.37645297458065691 -0.21353851220024839 0 0.38505811203634721 -0.22522643630241351 0 0.37645297458065691 -0.21353851220024839 0 0.39303519244684892 -0.21278300449704671 0 0.36890805570422369 -0.19954003101511669 0 0.37645297458065691 -0.21353851220024839 0 0.38544293285627962 -0.20314808770867229 0 0.37645297458065691 -0.21353851220024839 0 0.38544293285627962 -0.20314808770867229 0 0.39303519244684892 -0.21278300449704671 0 0.36890805570422369 -0.19954003101511669 0 0.38544293285627962 -0.20314808770867229 0 0.38551481473406651 -0.18910273675150999 0 0.38544293285627962 -0.20314808770867229 0 0.38551481473406651 -0.18910273675150999 0 0.40330362681560211 -0.20077615407943949 0 0.38551481473406651 -0.18910273675150999 0 0.40330362681560211 -0.20077615407943949 0 0.39995041381356911 -0.1868338584648204 0 0.40330362681560211 -0.20077615407943949 0 0.4125958117473455 -0.19170302267586259 0 0.39995041381356911 -0.1868338584648204 0 0.40330362681560211 -0.20077615407943949 0 0.39303519244684892 -0.21278300449704671 0 0.41039622944065363 -0.2185270516157129 0 0.38544293285627962 -0.20314808770867229 0 0.40330362681560211 -0.20077615407943949 0 0.39303519244684892 -0.21278300449704671 0 0.39851670543712209 -0.2244771902628257 0 0.39303519244684892 -0.21278300449704671 0 0.41039622944065363 -0.2185270516157129 0 0.40330362681560211 -0.20077615407943949 0 0.41039622944065363 -0.2185270516157129 0 0.42189732607146729 -0.20211324892629831 0 0.41039622944065363 -0.2185270516157129 0 0.42189732607146729 -0.20211324892629831 0 0.42790605200351661 -0.22140108800821251 0 0.40330362681560211 -0.20077615407943949 0 0.4125958117473455 -0.19170302267586259 0 0.42189732607146729 -0.20211324892629831 0 0.4125958117473455 -0.19170302267586259 0 0.42189732607146729 -0.20211324892629831 0 0.42233780496578233 -0.18319904235883591 0 0.42189732607146729 -0.20211324892629831 0 0.43389642119060762 -0.191962199940241 0 0.42233780496578233 -0.18319904235883591 0 0.42189732607146729 -0.20211324892629831 0 0.43389642119060762 -0.191962199940241 0 0.43723926749718739 -0.20471492206911249 0 0.43723926749718739 -0.20471492206911249 0 0.42790605200351661 -0.22140108800821251 0 0.44233814121790038 -0.22173902575952509 0 0.42189732607146729 -0.20211324892629831 0 0.43723926749718739 -0.20471492206911249 0 0.42790605200351661 -0.22140108800821251 0 0.43048550082884018 -0.24614270293406881 0 0.44233814121790038 -0.22173902575952509 0 0.42790605200351661 -0.22140108800821251 0 0.43048550082884018 -0.24614270293406881 0 0.44233814121790038 -0.22173902575952509 0 0.42790605200351661 -0.22140108800821251 0 0.43048550082884018 -0.24614270293406881 0 0.42088007225406548 -0.23367140350055049 0 0.43048550082884018 -0.24614270293406881 0 0.44582088554477811 -0.24525862245079941 0 0.43357426810421817 -0.25015303326672972 0 0.43048550082884018 -0.24614270293406881 0 0.42846035594967069 -0.25031232086228522 0 0.43357426810421817 -0.25015303326672972 0 0.43048550082884018 -0.24614270293406881 0 0.43357426810421817 -0.25015303326672972 0 0.43048550082884018 -0.24614270293406881 0 0.418537335240391 -0.2435876000290193 0 0.42846035594967069 -0.25031232086228522 0 0.43048550082884018 -0.24614270293406881 0 0.42846035594967069 -0.25031232086228522 0 0.43048550082884018 -0.24614270293406881 0 0.42088007225406548 -0.23367140350055049 0 0.43048550082884018 -0.24614270293406881 0 0.418537335240391 -0.2435876000290193 0 0.42088007225406548 -0.23367140350055049 0 0.418537335240391 -0.2435876000290193 0 0.40723458142941671 -0.23497076085713389 0 0.42088007225406548 -0.23367140350055049 0 0.418537335240391 -0.2435876000290193 0 0.40723458142941671 -0.23497076085713389 0 0.40207495352916539 -0.25113417058953519 0 0.418537335240391 -0.2435876000290193 0 0.40207495352916539 -0.25113417058953519 0 0.42846035594967069 -0.25031232086228522 0 0.41039622944065363 -0.2185270516157129 0 0.40723458142941671 -0.23497076085713389 0 0.42088007225406548 -0.23367140350055049 0 0.41039622944065363 -0.2185270516157129 0 0.42790605200351661 -0.22140108800821251 0 0.42088007225406548 -0.23367140350055049 0 0.3932705088567644 -0.1286081277708763 0 0.38946375456974969 -0.1482633138159434 0 0.40032650034539519 -0.13972272199131119 0 0.3932705088567644 -0.1286081277708763 0 0.38946375456974969 -0.1482633138159434 0 0.40224748518751269 -0.1211494002184121 0 0.40802316631723889 -0.13171289331352951 0 0.40224748518751269 -0.1211494002184121 0 0.40096691517672778 -0.13029828582353201 0 0.3932705088567644 -0.1286081277708763 0 0.40224748518751269 -0.1211494002184121 0 0.40096691517672778 -0.13029828582353201 0 0.40802316631723889 -0.13171289331352951 0 0.40096691517672778 -0.13029828582353201 0 0.40032650034539519 -0.13972272199131119 0 0.40802316631723889 -0.13171289331352951 0 0.40032650034539519 -0.13972272199131119 0 0.40802316631723889 -0.13171289331352951 0 0.40096691517672778 -0.13029828582353201 0 0.40032650034539519 -0.13972272199131119 0 0.3932705088567644 -0.1286081277708763 0 0.37067801200062889 -0.1473796241602153 0 0.37104303648388809 -0.1272612894930944 0 0.3932705088567644 -0.1286081277708763 0 0.37067801200062889 -0.1473796241602153 0 0.3932705088567644 -0.1286081277708763 0 0.37067801200062889 -0.1473796241602153 0 0.37072349948513561 -0.1630779710757761 0 0.38946375456974969 -0.1482633138159434 0 0.37067801200062889 -0.1473796241602153 0 0.3932705088567644 -0.1286081277708763 0 0.38946375456974969 -0.1482633138159434 0 0.40032650034539519 -0.13972272199131119 0 0.38946375456974969 -0.1482633138159434 0 0.40103769468862932 -0.15735650722112959 0 0.38946375456974969 -0.1482633138159434 0 0.40103769468862932 -0.15735650722112959 0 0.38565700028273392 -0.16791849986101029 0 0.40103769468862932 -0.15735650722112959 0 0.38565700028273392 -0.16791849986101029 0 0.40804365254297231 -0.17415516972609171 0 0.37072349948513561 -0.1630779710757761 0 0.38946375456974969 -0.1482633138159434 0 0.38565700028273392 -0.16791849986101029 0 0.38946375456974969 -0.1482633138159434 0 0.38565700028273392 -0.16791849986101029 0 0.38551481473406651 -0.18910273675150999 0 0.38565700028273392 -0.16791849986101029 0 0.39995041381356911 -0.1868338584648204 0 0.36752808638216261 -0.17990459429682831 0 0.38551481473406651 -0.18910273675150999 0 0.38565700028273392 -0.16791849986101029 0 0.38565700028273392 -0.16791849986101029 0 0.39995041381356911 -0.1868338584648204 0 0.40804365254297231 -0.17415516972609171 0 0.4125958117473455 -0.19170302267586259 0 0.40804365254297231 -0.17415516972609171 0 0.42233780496578233 -0.18319904235883591 0 0.4125958117473455 -0.19170302267586259 0 0.39995041381356911 -0.1868338584648204 0 0.40804365254297231 -0.17415516972609171 0 0.42233780496578233 -0.18319904235883591 0 0.43537196508735049 -0.18173276810905351 0 0.42169756570229522 -0.15672283071129131 0 0.43389642119060762 -0.191962199940241 0 0.42233780496578233 -0.18319904235883591 0 0.43537196508735049 -0.18173276810905351 0 0.43537196508735049 -0.18173276810905351 0 0.42169756570229522 -0.15672283071129131 0 0.43537196508735049 -0.18173276810905351 0 0.42169756570229522 -0.15672283071129131 0 0.44011919579772352 -0.15902857640534751 0 0.40804365254297231 -0.17415516972609171 0 0.42233780496578233 -0.18319904235883591 0 0.42169756570229522 -0.15672283071129131 0 0.40103769468862932 -0.15735650722112959 0 0.40804365254297231 -0.17415516972609171 0 0.42169756570229522 -0.15672283071129131 0 0.40032650034539519 -0.13972272199131119 0 0.40103769468862932 -0.15735650722112959 0 0.42169756570229522 -0.15672283071129131 0 0.42169756570229522 -0.15672283071129131 0 0.40802316631723889 -0.13171289331352951 0 0.40032650034539519 -0.13972272199131119 0 0.42169756570229522 -0.15672283071129131 0 0.40802316631723889 -0.13171289331352951 0 0.42169756570229522 -0.15672283071129131 0 0.43087782981676859 -0.131879285754128 0 0.44052259681213413 -0.14512254840888281 0 0.42169756570229522 -0.15672283071129131 0 0.44052259681213413 -0.14512254840888281 0 0.44011919579772352 -0.15902857640534751 0 0.42510906065580589 -0.11393180641703871 0 0.43087782981676859 -0.131879285754128 0 0.40802316631723889 -0.13171289331352951 0 0.42169756570229522 -0.15672283071129131 0 0.43087782981676859 -0.131879285754128 0 0.40802316631723889 -0.13171289331352951 0 0.46093003486481321 -0.11810563265674839 0 0.46623847963083442 -0.1374076686568538 0 0.47239045088042492 -0.13005034139104371 0 0.46093003486481321 -0.11810563265674839 0 0.45430072039358249 -0.1470470373257684 0 0.46093003486481321 -0.11810563265674839 0 0.46623847963083442 -0.1374076686568538 0 0.45430072039358249 -0.1470470373257684 0 0.46093003486481321 -0.11810563265674839 0 0.44582693855797939 -0.1311402400572215 0 0.45430072039358249 -0.1470470373257684 0 0.441730170532879 -0.1159420230490274 0 0.43087782981676859 -0.131879285754128 0 0.44582693855797939 -0.1311402400572215 0 0.43087782981676859 -0.131879285754128 0 0.44582693855797939 -0.1311402400572215 0 0.44052259681213413 -0.14512254840888281 0 0.44582693855797939 -0.1311402400572215 0 0.44052259681213413 -0.14512254840888281 0 0.45430072039358249 -0.1470470373257684 0 0.44052259681213413 -0.14512254840888281 0 0.45430072039358249 -0.1470470373257684 0 0.44011919579772352 -0.15902857640534751 0 0.46623847963083442 -0.1374076686568538 0 0.45430072039358249 -0.1470470373257684 0 0.46795215833203208 -0.14958538313512479 0 0.45430072039358249 -0.1470470373257684 0 0.46795215833203208 -0.14958538313512479 0 0.46249654728105127 -0.15875526896169859 0 0.46249654728105127 -0.15875526896169859 0 0.44767140592235177 -0.17598844199478861 0 0.4590637049386419 -0.17656280063954849 0 0.46795215833203208 -0.14958538313512479 0 0.46765797362325351 -0.16960743348544691 0 0.46249654728105127 -0.15875526896169859 0 0.46765797362325351 -0.16960743348544691 0 0.46249654728105127 -0.15875526896169859 0 0.4590637049386419 -0.17656280063954849 0 0.45430072039358249 -0.1470470373257684 0 0.46249654728105127 -0.15875526896169859 0 0.44767140592235177 -0.17598844199478861 0 0.46249654728105127 -0.15875526896169859 0 0.4590637049386419 -0.17656280063954849 0 0.45430072039358249 -0.1470470373257684 0 0.44011919579772352 -0.15902857640534751 0 0.44767140592235177 -0.17598844199478861 0 0.45430072039358249 -0.1470470373257684 0 0.44767140592235177 -0.17598844199478861 0 0.44767140592235177 -0.17598844199478861 0 0.45131049953134228 -0.18433764364674099 0 0.4590637049386419 -0.17656280063954849 0 0.43537196508735049 -0.18173276810905351 0 0.44011919579772352 -0.15902857640534751 0 0.44767140592235177 -0.17598844199478861 0 0.43389642119060762 -0.191962199940241 0 0.43537196508735049 -0.18173276810905351 0 0.44405046135624082 -0.18412940313962539 0 0.43537196508735049 -0.18173276810905351 0 0.44767140592235177 -0.17598844199478861 0 0.44405046135624082 -0.18412940313962539 0 0.44405046135624082 -0.18412940313962539 0 0.45131049953134228 -0.18433764364674099 0 0.4501360628432447 -0.19063724014234421 0 0.44767140592235177 -0.17598844199478861 0 0.44405046135624082 -0.18412940313962539 0 0.45131049953134228 -0.18433764364674099 0 0.46765797362325351 -0.16960743348544691 0 0.4590637049386419 -0.17656280063954849 0 0.45563086259623248 -0.19437033231739831 0 0.4590637049386419 -0.17656280063954849 0 0.45563086259623248 -0.19437033231739831 0 0.46765797362325351 -0.16960743348544691 0 0.45563086259623248 -0.19437033231739831 0 0.46765797362325351 -0.16960743348544691 0 0.46817453342310178 -0.17984984725849121 0 0.45563086259623248 -0.19437033231739831 0 0.45131049953134228 -0.18433764364674099 0 0.4590637049386419 -0.17656280063954849 0 0.45563086259623248 -0.19437033231739831 0 0.46817453342310178 -0.17984984725849121 0 0.47868008644015098 -0.18364062408913809 0 0.4864423059537345 -0.17561039486471769 0 0.46817453342310178 -0.17984984725849121 0 0.47868008644015098 -0.18364062408913809 0 0.47427671796452459 -0.19390449174425081 0 0.4864423059537345 -0.17561039486471769 0 0.5 -0.16076066479590659 0 0.5 -0.1885669917164324 0 0.47868008644015098 -0.18364062408913809 0 0.4864423059537345 -0.17561039486471769 0 0.5 -0.1885669917164324 0 0.4864423059537345 -0.17561039486471769 0 0.5 -0.16076066479590659 0 0.4874204893839118 -0.1629257968797283 0 0.5 -0.16076066479590659 0 0.4874204893839118 -0.1629257968797283 0 0.48836632050416018 -0.15319142364385391 0 0.46765797362325351 -0.16960743348544691 0 0.47968508465027437 -0.14484453465349531 0 0.46817453342310178 -0.17984984725849121 0 0.4864423059537345 -0.17561039486471769 0 0.47621222687475862 -0.15989320835224299 0 0.46765797362325351 -0.16960743348544691 0 0.46817453342310178 -0.17984984725849121 0 0.47621222687475862 -0.15989320835224299 0 0.4864423059537345 -0.17561039486471769 0 0.4874204893839118 -0.1629257968797283 0 0.47621222687475862 -0.15989320835224299 0 0.46817453342310178 -0.17984984725849121 0 0.47621222687475862 -0.15989320835224299 0 0.4874204893839118 -0.1629257968797283 0 0.47621222687475862 -0.15989320835224299 0 0.48836632050416018 -0.15319142364385391 0 0.46765797362325351 -0.16960743348544691 0 0.47621222687475862 -0.15989320835224299 0 0.47968508465027437 -0.14484453465349531 0 0.47621222687475862 -0.15989320835224299 0 0.48424992032641551 -0.13993656944599481 0 0.47621222687475862 -0.15989320835224299 0 0.48836632050416018 -0.15319142364385391 0 0.48424992032641551 -0.13993656944599481 0 0.46795215833203208 -0.14958538313512479 0 0.46765797362325351 -0.16960743348544691 0 0.47968508465027437 -0.14484453465349531 0 0.47621222687475862 -0.15989320835224299 0 0.47968508465027437 -0.14484453465349531 0 0.48424992032641551 -0.13993656944599481 0 0.46623847963083442 -0.1374076686568538 0 0.46795215833203208 -0.14958538313512479 0 0.47424994269801352 -0.1397372940967013 0 0.46795215833203208 -0.14958538313512479 0 0.47968508465027437 -0.14484453465349531 0 0.47424994269801352 -0.1397372940967013 0 0.47968508465027437 -0.14484453465349531 0 0.47994759956173211 -0.14051186616834291 0 0.47424994269801352 -0.1397372940967013 0 0.47968508465027437 -0.14484453465349531 0 0.48424992032641551 -0.13993656944599481 0 0.47994759956173211 -0.14051186616834291 0 0.5 -0.16076066479590659 0 0.48836632050416018 -0.15319142364385391 0 0.5 -0.13295433787538069 0 0.48836632050416018 -0.15319142364385391 0 0.5 -0.13295433787538069 0 0.48424992032641551 -0.13993656944599481 0 0.48916266477234061 -0.13224727383335569 0 0.48085855782101261 -0.13626791926353529 0 0.48424992032641551 -0.13993656944599481 0 0.5 -0.13295433787538069 0 0.48916266477234061 -0.13224727383335569 0 0.48424992032641551 -0.13993656944599481 0 0.48986304781109291 -0.1242692167884092 0 0.5 -0.13295433787538069 0 0.48916266477234061 -0.13224727383335569 0 0.48986304781109291 -0.1242692167884092 0 0.48916266477234061 -0.13224727383335569 0 0.48085855782101261 -0.13626791926353529 0 0.47499259514944292 -0.1202547269832886 0 0.48085855782101261 -0.13626791926353529 0 0.47239045088042492 -0.13005034139104371 0 0.48085855782101261 -0.13626791926353529 0 0.48424992032641551 -0.13993656944599481 0 0.47994759956173211 -0.14051186616834291 0 0.48085855782101261 -0.13626791926353529 0 0.47994759956173211 -0.14051186616834291 0 0.47424994269801352 -0.1397372940967013 0 0.48085855782101261 -0.13626791926353529 0 0.47424994269801352 -0.1397372940967013 0 0.47239045088042492 -0.13005034139104371 0 0.46623847963083442 -0.1374076686568538 0 0.47424994269801352 -0.1397372940967013 0 0.47239045088042492 -0.13005034139104371 0 0.45735248248792831 -0.2263504469462593 0 0.45606595353113982 -0.2348942090935259 0 0.45040787416373163 -0.22146407059246401 0 0.4593659812364308 -0.22004368230368379 0 0.45735248248792831 -0.2263504469462593 0 0.45040787416373163 -0.22146407059246401 0 0.4593659812364308 -0.22004368230368379 0 0.45735248248792831 -0.2263504469462593 0 0.47005683011064803 -0.22590290220369119 0 0.4593659812364308 -0.22004368230368379 0 0.46586242272604061 -0.21273545752659301 0 0.47005683011064803 -0.22590290220369119 0 0.45735248248792831 -0.2263504469462593 0 0.45606595353113982 -0.2348942090935259 0 0.47005683011064803 -0.22590290220369119 0 0.46661169077989217 -0.2415165845456661 0 0.45606595353113982 -0.2348942090935259 0 0.47005683011064803 -0.22590290220369119 0 0.46661169077989217 -0.2415165845456661 0 0.45571617873614662 -0.24946335937342859 0 0.47785808936807489 -0.24877368548012899 0 0.45571617873614662 -0.24946335937342859 0 0.47785808936807489 -0.24877368548012899 0 0.46661169077989217 -0.2415165845456661 0 0.45518121600666411 -0.24259067484840299 0 0.45571617873614662 -0.24946335937342859 0 0.46661169077989217 -0.2415165845456661 0 0.45518121600666411 -0.24259067484840299 0 0.45606595353113982 -0.2348942090935259 0 0.45571617873614662 -0.24946335937342859 0 0.43357426810421817 -0.25015303326672972 0 0.43048550082884018 -0.24614270293406881 0 0.44582088554477811 -0.24525862245079941 0 0.44233814121790038 -0.22173902575952509 0 0.45571617873614662 -0.24946335937342859 0 0.44582088554477811 -0.24525862245079941 0 0.43357426810421817 -0.25015303326672972 0 0.45518121600666411 -0.24259067484840299 0 0.45606595353113982 -0.2348942090935259 0 0.44582088554477811 -0.24525862245079941 0 0.45518121600666411 -0.24259067484840299 0 0.45571617873614662 -0.24946335937342859 0 0.44582088554477811 -0.24525862245079941 0 0.44582088554477811 -0.24525862245079941 0 0.44233814121790038 -0.22173902575952509 0 0.45040787416373163 -0.22146407059246401 0 0.44582088554477811 -0.24525862245079941 0 0.45040787416373163 -0.22146407059246401 0 0.45606595353113982 -0.2348942090935259 0 0.44582088554477811 -0.24525862245079941 0 0.45040787416373163 -0.22146407059246401 0 0.43723926749718739 -0.20471492206911249 0 0.44233814121790038 -0.22173902575952509 0 0.45499486278268447 -0.1976695187341285 0 0.45040787416373163 -0.22146407059246401 0 0.45499486278268447 -0.1976695187341285 0 0.44233814121790038 -0.22173902575952509 0 0.45040787416373163 -0.22146407059246401 0 0.45499486278268447 -0.1976695187341285 0 0.44233814121790038 -0.22173902575952509 0 0.45499486278268447 -0.1976695187341285 0 0.43723926749718739 -0.20471492206911249 0 0.44395992212319679 -0.19308347956624619 0 0.45499486278268447 -0.1976695187341285 0 0.43389642119060762 -0.191962199940241 0 0.44405046135624082 -0.18412940313962539 0 0.44395992212319679 -0.19308347956624619 0 0.43389642119060762 -0.191962199940241 0 0.43723926749718739 -0.20471492206911249 0 0.44395992212319679 -0.19308347956624619 0 0.44395992212319679 -0.19308347956624619 0 0.45499486278268447 -0.1976695187341285 0 0.45131049953134228 -0.18433764364674099 0 0.4501360628432447 -0.19063724014234421 0 0.45563086259623248 -0.19437033231739831 0 0.44395992212319679 -0.19308347956624619 0 0.4501360628432447 -0.19063724014234421 0 0.45499486278268447 -0.1976695187341285 0 0.44405046135624082 -0.18412940313962539 0 0.44395992212319679 -0.19308347956624619 0 0.4501360628432447 -0.19063724014234421 0 0.46817453342310178 -0.17984984725849121 0 0.46013683997144489 -0.19980648616473931 0 0.47427671796452459 -0.19390449174425081 0 0.46817453342310178 -0.17984984725849121 0 0.46013683997144489 -0.19980648616473931 0 0.46817453342310178 -0.17984984725849121 0 0.45563086259623248 -0.19437033231739831 0 0.46013683997144489 -0.19980648616473931 0 0.4501360628432447 -0.19063724014234421 0 0.45563086259623248 -0.19437033231739831 0 0.45499486278268447 -0.1976695187341285 0 0.45499486278268447 -0.1976695187341285 0 0.46013683997144489 -0.19980648616473931 0 0.45563086259623248 -0.19437033231739831 0 0.45499486278268447 -0.1976695187341285 0 0.45563086259623248 -0.19437033231739831 0 0.45499486278268447 -0.1976695187341285 0 0.46013683997144489 -0.19980648616473931 0 0.46013683997144489 -0.19980648616473931 0 0.46586242272604061 -0.21273545752659301 0 0.48006841998572208 -0.20808990240084899 0 0.45040787416373163 -0.22146407059246401 0 0.45499486278268447 -0.1976695187341285 0 0.4548395438527213 -0.21295904373074681 0 0.4593659812364308 -0.22004368230368379 0 0.45040787416373163 -0.22146407059246401 0 0.4548395438527213 -0.21295904373074681 0 0.4593659812364308 -0.22004368230368379 0 0.4548395438527213 -0.21295904373074681 0 0.46586242272604061 -0.21273545752659301 0 0.46013683997144489 -0.19980648616473931 0 0.4548395438527213 -0.21295904373074681 0 0.45499486278268447 -0.1976695187341285 0 0.46013683997144489 -0.19980648616473931 0 0.4548395438527213 -0.21295904373074681 0 0.46013683997144489 -0.19980648616473931 0 0.4548395438527213 -0.21295904373074681 0 0.46586242272604061 -0.21273545752659301 0 0.46013683997144489 -0.19980648616473931 0 0.48006841998572208 -0.20808990240084899 0 0.46586242272604061 -0.21273545752659301 0 0.48006841998572208 -0.20808990240084899 0 0.47005683011064803 -0.22590290220369119 0 0.46013683997144489 -0.19980648616473931 0 0.48006841998572208 -0.20808990240084899 0 0.47427671796452459 -0.19390449174425081 0 0.47868008644015098 -0.18364062408913809 0 0.47427671796452459 -0.19390449174425081 0 0.5 -0.1885669917164324 0 0.48006841998572208 -0.20808990240084899 0 0.47427671796452459 -0.19390449174425081 0 0.5 -0.1885669917164324 0 0.48006841998572208 -0.20808990240084899 0 0.5 -0.1885669917164324 0 0.49999999999999961 -0.21637331863695819 0 0.48006841998572208 -0.20808990240084899 0 0.49999999999999961 -0.21637331863695819 0 0.48006841998572208 -0.20808990240084899 0 0.49999999999999961 -0.21637331863695819 0 0.4862545149737133 -0.22430099187442659 0 0.49999999999999961 -0.21637331863695819 0 0.5 -0.2322286651118938 0 0.4862545149737133 -0.22430099187442659 0 0.5 -0.2322286651118938 0 0.4862545149737133 -0.22430099187442659 0 0.48731543898686108 -0.23834171508702701 0 0.4862545149737133 -0.22430099187442659 0 0.47005683011064803 -0.22590290220369119 0 0.48731543898686108 -0.23834171508702701 0 0.48006841998572208 -0.20808990240084899 0 0.4862545149737133 -0.22430099187442659 0 0.47005683011064803 -0.22590290220369119 0 0.46661169077989217 -0.2415165845456661 0 0.47005683011064803 -0.22590290220369119 0 0.48731543898686108 -0.23834171508702701 0 0.46661169077989217 -0.2415165845456661 0 0.47785808936807489 -0.24877368548012899 0 0.48731543898686108 -0.23834171508702701 0 0.47785808936807489 -0.24877368548012899 0 0.50000000000000333 -0.24808401158682941 0 0.48731543898686108 -0.23834171508702701 0 0.5 -0.2322286651118938 0 0.50000000000000333 -0.24808401158682941 0 0.48731543898686108 -0.23834171508702701 0 0.47785808936807489 -0.24877368548012899 0 0.50000000000000333 -0.24808401158682941 0 0.50000000000000333 -0.24808401158682941 0 0.48656724266228879 -0.26126228076250718 0 0.5 -0.26842994380811291 0 0.47785808936807489 -0.24877368548012899 0 0.50000000000000333 -0.24808401158682941 0 0.48656724266228879 -0.26126228076250718 0 0.5 -0.26842994380811291 0 0.48208681399926079 -0.27581357356502773 0 0.50000000000000111 -0.28877587602939642 0 0.48656724266228879 -0.26126228076250718 0 0.5 -0.26842994380811291 0 0.48208681399926079 -0.27581357356502773 0 0.48208681399926079 -0.27581357356502773 0 0.46068671901070851 -0.28535474144655731 0 0.48208681399926079 -0.27581357356502773 0 0.46768981413575761 -0.2649492641288182 0 0.46068671901070851 -0.28535474144655731 0 0.48656724266228879 -0.26126228076250718 0 0.48208681399926079 -0.27581357356502773 0 0.46768981413575761 -0.2649492641288182 0 0.47785808936807489 -0.24877368548012899 0 0.48656724266228879 -0.26126228076250718 0 0.46768981413575761 -0.2649492641288182 0 0.45571617873614662 -0.24946335937342859 0 0.47785808936807489 -0.24877368548012899 0 0.46768981413575761 -0.2649492641288182 0 0.45571617873614662 -0.24946335937342859 0 0.46768981413575761 -0.2649492641288182 0 0.44713049355746243 -0.26775388735664418 0 0.46768981413575761 -0.2649492641288182 0 0.44713049355746243 -0.26775388735664418 0 0.46068671901070851 -0.28535474144655731 0 0.44713049355746243 -0.26775388735664418 0 0.46068671901070851 -0.28535474144655731 0 0.45571617873614662 -0.24946335937342859 0 0.44713049355746243 -0.26775388735664418 0 0.43357426810421817 -0.25015303326672972 0 0.44713049355746243 -0.26775388735664418 0 0.43357426810421817 -0.25015303326672972 0 0.43808872290812301 -0.29542998993102848 0 0.44582747314286902 -0.31276753443956201 0 0.43031487288344161 -0.31703067604683871 0 0.43808872290812301 -0.29542998993102848 0 0.45932525709009708 -0.30194153040829069 0 0.44582747314286902 -0.31276753443956201 0 0.43808872290812301 -0.29542998993102848 0 0.46068671901070851 -0.28535474144655731 0 0.45932525709009708 -0.30194153040829069 0 0.43808872290812301 -0.29542998993102848 0 0.46068671901070851 -0.28535474144655731 0 0.44713049355746243 -0.26775388735664418 0 0.43808872290812301 -0.29542998993102848 0 0.46068671901070851 -0.28535474144655731 0 0.46068671901070851 -0.28535474144655731 0 0.47654280981399377 -0.30594164756046982 0 0.46068671901070851 -0.28535474144655731 0 0.45932525709009708 -0.30194153040829069 0 0.47654280981399377 -0.30594164756046982 0 0.45932525709009708 -0.30194153040829069 0 0.46020140703816609 -0.31790014661013011 0 0.44582747314286902 -0.31276753443956201 0 0.47654280981399377 -0.30594164756046982 0 0.46020140703816609 -0.31790014661013011 0 0.45932525709009708 -0.30194153040829069 0 0.47654280981399377 -0.30594164756046982 0 0.46020140703816609 -0.31790014661013011 0 0.47654280981399377 -0.30594164756046982 0 0.48452590656705868 -0.31630657706248883 0 0.48208681399926079 -0.27581357356502773 0 0.46068671901070851 -0.28535474144655731 0 0.47654280981399377 -0.30594164756046982 0 0.48208681399926079 -0.27581357356502773 0 0.47654280981399377 -0.30594164756046982 0 0.50000000000000111 -0.28877587602939642 0 0.50000000000000111 -0.28877587602939642 0 0.5 -0.31627016595707702 0 0.48452590656705868 -0.31630657706248883 0 0.47654280981399377 -0.30594164756046982 0 0.50000000000000111 -0.28877587602939642 0 0.47654280981399377 -0.30594164756046982 0 0.50000000000000111 -0.28877587602939642 0 0.48452590656705868 -0.31630657706248883 0 0.5 -0.31627016595707702 0 0.48452590656705868 -0.31630657706248883 0 0.4798244965011923 -0.33203805400226027 0 0.5 -0.31627016595707702 0 0.4798244965011923 -0.33203805400226027 0 0.5 -0.34376445588475768 0 0.4798244965011923 -0.33203805400226027 0 0.46847105179670839 -0.34389899480205388 0 0.46020140703816609 -0.31790014661013011 0 0.47654280981399377 -0.30594164756046982 0 0.47527365498010271 -0.31804660630883719 0 0.46020140703816609 -0.31790014661013011 0 0.48452590656705868 -0.31630657706248883 0 0.4798244965011923 -0.33203805400226027 0 0.47527365498010271 -0.31804660630883719 0 0.4798244965011923 -0.33203805400226027 0 0.47527365498010271 -0.31804660630883719 0 0.46020140703816609 -0.31790014661013011 0 0.47654280981399377 -0.30594164756046982 0 0.48452590656705868 -0.31630657706248883 0 0.47527365498010271 -0.31804660630883719 0 0.49999999999999711 -0.37125874581243851 0 0.48806042456369142 -0.35612155968098341 0 0.47674069655525092 -0.3698978429939776 0 0.4798244965011923 -0.33203805400226027 0 0.48806042456369142 -0.35612155968098341 0 0.5 -0.34376445588475768 0 0.49999999999999711 -0.37125874581243851 0 0.48806042456369142 -0.35612155968098341 0 0.5 -0.34376445588475768 0 0.4798244965011923 -0.33203805400226027 0 0.48806042456369142 -0.35612155968098341 0 0.46847105179670839 -0.34389899480205388 0 0.48806042456369142 -0.35612155968098341 0 0.47674069655525092 -0.3698978429939776 0 0.46847105179670839 -0.34389899480205388 0 0.47674069655525092 -0.3698978429939776 0 0.46847105179670839 -0.34389899480205388 0 0.47674069655525092 -0.3698978429939776 0 0.45392603783110008 -0.37108838658624999 0 0.46847105179670839 -0.34389899480205388 0 0.45392603783110008 -0.37108838658624999 0 0.46847105179670839 -0.34389899480205388 0 0.44672977628043381 -0.35017364189741718 0 0.45392603783110008 -0.37108838658624999 0 0.44672977628043381 -0.35017364189741718 0 0.42785183481717409 -0.36595316276467199 0 0.45392603783110008 -0.37108838658624999 0 0.42785183481717409 -0.36595316276467199 0 0.43242581624588322 -0.38730115333965082 0 0.46847105179670839 -0.34389899480205388 0 0.46020140703816609 -0.31790014661013011 0 0.46847105179670839 -0.34389899480205388 0 0.46020140703816609 -0.31790014661013011 0 0.45431986664039198 -0.33607192194780172 0 0.46847105179670839 -0.34389899480205388 0 0.44672977628043381 -0.35017364189741718 0 0.45431986664039198 -0.33607192194780172 0 0.44672977628043381 -0.35017364189741718 0 0.44127539957872802 -0.33175003730325792 0 0.42823689835664952 -0.34636857782623809 0 0.44672977628043381 -0.35017364189741718 0 0.45431986664039198 -0.33607192194780172 0 0.44127539957872802 -0.33175003730325792 0 0.46020140703816609 -0.31790014661013011 0 0.45431986664039198 -0.33607192194780172 0 0.44127539957872802 -0.33175003730325792 0 0.44127539957872802 -0.33175003730325792 0 0.44582747314286902 -0.31276753443956201 0 0.43031487288344161 -0.31703067604683871 0 0.46020140703816609 -0.31790014661013011 0 0.44127539957872802 -0.33175003730325792 0 0.46020140703816609 -0.31790014661013011 0 0.44127539957872802 -0.33175003730325792 0 0.44582747314286902 -0.31276753443956201 0 0.44127539957872802 -0.33175003730325792 0 0.43031487288344161 -0.31703067604683871 0 0.41707429101309201 -0.3297381436533145 0 0.44127539957872802 -0.33175003730325792 0 0.41707429101309201 -0.3297381436533145 0 0.42823689835664952 -0.34636857782623809 0 0.41707429101309201 -0.3297381436533145 0 0.42823689835664952 -0.34636857782623809 0 0.40866613474490449 -0.35252068697126149 0 0.41707429101309201 -0.3297381436533145 0 0.39289273070295128 -0.31558048689996993 0 0.41549072680553711 -0.30550523841549909 0 0.43031487288344161 -0.31703067604683871 0 0.41707429101309201 -0.3297381436533145 0 0.41549072680553711 -0.30550523841549909 0 0.44672977628043381 -0.35017364189741718 0 0.42785183481717409 -0.36595316276467199 0 0.42823689835664952 -0.34636857782623809 0 0.42785183481717409 -0.36595316276467199 0 0.40866613474490449 -0.35252068697126149 0 0.42785183481717409 -0.36595316276467199 0 0.42823689835664952 -0.34636857782623809 0 0.40866613474490449 -0.35252068697126149 0 0.42785183481717409 -0.36595316276467199 0 0.4111933065081313 -0.36805982019164402 0 0.41287057948892703 -0.38518927514730122 0 0.42785183481717409 -0.36595316276467199 0 0.40866613474490449 -0.35252068697126149 0 0.4111933065081313 -0.36805982019164402 0 0.39290052262193498 -0.35565000096393579 0 0.38249634533461108 -0.36797477098799591 0 0.39650622041158878 -0.3765742856902482 0 0.4111933065081313 -0.36805982019164402 0 0.39290052262193498 -0.35565000096393579 0 0.39650622041158878 -0.3765742856902482 0 0.40866613474490449 -0.35252068697126149 0 0.39290052262193498 -0.35565000096393579 0 0.38948043467263488 -0.33908821117785082 0 0.40866613474490449 -0.35252068697126149 0 0.38948043467263488 -0.33908821117785082 0 0.40866613474490449 -0.35252068697126149 0 0.4111933065081313 -0.36805982019164402 0 0.39290052262193498 -0.35565000096393579 0 0.39290052262193498 -0.35565000096393579 0 0.37818146540529818 -0.34934783795600571 0 0.38249634533461108 -0.36797477098799591 0 0.39290052262193498 -0.35565000096393579 0 0.37818146540529818 -0.34934783795600571 0 0.38948043467263488 -0.33908821117785082 0 0.37818146540529818 -0.34934783795600571 0 0.38249634533461108 -0.36797477098799591 0 0.37305712147220338 -0.36102055586376819 0 0.41707429101309201 -0.3297381436533145 0 0.40866613474490449 -0.35252068697126149 0 0.38948043467263488 -0.33908821117785082 0 0.41707429101309201 -0.3297381436533145 0 0.39289273070295128 -0.31558048689996993 0 0.38948043467263488 -0.33908821117785082 0 0.37818146540529818 -0.34934783795600571 0 0.38948043467263488 -0.33908821117785082 0 0.37212478857772979 -0.33864880005647208 0 0.38948043467263488 -0.33908821117785082 0 0.37029473460036533 -0.32565573538444043 0 0.38948043467263488 -0.33908821117785082 0 0.37029473460036533 -0.32565573538444043 0 0.37212478857772979 -0.33864880005647208 0 0.39289273070295128 -0.31558048689996993 0 0.38064079273778262 -0.31288188218018531 0 0.37029473460036533 -0.32565573538444043 0 0.39289273070295128 -0.31558048689996993 0 0.37029473460036533 -0.32565573538444043 0 0.39289273070295128 -0.31558048689996993 0 0.38948043467263488 -0.33908821117785082 0 0.37029473460036533 -0.32565573538444043 0 0.38064079273778262 -0.31288188218018531 0 0.37804720550635529 -0.30651687721429538 0 0.38870969627640167 -0.30439929484627132 0 0.38064079273778262 -0.31288188218018531 0 0.37804720550635529 -0.30651687721429538 0 0.37325959660283969 -0.31225701655594912 0 0.37804720550635529 -0.30651687721429538 0 0.38032829646105881 -0.29636137241382532 0 0.36761344479238373 -0.29508033606196837 0 0.37804720550635529 -0.30651687721429538 0 0.38870969627640167 -0.30439929484627132 0 0.38032829646105881 -0.29636137241382532 0 0.38870969627640167 -0.30439929484627132 0 0.3879772147484597 -0.29176707856862888 0 0.38032829646105881 -0.29636137241382532 0 0.39289273070295128 -0.31558048689996993 0 0.38064079273778262 -0.31288188218018531 0 0.38870969627640167 -0.30439929484627132 0 0.39289273070295128 -0.31558048689996993 0 0.39985527598894161 -0.30920798579428682 0 0.41549072680553711 -0.30550523841549909 0 0.39985527598894161 -0.30920798579428682 0 0.39681295496079538 -0.29611275996065012 0 0.40939030264251791 -0.28957609748361951 0 0.39985527598894161 -0.30920798579428682 0 0.40939030264251791 -0.28957609748361951 0 0.39289273070295128 -0.31558048689996993 0 0.41549072680553711 -0.30550523841549909 0 0.39289273070295128 -0.31558048689996993 0 0.38870969627640167 -0.30439929484627132 0 0.39985527598894161 -0.30920798579428682 0 0.38870969627640167 -0.30439929484627132 0 0.39681295496079538 -0.29611275996065012 0 0.3879772147484597 -0.29176707856862888 0 0.38870969627640167 -0.30439929484627132 0 0.39985527598894161 -0.30920798579428682 0 0.39681295496079538 -0.29611275996065012 0 0.39922652050867191 -0.28295197323892363 0 0.39681295496079538 -0.29611275996065012 0 0.40939030264251791 -0.28957609748361951 0 0.39922652050867191 -0.28295197323892363 0 0.39681295496079538 -0.29611275996065012 0 0.3879772147484597 -0.29176707856862888 0 0.39922652050867191 -0.28295197323892363 0 0.3879772147484597 -0.29176707856862888 0 0.38840358504398731 -0.28029486931936831 0 0.3879772147484597 -0.29176707856862888 0 0.37929392098169401 -0.28404327537796259 0 0.38840358504398731 -0.28029486931936831 0 0.38032829646105881 -0.29636137241382532 0 0.37929392098169401 -0.28404327537796259 0 0.36761344479238373 -0.29508033606196837 0 0.3879772147484597 -0.29176707856862888 0 0.38032829646105881 -0.29636137241382532 0 0.37929392098169401 -0.28404327537796259 0 0.37929392098169401 -0.28404327537796259 0 0.38326599173650672 -0.27147868498013239 0 0.3725796289452375 -0.26579697317357759 0 0.37929392098169401 -0.28404327537796259 0 0.38326599173650672 -0.27147868498013239 0 0.38840358504398731 -0.28029486931936831 0 0.38326599173650672 -0.27147868498013239 0 0.38840358504398731 -0.28029486931936831 0 0.39544519547575041 -0.26880031542545191 0 0.37754581309809132 -0.23651361028518689 0 0.3725796289452375 -0.26579697317357759 0 0.37754581309809132 -0.23651361028518689 0 0.3871149211879113 -0.25548270742864421 0 0.3725796289452375 -0.26579697317357759 0 0.38326599173650672 -0.27147868498013239 0 0.3871149211879113 -0.25548270742864421 0 0.39544519547575041 -0.26880031542545191 0 0.38326599173650672 -0.27147868498013239 0 0.3871149211879113 -0.25548270742864421 0 0.3725796289452375 -0.26579697317357759 0 0.3871149211879113 -0.25548270742864421 0 0.40207495352916539 -0.25113417058953519 0 0.39544519547575041 -0.26880031542545191 0 0.40207495352916539 -0.25113417058953519 0 0.39544519547575041 -0.26880031542545191 0 0.41892532929609411 -0.26994420917295231 0 0.39922652050867191 -0.28295197323892363 0 0.39544519547575041 -0.26880031542545191 0 0.41892532929609411 -0.26994420917295231 0 0.39922652050867191 -0.28295197323892363 0 0.38840358504398731 -0.28029486931936831 0 0.39544519547575041 -0.26880031542545191 0 0.41892532929609411 -0.26994420917295231 0 0.40939030264251791 -0.28957609748361951 0 0.41892532929609411 -0.26994420917295231 0 0.42674472615619141 -0.28201696019190231 0 0.40939030264251791 -0.28957609748361951 0 0.39922652050867191 -0.28295197323892363 0 0.41892532929609411 -0.26994420917295231 0 0.40939030264251791 -0.28957609748361951 0 0.40207495352916539 -0.25113417058953519 0 0.41892532929609411 -0.26994420917295231 0 0.42846035594967069 -0.25031232086228522 0 0.40207495352916539 -0.25113417058953519 0 0.42846035594967069 -0.25031232086228522 0 0.44713049355746243 -0.26775388735664418 0 0.4314427817274139 -0.26389233879167029 0 0.43357426810421817 -0.25015303326672972 0 0.41892532929609411 -0.26994420917295231 0 0.42846035594967069 -0.25031232086228522 0 0.41892532929609411 -0.26994420917295231 0 0.42846035594967069 -0.25031232086228522 0 0.4314427817274139 -0.26389233879167029 0 0.42846035594967069 -0.25031232086228522 0 0.4314427817274139 -0.26389233879167029 0 0.43357426810421817 -0.25015303326672972 0 0.42846035594967069 -0.25031232086228522 0 0.43357426810421817 -0.25015303326672972 0 0.41892532929609411 -0.26994420917295231 0 0.4314427817274139 -0.26389233879167029 0 0.42674472615619141 -0.28201696019190231 0 0.44713049355746243 -0.26775388735664418 0 0.4314427817274139 -0.26389233879167029 0 0.42674472615619141 -0.28201696019190231 0 0.43808872290812301 -0.29542998993102848 0 0.42674472615619141 -0.28201696019190231 0 0.41549072680553711 -0.30550523841549909 0 0.44713049355746243 -0.26775388735664418 0 0.43808872290812301 -0.29542998993102848 0 0.42674472615619141 -0.28201696019190231 0 0.43808872290812301 -0.29542998993102848 0 0.43031487288344161 -0.31703067604683871 0 0.41549072680553711 -0.30550523841549909 0 0.43808872290812301 -0.29542998993102848 0 0.41549072680553711 -0.30550523841549909 0 0.39985527598894161 -0.30920798579428682 0 0.41549072680553711 -0.30550523841549909 0 0.40939030264251791 -0.28957609748361951 0 0.42674472615619141 -0.28201696019190231 0 0.41549072680553711 -0.30550523841549909 0 0.40939030264251791 -0.28957609748361951 0 0.43773802119989941 -0.49999999999999978 0 0.45890943729545802 -0.4823892052391901 0 0.4796611806106722 -0.48718440019654963 0 0.43773802119989941 -0.49999999999999978 0 0.44535189907423273 -0.48425652050154361 0 0.43773802119989941 -0.49999999999999978 0 0.44535189907423273 -0.48425652050154361 0 0.45890943729545802 -0.4823892052391901 0 0.43920548674920379 -0.47249175324936749 0 0.44535189907423273 -0.48425652050154361 0 0.45296577694856682 -0.46851304100308783 0 0.43920548674920379 -0.47249175324936749 0 0.44535189907423273 -0.48425652050154361 0 0.42866409193048188 -0.47676758270227471 0 0.44535189907423273 -0.48425652050154361 0 0.45589009982111051 -0.4775459799915327 0 0.45296577694856682 -0.46851304100308783 0 0.44535189907423273 -0.48425652050154361 0 0.45296577694856682 -0.46851304100308783 0 0.45589009982111051 -0.4775459799915327 0 0.45890943729545802 -0.4823892052391901 0 0.46145872075250199 -0.4714816097570898 0 0.44535189907423273 -0.48425652050154361 0 0.45589009982111051 -0.4775459799915327 0 0.45890943729545802 -0.4823892052391901 0 0.45890943729545802 -0.4823892052391901 0 0.46145872075250199 -0.4714816097570898 0 0.47563876839417468 -0.4748936591889994 0 0.46145872075250199 -0.4714816097570898 0 0.45296577694856682 -0.46851304100308783 0 0.45589009982111051 -0.4775459799915327 0 0.46145872075250199 -0.4714816097570898 0 0.45296577694856682 -0.46851304100308783 0 0.43773802119989941 -0.49999999999999978 0 0.4796611806106722 -0.48718440019654963 0 0.5 -0.5 0 0.4796611806106722 -0.48718440019654963 0 0.5 -0.5 0 0.5 -0.47026069904804169 0 0.5 -0.47026069904804169 0 0.47563876839417468 -0.4748936591889994 0 0.47905351322328699 -0.46315238170412548 0 0.4796611806106722 -0.48718440019654963 0 0.5 -0.47026069904804169 0 0.47563876839417468 -0.4748936591889994 0 0.46145872075250199 -0.4714816097570898 0 0.47563876839417468 -0.4748936591889994 0 0.47905351322328699 -0.46315238170412548 0 0.45890943729545802 -0.4823892052391901 0 0.4796611806106722 -0.48718440019654963 0 0.47563876839417468 -0.4748936591889994 0 0.47905351322328699 -0.46315238170412548 0 0.45899603635761982 -0.45604406436020939 0 0.47905351322328699 -0.46315238170412548 0 0.4788951805990147 -0.44564391983896778 0 0.45899603635761982 -0.45604406436020939 0 0.5 -0.47026069904804169 0 0.47905351322328699 -0.46315238170412548 0 0.5 -0.44373220895607401 0 0.5 -0.47026069904804169 0 0.47905351322328699 -0.46315238170412548 0 0.5 -0.44373220895607401 0 0.4788951805990147 -0.44564391983896778 0 0.48552804520920678 -0.42799216931292611 0 0.47905351322328699 -0.46315238170412548 0 0.5 -0.44373220895607401 0 0.4788951805990147 -0.44564391983896778 0 0.4788951805990147 -0.44564391983896778 0 0.45899603635761982 -0.45604406436020939 0 0.46924702726821282 -0.43484773472326599 0 0.45899603635761982 -0.45604406436020939 0 0.46924702726821282 -0.43484773472326599 0 0.45899603635761982 -0.45604406436020939 0 0.44838303037477362 -0.43447900987216292 0 0.46924702726821282 -0.43484773472326599 0 0.46145872075250199 -0.4714816097570898 0 0.47905351322328699 -0.46315238170412548 0 0.45899603635761982 -0.45604406436020939 0 0.46145872075250199 -0.4714816097570898 0 0.45899603635761982 -0.45604406436020939 0 0.45296577694856682 -0.46851304100308783 0 0.45899603635761982 -0.45604406436020939 0 0.45296577694856682 -0.46851304100308783 0 0.44562172027540892 -0.45801600689332289 0 0.45296577694856682 -0.46851304100308783 0 0.42984017904353489 -0.46042986879056458 0 0.43920548674920379 -0.47249175324936749 0 0.45296577694856682 -0.46851304100308783 0 0.42984017904353489 -0.46042986879056458 0 0.44562172027540892 -0.45801600689332289 0 0.43764883001816302 -0.44847867026387339 0 0.42984017904353489 -0.46042986879056458 0 0.45899603635761982 -0.45604406436020939 0 0.44562172027540892 -0.45801600689332289 0 0.45296577694856682 -0.46851304100308783 0 0.45296577694856682 -0.46851304100308783 0 0.42984017904353489 -0.46042986879056458 0 0.45899603635761982 -0.45604406436020939 0 0.44562172027540892 -0.45801600689332289 0 0.43764883001816302 -0.44847867026387339 0 0.45899603635761982 -0.45604406436020939 0 0.43764883001816302 -0.44847867026387339 0 0.44838303037477362 -0.43447900987216292 0 0.43764883001816302 -0.44847867026387339 0 0.44838303037477362 -0.43447900987216292 0 0.43199803478474752 -0.43480066315574151 0 0.45899603635761982 -0.45604406436020939 0 0.43764883001816302 -0.44847867026387339 0 0.44838303037477362 -0.43447900987216292 0 0.43524810038533429 -0.42324892749070769 0 0.43199803478474752 -0.43480066315574151 0 0.44838303037477362 -0.43447900987216292 0 0.45481320319103757 -0.41743251132042969 0 0.43524810038533429 -0.42324892749070769 0 0.45481320319103757 -0.41743251132042969 0 0.43477646914432833 -0.40550992295969079 0 0.43524810038533429 -0.42324892749070769 0 0.45481320319103757 -0.41743251132042969 0 0.46680969583490778 -0.41274858841526157 0 0.46924702726821282 -0.43484773472326599 0 0.45481320319103757 -0.41743251132042969 0 0.46680969583490778 -0.41274858841526157 0 0.46697148891275431 -0.40002921638500172 0 0.44838303037477362 -0.43447900987216292 0 0.45481320319103757 -0.41743251132042969 0 0.46924702726821282 -0.43484773472326599 0 0.5 -0.44373220895607401 0 0.48552804520920678 -0.42799216931292611 0 0.5 -0.40208557795999961 0 0.46924702726821282 -0.43484773472326599 0 0.48552804520920678 -0.42799216931292611 0 0.47949801817880677 -0.41365140508632309 0 0.4788951805990147 -0.44564391983896778 0 0.46924702726821282 -0.43484773472326599 0 0.48552804520920678 -0.42799216931292611 0 0.46924702726821282 -0.43484773472326599 0 0.47949801817880677 -0.41365140508632309 0 0.48552804520920678 -0.42799216931292611 0 0.47949801817880677 -0.41365140508632309 0 0.5 -0.40208557795999961 0 0.46680969583490778 -0.41274858841526157 0 0.46924702726821282 -0.43484773472326599 0 0.47949801817880677 -0.41365140508632309 0 0.46680969583490778 -0.41274858841526157 0 0.47949801817880677 -0.41365140508632309 0 0.47485796399023311 -0.40328323013715978 0 0.47949801817880677 -0.41365140508632309 0 0.47485796399023311 -0.40328323013715978 0 0.48501034131379339 -0.39589669118590137 0 0.46680969583490778 -0.41274858841526157 0 0.47485796399023311 -0.40328323013715978 0 0.46697148891275431 -0.40002921638500172 0 0.47485796399023311 -0.40328323013715978 0 0.47548297721973709 -0.39513831255209197 0 0.46697148891275431 -0.40002921638500172 0 0.47548297721973709 -0.39513831255209197 0 0.47310568845609052 -0.38536867418522291 0 0.46697148891275431 -0.40002921638500172 0 0.47548297721973709 -0.39513831255209197 0 0.48501034131379339 -0.39589669118590137 0 0.47310568845609052 -0.38536867418522291 0 0.47485796399023311 -0.40328323013715978 0 0.47548297721973709 -0.39513831255209197 0 0.48501034131379339 -0.39589669118590137 0 0.47949801817880677 -0.41365140508632309 0 0.48974900908940078 -0.39245507544938019 0 0.47949801817880677 -0.41365140508632309 0 0.5 -0.40208557795999961 0 0.48974900908940078 -0.39245507544938019 0 0.47949801817880677 -0.41365140508632309 0 0.48974900908940078 -0.39245507544938019 0 0.48501034131379339 -0.39589669118590137 0 0.49999999999999711 -0.37125874581243851 0 0.5 -0.40208557795999961 0 0.48974900908940078 -0.39245507544938019 0 0.49999999999999711 -0.37125874581243851 0 0.47674069655525092 -0.3698978429939776 0 0.48974900908940078 -0.39245507544938019 0 0.49999999999999711 -0.37125874581243851 0 0.48974900908940078 -0.39245507544938019 0 0.47674069655525092 -0.3698978429939776 0 0.48501034131379339 -0.39589669118590137 0 0.47310568845609052 -0.38536867418522291 0 0.47674069655525092 -0.3698978429939776 0 0.48974900908940078 -0.39245507544938019 0 0.48501034131379339 -0.39589669118590137 0 0.47674069655525092 -0.3698978429939776 0 0.48501034131379339 -0.39589669118590137 0 0.45392603783110008 -0.37108838658624999 0 0.47310568845609052 -0.38536867418522291 0 0.45155556879862868 -0.3944603689424081 0 0.47674069655525092 -0.3698978429939776 0 0.45392603783110008 -0.37108838658624999 0 0.47310568845609052 -0.38536867418522291 0 0.45481320319103757 -0.41743251132042969 0 0.46697148891275431 -0.40002921638500172 0 0.45155556879862868 -0.3944603689424081 0 0.47310568845609052 -0.38536867418522291 0 0.46697148891275431 -0.40002921638500172 0 0.45155556879862868 -0.3944603689424081 0 0.45481320319103757 -0.41743251132042969 0 0.45155556879862868 -0.3944603689424081 0 0.43477646914432833 -0.40550992295969079 0 0.45155556879862868 -0.3944603689424081 0 0.43242581624588322 -0.38730115333965082 0 0.43477646914432833 -0.40550992295969079 0 0.45392603783110008 -0.37108838658624999 0 0.45155556879862868 -0.3944603689424081 0 0.43242581624588322 -0.38730115333965082 0 0.42785183481717409 -0.36595316276467199 0 0.43242581624588322 -0.38730115333965082 0 0.41287057948892703 -0.38518927514730122 0 0.43242581624588322 -0.38730115333965082 0 0.43477646914432833 -0.40550992295969079 0 0.41749483707519452 -0.40538692165420498 0 0.43242581624588322 -0.38730115333965082 0 0.41749483707519452 -0.40538692165420498 0 0.41287057948892703 -0.38518927514730122 0 0.41749483707519452 -0.40538692165420498 0 0.41287057948892703 -0.38518927514730122 0 0.40336078828097621 -0.40362515372992341 0 0.4111933065081313 -0.36805982019164402 0 0.41287057948892703 -0.38518927514730122 0 0.39650622041158878 -0.3765742856902482 0 0.41287057948892703 -0.38518927514730122 0 0.39650622041158878 -0.3765742856902482 0 0.39372170841196569 -0.3925803949292499 0 0.38249634533461108 -0.36797477098799591 0 0.39650622041158878 -0.3765742856902482 0 0.37900977316023637 -0.39091548517495972 0 0.39650622041158878 -0.3765742856902482 0 0.37900977316023637 -0.39091548517495972 0 0.39372170841196569 -0.3925803949292499 0 0.38249634533461108 -0.36797477098799591 0 0.37900977316023637 -0.39091548517495972 0 0.36724772315424481 -0.38247146420994571 0 0.37900977316023637 -0.39091548517495972 0 0.39372170841196569 -0.3925803949292499 0 0.37842665921942997 -0.40887405987875969 0 0.37900977316023637 -0.39091548517495972 0 0.37842665921942997 -0.40887405987875969 0 0.36824105802713031 -0.4000969440192842 0 0.39372170841196569 -0.3925803949292499 0 0.39194747191700757 -0.41402513481906722 0 0.37842665921942997 -0.40887405987875969 0 0.41287057948892703 -0.38518927514730122 0 0.39372170841196569 -0.3925803949292499 0 0.40336078828097621 -0.40362515372992341 0 0.39372170841196569 -0.3925803949292499 0 0.40336078828097621 -0.40362515372992341 0 0.39194747191700757 -0.41402513481906722 0 0.40336078828097621 -0.40362515372992341 0 0.39194747191700757 -0.41402513481906722 0 0.41036500379586138 -0.42217021861448573 0 0.39194747191700757 -0.41402513481906722 0 0.37842665921942997 -0.40887405987875969 0 0.3754845505291648 -0.42231636227288599 0 0.39194747191700757 -0.41402513481906722 0 0.38276612650569841 -0.43173139982273478 0 0.39495441733924969 -0.43334788207120151 0 0.39194747191700757 -0.41402513481906722 0 0.3754845505291648 -0.42231636227288599 0 0.38276612650569841 -0.43173139982273478 0 0.38276612650569841 -0.43173139982273478 0 0.39495441733924969 -0.43334788207120151 0 0.38358898323347101 -0.44426352436551808 0 0.39495441733924969 -0.43334788207120151 0 0.41630162367870638 -0.44091327616753739 0 0.39194747191700757 -0.41402513481906722 0 0.39495441733924969 -0.43334788207120151 0 0.41036500379586138 -0.42217021861448573 0 0.41036500379586138 -0.42217021861448573 0 0.42295569064062533 -0.42699492369753778 0 0.41630162367870638 -0.44091327616753739 0 0.39495441733924969 -0.43334788207120151 0 0.41036500379586138 -0.42217021861448573 0 0.41630162367870638 -0.44091327616753739 0 0.41749483707519452 -0.40538692165420498 0 0.40336078828097621 -0.40362515372992341 0 0.41036500379586138 -0.42217021861448573 0 0.41749483707519452 -0.40538692165420498 0 0.41036500379586138 -0.42217021861448573 0 0.42458756094721539 -0.41613405657310448 0 0.41036500379586138 -0.42217021861448573 0 0.42458756094721539 -0.41613405657310448 0 0.42295569064062533 -0.42699492369753778 0 0.43477646914432833 -0.40550992295969079 0 0.41749483707519452 -0.40538692165420498 0 0.42458756094721539 -0.41613405657310448 0 0.43477646914432833 -0.40550992295969079 0 0.42458756094721539 -0.41613405657310448 0 0.43524810038533429 -0.42324892749070769 0 0.43199803478474752 -0.43480066315574151 0 0.42295569064062533 -0.42699492369753778 0 0.41630162367870638 -0.44091327616753739 0 0.43524810038533429 -0.42324892749070769 0 0.43199803478474752 -0.43480066315574151 0 0.42295569064062533 -0.42699492369753778 0 0.42458756094721539 -0.41613405657310448 0 0.43524810038533429 -0.42324892749070769 0 0.42295569064062533 -0.42699492369753778 0 0.43764883001816302 -0.44847867026387339 0 0.41630162367870638 -0.44091327616753739 0 0.43764883001816302 -0.44847867026387339 0 0.42984017904353489 -0.46042986879056458 0 0.41630162367870638 -0.44091327616753739 0 0.43764883001816302 -0.44847867026387339 0 0.43199803478474752 -0.43480066315574151 0 0.41630162367870638 -0.44091327616753739 0 0.42984017904353489 -0.46042986879056458 0 0.41583716859034447 -0.46620520778226737 0 0.42866409193048188 -0.47676758270227471 0 0.42984017904353489 -0.46042986879056458 0 0.4067145811385029 -0.45234669657804139 0 0.42984017904353489 -0.46042986879056458 0 0.41583716859034447 -0.46620520778226737 0 0.4067145811385029 -0.45234669657804139 0 0.41583716859034447 -0.46620520778226737 0 0.4067145811385029 -0.45234669657804139 0 0.40148396946935899 -0.46677367853588281 0 0.42984017904353489 -0.46042986879056458 0 0.4067145811385029 -0.45234669657804139 0 0.41630162367870638 -0.44091327616753739 0 0.4067145811385029 -0.45234669657804139 0 0.38358898323347101 -0.44426352436551808 0 0.39182712026942329 -0.45690385307896481 0 0.39495441733924969 -0.43334788207120151 0 0.4067145811385029 -0.45234669657804139 0 0.41630162367870638 -0.44091327616753739 0 0.39495441733924969 -0.43334788207120151 0 0.4067145811385029 -0.45234669657804139 0 0.38358898323347101 -0.44426352436551808 0 0.4067145811385029 -0.45234669657804139 0 0.38358898323347101 -0.44426352436551808 0 0.38358898323347101 -0.44426352436551808 0 0.37514595674159079 -0.45476526552439389 0 0.39182712026942329 -0.45690385307896481 0 0.38276612650569841 -0.43173139982273478 0 0.38358898323347101 -0.44426352436551808 0 0.36596817218281208 -0.43846752572535042 0 0.37514595674159079 -0.45476526552439389 0 0.38538716437757631 -0.46842775420537441 0 0.39182712026942329 -0.45690385307896481 0 0.37514595674159079 -0.45476526552439389 0 0.38538716437757631 -0.46842775420537441 0 0.37212180294075042 -0.46808428500039262 0 0.38538716437757631 -0.46842775420537441 0 0.39182712026942329 -0.45690385307896481 0 0.40148396946935899 -0.46677367853588281 0 0.4067145811385029 -0.45234669657804139 0 0.39182712026942329 -0.45690385307896481 0 0.40148396946935899 -0.46677367853588281 0 0.39434508200087892 -0.48168095957978257 0 0.4057717135424021 -0.48929931529832937 0 0.41138522724611992 -0.47610642689805982 0 0.38538716437757631 -0.46842775420537441 0 0.40148396946935899 -0.46677367853588281 0 0.39434508200087892 -0.48168095957978257 0 0.40148396946935899 -0.46677367853588281 0 0.39434508200087892 -0.48168095957978257 0 0.41138522724611992 -0.47610642689805982 0 0.38538716437757631 -0.46842775420537441 0 0.39434508200087892 -0.48168095957978257 0 0.37586822855092661 -0.48439202442808083 0 0.38538716437757631 -0.46842775420537441 0 0.37586822855092661 -0.48439202442808083 0 0.37212180294075042 -0.46808428500039262 0 0.39434508200087892 -0.48168095957978257 0 0.37586822855092661 -0.48439202442808083 0 0.39289039342582149 -0.5 0 0.37586822855092661 -0.48439202442808083 0 0.39289039342582149 -0.5 0 0.3704665795387827 -0.49999999999999961 0 0.39434508200087892 -0.48168095957978257 0 0.39289039342582149 -0.5 0 0.4057717135424021 -0.48929931529832937 0 0.39289039342582149 -0.5 0 0.4057717135424021 -0.48929931529832937 0 0.41531420731286051 -0.5 0 0.4057717135424021 -0.48929931529832937 0 0.41138522724611992 -0.47610642689805982 0 0.425256426736628 -0.48969697811313823 0 0.4057717135424021 -0.48929931529832937 0 0.41531420731286051 -0.5 0 0.425256426736628 -0.48969697811313823 0 0.41583716859034447 -0.46620520778226737 0 0.41138522724611992 -0.47610642689805982 0 0.42866409193048188 -0.47676758270227471 0 0.41138522724611992 -0.47610642689805982 0 0.42866409193048188 -0.47676758270227471 0 0.425256426736628 -0.48969697811313823 0 0.41583716859034447 -0.46620520778226737 0 0.40148396946935899 -0.46677367853588281 0 0.41138522724611992 -0.47610642689805982 0 0.44535189907423273 -0.48425652050154361 0 0.42866409193048188 -0.47676758270227471 0 0.425256426736628 -0.48969697811313823 0 0.43920548674920379 -0.47249175324936749 0 0.42984017904353489 -0.46042986879056458 0 0.42866409193048188 -0.47676758270227471 0 0.43773802119989941 -0.49999999999999978 0 0.44535189907423273 -0.48425652050154361 0 0.425256426736628 -0.48969697811313823 0 0.43773802119989941 -0.49999999999999978 0 0.41531420731286051 -0.5 0 0.425256426736628 -0.48969697811313823 0 0.32577547594680167 -0.48549728563522948 0 0.313100747974287 -0.5 0 0.34178366375653479 -0.5 0 0.32577547594680167 -0.48549728563522948 0 0.33309118936964399 -0.46704031311580291 0 0.30810638268294871 -0.47012115952174682 0 0.353331436476917 -0.48488928282810861 0 0.33309118936964399 -0.46704031311580291 0 0.32577547594680167 -0.48549728563522948 0 0.353331436476917 -0.48488928282810861 0 0.33309118936964399 -0.46704031311580291 0 0.32577547594680167 -0.48549728563522948 0 0.353331436476917 -0.48488928282810861 0 0.32577547594680167 -0.48549728563522948 0 0.34178366375653479 -0.5 0 0.353331436476917 -0.48488928282810861 0 0.34178366375653479 -0.5 0 0.353331436476917 -0.48488928282810861 0 0.3704665795387827 -0.49999999999999961 0 0.353331436476917 -0.48488928282810861 0 0.3704665795387827 -0.49999999999999961 0 0.37586822855092661 -0.48439202442808083 0 0.353331436476917 -0.48488928282810861 0 0.37586822855092661 -0.48439202442808083 0 0.353331436476917 -0.48488928282810861 0 0.3704665795387827 -0.49999999999999961 0 0.37586822855092661 -0.48439202442808083 0 0.353331436476917 -0.48488928282810861 0 0.36174609683149922 -0.47333229839911978 0 0.37586822855092661 -0.48439202442808083 0 0.36174609683149922 -0.47333229839911978 0 0.37212180294075042 -0.46808428500039262 0 0.353331436476917 -0.48488928282810861 0 0.3511187368843669 -0.46644655109408317 0 0.33309118936964399 -0.46704031311580291 0 0.353331436476917 -0.48488928282810861 0 0.36174609683149922 -0.47333229839911978 0 0.3511187368843669 -0.46644655109408317 0 0.3511187368843669 -0.46644655109408317 0 0.34821094164401439 -0.44963138573543099 0 0.33309118936964399 -0.46704031311580291 0 0.3511187368843669 -0.46644655109408317 0 0.36000734278227892 -0.4581682973830864 0 0.34821094164401439 -0.44963138573543099 0 0.36174609683149922 -0.47333229839911978 0 0.3511187368843669 -0.46644655109408317 0 0.36000734278227892 -0.4581682973830864 0 0.36174609683149922 -0.47333229839911978 0 0.36000734278227892 -0.4581682973830864 0 0.37212180294075042 -0.46808428500039262 0 0.37514595674159079 -0.45476526552439389 0 0.36000734278227892 -0.4581682973830864 0 0.37212180294075042 -0.46808428500039262 0 0.38358898323347101 -0.44426352436551808 0 0.37514595674159079 -0.45476526552439389 0 0.36596817218281208 -0.43846752572535042 0 0.37514595674159079 -0.45476526552439389 0 0.36000734278227892 -0.4581682973830864 0 0.36596817218281208 -0.43846752572535042 0 0.36596817218281208 -0.43846752572535042 0 0.34821094164401439 -0.44963138573543099 0 0.34622956703096991 -0.43300533851794337 0 0.36000734278227892 -0.4581682973830864 0 0.36596817218281208 -0.43846752572535042 0 0.34821094164401439 -0.44963138573543099 0 0.34821094164401439 -0.44963138573543099 0 0.33295970409203041 -0.44505156475946112 0 0.34622956703096991 -0.43300533851794337 0 0.34821094164401439 -0.44963138573543099 0 0.33295970409203041 -0.44505156475946112 0 0.33309118936964399 -0.46704031311580291 0 0.33295970409203041 -0.44505156475946112 0 0.33309118936964399 -0.46704031311580291 0 0.31285094226236981 -0.44919134340349842 0 0.33309118936964399 -0.46704031311580291 0 0.31285094226236981 -0.44919134340349842 0 0.33309118936964399 -0.46704031311580291 0 0.31285094226236981 -0.44919134340349842 0 0.30810638268294871 -0.47012115952174682 0 0.33295970409203041 -0.44505156475946112 0 0.31285094226236981 -0.44919134340349842 0 0.32443481461114221 -0.42819348402864749 0 0.31285094226236981 -0.44919134340349842 0 0.32443481461114221 -0.42819348402864749 0 0.30716585811758268 -0.42152601893676211 0 0.32443481461114221 -0.42819348402864749 0 0.3377381929345476 -0.41993594981441068 0 0.31826237910007699 -0.40611857650776678 0 0.32443481461114221 -0.42819348402864749 0 0.31826237910007699 -0.40611857650776678 0 0.30716585811758268 -0.42152601893676211 0 0.3377381929345476 -0.41993594981441068 0 0.33955155732169001 -0.40481801647484189 0 0.31826237910007699 -0.40611857650776678 0 0.32443481461114221 -0.42819348402864749 0 0.3377381929345476 -0.41993594981441068 0 0.34622956703096991 -0.43300533851794337 0 0.33295970409203041 -0.44505156475946112 0 0.32443481461114221 -0.42819348402864749 0 0.34622956703096991 -0.43300533851794337 0 0.3377381929345476 -0.41993594981441068 0 0.34622956703096991 -0.43300533851794337 0 0.35818280584871282 -0.41603879828427831 0 0.36596817218281208 -0.43846752572535042 0 0.34622956703096991 -0.43300533851794337 0 0.35818280584871282 -0.41603879828427831 0 0.3754845505291648 -0.42231636227288599 0 0.36596817218281208 -0.43846752572535042 0 0.35818280584871282 -0.41603879828427831 0 0.3754845505291648 -0.42231636227288599 0 0.38276612650569841 -0.43173139982273478 0 0.36596817218281208 -0.43846752572535042 0 0.37842665921942997 -0.40887405987875969 0 0.3754845505291648 -0.42231636227288599 0 0.35818280584871282 -0.41603879828427831 0 0.37842665921942997 -0.40887405987875969 0 0.35818280584871282 -0.41603879828427831 0 0.36824105802713031 -0.4000969440192842 0 0.3377381929345476 -0.41993594981441068 0 0.35818280584871282 -0.41603879828427831 0 0.33955155732169001 -0.40481801647484189 0 0.35818280584871282 -0.41603879828427831 0 0.35120943534252291 -0.3914849644630724 0 0.33955155732169001 -0.40481801647484189 0 0.35818280584871282 -0.41603879828427831 0 0.35120943534252291 -0.3914849644630724 0 0.36824105802713031 -0.4000969440192842 0 0.37900977316023637 -0.39091548517495972 0 0.36824105802713031 -0.4000969440192842 0 0.36724772315424481 -0.38247146420994571 0 0.35120943534252291 -0.3914849644630724 0 0.36824105802713031 -0.4000969440192842 0 0.36724772315424481 -0.38247146420994571 0 0.36724772315424481 -0.38247146420994571 0 0.3553956415560332 -0.375446985373177 0 0.36664078794155069 -0.36853845970684512 0 0.35120943534252291 -0.3914849644630724 0 0.3553956415560332 -0.375446985373177 0 0.34024068493209042 -0.37145909403295352 0 0.35120943534252291 -0.3914849644630724 0 0.36724772315424481 -0.38247146420994571 0 0.3553956415560332 -0.375446985373177 0 0.35120943534252291 -0.3914849644630724 0 0.33045907805143321 -0.38798152631774108 0 0.34024068493209042 -0.37145909403295352 0 0.33045907805143321 -0.38798152631774108 0 0.34024068493209042 -0.37145909403295352 0 0.32473595581008968 -0.36877041147622941 0 0.33045907805143321 -0.38798152631774108 0 0.33955155732169001 -0.40481801647484189 0 0.31826237910007699 -0.40611857650776678 0 0.35120943534252291 -0.3914849644630724 0 0.33045907805143321 -0.38798152631774108 0 0.33955155732169001 -0.40481801647484189 0 0.33045907805143321 -0.38798152631774108 0 0.31826237910007699 -0.40611857650776678 0 0.30852465471842783 -0.38296478278532459 0 0.33045907805143321 -0.38798152631774108 0 0.30852465471842783 -0.38296478278532459 0 0.32473595581008968 -0.36877041147622941 0 0.30852465471842783 -0.38296478278532459 0 0.30157177088572762 -0.39984768184154418 0 0.28524522637625171 -0.38748256695808048 0 0.31826237910007699 -0.40611857650776678 0 0.30852465471842783 -0.38296478278532459 0 0.30157177088572762 -0.39984768184154418 0 0.30157177088572762 -0.39984768184154418 0 0.28524522637625171 -0.38748256695808048 0 0.28909827497095891 -0.41314244090476959 0 0.30852465471842783 -0.38296478278532459 0 0.28524522637625171 -0.38748256695808048 0 0.29576167506738288 -0.36584798696867898 0 0.28524522637625171 -0.38748256695808048 0 0.26194523537769671 -0.38343407302417171 0 0.27628411724202862 -0.36524783617958329 0 0.26194523537769671 -0.38343407302417171 0 0.2677956642119742 -0.40840362680373948 0 0.24730388124056729 -0.40448370284608931 0 0.28524522637625171 -0.38748256695808048 0 0.26194523537769671 -0.38343407302417171 0 0.2677956642119742 -0.40840362680373948 0 0.28524522637625171 -0.38748256695808048 0 0.2677956642119742 -0.40840362680373948 0 0.28909827497095891 -0.41314244090476959 0 0.2677956642119742 -0.40840362680373948 0 0.27472650047210662 -0.43131219108599711 0 0.28909827497095891 -0.41314244090476959 0 0.2677956642119742 -0.40840362680373948 0 0.24845486683426421 -0.43056678600332871 0 0.24730388124056729 -0.40448370284608931 0 0.2677956642119742 -0.40840362680373948 0 0.27472650047210662 -0.43131219108599711 0 0.24845486683426421 -0.43056678600332871 0 0.27472650047210662 -0.43131219108599711 0 0.26710508502781599 -0.44926171113960661 0 0.24845486683426421 -0.43056678600332871 0 0.27472650047210662 -0.43131219108599711 0 0.29418269027227539 -0.43431919247607059 0 0.28909827497095891 -0.41314244090476959 0 0.29418269027227539 -0.43431919247607059 0 0.28909827497095891 -0.41314244090476959 0 0.30716585811758268 -0.42152601893676211 0 0.31826237910007699 -0.40611857650776678 0 0.30157177088572762 -0.39984768184154418 0 0.30716585811758268 -0.42152601893676211 0 0.30157177088572762 -0.39984768184154418 0 0.28909827497095891 -0.41314244090476959 0 0.30716585811758268 -0.42152601893676211 0 0.31285094226236981 -0.44919134340349842 0 0.29418269027227539 -0.43431919247607059 0 0.30716585811758268 -0.42152601893676211 0 0.31285094226236981 -0.44919134340349842 0 0.29418269027227539 -0.43431919247607059 0 0.28597809560131299 -0.4567624239266439 0 0.31285094226236981 -0.44919134340349842 0 0.28597809560131299 -0.4567624239266439 0 0.30810638268294871 -0.47012115952174682 0 0.28597809560131299 -0.4567624239266439 0 0.27356505094757272 -0.46654042127887851 0 0.28658471780149791 -0.47429793876749549 0 0.28597809560131299 -0.4567624239266439 0 0.28658471780149791 -0.47429793876749549 0 0.30810638268294871 -0.47012115952174682 0 0.27472650047210662 -0.43131219108599711 0 0.29418269027227539 -0.43431919247607059 0 0.28597809560131299 -0.4567624239266439 0 0.27472650047210662 -0.43131219108599711 0 0.28597809560131299 -0.4567624239266439 0 0.26710508502781599 -0.44926171113960661 0 0.26710508502781599 -0.44926171113960661 0 0.25055382002994903 -0.45112655962101422 0 0.24845486683426421 -0.43056678600332871 0 0.25055382002994903 -0.45112655962101422 0 0.25749380142066591 -0.46566674131117769 0 0.24452211955108941 -0.47321082899062988 0 0.26710508502781599 -0.44926171113960661 0 0.25055382002994903 -0.45112655962101422 0 0.25749380142066591 -0.46566674131117769 0 0.26710508502781599 -0.44926171113960661 0 0.25749380142066591 -0.46566674131117769 0 0.27356505094757272 -0.46654042127887851 0 0.28597809560131299 -0.4567624239266439 0 0.26710508502781599 -0.44926171113960661 0 0.27356505094757272 -0.46654042127887851 0 0.25749380142066591 -0.46566674131117769 0 0.27356505094757272 -0.46654042127887851 0 0.27066355488657068 -0.48671329124946883 0 0.27356505094757272 -0.46654042127887851 0 0.27066355488657068 -0.48671329124946883 0 0.28658471780149791 -0.47429793876749549 0 0.27066355488657068 -0.48671329124946883 0 0.24310759435645521 -0.48732129405658853 0 0.24452211955108941 -0.47321082899062988 0 0.25749380142066591 -0.46566674131117769 0 0.27066355488657068 -0.48671329124946883 0 0.24452211955108941 -0.47321082899062988 0 0.25573491640979129 -0.5 0 0.27066355488657068 -0.48671329124946883 0 0.24310759435645521 -0.48732129405658853 0 0.27066355488657068 -0.48671329124946883 0 0.24310759435645521 -0.48732129405658853 0 0.25573491640979129 -0.5 0 0.27066355488657068 -0.48671329124946883 0 0.2844178321920392 -0.5 0 0.27066355488657068 -0.48671329124946883 0 0.2844178321920392 -0.5 0 0.29821951541668618 -0.48610528844234918 0 0.27066355488657068 -0.48671329124946883 0 0.29821951541668618 -0.48610528844234918 0 0.27066355488657068 -0.48671329124946883 0 0.28658471780149791 -0.47429793876749549 0 0.29821951541668618 -0.48610528844234918 0 0.28658471780149791 -0.47429793876749549 0 0.30810638268294871 -0.47012115952174682 0 0.29821951541668618 -0.48610528844234918 0 0.32577547594680167 -0.48549728563522948 0 0.30810638268294871 -0.47012115952174682 0 0.29821951541668618 -0.48610528844234918 0 0.313100747974287 -0.5 0 0.2844178321920392 -0.5 0 0.29821951541668618 -0.48610528844234918 0 0.32577547594680167 -0.48549728563522948 0 0.29821951541668618 -0.48610528844234918 0 0.32577547594680167 -0.48549728563522948 0 0.313100747974287 -0.5 0 0.29821951541668618 -0.48610528844234918 0 0.330274064289036 -0.28402767586280209 0 0.34332234684577362 -0.29793808318023329 0 0.34457666422559302 -0.26801309975333321 0 0.330274064289036 -0.28402767586280209 0 0.34332234684577362 -0.29793808318023329 0 0.32977293544345387 -0.30596193421111573 0 0.34332234684577362 -0.29793808318023329 0 0.32977293544345387 -0.30596193421111573 0 0.34206802946595682 -0.32786306660713371 0 0.31744302567780058 -0.29875438106107682 0 0.32081511337912821 -0.31891284763754968 0 0.29956219729229971 -0.30996262866796498 0 0.32977293544345387 -0.30596193421111573 0 0.31744302567780058 -0.29875438106107682 0 0.32081511337912821 -0.31891284763754968 0 0.31744302567780058 -0.29875438106107682 0 0.315203972569992 -0.28599406388836862 0 0.30893165249025939 -0.29458973757352408 0 0.330274064289036 -0.28402767586280209 0 0.32977293544345387 -0.30596193421111573 0 0.31744302567780058 -0.29875438106107682 0 0.330274064289036 -0.28402767586280209 0 0.31744302567780058 -0.29875438106107682 0 0.315203972569992 -0.28599406388836862 0 0.31616400359283131 -0.27140021809428472 0 0.31565659849655159 -0.26881006701694032 0 0.34457666422559302 -0.26801309975333321 0 0.31616400359283131 -0.27140021809428472 0 0.31565659849655159 -0.26881006701694032 0 0.330274064289036 -0.28402767586280209 0 0.315203972569992 -0.28599406388836862 0 0.31616400359283131 -0.27140021809428472 0 0.31140457280844042 -0.24710474912070499 0 0.31565659849655159 -0.26881006701694032 0 0.31140457280844042 -0.24710474912070499 0 0.31565659849655159 -0.26881006701694032 0 0.32909477526671738 -0.25319804842994992 0 0.34542116247921317 -0.24786541093840589 0 0.32909477526671738 -0.25319804842994992 0 0.34457666422559302 -0.26801309975333321 0 0.31565659849655159 -0.26881006701694032 0 0.32909477526671738 -0.25319804842994992 0 0.34457666422559302 -0.26801309975333321 0 0.31565659849655159 -0.26881006701694032 0 0.34457666422559302 -0.26801309975333321 0 0.330274064289036 -0.28402767586280209 0 0.31616400359283131 -0.27140021809428472 0 0.34457666422559302 -0.26801309975333321 0 0.35327842571551671 -0.2677733001931194 0 0.36211004630048071 -0.25874315800932568 0 0.36139056500297317 -0.28258450191058321 0 0.34457666422559302 -0.26801309975333321 0 0.35327842571551671 -0.2677733001931194 0 0.36139056500297317 -0.28258450191058321 0 0.34457666422559302 -0.26801309975333321 0 0.35327842571551671 -0.2677733001931194 0 0.34542116247921317 -0.24786541093840589 0 0.35327842571551671 -0.2677733001931194 0 0.36211004630048071 -0.25874315800932568 0 0.34542116247921317 -0.24786541093840589 0 0.34457666422559302 -0.26801309975333321 0 0.34542116247921317 -0.24786541093840589 0 0.34457666422559302 -0.26801309975333321 0 0.35327842571551671 -0.2677733001931194 0 0.36876625398544938 -0.24898888889403961 0 0.37754581309809132 -0.23651361028518689 0 0.3725796289452375 -0.26579697317357759 0 0.36876625398544938 -0.24898888889403961 0 0.36211004630048071 -0.25874315800932568 0 0.3725796289452375 -0.26579697317357759 0 0.36211004630048071 -0.25874315800932568 0 0.36139056500297317 -0.28258450191058321 0 0.36211004630048071 -0.25874315800932568 0 0.3725796289452375 -0.26579697317357759 0 0.36139056500297317 -0.28258450191058321 0 0.3725796289452375 -0.26579697317357759 0 0.36761344479238373 -0.29508033606196837 0 0.3725796289452375 -0.26579697317357759 0 0.36139056500297317 -0.28258450191058321 0 0.36761344479238373 -0.29508033606196837 0 0.36139056500297317 -0.28258450191058321 0 0.36067108370546558 -0.30642584581184062 0 0.36139056500297317 -0.28258450191058321 0 0.36761344479238373 -0.29508033606196837 0 0.36067108370546558 -0.30642584581184062 0 0.37929392098169401 -0.28404327537796259 0 0.3725796289452375 -0.26579697317357759 0 0.36761344479238373 -0.29508033606196837 0 0.34332234684577362 -0.29793808318023329 0 0.36139056500297317 -0.28258450191058321 0 0.36067108370546558 -0.30642584581184062 0 0.34332234684577362 -0.29793808318023329 0 0.34457666422559302 -0.26801309975333321 0 0.34332234684577362 -0.29793808318023329 0 0.34457666422559302 -0.26801309975333321 0 0.36139056500297317 -0.28258450191058321 0 0.34332234684577362 -0.29793808318023329 0 0.36067108370546558 -0.30642584581184062 0 0.35385294866325562 -0.31815161708919842 0 0.37804720550635529 -0.30651687721429538 0 0.36761344479238373 -0.29508033606196837 0 0.37325959660283969 -0.31225701655594912 0 0.36761344479238373 -0.29508033606196837 0 0.37325959660283969 -0.31225701655594912 0 0.36522996683296982 -0.32210974174446261 0 0.36761344479238373 -0.29508033606196837 0 0.3626472606395299 -0.32436369895035932 0 0.36761344479238373 -0.29508033606196837 0 0.36067108370546558 -0.30642584581184062 0 0.3626472606395299 -0.32436369895035932 0 0.36067108370546558 -0.30642584581184062 0 0.35995160240795782 -0.33026718971309799 0 0.37325959660283969 -0.31225701655594912 0 0.36522996683296982 -0.32210974174446261 0 0.37029473460036533 -0.32565573538444043 0 0.36761344479238373 -0.29508033606196837 0 0.3626472606395299 -0.32436369895035932 0 0.36522996683296982 -0.32210974174446261 0 0.36067108370546558 -0.30642584581184062 0 0.3626472606395299 -0.32436369895035932 0 0.35995160240795782 -0.33026718971309799 0 0.38064079273778262 -0.31288188218018531 0 0.37325959660283969 -0.31225701655594912 0 0.37029473460036533 -0.32565573538444043 0 0.3626472606395299 -0.32436369895035932 0 0.37029473460036533 -0.32565573538444043 0 0.35995160240795782 -0.33026718971309799 0 0.37029473460036533 -0.32565573538444043 0 0.35995160240795782 -0.33026718971309799 0 0.3626472606395299 -0.32436369895035932 0 0.36522996683296982 -0.32210974174446261 0 0.37029473460036533 -0.32565573538444043 0 0.36522996683296982 -0.32210974174446261 0 0.37029473460036533 -0.32565573538444043 0 0.35995160240795782 -0.33026718971309799 0 0.35941557651728179 -0.34802939929915899 0 0.37029473460036533 -0.32565573538444043 0 0.37212478857772979 -0.33864880005647208 0 0.35995160240795782 -0.33026718971309799 0 0.3654326502107581 -0.34245967622864359 0 0.35995160240795782 -0.33026718971309799 0 0.35941557651728179 -0.34802939929915899 0 0.37212478857772979 -0.33864880005647208 0 0.3654326502107581 -0.34245967622864359 0 0.37040156667629781 -0.34671437794913718 0 0.37212478857772979 -0.33864880005647208 0 0.3654326502107581 -0.34245967622864359 0 0.35995160240795782 -0.33026718971309799 0 0.35995160240795782 -0.33026718971309799 0 0.35941557651728179 -0.34802939929915899 0 0.34162477060798069 -0.33843815246039383 0 0.35941557651728179 -0.34802939929915899 0 0.34146637893605181 -0.3422169952266676 0 0.34162477060798069 -0.33843815246039383 0 0.35995160240795782 -0.33026718971309799 0 0.34162477060798069 -0.33843815246039383 0 0.35995160240795782 -0.33026718971309799 0 0.34764647170350632 -0.33021231032179682 0 0.34162477060798069 -0.33843815246039383 0 0.35995160240795782 -0.33026718971309799 0 0.34764647170350632 -0.33021231032179682 0 0.35274785573456591 -0.3260756163463463 0 0.34764647170350632 -0.33021231032179682 0 0.34206802946595682 -0.32786306660713371 0 0.34162477060798069 -0.33843815246039383 0 0.34764647170350632 -0.33021231032179682 0 0.34206802946595682 -0.32786306660713371 0 0.35385294866325562 -0.31815161708919842 0 0.35274785573456591 -0.3260756163463463 0 0.34206802946595682 -0.32786306660713371 0 0.34764647170350632 -0.33021231032179682 0 0.35274785573456591 -0.3260756163463463 0 0.34206802946595682 -0.32786306660713371 0 0.34332234684577362 -0.29793808318023329 0 0.35385294866325562 -0.31815161708919842 0 0.34206802946595682 -0.32786306660713371 0 0.36067108370546558 -0.30642584581184062 0 0.35995160240795782 -0.33026718971309799 0 0.35385294866325562 -0.31815161708919842 0 0.35995160240795782 -0.33026718971309799 0 0.35385294866325562 -0.31815161708919842 0 0.35274785573456591 -0.3260756163463463 0 0.38249634533461108 -0.36797477098799591 0 0.36724772315424481 -0.38247146420994571 0 0.36664078794155069 -0.36853845970684512 0 0.38249634533461108 -0.36797477098799591 0 0.36664078794155069 -0.36853845970684512 0 0.37305712147220338 -0.36102055586376819 0 0.3553956415560332 -0.375446985373177 0 0.36664078794155069 -0.36853845970684512 0 0.35901533294662008 -0.36129221050145399 0 0.36664078794155069 -0.36853845970684512 0 0.37305712147220338 -0.36102055586376819 0 0.36517854466496658 -0.35714892472411869 0 0.36664078794155069 -0.36853845970684512 0 0.36517854466496658 -0.35714892472411869 0 0.35901533294662008 -0.36129221050145399 0 0.36517854466496658 -0.35714892472411869 0 0.35941557651728179 -0.34802939929915899 0 0.35901533294662008 -0.36129221050145399 0 0.36517854466496658 -0.35714892472411869 0 0.36469303305047901 -0.34973837317986511 0 0.35941557651728179 -0.34802939929915899 0 0.36517854466496658 -0.35714892472411869 0 0.37030234625384911 -0.35279401393457888 0 0.36469303305047901 -0.34973837317986511 0 0.37818146540529818 -0.34934783795600571 0 0.37305712147220338 -0.36102055586376819 0 0.37030234625384911 -0.35279401393457888 0 0.37305712147220338 -0.36102055586376819 0 0.36517854466496658 -0.35714892472411869 0 0.37030234625384911 -0.35279401393457888 0 0.37818146540529818 -0.34934783795600571 0 0.37212478857772979 -0.33864880005647208 0 0.37040156667629781 -0.34671437794913718 0 0.37818146540529818 -0.34934783795600571 0 0.37030234625384911 -0.35279401393457888 0 0.37040156667629781 -0.34671437794913718 0 0.37030234625384911 -0.35279401393457888 0 0.37040156667629781 -0.34671437794913718 0 0.36469303305047901 -0.34973837317986511 0 0.3654326502107581 -0.34245967622864359 0 0.37040156667629781 -0.34671437794913718 0 0.36469303305047901 -0.34973837317986511 0 0.36469303305047901 -0.34973837317986511 0 0.35941557651728179 -0.34802939929915899 0 0.3654326502107581 -0.34245967622864359 0 0.36469303305047901 -0.34973837317986511 0 0.35941557651728179 -0.34802939929915899 0 0.35003449333301101 -0.35574942476505861 0 0.34024068493209042 -0.37145909403295352 0 0.34146637893605181 -0.3422169952266676 0 0.35941557651728179 -0.34802939929915899 0 0.35003449333301101 -0.35574942476505861 0 0.34146637893605181 -0.3422169952266676 0 0.35941557651728179 -0.34802939929915899 0 0.34146637893605181 -0.3422169952266676 0 0.35941557651728179 -0.34802939929915899 0 0.35901533294662008 -0.36129221050145399 0 0.35941557651728179 -0.34802939929915899 0 0.35003449333301101 -0.35574942476505861 0 0.35901533294662008 -0.36129221050145399 0 0.35003449333301101 -0.35574942476505861 0 0.35901533294662008 -0.36129221050145399 0 0.34024068493209042 -0.37145909403295352 0 0.3553956415560332 -0.375446985373177 0 0.35901533294662008 -0.36129221050145399 0 0.34024068493209042 -0.37145909403295352 0 0.34024068493209042 -0.37145909403295352 0 0.33264239376833749 -0.35548373211026962 0 0.32473595581008968 -0.36877041147622941 0 0.34024068493209042 -0.37145909403295352 0 0.33264239376833749 -0.35548373211026962 0 0.34146637893605181 -0.3422169952266676 0 0.34024068493209042 -0.37145909403295352 0 0.34146637893605181 -0.3422169952266676 0 0.33264239376833749 -0.35548373211026962 0 0.32969677432389999 -0.34883746930945858 0 0.32350037713642671 -0.3535383953733186 0 0.33264239376833749 -0.35548373211026962 0 0.33484083241944268 -0.34588391539316982 0 0.34146637893605181 -0.3422169952266676 0 0.33264239376833749 -0.35548373211026962 0 0.33484083241944268 -0.34588391539316982 0 0.32969677432389999 -0.34883746930945858 0 0.33484083241944268 -0.34588391539316982 0 0.32969677432389999 -0.34883746930945858 0 0.33080291213000951 -0.34437854531234752 0 0.32969677432389999 -0.34883746930945858 0 0.33080291213000951 -0.34437854531234752 0 0.32576759743036687 -0.34544500479448842 0 0.32576759743036687 -0.34544500479448842 0 0.32008489300350967 -0.34478001059398899 0 0.32350037713642671 -0.3535383953733186 0 0.32969677432389999 -0.34883746930945858 0 0.32576759743036687 -0.34544500479448842 0 0.32350037713642671 -0.3535383953733186 0 0.32576759743036687 -0.34544500479448842 0 0.32008489300350967 -0.34478001059398899 0 0.3230261242077439 -0.3426129045732173 0 0.32008489300350967 -0.34478001059398899 0 0.31455300750316167 -0.34989325112993808 0 0.32350037713642671 -0.3535383953733186 0 0.32008489300350967 -0.34478001059398899 0 0.31455300750316167 -0.34989325112993808 0 0.31278358272303802 -0.34129775444127147 0 0.31455300750316167 -0.34989325112993808 0 0.32350037713642671 -0.3535383953733186 0 0.31266700858965563 -0.36105898834543543 0 0.33264239376833749 -0.35548373211026962 0 0.32350037713642671 -0.3535383953733186 0 0.32473595581008968 -0.36877041147622941 0 0.30852465471842783 -0.38296478278532459 0 0.31266700858965563 -0.36105898834543543 0 0.32473595581008968 -0.36877041147622941 0 0.32350037713642671 -0.3535383953733186 0 0.31266700858965563 -0.36105898834543543 0 0.32473595581008968 -0.36877041147622941 0 0.34332234684577362 -0.29793808318023329 0 0.34206802946595682 -0.32786306660713371 0 0.32977293544345387 -0.30596193421111573 0 0.34206802946595682 -0.32786306660713371 0 0.32081511337912821 -0.31891284763754968 0 0.34206802946595682 -0.32786306660713371 0 0.32602109842812482 -0.32927153728442071 0 0.32081511337912821 -0.31891284763754968 0 0.34206802946595682 -0.32786306660713371 0 0.32081511337912821 -0.31891284763754968 0 0.34206802946595682 -0.32786306660713371 0 0.34162477060798069 -0.33843815246039383 0 0.33801441914131958 -0.33597980122333287 0 0.34206802946595682 -0.32786306660713371 0 0.34162477060798069 -0.33843815246039383 0 0.34206802946595682 -0.32786306660713371 0 0.33503975802439162 -0.33352730776002742 0 0.32602109842812482 -0.32927153728442071 0 0.34206802946595682 -0.32786306660713371 0 0.33801441914131958 -0.33597980122333287 0 0.33503975802439162 -0.33352730776002742 0 0.34146637893605181 -0.3422169952266676 0 0.34162477060798069 -0.33843815246039383 0 0.33664845261102122 -0.34065682884787418 0 0.34146637893605181 -0.3422169952266676 0 0.34162477060798069 -0.33843815246039383 0 0.34162477060798069 -0.33843815246039383 0 0.33801441914131958 -0.33597980122333287 0 0.33664845261102122 -0.34065682884787418 0 0.34162477060798069 -0.33843815246039383 0 0.33664845261102122 -0.34065682884787418 0 0.33801441914131958 -0.33597980122333287 0 0.33664845261102122 -0.34065682884787418 0 0.334556636173299 -0.33621284741772872 0 0.33484083241944268 -0.34588391539316982 0 0.34146637893605181 -0.3422169952266676 0 0.33664845261102122 -0.34065682884787418 0 0.34146637893605181 -0.3422169952266676 0 0.33664845261102122 -0.34065682884787418 0 0.33080291213000951 -0.34437854531234752 0 0.33664845261102122 -0.34065682884787418 0 0.32753883147517121 -0.34023469067202677 0 0.33664845261102122 -0.34065682884787418 0 0.334556636173299 -0.33621284741772872 0 0.32852391491646382 -0.33468745183968091 0 0.33484083241944268 -0.34588391539316982 0 0.33080291213000951 -0.34437854531234752 0 0.33664845261102122 -0.34065682884787418 0 0.33503975802439162 -0.33352730776002742 0 0.32852391491646382 -0.33468745183968091 0 0.32602109842812482 -0.32927153728442071 0 0.334556636173299 -0.33621284741772872 0 0.33503975802439162 -0.33352730776002742 0 0.32852391491646382 -0.33468745183968091 0 0.33801441914131958 -0.33597980122333287 0 0.334556636173299 -0.33621284741772872 0 0.33503975802439162 -0.33352730776002742 0 0.32753883147517121 -0.34023469067202677 0 0.31871317492192791 -0.33999191223236508 0 0.30992165968220392 -0.33200201743577268 0 0.32852391491646382 -0.33468745183968091 0 0.32602109842812482 -0.32927153728442071 0 0.30992165968220392 -0.33200201743577268 0 0.33664845261102122 -0.34065682884787418 0 0.32852391491646382 -0.33468745183968091 0 0.30992165968220392 -0.33200201743577268 0 0.33664845261102122 -0.34065682884787418 0 0.32753883147517121 -0.34023469067202677 0 0.30992165968220392 -0.33200201743577268 0 0.32602109842812482 -0.32927153728442071 0 0.31516553794356478 -0.32688419612254632 0 0.30992165968220392 -0.33200201743577268 0 0.33664845261102122 -0.34065682884787418 0 0.30992165968220392 -0.33200201743577268 0 0.32753883147517121 -0.34023469067202677 0 0.3230261242077439 -0.3426129045732173 0 0.31871317492192791 -0.33999191223236508 0 0.33080291213000951 -0.34437854531234752 0 0.32576759743036687 -0.34544500479448842 0 0.32753883147517121 -0.34023469067202677 0 0.32576759743036687 -0.34544500479448842 0 0.32753883147517121 -0.34023469067202677 0 0.3230261242077439 -0.3426129045732173 0 0.32008489300350967 -0.34478001059398899 0 0.3230261242077439 -0.3426129045732173 0 0.31871317492192791 -0.33999191223236508 0 0.31871317492192791 -0.33999191223236508 0 0.31278358272303802 -0.34129775444127147 0 0.30992165968220392 -0.33200201743577268 0 0.32008489300350967 -0.34478001059398899 0 0.31871317492192791 -0.33999191223236508 0 0.31278358272303802 -0.34129775444127147 0 0.32602109842812482 -0.32927153728442071 0 0.31516553794356478 -0.32688419612254632 0 0.32081511337912821 -0.31891284763754968 0 0.31516553794356478 -0.32688419612254632 0 0.32081511337912821 -0.31891284763754968 0 0.29956219729229971 -0.30996262866796498 0 0.31516553794356478 -0.32688419612254632 0 0.30992165968220392 -0.33200201743577268 0 0.29956219729229971 -0.30996262866796498 0 0.30992165968220392 -0.33200201743577268 0 0.28319486675338662 -0.32334720602367162 0 0.29956219729229971 -0.30996262866796498 0 0.32081511337912821 -0.31891284763754968 0 0.29956219729229971 -0.30996262866796498 0 0.31516553794356478 -0.32688419612254632 0 0.29956219729229971 -0.30996262866796498 0 0.31278358272303802 -0.34129775444127147 0 0.30544777269898171 -0.33968681455295602 0 0.30372917606317851 -0.34879110689567611 0 0.31278358272303802 -0.34129775444127147 0 0.30992165968220392 -0.33200201743577268 0 0.30544777269898171 -0.33968681455295602 0 0.30992165968220392 -0.33200201743577268 0 0.30544777269898171 -0.33968681455295602 0 0.29535667232750618 -0.33665637943910393 0 0.30544777269898171 -0.33968681455295602 0 0.29535667232750618 -0.33665637943910393 0 0.30372917606317851 -0.34879110689567611 0 0.30992165968220392 -0.33200201743577268 0 0.29535667232750618 -0.33665637943910393 0 0.28319486675338662 -0.32334720602367162 0 0.29535667232750618 -0.33665637943910393 0 0.28811986741475609 -0.34954264064797458 0 0.28056009198101312 -0.33712721632873971 0 0.29535667232750618 -0.33665637943910393 0 0.28319486675338662 -0.32334720602367162 0 0.28056009198101312 -0.33712721632873971 0 0.30992165968220392 -0.33200201743577268 0 0.28319486675338662 -0.32334720602367162 0 0.30852465471842783 -0.38296478278532459 0 0.31266700858965563 -0.36105898834543543 0 0.29576167506738288 -0.36584798696867898 0 0.31266700858965563 -0.36105898834543543 0 0.30372917606317851 -0.34879110689567611 0 0.29576167506738288 -0.36584798696867898 0 0.31455300750316167 -0.34989325112993808 0 0.31266700858965563 -0.36105898834543543 0 0.30372917606317851 -0.34879110689567611 0 0.31455300750316167 -0.34989325112993808 0 0.31278358272303802 -0.34129775444127147 0 0.30372917606317851 -0.34879110689567611 0 0.30372917606317851 -0.34879110689567611 0 0.28811986741475609 -0.34954264064797458 0 0.29576167506738288 -0.36584798696867898 0 0.29535667232750618 -0.33665637943910393 0 0.30372917606317851 -0.34879110689567611 0 0.28811986741475609 -0.34954264064797458 0 0.28811986741475609 -0.34954264064797458 0 0.29576167506738288 -0.36584798696867898 0 0.27628411724202862 -0.36524783617958329 0 0.28524522637625171 -0.38748256695808048 0 0.29576167506738288 -0.36584798696867898 0 0.27628411724202862 -0.36524783617958329 0 0.27628411724202862 -0.36524783617958329 0 0.26970242523906313 -0.3463930650348116 0 0.25620327224306561 -0.36049072758523892 0 0.28811986741475609 -0.34954264064797458 0 0.27628411724202862 -0.36524783617958329 0 0.26970242523906313 -0.3463930650348116 0 0.28811986741475609 -0.34954264064797458 0 0.26970242523906313 -0.3463930650348116 0 0.28056009198101312 -0.33712721632873971 0 0.26970242523906313 -0.3463930650348116 0 0.25620327224306561 -0.36049072758523892 0 0.25110761996098008 -0.33756133299550262 0 0.26194523537769671 -0.38343407302417171 0 0.27628411724202862 -0.36524783617958329 0 0.25620327224306561 -0.36049072758523892 0 0.26194523537769671 -0.38343407302417171 0 0.25620327224306561 -0.36049072758523892 0 0.2380746425401753 -0.37739124482652259 0 0.28319486675338662 -0.32334720602367162 0 0.25646807382456938 -0.31469239461157061 0 0.28319486675338662 -0.32334720602367162 0 0.25646807382456938 -0.31469239461157061 0 0.26668910057358802 -0.30550764638795852 0 0.28319486675338662 -0.32334720602367162 0 0.26642662817035351 -0.32969679049813649 0 0.25646807382456938 -0.31469239461157061 0 0.26970242523906313 -0.3463930650348116 0 0.26642662817035351 -0.32969679049813649 0 0.28056009198101312 -0.33712721632873971 0 0.28319486675338662 -0.32334720602367162 0 0.26642662817035351 -0.32969679049813649 0 0.28056009198101312 -0.33712721632873971 0 0.26970242523906313 -0.3463930650348116 0 0.26642662817035351 -0.32969679049813649 0 0.25110761996098008 -0.33756133299550262 0 0.26642662817035351 -0.32969679049813649 0 0.25110761996098008 -0.33756133299550262 0 0.25646807382456938 -0.31469239461157061 0 0.26020915296869068 -0.2933899210744732 0 0.26668910057358802 -0.30550764638795852 0 0.24613976577650579 -0.30323365481969039 0 0.25646807382456938 -0.31469239461157061 0 0.26668910057358802 -0.30550764638795852 0 0.24613976577650579 -0.30323365481969039 0 0.26020915296869068 -0.2933899210744732 0 0.25058364390229548 -0.28023087545190861 0 0.26295470628353768 -0.27026240406269297 0 0.26020915296869068 -0.2933899210744732 0 0.25058364390229548 -0.28023087545190861 0 0.24053263080688631 -0.28510356727772701 0 0.26020915296869068 -0.2933899210744732 0 0.24053263080688631 -0.28510356727772701 0 0.26020915296869068 -0.2933899210744732 0 0.28125845178791892 -0.29011251636532881 0 0.26295470628353768 -0.27026240406269297 0 0.26020915296869068 -0.2933899210744732 0 0.27988567513049512 -0.30167627487121951 0 0.28125845178791892 -0.29011251636532881 0 0.26020915296869068 -0.2933899210744732 0 0.26668910057358802 -0.30550764638795852 0 0.27988567513049512 -0.30167627487121951 0 0.26020915296869068 -0.2933899210744732 0 0.27988567513049512 -0.30167627487121951 0 0.28319486675338662 -0.32334720602367162 0 0.26668910057358802 -0.30550764638795852 0 0.27988567513049512 -0.30167627487121951 0 0.27988567513049512 -0.30167627487121951 0 0.29956219729229971 -0.30996262866796498 0 0.28125845178791892 -0.29011251636532881 0 0.29956219729229971 -0.30996262866796498 0 0.27988567513049512 -0.30167627487121951 0 0.28125845178791892 -0.29011251636532881 0 0.29956219729229971 -0.30996262866796498 0 0.28319486675338662 -0.32334720602367162 0 0.27988567513049512 -0.30167627487121951 0 0.29956219729229971 -0.30996262866796498 0 0.28125845178791892 -0.29011251636532881 0 0.30351741442094582 -0.28364787667668517 0 0.29956219729229971 -0.30996262866796498 0 0.30351741442094582 -0.28364787667668517 0 0.30893165249025939 -0.29458973757352408 0 0.29956219729229971 -0.30996262866796498 0 0.315203972569992 -0.28599406388836862 0 0.30351741442094582 -0.28364787667668517 0 0.30893165249025939 -0.29458973757352408 0 0.31744302567780058 -0.29875438106107682 0 0.30893165249025939 -0.29458973757352408 0 0.29956219729229971 -0.30996262866796498 0 0.31140457280844042 -0.24710474912070499 0 0.31565659849655159 -0.26881006701694032 0 0.29718577407036301 -0.25519814195989071 0 0.31565659849655159 -0.26881006701694032 0 0.29718577407036301 -0.25519814195989071 0 0.28930565239004458 -0.26953623553981648 0 0.31565659849655159 -0.26881006701694032 0 0.28930565239004458 -0.26953623553981648 0 0.31565659849655159 -0.26881006701694032 0 0.30351741442094582 -0.28364787667668517 0 0.28930565239004458 -0.26953623553981648 0 0.315203972569992 -0.28599406388836862 0 0.31616400359283131 -0.27140021809428472 0 0.30351741442094582 -0.28364787667668517 0 0.31616400359283131 -0.27140021809428472 0 0.31565659849655159 -0.26881006701694032 0 0.30351741442094582 -0.28364787667668517 0 0.28125845178791892 -0.29011251636532881 0 0.30351741442094582 -0.28364787667668517 0 0.28930565239004458 -0.26953623553981648 0 0.29234931722919649 -0.23956849287787771 0 0.29718577407036301 -0.25519814195989071 0 0.28009493911397709 -0.25531812806766069 0 0.29718577407036301 -0.25519814195989071 0 0.28930565239004458 -0.26953623553981648 0 0.28009493911397709 -0.25531812806766069 0 0.28009493911397709 -0.25531812806766069 0 0.26295470628353768 -0.27026240406269297 0 0.26515279713901752 -0.25474276698909742 0 0.28930565239004458 -0.26953623553981648 0 0.28009493911397709 -0.25531812806766069 0 0.26295470628353768 -0.27026240406269297 0 0.27362138757170362 -0.2426007269765893 0 0.28009493911397709 -0.25531812806766069 0 0.26515279713901752 -0.25474276698909742 0 0.28930565239004458 -0.26953623553981648 0 0.26295470628353768 -0.27026240406269297 0 0.28125845178791892 -0.29011251636532881 0 0.28930565239004458 -0.26953623553981648 0 0.26295470628353768 -0.27026240406269297 0 0.28125845178791892 -0.29011251636532881 0 0.26295470628353768 -0.27026240406269297 0 0.26295470628353768 -0.27026240406269297 0 0.25920525151110962 -0.26619618175379239 0 0.2333624491378041 -0.27107789530058801 0 0.26295470628353768 -0.27026240406269297 0 0.25920525151110962 -0.26619618175379239 0 0.26515279713901752 -0.25474276698909742 0 0.25909559454287789 -0.26033526294480458 0 0.25575058308532189 -0.25269357128633052 0 0.26295470628353768 -0.27026240406269297 0 0.25920525151110962 -0.26619618175379239 0 0.25909559454287789 -0.26033526294480458 0 0.26295470628353768 -0.27026240406269297 0 0.26515279713901752 -0.25474276698909742 0 0.25909559454287789 -0.26033526294480458 0 0.25920525151110962 -0.26619618175379239 0 0.25909559454287789 -0.26033526294480458 0 0.2525593813984649 -0.26013433662011259 0 0.2525593813984649 -0.26013433662011259 0 0.25575058308532189 -0.25269357128633052 0 0.2462907050713771 -0.25204034373521428 0 0.25909559454287789 -0.26033526294480458 0 0.2525593813984649 -0.26013433662011259 0 0.25575058308532189 -0.25269357128633052 0 0.2525593813984649 -0.26013433662011259 0 0.2372713891187809 -0.25677075628574592 0 0.2333624491378041 -0.27107789530058801 0 0.2525593813984649 -0.26013433662011259 0 0.2462907050713771 -0.25204034373521428 0 0.2372713891187809 -0.25677075628574592 0 0.2525593813984649 -0.26013433662011259 0 0.2372713891187809 -0.25677075628574592 0 0.2462907050713771 -0.25204034373521428 0 0.2372713891187809 -0.25677075628574592 0 0.2374752251495614 -0.24157268794541539 0 0.26295470628353768 -0.27026240406269297 0 0.2333624491378041 -0.27107789530058801 0 0.25058364390229548 -0.28023087545190861 0 0.2333624491378041 -0.27107789530058801 0 0.24053263080688631 -0.28510356727772701 0 0.25920525151110962 -0.26619618175379239 0 0.2525593813984649 -0.26013433662011259 0 0.2333624491378041 -0.27107789530058801 0 0.25058364390229548 -0.28023087545190861 0 0.26295470628353768 -0.27026240406269297 0 0.2333624491378041 -0.27107789530058801 0 0.2333624491378041 -0.27107789530058801 0 0.22391874229476511 -0.2824004848955064 0 0.24053263080688631 -0.28510356727772701 0 0.2333624491378041 -0.27107789530058801 0 0.22198339683909701 -0.25340717595137879 0 0.22391874229476511 -0.2824004848955064 0 0.22198339683909701 -0.25340717595137879 0 0.21277476220729311 -0.27908963951381288 0 0.22391874229476511 -0.2824004848955064 0 0.22198339683909701 -0.25340717595137879 0 0.22391874229476511 -0.2824004848955064 0 0.2372713891187809 -0.25677075628574592 0 0.2333624491378041 -0.27107789530058801 0 0.22198339683909701 -0.25340717595137879 0 0.2372713891187809 -0.25677075628574592 0 0.22198339683909701 -0.25340717595137879 0 0.2374752251495614 -0.24157268794541539 0 0.2372713891187809 -0.25677075628574592 0 0.22198339683909701 -0.25340717595137879 0 0.22198339683909701 -0.25340717595137879 0 0.19767743283581299 -0.26201501502554969 0 0.19815896102696709 -0.24816545406213189 0 0.22198339683909701 -0.25340717595137879 0 0.19815896102696709 -0.24816545406213189 0 0.22198339683909701 -0.25340717595137879 0 0.2070014623020448 -0.26844420161526761 0 0.19767743283581299 -0.26201501502554969 0 0.22198339683909701 -0.25340717595137879 0 0.21277476220729311 -0.27908963951381288 0 0.2070014623020448 -0.26844420161526761 0 0.21277476220729311 -0.27908963951381288 0 0.19627752834655959 -0.27465633278028612 0 0.20552852767052071 -0.28818040814850709 0 0.21277476220729311 -0.27908963951381288 0 0.2070014623020448 -0.26844420161526761 0 0.19627752834655959 -0.27465633278028612 0 0.2070014623020448 -0.26844420161526761 0 0.19627752834655959 -0.27465633278028612 0 0.19767743283581299 -0.26201501502554969 0 0.19627752834655959 -0.27465633278028612 0 0.19767743283581299 -0.26201501502554969 0 0.1861358052291735 -0.26379397041404468 0 0.19767743283581299 -0.26201501502554969 0 0.1861358052291735 -0.26379397041404468 0 0.19815896102696709 -0.24816545406213189 0 0.1861358052291735 -0.26379397041404468 0 0.18066177981631051 -0.25348299893649828 0 0.19815896102696709 -0.24816545406213189 0 0.20129939135720101 -0.31175464383988888 0 0.20552852767052071 -0.28818040814850709 0 0.1861316223780578 -0.30340045511113362 0 0.20552852767052071 -0.28818040814850709 0 0.18615950714984131 -0.28714944863913389 0 0.1861316223780578 -0.30340045511113362 0 0.19627752834655959 -0.27465633278028612 0 0.20552852767052071 -0.28818040814850709 0 0.18615950714984131 -0.28714944863913389 0 0.21277476220729311 -0.27908963951381288 0 0.20552852767052071 -0.28818040814850709 0 0.22391874229476511 -0.2824004848955064 0 0.20552852767052071 -0.28818040814850709 0 0.21283890344555609 -0.30228465628523993 0 0.22391874229476511 -0.2824004848955064 0 0.20129939135720101 -0.31175464383988888 0 0.20552852767052071 -0.28818040814850709 0 0.21283890344555609 -0.30228465628523993 0 0.225854087750432 -0.31139379383963389 0 0.22391874229476511 -0.2824004848955064 0 0.21283890344555609 -0.30228465628523993 0 0.225854087750432 -0.31139379383963389 0 0.22391874229476511 -0.2824004848955064 0 0.225854087750432 -0.31139379383963389 0 0.22391874229476511 -0.2824004848955064 0 0.24053263080688631 -0.28510356727772701 0 0.26020915296869068 -0.2933899210744732 0 0.24053263080688631 -0.28510356727772701 0 0.24613976577650579 -0.30323365481969039 0 0.225854087750432 -0.31139379383963389 0 0.24053263080688631 -0.28510356727772701 0 0.24613976577650579 -0.30323365481969039 0 0.225854087750432 -0.31139379383963389 0 0.24613976577650579 -0.30323365481969039 0 0.24147179610371719 -0.32145365581003182 0 0.25110761996098008 -0.33756133299550262 0 0.25646807382456938 -0.31469239461157061 0 0.24147179610371719 -0.32145365581003182 0 0.25646807382456938 -0.31469239461157061 0 0.24613976577650579 -0.30323365481969039 0 0.24147179610371719 -0.32145365581003182 0 0.25110761996098008 -0.33756133299550262 0 0.24147179610371719 -0.32145365581003182 0 0.2277894332060989 -0.3403871027837615 0 0.225854087750432 -0.31139379383963389 0 0.24147179610371719 -0.32145365581003182 0 0.2277894332060989 -0.3403871027837615 0 0.225854087750432 -0.31139379383963389 0 0.2277894332060989 -0.3403871027837615 0 0.2131017443993804 -0.32550716011161479 0 0.225854087750432 -0.31139379383963389 0 0.2277894332060989 -0.3403871027837615 0 0.25620327224306561 -0.36049072758523892 0 0.23939100935974761 -0.35412122659527612 0 0.2380746425401753 -0.37739124482652259 0 0.25110761996098008 -0.33756133299550262 0 0.2277894332060989 -0.3403871027837615 0 0.23939100935974761 -0.35412122659527612 0 0.25620327224306561 -0.36049072758523892 0 0.25110761996098008 -0.33756133299550262 0 0.23939100935974761 -0.35412122659527612 0 0.2277894332060989 -0.3403871027837615 0 0.23939100935974761 -0.35412122659527612 0 0.22160146260088931 -0.35672021721344238 0 0.2277894332060989 -0.3403871027837615 0 0.22160146260088931 -0.35672021721344238 0 0.21393580002607371 -0.34141846605291087 0 0.23939100935974761 -0.35412122659527612 0 0.22160146260088931 -0.35672021721344238 0 0.2380746425401753 -0.37739124482652259 0 0.22160146260088931 -0.35672021721344238 0 0.21646245367279571 -0.38358476595235552 0 0.22160146260088931 -0.35672021721344238 0 0.2380746425401753 -0.37739124482652259 0 0.21646245367279571 -0.38358476595235552 0 0.22160146260088931 -0.35672021721344238 0 0.19836301469614079 -0.36402790855933592 0 0.2025217842010896 -0.37807387373583923 0 0.22160146260088931 -0.35672021721344238 0 0.21646245367279571 -0.38358476595235552 0 0.2025217842010896 -0.37807387373583923 0 0.22160146260088931 -0.35672021721344238 0 0.20535211274276649 -0.35018034328080122 0 0.21393580002607371 -0.34141846605291087 0 0.22160146260088931 -0.35672021721344238 0 0.20535211274276649 -0.35018034328080122 0 0.19836301469614079 -0.36402790855933592 0 0.20535211274276649 -0.35018034328080122 0 0.19180082998577391 -0.35029167033112268 0 0.20100079568597551 -0.33875735092892167 0 0.19180082998577391 -0.35029167033112268 0 0.19836301469614079 -0.36402790855933592 0 0.18636698824462991 -0.36225910140511608 0 0.19180082998577391 -0.35029167033112268 0 0.18636698824462991 -0.36225910140511608 0 0.18448777755487131 -0.35210036546502188 0 0.20535211274276649 -0.35018034328080122 0 0.19180082998577391 -0.35029167033112268 0 0.19836301469614079 -0.36402790855933592 0 0.19836301469614079 -0.36402790855933592 0 0.19083927531350181 -0.37426462870353422 0 0.18636698824462991 -0.36225910140511608 0 0.19836301469614079 -0.36402790855933592 0 0.19083927531350181 -0.37426462870353422 0 0.2025217842010896 -0.37807387373583923 0 0.20129939135720101 -0.31175464383988888 0 0.21283890344555609 -0.30228465628523993 0 0.2131017443993804 -0.32550716011161479 0 0.21283890344555609 -0.30228465628523993 0 0.225854087750432 -0.31139379383963389 0 0.2131017443993804 -0.32550716011161479 0 0.2277894332060989 -0.3403871027837615 0 0.2131017443993804 -0.32550716011161479 0 0.21393580002607371 -0.34141846605291087 0 0.2131017443993804 -0.32550716011161479 0 0.21393580002607371 -0.34141846605291087 0 0.20100079568597551 -0.33875735092892167 0 0.20535211274276649 -0.35018034328080122 0 0.21393580002607371 -0.34141846605291087 0 0.20100079568597551 -0.33875735092892167 0 0.19180082998577391 -0.35029167033112268 0 0.20100079568597551 -0.33875735092892167 0 0.1840044286915227 -0.33601373309634508 0 0.20100079568597551 -0.33875735092892167 0 0.19352690233448341 -0.32516644492614982 0 0.1840044286915227 -0.33601373309634508 0 0.2131017443993804 -0.32550716011161479 0 0.20100079568597551 -0.33875735092892167 0 0.19352690233448341 -0.32516644492614982 0 0.20129939135720101 -0.31175464383988888 0 0.2131017443993804 -0.32550716011161479 0 0.19352690233448341 -0.32516644492614982 0 0.20129939135720101 -0.31175464383988888 0 0.19352690233448341 -0.32516644492614982 0 0.1861316223780578 -0.30340045511113362 0 0.19352690233448341 -0.32516644492614982 0 0.17526094699071121 -0.32121364916979261 0 0.1840044286915227 -0.33601373309634508 0 0.19352690233448341 -0.32516644492614982 0 0.17526094699071121 -0.32121364916979261 0 0.1861316223780578 -0.30340045511113362 0 0.17526094699071121 -0.32121364916979261 0 0.1840044286915227 -0.33601373309634508 0 0.17670370261134591 -0.35101137430815987 0 0.17526094699071121 -0.32121364916979261 0 0.16632300769682529 -0.33914532989683449 0 0.17670370261134591 -0.35101137430815987 0 0.17526094699071121 -0.32121364916979261 0 0.17670370261134591 -0.35101137430815987 0 0.16632300769682529 -0.33914532989683449 0 0.15635532043033851 -0.32762317205032648 0 0.15384528835215919 -0.34888323103730828 0 0.17526094699071121 -0.32121364916979261 0 0.16632300769682529 -0.33914532989683449 0 0.15635532043033851 -0.32762317205032648 0 0.17526094699071121 -0.32121364916979261 0 0.15635532043033851 -0.32762317205032648 0 0.16613015085753399 -0.29794196337136208 0 0.19083927531350181 -0.37426462870353422 0 0.18636698824462991 -0.36225910140511608 0 0.17814645823198061 -0.38080909944652741 0 0.17670370261134591 -0.35101137430815987 0 0.1695008882053643 -0.3539014675276998 0 0.17814645823198061 -0.38080909944652741 0 0.17670370261134591 -0.35101137430815987 0 0.17814645823198061 -0.38080909944652741 0 0.18636698824462991 -0.36225910140511608 0 0.17670370261134591 -0.35101137430815987 0 0.17814645823198061 -0.38080909944652741 0 0.18636698824462991 -0.36225910140511608 0 0.18448777755487131 -0.35210036546502188 0 0.17670370261134591 -0.35101137430815987 0 0.18448777755487131 -0.35210036546502188 0 0.18424918471087839 -0.34735428580016242 0 0.17670370261134591 -0.35101137430815987 0 0.19180082998577391 -0.35029167033112268 0 0.1840044286915227 -0.33601373309634508 0 0.18424918471087839 -0.34735428580016242 0 0.1840044286915227 -0.33601373309634508 0 0.18424918471087839 -0.34735428580016242 0 0.17670370261134591 -0.35101137430815987 0 0.19180082998577391 -0.35029167033112268 0 0.18448777755487131 -0.35210036546502188 0 0.18424918471087839 -0.34735428580016242 0 0.16632300769682529 -0.33914532989683449 0 0.1695008882053643 -0.3539014675276998 0 0.15384528835215919 -0.34888323103730828 0 0.1695008882053643 -0.3539014675276998 0 0.15622266046030589 -0.36560529067035252 0 0.15384528835215919 -0.34888323103730828 0 0.16632300769682529 -0.33914532989683449 0 0.17670370261134591 -0.35101137430815987 0 0.1695008882053643 -0.3539014675276998 0 0.1695008882053643 -0.3539014675276998 0 0.15622266046030589 -0.36560529067035252 0 0.1662516937484437 -0.37945746017663878 0 0.1695008882053643 -0.3539014675276998 0 0.17814645823198061 -0.38080909944652741 0 0.1662516937484437 -0.37945746017663878 0 0.1695008882053643 -0.3539014675276998 0 0.1662516937484437 -0.37945746017663878 0 0.15622266046030589 -0.36560529067035252 0 0.15384528835215919 -0.34888323103730828 0 0.13913284643621729 -0.36987147755796063 0 0.15622266046030589 -0.36560529067035252 0 0.13913284643621729 -0.36987147755796063 0 0.15122325216971341 -0.38057118911269922 0 0.15384528835215919 -0.34888323103730828 0 0.13913284643621729 -0.36987147755796063 0 0.1385684583736729 -0.34280877879487409 0 0.1385684583736729 -0.34280877879487409 0 0.1245186505824013 -0.36113750934922573 0 0.1203073559828662 -0.34481831064573482 0 0.13913284643621729 -0.36987147755796063 0 0.1385684583736729 -0.34280877879487409 0 0.13913284643621729 -0.36987147755796063 0 0.1385684583736729 -0.34280877879487409 0 0.1245186505824013 -0.36113750934922573 0 0.13913284643621729 -0.36987147755796063 0 0.12672469353237761 -0.38193719477194499 0 0.1245186505824013 -0.36113750934922573 0 0.15635532043033851 -0.32762317205032648 0 0.13800407031112841 -0.31574608003178772 0 0.16613015085753399 -0.29794196337136208 0 0.15635532043033851 -0.32762317205032648 0 0.15384528835215919 -0.34888323103730828 0 0.1385684583736729 -0.34280877879487409 0 0.15635532043033851 -0.32762317205032648 0 0.1385684583736729 -0.34280877879487409 0 0.13800407031112841 -0.31574608003178772 0 0.1385684583736729 -0.34280877879487409 0 0.13800407031112841 -0.31574608003178772 0 0.1385684583736729 -0.34280877879487409 0 0.1252730154641265 -0.33501756179834041 0 0.127277047630593 -0.32368123984794023 0 0.1385684583736729 -0.34280877879487409 0 0.1252730154641265 -0.33501756179834041 0 0.1203073559828662 -0.34481831064573482 0 0.13800407031112841 -0.31574608003178772 0 0.127277047630593 -0.32368123984794023 0 0.1207194796176513 -0.31206082339016011 0 0.1385684583736729 -0.34280877879487409 0 0.13800407031112841 -0.31574608003178772 0 0.127277047630593 -0.32368123984794023 0 0.13800407031112841 -0.31574608003178772 0 0.13743968224858391 -0.28868338126870119 0 0.1207194796176513 -0.31206082339016011 0 0.13800407031112841 -0.31574608003178772 0 0.13743968224858391 -0.28868338126870119 0 0.13800407031112841 -0.31574608003178772 0 0.13743968224858391 -0.28868338126870119 0 0.16613015085753399 -0.29794196337136208 0 0.13743968224858391 -0.28868338126870119 0 0.16013622185265231 -0.27370264407204231 0 0.16613015085753399 -0.29794196337136208 0 0.13743968224858391 -0.28868338126870119 0 0.13687529418603939 -0.26162068250561471 0 0.13743968224858391 -0.28868338126870119 0 0.13687529418603939 -0.26162068250561471 0 0.12122917553908071 -0.27280048239714111 0 0.13687529418603939 -0.26162068250561471 0 0.15867772839633809 -0.25707915377424612 0 0.15532271566916761 -0.23874085795770611 0 0.13687529418603939 -0.26162068250561471 0 0.16013622185265231 -0.27370264407204231 0 0.15867772839633809 -0.25707915377424612 0 0.13743968224858391 -0.28868338126870119 0 0.13687529418603939 -0.26162068250561471 0 0.16013622185265231 -0.27370264407204231 0 0.16013622185265231 -0.27370264407204231 0 0.17163424862532001 -0.26348395238230132 0 0.17866520103123101 -0.27392164610568698 0 0.16013622185265231 -0.27370264407204231 0 0.15867772839633809 -0.25707915377424612 0 0.17163424862532001 -0.26348395238230132 0 0.15867772839633809 -0.25707915377424612 0 0.17163424862532001 -0.26348395238230132 0 0.17304535898525439 -0.24904788565112909 0 0.17163424862532001 -0.26348395238230132 0 0.18066177981631051 -0.25348299893649828 0 0.17304535898525439 -0.24904788565112909 0 0.17163424862532001 -0.26348395238230132 0 0.1861358052291735 -0.26379397041404468 0 0.18066177981631051 -0.25348299893649828 0 0.19627752834655959 -0.27465633278028612 0 0.17866520103123101 -0.27392164610568698 0 0.18615950714984131 -0.28714944863913389 0 0.19627752834655959 -0.27465633278028612 0 0.1861358052291735 -0.26379397041404468 0 0.17866520103123101 -0.27392164610568698 0 0.17163424862532001 -0.26348395238230132 0 0.1861358052291735 -0.26379397041404468 0 0.17866520103123101 -0.27392164610568698 0 0.17866520103123101 -0.27392164610568698 0 0.18615950714984131 -0.28714944863913389 0 0.16613015085753399 -0.29794196337136208 0 0.18615950714984131 -0.28714944863913389 0 0.1861316223780578 -0.30340045511113362 0 0.16613015085753399 -0.29794196337136208 0 0.17526094699071121 -0.32121364916979261 0 0.1861316223780578 -0.30340045511113362 0 0.16613015085753399 -0.29794196337136208 0 0.16013622185265231 -0.27370264407204231 0 0.17866520103123101 -0.27392164610568698 0 0.16613015085753399 -0.29794196337136208 0 0.19650118937966099 -0.48458767462136337 0 0.18247472509388471 -0.47020227486163019 0 0.1839174807145193 -0.49999999999999789 0 0.19650118937966099 -0.48458767462136337 0 0.2054847406710314 -0.5 0 0.1839174807145193 -0.49999999999999789 0 0.19650118937966099 -0.48458767462136337 0 0.1995265252191368 -0.47051219141525807 0 0.18247472509388471 -0.47020227486163019 0 0.19650118937966099 -0.48458767462136337 0 0.1995265252191368 -0.47051219141525807 0 0.21142085222808771 -0.48158275099342862 0 0.1995265252191368 -0.47051219141525807 0 0.21142085222808771 -0.48158275099342862 0 0.21140626781342409 -0.46122374827882839 0 0.21142085222808771 -0.48158275099342862 0 0.23068219321441441 -0.47630316546961982 0 0.21140626781342409 -0.46122374827882839 0 0.19650118937966099 -0.48458767462136337 0 0.21142085222808771 -0.48158275099342862 0 0.2054847406710314 -0.5 0 0.21142085222808771 -0.48158275099342862 0 0.2054847406710314 -0.5 0 0.22705200062754341 -0.49999999999999972 0 0.21142085222808771 -0.48158275099342862 0 0.22705200062754341 -0.49999999999999972 0 0.23068219321441441 -0.47630316546961982 0 0.22705200062754341 -0.49999999999999972 0 0.24310759435645521 -0.48732129405658853 0 0.23068219321441441 -0.47630316546961982 0 0.22705200062754341 -0.49999999999999972 0 0.23068219321441441 -0.47630316546961982 0 0.25573491640979129 -0.5 0 0.22705200062754341 -0.49999999999999972 0 0.24310759435645521 -0.48732129405658853 0 0.24310759435645521 -0.48732129405658853 0 0.24452211955108941 -0.47321082899062988 0 0.23068219321441441 -0.47630316546961982 0 0.23068219321441441 -0.47630316546961982 0 0.23431238580128549 -0.45260633093924002 0 0.23068219321441441 -0.47630316546961982 0 0.23431238580128549 -0.45260633093924002 0 0.21140626781342409 -0.46122374827882839 0 0.24452211955108941 -0.47321082899062988 0 0.23068219321441441 -0.47630316546961982 0 0.23431238580128549 -0.45260633093924002 0 0.25055382002994903 -0.45112655962101422 0 0.24452211955108941 -0.47321082899062988 0 0.23431238580128549 -0.45260633093924002 0 0.25055382002994903 -0.45112655962101422 0 0.23431238580128549 -0.45260633093924002 0 0.24845486683426421 -0.43056678600332871 0 0.23431238580128549 -0.45260633093924002 0 0.2061844358166085 -0.43731386343018219 0 0.22816721351006641 -0.42382217308135922 0 0.23431238580128549 -0.45260633093924002 0 0.21140626781342409 -0.46122374827882839 0 0.2061844358166085 -0.43731386343018219 0 0.21140626781342409 -0.46122374827882839 0 0.1958295915806266 -0.45496450832104018 0 0.2061844358166085 -0.43731386343018219 0 0.1995265252191368 -0.47051219141525807 0 0.1958295915806266 -0.45496450832104018 0 0.18247472509388471 -0.47020227486163019 0 0.1995265252191368 -0.47051219141525807 0 0.21140626781342409 -0.46122374827882839 0 0.1958295915806266 -0.45496450832104018 0 0.1958295915806266 -0.45496450832104018 0 0.2061844358166085 -0.43731386343018219 0 0.18103196947325001 -0.44040454972326271 0 0.19189840580791451 -0.42494462472696731 0 0.2061844358166085 -0.43731386343018219 0 0.18103196947325001 -0.44040454972326271 0 0.19189840580791451 -0.42494462472696731 0 0.1954291475964339 -0.41062193775622902 0 0.2113234447447021 -0.41044931469126889 0 0.19189840580791451 -0.42494462472696731 0 0.1954291475964339 -0.41062193775622902 0 0.17958921385261531 -0.41060682458489489 0 0.19189840580791451 -0.42494462472696731 0 0.2113234447447021 -0.41044931469126889 0 0.2061844358166085 -0.43731386343018219 0 0.2113234447447021 -0.41044931469126889 0 0.2061844358166085 -0.43731386343018219 0 0.22816721351006641 -0.42382217308135922 0 0.2113234447447021 -0.41044931469126889 0 0.2061844358166085 -0.43731386343018219 0 0.23431238580128549 -0.45260633093924002 0 0.22816721351006641 -0.42382217308135922 0 0.24845486683426421 -0.43056678600332871 0 0.22816721351006641 -0.42382217308135922 0 0.24845486683426421 -0.43056678600332871 0 0.24730388124056729 -0.40448370284608931 0 0.22816721351006641 -0.42382217308135922 0 0.22802948983690591 -0.39972126622214238 0 0.24730388124056729 -0.40448370284608931 0 0.2113234447447021 -0.41044931469126889 0 0.22816721351006641 -0.42382217308135922 0 0.22802948983690591 -0.39972126622214238 0 0.22802948983690591 -0.39972126622214238 0 0.24730388124056729 -0.40448370284608931 0 0.2380746425401753 -0.37739124482652259 0 0.26194523537769671 -0.38343407302417171 0 0.24730388124056729 -0.40448370284608931 0 0.2380746425401753 -0.37739124482652259 0 0.22802948983690591 -0.39972126622214238 0 0.2380746425401753 -0.37739124482652259 0 0.21646245367279571 -0.38358476595235552 0 0.21646245367279571 -0.38358476595235552 0 0.19890552598050351 -0.3964869870217847 0 0.2025217842010896 -0.37807387373583923 0 0.2113234447447021 -0.41044931469126889 0 0.22802948983690591 -0.39972126622214238 0 0.21646245367279571 -0.38358476595235552 0 0.2113234447447021 -0.41044931469126889 0 0.21646245367279571 -0.38358476595235552 0 0.2113234447447021 -0.41044931469126889 0 0.21646245367279571 -0.38358476595235552 0 0.19890552598050351 -0.3964869870217847 0 0.1954291475964339 -0.41062193775622902 0 0.2113234447447021 -0.41044931469126889 0 0.19890552598050351 -0.3964869870217847 0 0.1954291475964339 -0.41062193775622902 0 0.19890552598050351 -0.3964869870217847 0 0.17958921385261531 -0.41060682458489489 0 0.19890552598050351 -0.3964869870217847 0 0.19000045151593811 -0.3880482826985161 0 0.17958921385261531 -0.41060682458489489 0 0.19890552598050351 -0.3964869870217847 0 0.19000045151593811 -0.3880482826985161 0 0.2025217842010896 -0.37807387373583923 0 0.19083927531350181 -0.37426462870353422 0 0.19000045151593811 -0.3880482826985161 0 0.2025217842010896 -0.37807387373583923 0 0.19083927531350181 -0.37426462870353422 0 0.19000045151593811 -0.3880482826985161 0 0.17814645823198061 -0.38080909944652741 0 0.17814645823198061 -0.38080909944652741 0 0.17958921385261531 -0.41060682458489489 0 0.19000045151593811 -0.3880482826985161 0 0.17814645823198061 -0.38080909944652741 0 0.17958921385261531 -0.41060682458489489 0 0.17814645823198061 -0.38080909944652741 0 0.17073561596382039 -0.39301209499015272 0 0.17958921385261531 -0.41060682458489489 0 0.16300249929152311 -0.40501345282557782 0 0.1662516937484437 -0.37945746017663878 0 0.1548118257048379 -0.39098754083749682 0 0.17073561596382039 -0.39301209499015272 0 0.16300249929152311 -0.40501345282557782 0 0.1662516937484437 -0.37945746017663878 0 0.17073561596382039 -0.39301209499015272 0 0.16300249929152311 -0.40501345282557782 0 0.17958921385261531 -0.41060682458489489 0 0.16300249929152311 -0.40501345282557782 0 0.1662516937484437 -0.37945746017663878 0 0.1662516937484437 -0.37945746017663878 0 0.15122325216971341 -0.38057118911269922 0 0.1548118257048379 -0.39098754083749682 0 0.17814645823198061 -0.38080909944652741 0 0.17073561596382039 -0.39301209499015272 0 0.1662516937484437 -0.37945746017663878 0 0.15622266046030589 -0.36560529067035252 0 0.1662516937484437 -0.37945746017663878 0 0.15122325216971341 -0.38057118911269922 0 0.15122325216971341 -0.38057118911269922 0 0.13969723449876181 -0.39693417632104711 0 0.1548118257048379 -0.39098754083749682 0 0.13913284643621729 -0.36987147755796063 0 0.15122325216971341 -0.38057118911269922 0 0.13969723449876181 -0.39693417632104711 0 0.13913284643621729 -0.36987147755796063 0 0.12672469353237761 -0.38193719477194499 0 0.13969723449876181 -0.39693417632104711 0 0.13913284643621729 -0.36987147755796063 0 0.13969723449876181 -0.39693417632104711 0 0.12672469353237761 -0.38193719477194499 0 0.13969723449876181 -0.39693417632104711 0 0.1219351525082772 -0.40864131998943182 0 0.16300249929152311 -0.40501345282557782 0 0.13969723449876181 -0.39693417632104711 0 0.1524997256598466 -0.41582351463554701 0 0.16300249929152311 -0.40501345282557782 0 0.13969723449876181 -0.39693417632104711 0 0.1548118257048379 -0.39098754083749682 0 0.13969723449876181 -0.39693417632104711 0 0.1524997256598466 -0.41582351463554701 0 0.14026162256130631 -0.42399687508413381 0 0.13969723449876181 -0.39693417632104711 0 0.14026162256130631 -0.42399687508413381 0 0.13969723449876181 -0.39693417632104711 0 0.14026162256130631 -0.42399687508413381 0 0.1219351525082772 -0.40864131998943182 0 0.1272554141007321 -0.42571201066291808 0 0.14026162256130631 -0.42399687508413381 0 0.1219351525082772 -0.40864131998943182 0 0.13018508541287829 -0.43658956786597553 0 0.14026162256130631 -0.42399687508413381 0 0.14082601062385081 -0.45105957384722029 0 0.13018508541287829 -0.43658956786597553 0 0.1272554141007321 -0.42571201066291808 0 0.14026162256130631 -0.42399687508413381 0 0.1524997256598466 -0.41582351463554701 0 0.14026162256130631 -0.42399687508413381 0 0.15975330483460251 -0.43056944547451692 0 0.14026162256130631 -0.42399687508413381 0 0.15975330483460251 -0.43056944547451692 0 0.14082601062385081 -0.45105957384722029 0 0.16300249929152311 -0.40501345282557782 0 0.15975330483460251 -0.43056944547451692 0 0.17958921385261531 -0.41060682458489489 0 0.16300249929152311 -0.40501345282557782 0 0.15975330483460251 -0.43056944547451692 0 0.16300249929152311 -0.40501345282557782 0 0.1524997256598466 -0.41582351463554701 0 0.15975330483460251 -0.43056944547451692 0 0.15975330483460251 -0.43056944547451692 0 0.17958921385261531 -0.41060682458489489 0 0.18103196947325001 -0.44040454972326271 0 0.17958921385261531 -0.41060682458489489 0 0.18103196947325001 -0.44040454972326271 0 0.19189840580791451 -0.42494462472696731 0 0.17958921385261531 -0.41060682458489489 0 0.18103196947325001 -0.44040454972326271 0 0.18103196947325001 -0.44040454972326271 0 0.16491961284223791 -0.45249038001545161 0 0.18247472509388471 -0.47020227486163019 0 0.18103196947325001 -0.44040454972326271 0 0.18247472509388471 -0.47020227486163019 0 0.1958295915806266 -0.45496450832104018 0 0.18103196947325001 -0.44040454972326271 0 0.18247472509388471 -0.47020227486163019 0 0.16491961284223791 -0.45249038001545161 0 0.1605120541856016 -0.47021605617062739 0 0.18247472509388471 -0.47020227486163019 0 0.15975330483460251 -0.43056944547451692 0 0.18103196947325001 -0.44040454972326271 0 0.16491961284223791 -0.45249038001545161 0 0.15975330483460251 -0.43056944547451692 0 0.16491961284223791 -0.45249038001545161 0 0.14082601062385081 -0.45105957384722029 0 0.14026162256130631 -0.42399687508413381 0 0.14082601062385081 -0.45105957384722029 0 0.14082601062385081 -0.45105957384722029 0 0.12543676829432579 -0.44683393452868708 0 0.12531186358948529 -0.45757018679138572 0 0.13018508541287829 -0.43658956786597553 0 0.14082601062385081 -0.45105957384722029 0 0.12543676829432579 -0.44683393452868708 0 0.14082601062385081 -0.45105957384722029 0 0.12842365125323091 -0.46593607888014599 0 0.13328939848609819 -0.47119455711627289 0 0.14082601062385081 -0.45105957384722029 0 0.14139039868639619 -0.47812227261030682 0 0.13328939848609819 -0.47119455711627289 0 0.12842365125323091 -0.46593607888014599 0 0.12531186358948529 -0.45757018679138572 0 0.1232316263288145 -0.46410889533344052 0 0.12842365125323091 -0.46593607888014599 0 0.1245497287119053 -0.47085317529077592 0 0.12311265484265969 -0.46777846846391841 0 0.14082601062385081 -0.45105957384722029 0 0.12842365125323091 -0.46593607888014599 0 0.12531186358948529 -0.45757018679138572 0 0.16491961284223791 -0.45249038001545161 0 0.14082601062385081 -0.45105957384722029 0 0.1605120541856016 -0.47021605617062739 0 0.14082601062385081 -0.45105957384722029 0 0.14139039868639619 -0.47812227261030682 0 0.14082601062385081 -0.45105957384722029 0 0.14139039868639619 -0.47812227261030682 0 0.1605120541856016 -0.47021605617062739 0 0.14139039868639619 -0.47812227261030682 0 0.15939735020609169 -0.48906113630515408 0 0.1605120541856016 -0.47021605617062739 0 0.14139039868639619 -0.47812227261030682 0 0.15939735020609169 -0.48906113630515408 0 0.14139039868639619 -0.47812227261030682 0 0.13328939848609819 -0.47119455711627289 0 0.13520794413867351 -0.47916570768291911 0 0.14139039868639619 -0.47812227261030682 0 0.13520794413867351 -0.47916570768291911 0 0.13309005864575499 -0.48654881223837643 0 0.13328939848609819 -0.47119455711627289 0 0.13520794413867351 -0.47916570768291911 0 0.1282166063692238 -0.47963436787526348 0 0.13520794413867351 -0.47916570768291911 0 0.1282166063692238 -0.47963436787526348 0 0.13309005864575499 -0.48654881223837643 0 0.12842365125323091 -0.46593607888014599 0 0.1275076222339897 -0.47406719287555171 0 0.1245497287119053 -0.47085317529077592 0 0.12842365125323091 -0.46593607888014599 0 0.13328939848609819 -0.47119455711627289 0 0.1275076222339897 -0.47406719287555171 0 0.13328939848609819 -0.47119455711627289 0 0.1282166063692238 -0.47963436787526348 0 0.1275076222339897 -0.47406719287555171 0 0.1282166063692238 -0.47963436787526348 0 0.1275076222339897 -0.47406719287555171 0 0.12271037357175291 -0.47562361121234281 0 0.14139039868639619 -0.47812227261030682 0 0.13309005864575499 -0.48654881223837643 0 0.1417493920694651 -0.49533619053082339 0 0.1325088383252874 -0.49999999999999689 0 0.11946717228548211 -0.4870343347309507 0 0.1325088383252874 -0.49999999999999689 0 0.13309005864575499 -0.48654881223837643 0 0.11946717228548211 -0.4870343347309507 0 0.1282166063692238 -0.47963436787526348 0 0.13309005864575499 -0.48654881223837643 0 0.11946717228548211 -0.4870343347309507 0 0.1325088383252874 -0.49999999999999689 0 0.13309005864575499 -0.48654881223837643 0 0.1417493920694651 -0.49533619053082339 0 0.1325088383252874 -0.49999999999999689 0 0.1417493920694651 -0.49533619053082339 0 0.15495657002553739 -0.5 0 0.14139039868639619 -0.47812227261030682 0 0.14937342774687271 -0.49062989986157102 0 0.15939735020609169 -0.48906113630515408 0 0.14139039868639619 -0.47812227261030682 0 0.1417493920694651 -0.49533619053082339 0 0.14139039868639619 -0.47812227261030682 0 0.1417493920694651 -0.49533619053082339 0 0.14937342774687271 -0.49062989986157102 0 0.1417493920694651 -0.49533619053082339 0 0.14937342774687271 -0.49062989986157102 0 0.15495657002553739 -0.5 0 0.14937342774687271 -0.49062989986157102 0 0.15495657002553739 -0.5 0 0.15939735020609169 -0.48906113630515408 0 0.15939735020609169 -0.48906113630515408 0 0.17467337585270831 -0.48420504396041608 0 0.1774043017257875 -0.50000000000000111 0 0.15939735020609169 -0.48906113630515408 0 0.1774043017257875 -0.50000000000000111 0 0.15495657002553739 -0.5 0 0.15939735020609169 -0.48906113630515408 0 0.1774043017257875 -0.50000000000000111 0 0.15939735020609169 -0.48906113630515408 0 0.1605120541856016 -0.47021605617062739 0 0.17467337585270831 -0.48420504396041608 0 0.1605120541856016 -0.47021605617062739 0 0.17467337585270831 -0.48420504396041608 0 0.18247472509388471 -0.47020227486163019 0 0.18247472509388471 -0.47020227486163019 0 0.1839174807145193 -0.49999999999999789 0 0.17467337585270831 -0.48420504396041608 0 0.18247472509388471 -0.47020227486163019 0 0.1839174807145193 -0.49999999999999789 0 0.17467337585270831 -0.48420504396041608 0 0.1839174807145193 -0.49999999999999789 0 0.1774043017257875 -0.50000000000000111 0 0.065949985054517032 -0.48884997455687013 0 0.080677891680827868 -0.48404188118506331 0 0.084758324792090334 -0.49999999999999989 0 0.065949985054517032 -0.48884997455687013 0 0.084758324792090334 -0.49999999999999989 0 0.055728539092515517 -0.5 0 0.065949985054517032 -0.48884997455687013 0 0.069113753880103546 -0.47032146630200872 0 0.080677891680827868 -0.48404188118506331 0 0.065949985054517032 -0.48884997455687013 0 0.069113753880103546 -0.47032146630200872 0 0.057596711449277201 -0.48334309492942701 0 0.069113753880103546 -0.47032146630200872 0 0.080677891680827868 -0.48404188118506331 0 0.088790870678748121 -0.47481427013272492 0 0.069113753880103546 -0.47032146630200872 0 0.088790870678748121 -0.47481427013272492 0 0.09506323621333454 -0.46277261346061632 0 0.080677891680827868 -0.48404188118506331 0 0.088790870678748121 -0.47481427013272492 0 0.094776523998680279 -0.48622369493371298 0 0.080677891680827868 -0.48404188118506331 0 0.084758324792090334 -0.49999999999999989 0 0.094776523998680279 -0.48622369493371298 0 0.084758324792090334 -0.49999999999999989 0 0.10099043700106421 -0.499999999999999 0 0.094776523998680279 -0.48622369493371298 0 0.084758324792090334 -0.49999999999999989 0 0.094776523998680279 -0.48622369493371298 0 0.10099043700106421 -0.499999999999999 0 0.1064255062456735 -0.47406866946190801 0 0.10099043700106421 -0.499999999999999 0 0.094776523998680279 -0.48622369493371298 0 0.1064255062456735 -0.47406866946190801 0 0.10099043700106421 -0.499999999999999 0 0.11946717228548211 -0.4870343347309507 0 0.1064255062456735 -0.47406866946190801 0 0.1325088383252874 -0.49999999999999689 0 0.1167496376631757 -0.5 0 0.11946717228548211 -0.4870343347309507 0 0.10099043700106421 -0.499999999999999 0 0.1167496376631757 -0.5 0 0.11946717228548211 -0.4870343347309507 0 0.12074084002908721 -0.47045370359981148 0 0.12271037357175291 -0.47562361121234281 0 0.11625567037499381 -0.47238364776222469 0 0.12074084002908721 -0.47045370359981148 0 0.11625567037499381 -0.47238364776222469 0 0.1192823524431306 -0.4663394170250621 0 0.12074084002908721 -0.47045370359981148 0 0.1245497287119053 -0.47085317529077592 0 0.12271037357175291 -0.47562361121234281 0 0.12074084002908721 -0.47045370359981148 0 0.1245497287119053 -0.47085317529077592 0 0.12311265484265969 -0.46777846846391841 0 0.1275076222339897 -0.47406719287555171 0 0.1245497287119053 -0.47085317529077592 0 0.12271037357175291 -0.47562361121234281 0 0.1282166063692238 -0.47963436787526348 0 0.11946717228548211 -0.4870343347309507 0 0.12271037357175291 -0.47562361121234281 0 0.11946717228548211 -0.4870343347309507 0 0.12271037357175291 -0.47562361121234281 0 0.11625567037499381 -0.47238364776222469 0 0.11946717228548211 -0.4870343347309507 0 0.1064255062456735 -0.47406866946190801 0 0.11946717228548211 -0.4870343347309507 0 0.11625567037499381 -0.47238364776222469 0 0.1064255062456735 -0.47406866946190801 0 0.11625567037499381 -0.47238364776222469 0 0.1064255062456735 -0.47406866946190801 0 0.11129693947086181 -0.46795476393154728 0 0.1064255062456735 -0.47406866946190801 0 0.10479472320527 -0.47244738986742602 0 0.1075632658294263 -0.46864028970971422 0 0.1064255062456735 -0.47406866946190801 0 0.1075632658294263 -0.46864028970971422 0 0.11129693947086181 -0.46795476393154728 0 0.088790870678748121 -0.47481427013272492 0 0.094776523998680279 -0.48622369493371298 0 0.10479472320527 -0.47244738986742602 0 0.1064255062456735 -0.47406866946190801 0 0.1075632658294263 -0.46864028970971422 0 0.088790870678748121 -0.47481427013272492 0 0.10479472320527 -0.47244738986742602 0 0.09506323621333454 -0.46277261346061632 0 0.10479472320527 -0.47244738986742602 0 0.1075632658294263 -0.46864028970971422 0 0.1064255062456735 -0.47406866946190801 0 0.10479472320527 -0.47244738986742602 0 0.094776523998680279 -0.48622369493371298 0 0.1064255062456735 -0.47406866946190801 0 0.10479472320527 -0.47244738986742602 0 0.094776523998680279 -0.48622369493371298 0 0.10479472320527 -0.47244738986742602 0 0.10479472320527 -0.47244738986742602 0 0.09506323621333454 -0.46277261346061632 0 0.1060131744550812 -0.45411466011360518 0 0.1075632658294263 -0.46864028970971422 0 0.11260152047704799 -0.44460220652757759 0 0.09506323621333454 -0.46277261346061632 0 0.10011436795704159 -0.45274002486564408 0 0.091519926973447546 -0.44626784630584138 0 0.09506323621333454 -0.46277261346061632 0 0.10386028492466159 -0.46021350167150438 0 0.09506323621333454 -0.46277261346061632 0 0.10386028492466159 -0.46021350167150438 0 0.10011436795704159 -0.45274002486564408 0 0.10386028492466159 -0.46021350167150438 0 0.1060131744550812 -0.45411466011360518 0 0.10011436795704159 -0.45274002486564408 0 0.10386028492466159 -0.46021350167150438 0 0.1060131744550812 -0.45411466011360518 0 0.1075632658294263 -0.46864028970971422 0 0.10479472320527 -0.47244738986742602 0 0.09506323621333454 -0.46277261346061632 0 0.1075632658294263 -0.46864028970971422 0 0.09506323621333454 -0.46277261346061632 0 0.10386028492466159 -0.46021350167150438 0 0.1075632658294263 -0.46864028970971422 0 0.1075632658294263 -0.46864028970971422 0 0.1123560704600764 -0.46204957042440498 0 0.11260152047704799 -0.44460220652757759 0 0.1075632658294263 -0.46864028970971422 0 0.1123560704600764 -0.46204957042440498 0 0.1075632658294263 -0.46864028970971422 0 0.11129693947086181 -0.46795476393154728 0 0.1123560704600764 -0.46204957042440498 0 0.1075632658294263 -0.46864028970971422 0 0.11260152047704799 -0.44460220652757759 0 0.11129693947086181 -0.46795476393154728 0 0.1123560704600764 -0.46204957042440498 0 0.11129693947086181 -0.46795476393154728 0 0.1149697984784732 -0.46556593525158491 0 0.1123560704600764 -0.46204957042440498 0 0.11625567037499381 -0.47238364776222469 0 0.1149697984784732 -0.46556593525158491 0 0.1192823524431306 -0.4663394170250621 0 0.11625567037499381 -0.47238364776222469 0 0.11129693947086181 -0.46795476393154728 0 0.1149697984784732 -0.46556593525158491 0 0.1149697984784732 -0.46556593525158491 0 0.1123560704600764 -0.46204957042440498 0 0.118705430672609 -0.46205297743075813 0 0.1123560704600764 -0.46204957042440498 0 0.11635977570981471 -0.45654396370023359 0 0.118705430672609 -0.46205297743075813 0 0.1123560704600764 -0.46204957042440498 0 0.11635977570981471 -0.45654396370023359 0 0.12531186358948529 -0.45757018679138572 0 0.11635977570981471 -0.45654396370023359 0 0.118705430672609 -0.46205297743075813 0 0.12543676829432579 -0.44683393452868708 0 0.12531186358948529 -0.45757018679138572 0 0.11635977570981471 -0.45654396370023359 0 0.12531186358948529 -0.45757018679138572 0 0.1232316263288145 -0.46410889533344052 0 0.118705430672609 -0.46205297743075813 0 0.1232316263288145 -0.46410889533344052 0 0.12311265484265969 -0.46777846846391841 0 0.1192823524431306 -0.4663394170250621 0 0.12842365125323091 -0.46593607888014599 0 0.1232316263288145 -0.46410889533344052 0 0.12311265484265969 -0.46777846846391841 0 0.12074084002908721 -0.47045370359981148 0 0.12311265484265969 -0.46777846846391841 0 0.1192823524431306 -0.4663394170250621 0 0.1149697984784732 -0.46556593525158491 0 0.1192823524431306 -0.4663394170250621 0 0.118705430672609 -0.46205297743075813 0 0.1232316263288145 -0.46410889533344052 0 0.1192823524431306 -0.4663394170250621 0 0.118705430672609 -0.46205297743075813 0 0.1123560704600764 -0.46204957042440498 0 0.11714561148417681 -0.43534544520691831 0 0.1123560704600764 -0.46204957042440498 0 0.11260152047704799 -0.44460220652757759 0 0.11714561148417681 -0.43534544520691831 0 0.1123560704600764 -0.46204957042440498 0 0.11635977570981471 -0.45654396370023359 0 0.11714561148417681 -0.43534544520691831 0 0.12543676829432579 -0.44683393452868708 0 0.11635977570981471 -0.45654396370023359 0 0.11714561148417681 -0.43534544520691831 0 0.13018508541287829 -0.43658956786597553 0 0.12543676829432579 -0.44683393452868708 0 0.11714561148417681 -0.43534544520691831 0 0.10592643308722841 -0.44437727779358549 0 0.083881602994700072 -0.43088647549478237 0 0.10592643308722841 -0.44437727779358549 0 0.091519926973447546 -0.44626784630584138 0 0.083881602994700072 -0.43088647549478237 0 0.11260152047704799 -0.44460220652757759 0 0.10592643308722841 -0.44437727779358549 0 0.1086116799951807 -0.43095684568344572 0 0.1060131744550812 -0.45411466011360518 0 0.10592643308722841 -0.44437727779358549 0 0.10011436795704159 -0.45274002486564408 0 0.1060131744550812 -0.45411466011360518 0 0.11260152047704799 -0.44460220652757759 0 0.10592643308722841 -0.44437727779358549 0 0.10592643308722841 -0.44437727779358549 0 0.10011436795704159 -0.45274002486564408 0 0.091519926973447546 -0.44626784630584138 0 0.09506323621333454 -0.46277261346061632 0 0.073976492589610171 -0.44180875358221461 0 0.09506323621333454 -0.46277261346061632 0 0.091519926973447546 -0.44626784630584138 0 0.073976492589610171 -0.44180875358221461 0 0.091519926973447546 -0.44626784630584138 0 0.073976492589610171 -0.44180875358221461 0 0.083881602994700072 -0.43088647549478237 0 0.069113753880103546 -0.47032146630200872 0 0.09506323621333454 -0.46277261346061632 0 0.09506323621333454 -0.46277261346061632 0 0.075948319170580939 -0.45709497223106438 0 0.073976492589610171 -0.44180875358221461 0 0.069113753880103546 -0.47032146630200872 0 0.09506323621333454 -0.46277261346061632 0 0.075948319170580939 -0.45709497223106438 0 0.069113753880103546 -0.47032146630200872 0 0.075948319170580939 -0.45709497223106438 0 0.064267892493667544 -0.45245405090636609 0 0.064267892493667544 -0.45245405090636609 0 0.073976492589610171 -0.44180875358221461 0 0.061221704008603092 -0.43412854505433712 0 0.075948319170580939 -0.45709497223106438 0 0.064267892493667544 -0.45245405090636609 0 0.073976492589610171 -0.44180875358221461 0 0.083881602994700072 -0.43088647549478237 0 0.061836772902171017 -0.41739567319598042 0 0.061221704008603092 -0.43412854505433712 0 0.073976492589610171 -0.44180875358221461 0 0.083881602994700072 -0.43088647549478237 0 0.061221704008603092 -0.43412854505433712 0 0.083881602994700072 -0.43088647549478237 0 0.061836772902171017 -0.41739567319598042 0 0.087852613914545186 -0.40334306140395609 0 0.070156507476487037 -0.39917662383738439 0 0.061836772902171017 -0.41739567319598042 0 0.087852613914545186 -0.40334306140395609 0 0.061836772902171017 -0.41739567319598042 0 0.090204007114443943 -0.4177400312392191 0 0.087852613914545186 -0.40334306140395609 0 0.061836772902171017 -0.41739567319598042 0 0.090204007114443943 -0.4177400312392191 0 0.083881602994700072 -0.43088647549478237 0 0.061836772902171017 -0.41739567319598042 0 0.090204007114443943 -0.4177400312392191 0 0.083881602994700072 -0.43088647549478237 0 0.10022705322515101 -0.42809075962971732 0 0.10592643308722841 -0.44437727779358549 0 0.083881602994700072 -0.43088647549478237 0 0.10022705322515101 -0.42809075962971732 0 0.10592643308722841 -0.44437727779358549 0 0.10022705322515101 -0.42809075962971732 0 0.1086116799951807 -0.43095684568344572 0 0.10022705322515101 -0.42809075962971732 0 0.1086116799951807 -0.43095684568344572 0 0.10561771621597441 -0.41891116251106192 0 0.11260152047704799 -0.44460220652757759 0 0.11714561148417681 -0.43534544520691831 0 0.11763977512467 -0.42056412334544119 0 0.11714561148417681 -0.43534544520691831 0 0.1219351525082772 -0.40864131998943182 0 0.11260152047704799 -0.44460220652757759 0 0.11763977512467 -0.42056412334544119 0 0.11260152047704799 -0.44460220652757759 0 0.1086116799951807 -0.43095684568344572 0 0.11763977512467 -0.42056412334544119 0 0.1272554141007321 -0.42571201066291808 0 0.11714561148417681 -0.43534544520691831 0 0.1219351525082772 -0.40864131998943182 0 0.1086116799951807 -0.43095684568344572 0 0.11763977512467 -0.42056412334544119 0 0.10561771621597441 -0.41891116251106192 0 0.13018508541287829 -0.43658956786597553 0 0.1272554141007321 -0.42571201066291808 0 0.11714561148417681 -0.43534544520691831 0 0.1219351525082772 -0.40864131998943182 0 0.11763977512467 -0.42056412334544119 0 0.1226780297722921 -0.39652604016330478 0 0.11763977512467 -0.42056412334544119 0 0.1063857367604352 -0.40565829933023112 0 0.1226780297722921 -0.39652604016330478 0 0.11714561148417681 -0.43534544520691831 0 0.1219351525082772 -0.40864131998943182 0 0.11763977512467 -0.42056412334544119 0 0.11763977512467 -0.42056412334544119 0 0.1226780297722921 -0.39652604016330478 0 0.11763977512467 -0.42056412334544119 0 0.10561771621597441 -0.41891116251106192 0 0.1063857367604352 -0.40565829933023112 0 0.090204007114443943 -0.4177400312392191 0 0.1063857367604352 -0.40565829933023112 0 0.087852613914545186 -0.40334306140395609 0 0.090204007114443943 -0.4177400312392191 0 0.10561771621597441 -0.41891116251106192 0 0.1063857367604352 -0.40565829933023112 0 0.090204007114443943 -0.4177400312392191 0 0.10022705322515101 -0.42809075962971732 0 0.10561771621597441 -0.41891116251106192 0 0.1063857367604352 -0.40565829933023112 0 0.11269819459067421 -0.38831450138448881 0 0.097085641119374302 -0.38571424072610178 0 0.1063857367604352 -0.40565829933023112 0 0.097085641119374302 -0.38571424072610178 0 0.087852613914545186 -0.40334306140395609 0 0.12672469353237761 -0.38193719477194499 0 0.1219351525082772 -0.40864131998943182 0 0.1063857367604352 -0.40565829933023112 0 0.1226780297722921 -0.39652604016330478 0 0.11269819459067421 -0.38831450138448881 0 0.12672469353237761 -0.38193719477194499 0 0.1219351525082772 -0.40864131998943182 0 0.1226780297722921 -0.39652604016330478 0 0.12672469353237761 -0.38193719477194499 0 0.11269819459067421 -0.38831450138448881 0 0.1080928822255358 -0.3703790814713866 0 0.12672469353237761 -0.38193719477194499 0 0.1226780297722921 -0.39652604016330478 0 0.11269819459067421 -0.38831450138448881 0 0.11269819459067421 -0.38831450138448881 0 0.097085641119374302 -0.38571424072610178 0 0.1080928822255358 -0.3703790814713866 0 0.097085641119374302 -0.38571424072610178 0 0.078524092076429908 -0.38558307009035819 0 0.085574671404253372 -0.36606529366265911 0 0.097085641119374302 -0.38571424072610178 0 0.078524092076429908 -0.38558307009035819 0 0.087852613914545186 -0.40334306140395609 0 0.078524092076429908 -0.38558307009035819 0 0.087852613914545186 -0.40334306140395609 0 0.070156507476487037 -0.39917662383738439 0 0.078524092076429908 -0.38558307009035819 0 0.070156507476487037 -0.39917662383738439 0 0.064141871653705745 -0.38905297891460661 0 0.070156507476487037 -0.39917662383738439 0 0.058427186835583247 -0.40050833558202109 0 0.061836772902171017 -0.41739567319598042 0 0.070156507476487037 -0.39917662383738439 0 0.064141871653705745 -0.38905297891460661 0 0.058427186835583247 -0.40050833558202109 0 0.078524092076429908 -0.38558307009035819 0 0.064141871653705745 -0.38905297891460661 0 0.064781398010314309 -0.37536455347105108 0 0.078524092076429908 -0.38558307009035819 0 0.064781398010314309 -0.37536455347105108 0 0.085574671404253372 -0.36606529366265911 0 0.064781398010314309 -0.37536455347105108 0 0.05115882120843647 -0.38571757356542352 0 0.043890455581289831 -0.3709268115488259 0 0.05115882120843647 -0.38571757356542352 0 0.043890455581289831 -0.3709268115488259 0 0.064141871653705745 -0.38905297891460661 0 0.064781398010314309 -0.37536455347105108 0 0.05115882120843647 -0.38571757356542352 0 0.064141871653705745 -0.38905297891460661 0 0.05115882120843647 -0.38571757356542352 0 0.058427186835583247 -0.40050833558202109 0 0.05115882120843647 -0.38571757356542352 0 0.058427186835583247 -0.40050833558202109 0 0.05115882120843647 -0.38571757356542352 0 0.058427186835583247 -0.40050833558202109 0 0.039291666751458072 -0.38953557003537942 0 0.058427186835583247 -0.40050833558202109 0 0.03861507037192409 -0.403184658796582 0 0.039291666751458072 -0.38953557003537942 0 0.039291666751458072 -0.38953557003537942 0 0.030780854092194759 -0.38031894893150719 0 0.043890455581289831 -0.3709268115488259 0 0.05115882120843647 -0.38571757356542352 0 0.039291666751458072 -0.38953557003537942 0 0.043890455581289831 -0.3709268115488259 0 0.030780854092194759 -0.38031894893150719 0 0.043890455581289831 -0.3709268115488259 0 0.030780854092194759 -0.38031894893150719 0 0.0132535835722172 -0.37610527220974688 0 0.01539336784167648 -0.38897364439718468 0 0.039291666751458072 -0.38953557003537942 0 0.030780854092194759 -0.38031894893150719 0 0.01539336784167648 -0.38897364439718468 0 0.030780854092194759 -0.38031894893150719 0 0.0132535835722172 -0.37610527220974688 0 0.022072978528308879 -0.36937310690127451 0 -0.0078283346885702904 -0.37476262999778609 0 -0.0023576536845698339 -0.39611583857600319 0 0.01539336784167648 -0.38897364439718468 0 -0.0078283346885702904 -0.37476262999778609 0 0.01539336784167648 -0.38897364439718468 0 -0.0078283346885702904 -0.37476262999778609 0 0.0132535835722172 -0.37610527220974688 0 0.01539336784167648 -0.38897364439718468 0 -0.0023576536845698339 -0.39611583857600319 0 -0.0081630895937607941 -0.41129335178386173 0 0.01158543002224671 -0.40754374071996963 0 -0.0023576536845698339 -0.39611583857600319 0 0.01539336784167648 -0.38897364439718468 0 0.01158543002224671 -0.40754374071996963 0 0.03861507037192409 -0.403184658796582 0 0.039291666751458072 -0.38953557003537942 0 0.01539336784167648 -0.38897364439718468 0 0.03861507037192409 -0.403184658796582 0 0.01539336784167648 -0.38897364439718468 0 0.026736383496206509 -0.41290648431754168 0 0.01539336784167648 -0.38897364439718468 0 0.026736383496206509 -0.41290648431754168 0 0.01158543002224671 -0.40754374071996963 0 0.03861507037192409 -0.403184658796582 0 0.01539336784167648 -0.38897364439718468 0 0.026736383496206509 -0.41290648431754168 0 0.01158543002224671 -0.40754374071996963 0 0.01747615232015888 -0.42514842909431222 0 0.026736383496206509 -0.41290648431754168 0 0.01747615232015888 -0.42514842909431222 0 0.02768083642208749 -0.42593076319487821 0 0.01158543002224671 -0.40754374071996963 0 0.0026957591361241309 -0.41958824334712869 0 0.01747615232015888 -0.42514842909431222 0 -0.0081630895937607941 -0.41129335178386173 0 0.01158543002224671 -0.40754374071996963 0 0.0026957591361241309 -0.41958824334712869 0 0.0026957591361241309 -0.41958824334712869 0 0.003851027954898749 -0.43172418954792041 0 0.01747615232015888 -0.42514842909431222 0 0.003851027954898749 -0.43172418954792041 0 0.01410030331848921 -0.43483725365991388 0 0.01747615232015888 -0.42514842909431222 0 0.003851027954898749 -0.43172418954792041 0 0.01410030331848921 -0.43483725365991388 0 0.011432193992105429 -0.44462200732167467 0 0.01747615232015888 -0.42514842909431222 0 0.023728282280598981 -0.43798020184644493 0 0.01410030331848921 -0.43483725365991388 0 0.01747615232015888 -0.42514842909431222 0 0.023728282280598981 -0.43798020184644493 0 0.01747615232015888 -0.42514842909431222 0 0.02768083642208749 -0.42593076319487821 0 0.023728282280598981 -0.43798020184644493 0 0.026736383496206509 -0.41290648431754168 0 0.02768083642208749 -0.42593076319487821 0 0.042782527591385587 -0.42768793752121392 0 0.042782527591385587 -0.42768793752121392 0 0.023728282280598981 -0.43798020184644493 0 0.02768083642208749 -0.42593076319487821 0 0.042782527591385587 -0.42768793752121392 0 0.023728282280598981 -0.43798020184644493 0 0.042782527591385587 -0.42768793752121392 0 0.038339333849137569 -0.44224603439757942 0 0.023728282280598981 -0.43798020184644493 0 0.03861507037192409 -0.403184658796582 0 0.026736383496206509 -0.41290648431754168 0 0.042782527591385587 -0.42768793752121392 0 0.03861507037192409 -0.403184658796582 0 0.042782527591385587 -0.42768793752121392 0 0.061836772902171017 -0.41739567319598042 0 0.03861507037192409 -0.403184658796582 0 0.061836772902171017 -0.41739567319598042 0 0.058427186835583247 -0.40050833558202109 0 0.03861507037192409 -0.403184658796582 0 0.061836772902171017 -0.41739567319598042 0 0.042782527591385587 -0.42768793752121392 0 0.061836772902171017 -0.41739567319598042 0 0.061221704008603092 -0.43412854505433712 0 0.042782527591385587 -0.42768793752121392 0 0.061836772902171017 -0.41739567319598042 0 0.042782527591385587 -0.42768793752121392 0 0.061221704008603092 -0.43412854505433712 0 0.052693917870023622 -0.44730825455084611 0 0.064267892493667544 -0.45245405090636609 0 0.061221704008603092 -0.43412854505433712 0 0.052693917870023622 -0.44730825455084611 0 0.069113753880103546 -0.47032146630200872 0 0.064267892493667544 -0.45245405090636609 0 0.052594011880735161 -0.46258963849414558 0 0.064267892493667544 -0.45245405090636609 0 0.052693917870023622 -0.44730825455084611 0 0.052594011880735161 -0.46258963849414558 0 0.033446276913734967 -0.45792526049492271 0 0.024747075647264399 -0.46972246297684461 0 0.043164271546872197 -0.4778703191434 0 0.052693917870023622 -0.44730825455084611 0 0.052594011880735161 -0.46258963849414558 0 0.033446276913734967 -0.45792526049492271 0 0.052594011880735161 -0.46258963849414558 0 0.033446276913734967 -0.45792526049492271 0 0.043164271546872197 -0.4778703191434 0 0.033446276913734967 -0.45792526049492271 0 0.043164271546872197 -0.4778703191434 0 0.042782527591385587 -0.42768793752121392 0 0.052693917870023622 -0.44730825455084611 0 0.038339333849137569 -0.44224603439757942 0 0.033446276913734967 -0.45792526049492271 0 0.038339333849137569 -0.44224603439757942 0 0.023728282280598981 -0.43798020184644493 0 0.052693917870023622 -0.44730825455084611 0 0.033446276913734967 -0.45792526049492271 0 0.038339333849137569 -0.44224603439757942 0 0.023728282280598981 -0.43798020184644493 0 0.011432193992105429 -0.44462200732167467 0 0.01779212199045099 -0.45571080357091009 0 0.033446276913734967 -0.45792526049492271 0 0.023728282280598981 -0.43798020184644493 0 0.033446276913734967 -0.45792526049492271 0 0.023728282280598981 -0.43798020184644493 0 0.01779212199045099 -0.45571080357091009 0 0.023728282280598981 -0.43798020184644493 0 0.011432193992105429 -0.44462200732167467 0 0.01410030331848921 -0.43483725365991388 0 0.023728282280598981 -0.43798020184644493 0 0.011432193992105429 -0.44462200732167467 0 -0.01027783979290609 -0.4450418277695869 0 0.011432193992105429 -0.44462200732167467 0 0.0031349746952128348 -0.45732154608844711 0 -0.01027783979290609 -0.4450418277695869 0 0.003851027954898749 -0.43172418954792041 0 0.011432193992105429 -0.44462200732167467 0 0.011432193992105429 -0.44462200732167467 0 0.0031349746952128348 -0.45732154608844711 0 0.01779212199045099 -0.45571080357091009 0 -0.00094907817261298132 -0.47112804672216879 0 0.0031349746952128348 -0.45732154608844711 0 0.01026392841378935 -0.46669334269712659 0 0.0031349746952128348 -0.45732154608844711 0 0.01026392841378935 -0.46669334269712659 0 0.01779212199045099 -0.45571080357091009 0 0.01026392841378935 -0.46669334269712659 0 0.01779212199045099 -0.45571080357091009 0 0.024747075647264399 -0.46972246297684461 0 0.033446276913734967 -0.45792526049492271 0 0.01779212199045099 -0.45571080357091009 0 0.024747075647264399 -0.46972246297684461 0 0.024747075647264399 -0.46972246297684461 0 0.019392481307258409 -0.48478566889839131 0 0.043164271546872197 -0.4778703191434 0 0.01026392841378935 -0.46669334269712659 0 0.024747075647264399 -0.46972246297684461 0 0.019392481307258409 -0.48478566889839131 0 0.01026392841378935 -0.46669334269712659 0 0.0053352152350804568 -0.4807791696356124 0 0.019392481307258409 -0.48478566889839131 0 -0.0043176495648967151 -0.48070428616945038 0 -0.00094907817261298132 -0.47112804672216879 0 0.0053352152350804568 -0.4807791696356124 0 -0.00094907817261298132 -0.47112804672216879 0 0.01026392841378935 -0.46669334269712659 0 0.0053352152350804568 -0.4807791696356124 0 -0.0023310323066341181 -0.5 0 -0.0043793089323552817 -0.49170101865338262 0 0.019392481307258409 -0.48478566889839131 0 -0.0043793089323552817 -0.49170101865338262 0 0.019392481307258409 -0.48478566889839131 0 -0.0043793089323552817 -0.49170101865338262 0 0.0053352152350804568 -0.4807791696356124 0 0.019392481307258409 -0.48478566889839131 0 -0.0023310323066341181 -0.5 0 0.019392481307258409 -0.48478566889839131 0 0.026698753392940699 -0.5 0 0.019392481307258409 -0.48478566889839131 0 0.026698753392940699 -0.5 0 0.035353585390671842 -0.48974665193930511 0 0.035353585390671842 -0.48974665193930511 0 0.043164271546872197 -0.4778703191434 0 0.052158835315616027 -0.49633061971542908 0 0.026698753392940699 -0.5 0 0.055728539092515517 -0.5 0 0.052158835315616027 -0.49633061971542908 0 0.026698753392940699 -0.5 0 0.035353585390671842 -0.48974665193930511 0 0.052158835315616027 -0.49633061971542908 0 0.019392481307258409 -0.48478566889839131 0 0.035353585390671842 -0.48974665193930511 0 0.043164271546872197 -0.4778703191434 0 0.019392481307258409 -0.48478566889839131 0 0.043164271546872197 -0.4778703191434 0 0.069113753880103546 -0.47032146630200872 0 0.052594011880735161 -0.46258963849414558 0 0.043164271546872197 -0.4778703191434 0 0.069113753880103546 -0.47032146630200872 0 0.043164271546872197 -0.4778703191434 0 0.057596711449277201 -0.48334309492942701 0 0.069113753880103546 -0.47032146630200872 0 0.043164271546872197 -0.4778703191434 0 0.043164271546872197 -0.4778703191434 0 0.057596711449277201 -0.48334309492942701 0 0.052158835315616027 -0.49633061971542908 0 0.065949985054517032 -0.48884997455687013 0 0.057596711449277201 -0.48334309492942701 0 0.052158835315616027 -0.49633061971542908 0 0.043164271546872197 -0.4778703191434 0 0.052158835315616027 -0.49633061971542908 0 0.065949985054517032 -0.48884997455687013 0 0.055728539092515517 -0.5 0 0.052158835315616027 -0.49633061971542908 0 0.091646396761647708 -0.28947790237370968 0 0.07071546022358817 -0.28620470259943642 0 0.079999995207784586 -0.26983589460815821 0 0.091646396761647708 -0.28947790237370968 0 0.072783535289555654 -0.30157633939854622 0 0.07071546022358817 -0.28620470259943642 0 0.091646396761647708 -0.28947790237370968 0 0.087363613427391865 -0.30807629250996549 0 0.072783535289555654 -0.30157633939854622 0 0.072783535289555654 -0.30157633939854622 0 0.073259594084162577 -0.32259772896999273 0 0.056038135353808333 -0.31320409925325249 0 0.087363613427391865 -0.30807629250996549 0 0.072783535289555654 -0.30157633939854622 0 0.073259594084162577 -0.32259772896999273 0 0.072783535289555654 -0.30157633939854622 0 0.07071546022358817 -0.28620470259943642 0 0.04944647540011983 -0.29680206833493911 0 0.07071546022358817 -0.28620470259943642 0 0.079999995207784586 -0.26983589460815821 0 0.059700898458833078 -0.27333130828182889 0 0.06835359365392131 -0.25019388684260668 0 0.079999995207784586 -0.26983589460815821 0 0.08421140423371333 -0.243891226620808 0 0.06835359365392131 -0.25019388684260668 0 0.079999995207784586 -0.26983589460815821 0 0.06835359365392131 -0.25019388684260668 0 0.079999995207784586 -0.26983589460815821 0 0.059700898458833078 -0.27333130828182889 0 0.079999995207784586 -0.26983589460815821 0 0.097662046653794854 -0.25561444261418242 0 0.08421140423371333 -0.243891226620808 0 0.079999995207784586 -0.26983589460815821 0 0.1034904733698796 -0.27103876000237981 0 0.097662046653794854 -0.25561444261418242 0 0.091646396761647708 -0.28947790237370968 0 0.079999995207784586 -0.26983589460815821 0 0.091646396761647708 -0.28947790237370968 0 0.079999995207784586 -0.26983589460815821 0 0.1034904733698796 -0.27103876000237981 0 0.1034904733698796 -0.27103876000237981 0 0.097662046653794854 -0.25561444261418242 0 0.1147239364606354 -0.25215539330366038 0 0.13687529418603939 -0.26162068250561471 0 0.1147239364606354 -0.25215539330366038 0 0.1223190960555403 -0.2394332616338683 0 0.1034904733698796 -0.27103876000237981 0 0.1147239364606354 -0.25215539330366038 0 0.12122917553908071 -0.27280048239714111 0 0.13687529418603939 -0.26162068250561471 0 0.1147239364606354 -0.25215539330366038 0 0.12122917553908071 -0.27280048239714111 0 0.1034904733698796 -0.27103876000237981 0 0.12122917553908071 -0.27280048239714111 0 0.11361649143026541 -0.29050419490534962 0 0.13743968224858391 -0.28868338126870119 0 0.12122917553908071 -0.27280048239714111 0 0.11361649143026541 -0.29050419490534962 0 0.091646396761647708 -0.28947790237370968 0 0.11361649143026541 -0.29050419490534962 0 0.10329279831551071 -0.3091199101392611 0 0.091646396761647708 -0.28947790237370968 0 0.1034904733698796 -0.27103876000237981 0 0.11361649143026541 -0.29050419490534962 0 0.091646396761647708 -0.28947790237370968 0 0.10329279831551071 -0.3091199101392611 0 0.091646396761647708 -0.28947790237370968 0 0.087363613427391865 -0.30807629250996549 0 0.10329279831551071 -0.3091199101392611 0 0.11361649143026541 -0.29050419490534962 0 0.10329279831551071 -0.3091199101392611 0 0.1207194796176513 -0.31206082339016011 0 0.13743968224858391 -0.28868338126870119 0 0.11361649143026541 -0.29050419490534962 0 0.1207194796176513 -0.31206082339016011 0 0.10329279831551071 -0.3091199101392611 0 0.11030782598785099 -0.32334328523235578 0 0.1149391998693738 -0.32876191790481257 0 0.10329279831551071 -0.3091199101392611 0 0.1207194796176513 -0.31206082339016011 0 0.1149391998693738 -0.32876191790481257 0 0.127277047630593 -0.32368123984794023 0 0.1207194796176513 -0.31206082339016011 0 0.1149391998693738 -0.32876191790481257 0 0.1252730154641265 -0.33501756179834041 0 0.127277047630593 -0.32368123984794023 0 0.1149391998693738 -0.32876191790481257 0 0.11030782598785099 -0.32334328523235578 0 0.1149391998693738 -0.32876191790481257 0 0.1071562875265276 -0.34088406714172798 0 0.1252730154641265 -0.33501756179834041 0 0.1149391998693738 -0.32876191790481257 0 0.1203073559828662 -0.34481831064573482 0 0.1149391998693738 -0.32876191790481257 0 0.1071562875265276 -0.34088406714172798 0 0.1203073559828662 -0.34481831064573482 0 0.11030782598785099 -0.32334328523235578 0 0.1071562875265276 -0.34088406714172798 0 0.088168702518997374 -0.33920446067117932 0 0.11030782598785099 -0.32334328523235578 0 0.088168702518997374 -0.33920446067117932 0 0.11030782598785099 -0.32334328523235578 0 0.092685396428672781 -0.32103820683708328 0 0.088168702518997374 -0.33920446067117932 0 0.10329279831551071 -0.3091199101392611 0 0.11030782598785099 -0.32334328523235578 0 0.092685396428672781 -0.32103820683708328 0 0.087363613427391865 -0.30807629250996549 0 0.10329279831551071 -0.3091199101392611 0 0.092685396428672781 -0.32103820683708328 0 0.10329279831551071 -0.3091199101392611 0 0.1149391998693738 -0.32876191790481257 0 0.1245186505824013 -0.36113750934922573 0 0.111761677400382 -0.35565256239397869 0 0.1080928822255358 -0.3703790814713866 0 0.12672469353237761 -0.38193719477194499 0 0.1245186505824013 -0.36113750934922573 0 0.1080928822255358 -0.3703790814713866 0 0.1245186505824013 -0.36113750934922573 0 0.111761677400382 -0.35565256239397869 0 0.1203073559828662 -0.34481831064573482 0 0.1071562875265276 -0.34088406714172798 0 0.111761677400382 -0.35565256239397869 0 0.1203073559828662 -0.34481831064573482 0 0.1071562875265276 -0.34088406714172798 0 0.09828664694928807 -0.35383226801130691 0 0.088168702518997374 -0.33920446067117932 0 0.1071562875265276 -0.34088406714172798 0 0.111761677400382 -0.35565256239397869 0 0.09828664694928807 -0.35383226801130691 0 0.097085641119374302 -0.38571424072610178 0 0.1080928822255358 -0.3703790814713866 0 0.085574671404253372 -0.36606529366265911 0 0.111761677400382 -0.35565256239397869 0 0.09828664694928807 -0.35383226801130691 0 0.1080928822255358 -0.3703790814713866 0 0.09828664694928807 -0.35383226801130691 0 0.1080928822255358 -0.3703790814713866 0 0.085574671404253372 -0.36606529366265911 0 0.085574671404253372 -0.36606529366265911 0 0.066029579050143783 -0.35506563611000291 0 0.088168702518997374 -0.33920446067117932 0 0.09828664694928807 -0.35383226801130691 0 0.085574671404253372 -0.36606529366265911 0 0.088168702518997374 -0.33920446067117932 0 0.066029579050143783 -0.35506563611000291 0 0.088168702518997374 -0.33920446067117932 0 0.064781398010314309 -0.37536455347105108 0 0.085574671404253372 -0.36606529366265911 0 0.066029579050143783 -0.35506563611000291 0 0.066029579050143783 -0.35506563611000291 0 0.088168702518997374 -0.33920446067117932 0 0.073259594084162577 -0.32259772896999273 0 0.066029579050143783 -0.35506563611000291 0 0.073259594084162577 -0.32259772896999273 0 0.048222299164917798 -0.333319266554439 0 0.092685396428672781 -0.32103820683708328 0 0.088168702518997374 -0.33920446067117932 0 0.073259594084162577 -0.32259772896999273 0 0.087363613427391865 -0.30807629250996549 0 0.092685396428672781 -0.32103820683708328 0 0.073259594084162577 -0.32259772896999273 0 0.073259594084162577 -0.32259772896999273 0 0.056038135353808333 -0.31320409925325249 0 0.048222299164917798 -0.333319266554439 0 0.056038135353808333 -0.31320409925325249 0 0.048222299164917798 -0.333319266554439 0 0.036478772830285791 -0.31172509300834528 0 0.048222299164917798 -0.333319266554439 0 0.033610930591278822 -0.35000849021355163 0 0.023331405601267931 -0.32909016887827719 0 0.048222299164917798 -0.333319266554439 0 0.023331405601267931 -0.32909016887827719 0 0.036478772830285791 -0.31172509300834528 0 0.066029579050143783 -0.35506563611000291 0 0.048355778033110031 -0.35315995845717169 0 0.043890455581289831 -0.3709268115488259 0 0.066029579050143783 -0.35506563611000291 0 0.043890455581289831 -0.3709268115488259 0 0.064781398010314309 -0.37536455347105108 0 0.066029579050143783 -0.35506563611000291 0 0.043890455581289831 -0.3709268115488259 0 0.066029579050143783 -0.35506563611000291 0 0.048222299164917798 -0.333319266554439 0 0.048355778033110031 -0.35315995845717169 0 0.048222299164917798 -0.333319266554439 0 0.048355778033110031 -0.35315995845717169 0 0.033610930591278822 -0.35000849021355163 0 0.048355778033110031 -0.35315995845717169 0 0.033610930591278822 -0.35000849021355163 0 0.043890455581289831 -0.3709268115488259 0 0.033610930591278822 -0.35000849021355163 0 0.03286340713970079 -0.36889202113574671 0 0.043890455581289831 -0.3709268115488259 0 0.033610930591278822 -0.35000849021355163 0 0.043890455581289831 -0.3709268115488259 0 0.030780854092194759 -0.38031894893150719 0 0.03286340713970079 -0.36889202113574671 0 0.043890455581289831 -0.3709268115488259 0 0.033610930591278822 -0.35000849021355163 0 0.03286340713970079 -0.36889202113574671 0 0.022072978528308879 -0.36937310690127451 0 0.030780854092194759 -0.38031894893150719 0 0.03286340713970079 -0.36889202113574671 0 0.022072978528308879 -0.36937310690127451 0 0.033610930591278822 -0.35000849021355163 0 0.022072978528308879 -0.36937310690127451 0 0.014393680356963701 -0.35536411395587292 0 0.033610930591278822 -0.35000849021355163 0 0.014393680356963701 -0.35536411395587292 0 0.0105762414372169 -0.3395135522035268 0 -0.00014080085946228561 -0.35082738964002957 0 0.014393680356963701 -0.35536411395587292 0 0.0105762414372169 -0.3395135522035268 0 -0.00014080085946228561 -0.35082738964002957 0 0.014393680356963701 -0.35536411395587292 0 0.0058490520874761691 -0.36709803082098191 0 0.022072978528308879 -0.36937310690127451 0 0.014393680356963701 -0.35536411395587292 0 0.0058490520874761691 -0.36709803082098191 0 0.022072978528308879 -0.36937310690127451 0 0.0058490520874761691 -0.36709803082098191 0 0.0132535835722172 -0.37610527220974688 0 0.022072978528308879 -0.36937310690127451 0 0.0058490520874761691 -0.36709803082098191 0 -0.0078283346885702904 -0.37476262999778609 0 0.0132535835722172 -0.37610527220974688 0 0.0058490520874761691 -0.36709803082098191 0 0.023331405601267931 -0.32909016887827719 0 0.013051880611257029 -0.30817184754300292 0 0.023331405601267931 -0.32909016887827719 0 0.013051880611257029 -0.30817184754300292 0 0.036478772830285791 -0.31172509300834528 0 0.033610930591278822 -0.35000849021355163 0 0.023331405601267931 -0.32909016887827719 0 0.0105762414372169 -0.3395135522035268 0 0.033610930591278822 -0.35000849021355163 0 0.023331405601267931 -0.32909016887827719 0 0.023331405601267931 -0.32909016887827719 0 0.0105762414372169 -0.3395135522035268 0 3.5896068887442723e-05 -0.32803491845883598 0 -0.00014080085946228561 -0.35082738964002957 0 0.0105762414372169 -0.3395135522035268 0 3.5896068887442723e-05 -0.32803491845883598 0 -0.0063780240591087903 -0.31078717533589839 0 3.5896068887442723e-05 -0.32803491845883598 0 0.013051880611257029 -0.30817184754300292 0 0.023331405601267931 -0.32909016887827719 0 3.5896068887442723e-05 -0.32803491845883598 0 0.013051880611257029 -0.30817184754300292 0 0.013051880611257029 -0.30817184754300292 0 0.0027723556212477219 -0.28725352620772771 0 0.0027723556212477219 -0.28725352620772771 0 0.026109415510684009 -0.29202779727133188 0 -0.0017476628817073611 -0.27805551369469472 0 0.0027723556212477219 -0.28725352620772771 0 0.01602201902671789 -0.28191194131808539 0 0.013051880611257029 -0.30817184754300292 0 0.0027723556212477219 -0.28725352620772771 0 0.026109415510684009 -0.29202779727133188 0 0.0027723556212477219 -0.28725352620772771 0 0.026109415510684009 -0.29202779727133188 0 0.01602201902671789 -0.28191194131808539 0 -0.0074917523477661804 -0.29461577546968681 0 0.013051880611257029 -0.30817184754300292 0 0.0027723556212477219 -0.28725352620772771 0 -0.0017476628817073611 -0.27805551369469472 0 0.0027723556212477219 -0.28725352620772771 0 0.026109415510684009 -0.29202779727133188 0 0.01602201902671789 -0.28191194131808539 0 0.036314123194761641 -0.27872041929058161 0 0.013051880611257029 -0.30817184754300292 0 0.026109415510684009 -0.29202779727133188 0 0.036478772830285791 -0.31172509300834528 0 0.026109415510684009 -0.29202779727133188 0 0.036478772830285791 -0.31172509300834528 0 0.04944647540011983 -0.29680206833493911 0 0.026109415510684009 -0.29202779727133188 0 0.04944647540011983 -0.29680206833493911 0 0.036314123194761641 -0.27872041929058161 0 0.026109415510684009 -0.29202779727133188 0 0.04944647540011983 -0.29680206833493911 0 0.04944647540011983 -0.29680206833493911 0 0.059700898458833078 -0.27333130828182889 0 0.036314123194761641 -0.27872041929058161 0 0.07071546022358817 -0.28620470259943642 0 0.04944647540011983 -0.29680206833493911 0 0.059700898458833078 -0.27333130828182889 0 0.072783535289555654 -0.30157633939854622 0 0.04944647540011983 -0.29680206833493911 0 0.056038135353808333 -0.31320409925325249 0 0.036478772830285791 -0.31172509300834528 0 0.04944647540011983 -0.29680206833493911 0 0.072783535289555654 -0.30157633939854622 0 0.056038135353808333 -0.31320409925325249 0 0.04944647540011983 -0.29680206833493911 0 0.06835359365392131 -0.25019388684260668 0 0.044986508142045613 -0.25948109579330381 0 0.047362788675733028 -0.24199119006041811 0 0.06835359365392131 -0.25019388684260668 0 0.059700898458833078 -0.27333130828182889 0 0.044986508142045613 -0.25948109579330381 0 0.06835359365392131 -0.25019388684260668 0 0.044986508142045613 -0.25948109579330381 0 0.059700898458833078 -0.27333130828182889 0 0.036314123194761641 -0.27872041929058161 0 0.044986508142045613 -0.25948109579330381 0 0.036314123194761641 -0.27872041929058161 0 0.044986508142045613 -0.25948109579330381 0 0.02161942263016943 -0.26876830474400021 0 0.044986508142045613 -0.25948109579330381 0 0.02161942263016943 -0.26876830474400021 0 0.044986508142045613 -0.25948109579330381 0 0.029973277209287209 -0.25054958921230208 0 0.02161942263016943 -0.26876830474400021 0 0.044986508142045613 -0.25948109579330381 0 0.029973277209287209 -0.25054958921230208 0 0.047362788675733028 -0.24199119006041811 0 0.029973277209287209 -0.25054958921230208 0 0.015960739131678031 -0.25406337006458851 0 0.02161942263016943 -0.26876830474400021 0 0.01602201902671789 -0.28191194131808539 0 0.036314123194761641 -0.27872041929058161 0 0.02161942263016943 -0.26876830474400021 0 -0.0017476628817073611 -0.27805551369469472 0 0.01602201902671789 -0.28191194131808539 0 0.02161942263016943 -0.26876830474400021 0 -0.0017476628817073611 -0.27805551369469472 0 0.02161942263016943 -0.26876830474400021 0 -0.0017476628817073611 -0.27805551369469472 0 0.02161942263016943 -0.26876830474400021 0 0.0057386521092319797 -0.26220041049146298 0 0.015960739131678031 -0.25406337006458851 0 0.02161942263016943 -0.26876830474400021 0 0.0057386521092319797 -0.26220041049146298 0 0.015960739131678031 -0.25406337006458851 0 0.0057386521092319797 -0.26220041049146298 0 0.0025328853753160741 -0.24958102673793139 0 0.0010854142569982001 -0.23807309260292489 0 0.010575476039053681 -0.22730954243123891 0 0.017210747296828609 -0.24036453645492739 0 0.0010854142569982001 -0.23807309260292489 0 0.0025328853753160741 -0.24958102673793139 0 0.017210747296828609 -0.24036453645492739 0 0.015960739131678031 -0.25406337006458851 0 0.0025328853753160741 -0.24958102673793139 0 0.017210747296828609 -0.24036453645492739 0 -0.0061584899570064598 -0.22962027277065361 0 0.0010854142569982001 -0.23807309260292489 0 0.010575476039053681 -0.22730954243123891 0 -0.0061584899570064598 -0.22962027277065361 0 0.010575476039053681 -0.22730954243123891 0 0.0064165675551885711 -0.21575046092143421 0 -0.0061584899570064598 -0.22962027277065361 0 0.0064165675551885711 -0.21575046092143421 0 0.010575476039053681 -0.22730954243123891 0 0.0064165675551885711 -0.21575046092143421 0 0.021509429760601551 -0.21557394742371069 0 0.010575476039053681 -0.22730954243123891 0 0.0064165675551885711 -0.21575046092143421 0 0.010575476039053681 -0.22730954243123891 0 0.02225812238200572 -0.22838936745028471 0 0.017210747296828609 -0.24036453645492739 0 0.010575476039053681 -0.22730954243123891 0 0.02225812238200572 -0.22838936745028471 0 0.021509429760601551 -0.21557394742371069 0 0.02225812238200572 -0.22838936745028471 0 0.029479073121619459 -0.22118232130399371 0 0.021509429760601551 -0.21557394742371069 0 0.02225812238200572 -0.22838936745028471 0 0.029479073121619459 -0.22118232130399371 0 0.031866256870133697 -0.23515517363185631 0 0.029973277209287209 -0.25054958921230208 0 0.017210747296828609 -0.24036453645492739 0 0.031866256870133697 -0.23515517363185631 0 0.02225812238200572 -0.22838936745028471 0 0.017210747296828609 -0.24036453645492739 0 0.031866256870133697 -0.23515517363185631 0 0.029973277209287209 -0.25054958921230208 0 0.015960739131678031 -0.25406337006458851 0 0.017210747296828609 -0.24036453645492739 0 -0.0015622250741301779 -0.1935745667631632 0 0.01896638504685547 -0.20190848785827681 0 0.0091962193441852118 -0.18107109871456811 0 -0.0015622250741301779 -0.1935745667631632 0 0.0064165675551885711 -0.21575046092143421 0 0.01896638504685547 -0.20190848785827681 0 -0.0015622250741301779 -0.1935745667631632 0 0.0064165675551885711 -0.21575046092143421 0 0.0064165675551885711 -0.21575046092143421 0 0.01896638504685547 -0.20190848785827681 0 0.0064165675551885711 -0.21575046092143421 0 0.021509429760601551 -0.21557394742371069 0 0.01896638504685547 -0.20190848785827681 0 0.029479073121619459 -0.22118232130399371 0 0.021509429760601551 -0.21557394742371069 0 0.033558692489570878 -0.21195100443687931 0 0.021509429760601551 -0.21557394742371069 0 0.029251690937081031 -0.20258635003767089 0 0.033558692489570878 -0.21195100443687931 0 0.021509429760601551 -0.21557394742371069 0 0.01896638504685547 -0.20190848785827681 0 0.029251690937081031 -0.20258635003767089 0 0.01896638504685547 -0.20190848785827681 0 0.031516202538524517 -0.1880665147951214 0 0.0091962193441852118 -0.18107109871456811 0 0.01896638504685547 -0.20190848785827681 0 0.029251690937081031 -0.20258635003767089 0 0.031516202538524517 -0.1880665147951214 0 0.01896638504685547 -0.20190848785827681 0 0.031516202538524517 -0.1880665147951214 0 0.043838458457815248 -0.18986676967386279 0 0.039506267971797952 -0.20154200132731501 0 0.055741541871671067 -0.19352675789948551 0 0.043838458457815248 -0.18986676967386279 0 0.031516202538524517 -0.1880665147951214 0 0.039506267971797952 -0.20154200132731501 0 0.031516202538524517 -0.1880665147951214 0 0.039506267971797952 -0.20154200132731501 0 0.029251690937081031 -0.20258635003767089 0 0.031516202538524517 -0.1880665147951214 0 0.039506267971797952 -0.20154200132731501 0 0.039506267971797952 -0.20154200132731501 0 0.033558692489570878 -0.21195100443687931 0 0.047496333405074677 -0.2150174878595065 0 0.039506267971797952 -0.20154200132731501 0 0.047496333405074677 -0.2150174878595065 0 0.029251690937081031 -0.20258635003767089 0 0.039506267971797952 -0.20154200132731501 0 0.033558692489570878 -0.21195100443687931 0 0.033558692489570878 -0.21195100443687931 0 0.047496333405074677 -0.2150174878595065 0 0.033558692489570878 -0.21195100443687931 0 0.047496333405074677 -0.2150174878595065 0 0.039554961726260877 -0.22474601638733641 0 0.039506267971797952 -0.20154200132731501 0 0.047496333405074677 -0.2150174878595065 0 0.05523956109653505 -0.20714630445374671 0 0.047496333405074677 -0.2150174878595065 0 0.05523956109653505 -0.20714630445374671 0 0.064206587222380762 -0.21869398638814641 0 0.047496333405074677 -0.2150174878595065 0 0.064206587222380762 -0.21869398638814641 0 0.039506267971797952 -0.20154200132731501 0 0.05523956109653505 -0.20714630445374671 0 0.055741541871671067 -0.19352675789948551 0 0.05523956109653505 -0.20714630445374671 0 0.055741541871671067 -0.19352675789948551 0 0.069247075011750078 -0.20695128879428309 0 0.055741541871671067 -0.19352675789948551 0 0.069247075011750078 -0.20695128879428309 0 0.029973277209287209 -0.25054958921230208 0 0.031866256870133697 -0.23515517363185631 0 0.047362788675733028 -0.24199119006041811 0 0.031866256870133697 -0.23515517363185631 0 0.039554961726260877 -0.22474601638733641 0 0.047362788675733028 -0.24199119006041811 0 0.029479073121619459 -0.22118232130399371 0 0.031866256870133697 -0.23515517363185631 0 0.039554961726260877 -0.22474601638733641 0 0.029479073121619459 -0.22118232130399371 0 0.033558692489570878 -0.21195100443687931 0 0.039554961726260877 -0.22474601638733641 0 0.047496333405074677 -0.2150174878595065 0 0.05536207860111314 -0.2282833045590259 0 0.064206587222380762 -0.21869398638814641 0 0.05536207860111314 -0.2282833045590259 0 0.063311866646695691 -0.24149928944984211 0 0.064206587222380762 -0.21869398638814641 0 0.039554961726260877 -0.22474601638733641 0 0.05536207860111314 -0.2282833045590259 0 0.047362788675733028 -0.24199119006041811 0 0.047496333405074677 -0.2150174878595065 0 0.039554961726260877 -0.22474601638733641 0 0.05536207860111314 -0.2282833045590259 0 0.047496333405074677 -0.2150174878595065 0 0.05536207860111314 -0.2282833045590259 0 0.05536207860111314 -0.2282833045590259 0 0.063311866646695691 -0.24149928944984211 0 0.06835359365392131 -0.25019388684260668 0 0.047362788675733028 -0.24199119006041811 0 0.063311866646695691 -0.24149928944984211 0 0.05536207860111314 -0.2282833045590259 0 0.047362788675733028 -0.24199119006041811 0 0.063311866646695691 -0.24149928944984211 0 0.06835359365392131 -0.25019388684260668 0 0.08421140423371333 -0.243891226620808 0 0.06835359365392131 -0.25019388684260668 0 0.063311866646695691 -0.24149928944984211 0 0.063311866646695691 -0.24149928944984211 0 0.074219814037010917 -0.24224782663387789 0 0.081086434463253185 -0.23335707181355411 0 0.06835359365392131 -0.25019388684260668 0 0.063311866646695691 -0.24149928944984211 0 0.074219814037010917 -0.24224782663387789 0 0.06835359365392131 -0.25019388684260668 0 0.074219814037010917 -0.24224782663387789 0 0.08421140423371333 -0.243891226620808 0 0.08421140423371333 -0.243891226620808 0 0.081086434463253185 -0.23335707181355411 0 0.10006921481350529 -0.2375885663990091 0 0.08421140423371333 -0.243891226620808 0 0.10006921481350529 -0.2375885663990091 0 0.074219814037010917 -0.24224782663387789 0 0.08421140423371333 -0.243891226620808 0 0.081086434463253185 -0.23335707181355411 0 0.081086434463253185 -0.23335707181355411 0 0.085851572697872774 -0.2234561975504171 0 0.10006921481350529 -0.2375885663990091 0 0.085851572697872774 -0.2234561975504171 0 0.08275260815182911 -0.2203758196890806 0 0.098293187803831117 -0.21887499219370271 0 0.085851572697872774 -0.2234561975504171 0 0.10006921481350529 -0.2375885663990091 0 0.081086434463253185 -0.23335707181355411 0 0.085851572697872774 -0.2234561975504171 0 0.080916841039686133 -0.2223704849167896 0 0.085851572697872774 -0.2234561975504171 0 0.080916841039686133 -0.2223704849167896 0 0.085851572697872774 -0.2234561975504171 0 0.08275260815182911 -0.2203758196890806 0 0.080916841039686133 -0.2223704849167896 0 0.085851572697872774 -0.2234561975504171 0 0.08275260815182911 -0.2203758196890806 0 0.08275260815182911 -0.2203758196890806 0 0.080916841039686133 -0.2223704849167896 0 0.063311866646695691 -0.24149928944984211 0 0.080916841039686133 -0.2223704849167896 0 0.063311866646695691 -0.24149928944984211 0 0.080916841039686133 -0.2223704849167896 0 0.064206587222380762 -0.21869398638814641 0 0.080916841039686133 -0.2223704849167896 0 0.064206587222380762 -0.21869398638814641 0 0.063311866646695691 -0.24149928944984211 0 0.081086434463253185 -0.23335707181355411 0 0.080916841039686133 -0.2223704849167896 0 0.080916841039686133 -0.2223704849167896 0 0.064206587222380762 -0.21869398638814641 0 0.069247075011750078 -0.20695128879428309 0 0.05523956109653505 -0.20714630445374671 0 0.064206587222380762 -0.21869398638814641 0 0.069247075011750078 -0.20695128879428309 0 0.08275260815182911 -0.2203758196890806 0 0.069247075011750078 -0.20695128879428309 0 0.08275260815182911 -0.2203758196890806 0 0.080916841039686133 -0.2223704849167896 0 0.069247075011750078 -0.20695128879428309 0 0.055741541871671067 -0.19352675789948551 0 0.069247075011750078 -0.20695128879428309 0 0.070887819862862286 -0.1914088031202833 0 0.069247075011750078 -0.20695128879428309 0 0.070887819862862286 -0.1914088031202833 0 0.082832551139222166 -0.19914513048671481 0 0.070887819862862286 -0.1914088031202833 0 0.082832551139222166 -0.19914513048671481 0 0.081821336385090343 -0.18186245165470949 0 0.082832551139222166 -0.19914513048671481 0 0.097084301305641635 -0.20480362112478781 0 0.095405874932467813 -0.18887779734800569 0 0.082832551139222166 -0.19914513048671481 0 0.095405874932467813 -0.18887779734800569 0 0.081821336385090343 -0.18186245165470949 0 0.08275260815182911 -0.2203758196890806 0 0.082832551139222166 -0.19914513048671481 0 0.097084301305641635 -0.20480362112478781 0 0.08275260815182911 -0.2203758196890806 0 0.069247075011750078 -0.20695128879428309 0 0.082832551139222166 -0.19914513048671481 0 0.08275260815182911 -0.2203758196890806 0 0.097084301305641635 -0.20480362112478781 0 0.098293187803831117 -0.21887499219370271 0 0.08275260815182911 -0.2203758196890806 0 0.097084301305641635 -0.20480362112478781 0 0.097084301305641635 -0.20480362112478781 0 0.1146962174531268 -0.21673223195775559 0 0.098293187803831117 -0.21887499219370271 0 0.097084301305641635 -0.20480362112478781 0 0.095405874932467813 -0.18887779734800569 0 0.11141599445945349 -0.1892314225604943 0 0.097084301305641635 -0.20480362112478781 0 0.11141599445945349 -0.1892314225604943 0 0.097084301305641635 -0.20480362112478781 0 0.1210323504124224 -0.2015702574875764 0 0.11141599445945349 -0.1892314225604943 0 0.1210323504124224 -0.2015702574875764 0 0.11141599445945349 -0.1892314225604943 0 0.13523084618428721 -0.18276855246186111 0 0.1210323504124224 -0.2015702574875764 0 0.1146962174531268 -0.21673223195775559 0 0.13583218450739579 -0.2116030352811932 0 0.097084301305641635 -0.20480362112478781 0 0.1210323504124224 -0.2015702574875764 0 0.1146962174531268 -0.21673223195775559 0 0.1110812394106853 -0.22900709064647229 0 0.12594488917549271 -0.2231145762792166 0 0.1363109061234978 -0.23455798374252809 0 0.1110812394106853 -0.22900709064647229 0 0.1223190960555403 -0.2394332616338683 0 0.1363109061234978 -0.23455798374252809 0 0.1110812394106853 -0.22900709064647229 0 0.1363109061234978 -0.23455798374252809 0 0.1146962174531268 -0.21673223195775559 0 0.1110812394106853 -0.22900709064647229 0 0.12594488917549271 -0.2231145762792166 0 0.1110812394106853 -0.22900709064647229 0 0.1223190960555403 -0.2394332616338683 0 0.1084330749156753 -0.23426436422737831 0 0.1147239364606354 -0.25215539330366038 0 0.1223190960555403 -0.2394332616338683 0 0.1084330749156753 -0.23426436422737831 0 0.097662046653794854 -0.25561444261418242 0 0.1147239364606354 -0.25215539330366038 0 0.10006921481350529 -0.2375885663990091 0 0.1147239364606354 -0.25215539330366038 0 0.10006921481350529 -0.2375885663990091 0 0.1084330749156753 -0.23426436422737831 0 0.097662046653794854 -0.25561444261418242 0 0.08421140423371333 -0.243891226620808 0 0.10006921481350529 -0.2375885663990091 0 0.10006921481350529 -0.2375885663990091 0 0.1084330749156753 -0.23426436422737831 0 0.1147239364606354 -0.25215539330366038 0 0.10006921481350529 -0.2375885663990091 0 0.085851572697872774 -0.2234561975504171 0 0.1110812394106853 -0.22900709064647229 0 0.1146962174531268 -0.21673223195775559 0 0.1110812394106853 -0.22900709064647229 0 0.098293187803831117 -0.21887499219370271 0 0.085851572697872774 -0.2234561975504171 0 0.1110812394106853 -0.22900709064647229 0 0.098293187803831117 -0.21887499219370271 0 0.085851572697872774 -0.2234561975504171 0 0.1110812394106853 -0.22900709064647229 0 0.10006921481350529 -0.2375885663990091 0 0.1110812394106853 -0.22900709064647229 0 0.10006921481350529 -0.2375885663990091 0 0.1084330749156753 -0.23426436422737831 0 0.1040552578412003 -0.15282191894301261 0 0.1005807427949069 -0.13366374688330029 0 0.11727103389215909 -0.1361484369810822 0 0.1005807427949069 -0.13366374688330029 0 0.11727103389215909 -0.1361484369810822 0 0.1051359327507693 -0.1227177542784853 0 0.1040552578412003 -0.15282191894301261 0 0.1005807427949069 -0.13366374688330029 0 0.082362828069140165 -0.1319846138898183 0 0.11727103389215909 -0.1361484369810822 0 0.1154331983948798 -0.1174886032934183 0 0.13404900744611239 -0.12609877526333699 0 0.11727103389215909 -0.1361484369810822 0 0.1051359327507693 -0.1227177542784853 0 0.1154331983948798 -0.1174886032934183 0 0.1040552578412003 -0.15282191894301261 0 0.11727103389215909 -0.1361484369810822 0 0.1232701832726428 -0.15427141090171109 0 0.11727103389215909 -0.1361484369810822 0 0.1232701832726428 -0.15427141090171109 0 0.13444198148756639 -0.1449420832838656 0 0.1040552578412003 -0.15282191894301261 0 0.12574768761326591 -0.17365922399620121 0 0.1040552578412003 -0.15282191894301261 0 0.1002282447692335 -0.17458527697826651 0 0.12574768761326591 -0.17365922399620121 0 0.1040552578412003 -0.15282191894301261 0 0.1232701832726428 -0.15427141090171109 0 0.12574768761326591 -0.17365922399620121 0 0.11141599445945349 -0.1892314225604943 0 0.1002282447692335 -0.17458527697826651 0 0.12574768761326591 -0.17365922399620121 0 0.11141599445945349 -0.1892314225604943 0 0.12574768761326591 -0.17365922399620121 0 0.13523084618428721 -0.18276855246186111 0 0.11141599445945349 -0.1892314225604943 0 0.12574768761326591 -0.17365922399620121 0 0.095405874932467813 -0.18887779734800569 0 0.11141599445945349 -0.1892314225604943 0 0.1002282447692335 -0.17458527697826651 0 0.1040552578412003 -0.15282191894301261 0 0.1002282447692335 -0.17458527697826651 0 0.08311303581058499 -0.16124853818171381 0 0.095405874932467813 -0.18887779734800569 0 0.1002282447692335 -0.17458527697826651 0 0.081821336385090343 -0.18186245165470949 0 0.1002282447692335 -0.17458527697826651 0 0.08311303581058499 -0.16124853818171381 0 0.081821336385090343 -0.18186245165470949 0 0.08311303581058499 -0.16124853818171381 0 0.081821336385090343 -0.18186245165470949 0 0.066780308608768796 -0.17493307235476979 0 0.070887819862862286 -0.1914088031202833 0 0.081821336385090343 -0.18186245165470949 0 0.066780308608768796 -0.17493307235476979 0 0.055741541871671067 -0.19352675789948551 0 0.070887819862862286 -0.1914088031202833 0 0.066780308608768796 -0.17493307235476979 0 0.08311303581058499 -0.16124853818171381 0 0.066780308608768796 -0.17493307235476979 0 0.065413952892267702 -0.150678580858252 0 0.065413952892267702 -0.150678580858252 0 0.082362828069140165 -0.1319846138898183 0 0.08311303581058499 -0.16124853818171381 0 0.065413952892267702 -0.150678580858252 0 0.082362828069140165 -0.1319846138898183 0 0.1040552578412003 -0.15282191894301261 0 0.08311303581058499 -0.16124853818171381 0 0.082362828069140165 -0.1319846138898183 0 0.1040552578412003 -0.15282191894301261 0 0.082362828069140165 -0.1319846138898183 0 0.1005807427949069 -0.13366374688330029 0 0.082362828069140165 -0.1319846138898183 0 0.095577299328253623 -0.1174095529111252 0 0.082362828069140165 -0.1319846138898183 0 0.070308403876621794 -0.13238109852993221 0 0.069837722907261313 -0.1199532536492431 0 0.065413952892267702 -0.150678580858252 0 0.082362828069140165 -0.1319846138898183 0 0.070308403876621794 -0.13238109852993221 0 0.082362828069140165 -0.1319846138898183 0 0.069837722907261313 -0.1199532536492431 0 0.065413952892267702 -0.150678580858252 0 0.070308403876621794 -0.13238109852993221 0 0.06118566078759103 -0.13005342953014129 0 0.070308403876621794 -0.13238109852993221 0 0.06118566078759103 -0.13005342953014129 0 0.069837722907261313 -0.1199532536492431 0 0.065413952892267702 -0.150678580858252 0 0.06118566078759103 -0.13005342953014129 0 0.053245925046226952 -0.14076102386291889 0 0.06118566078759103 -0.13005342953014129 0 0.049352038069647858 -0.1295439288512826 0 0.048525659269531229 -0.11802361343548989 0 0.049352038069647858 -0.1295439288512826 0 0.053245925046226952 -0.14076102386291889 0 0.041700188437408421 -0.13409859591225329 0 0.06118566078759103 -0.13005342953014129 0 0.049352038069647858 -0.1295439288512826 0 0.053245925046226952 -0.14076102386291889 0 0.065413952892267702 -0.150678580858252 0 0.053245925046226952 -0.14076102386291889 0 0.048465077715394989 -0.16937254782668559 0 0.053245925046226952 -0.14076102386291889 0 0.040505841312838547 -0.14468304457988079 0 0.048465077715394989 -0.16937254782668559 0 0.040505841312838547 -0.14468304457988079 0 0.03393783807298914 -0.14093707321474161 0 0.030230252537669321 -0.1566253376229266 0 0.040505841312838547 -0.14468304457988079 0 0.030230252537669321 -0.1566253376229266 0 0.040505841312838547 -0.14468304457988079 0 0.03393783807298914 -0.14093707321474161 0 0.041700188437408421 -0.13409859591225329 0 0.03393783807298914 -0.14093707321474161 0 0.041700188437408421 -0.13409859591225329 0 0.024480650806643651 -0.1375151559245551 0 0.041700188437408421 -0.13409859591225329 0 0.042102756807481732 -0.1247829815156095 0 0.031290738437872938 -0.1201921761368282 0 0.049352038069647858 -0.1295439288512826 0 0.041700188437408421 -0.13409859591225329 0 0.042102756807481732 -0.1247829815156095 0 0.053245925046226952 -0.14076102386291889 0 0.040505841312838547 -0.14468304457988079 0 0.041700188437408421 -0.13409859591225329 0 0.055741541871671067 -0.19352675789948551 0 0.066780308608768796 -0.17493307235476979 0 0.048465077715394989 -0.16937254782668559 0 0.043838458457815248 -0.18986676967386279 0 0.055741541871671067 -0.19352675789948551 0 0.048465077715394989 -0.16937254782668559 0 0.066780308608768796 -0.17493307235476979 0 0.065413952892267702 -0.150678580858252 0 0.048465077715394989 -0.16937254782668559 0 0.065413952892267702 -0.150678580858252 0 0.048465077715394989 -0.16937254782668559 0 0.040505841312838547 -0.14468304457988079 0 0.048465077715394989 -0.16937254782668559 0 0.030230252537669321 -0.1566253376229266 0 0.048465077715394989 -0.16937254782668559 0 0.033338822752702377 -0.1705348433046637 0 0.030230252537669321 -0.1566253376229266 0 0.043838458457815248 -0.18986676967386279 0 0.031516202538524517 -0.1880665147951214 0 0.048465077715394989 -0.16937254782668559 0 0.031516202538524517 -0.1880665147951214 0 0.048465077715394989 -0.16937254782668559 0 0.031516202538524517 -0.1880665147951214 0 0.048465077715394989 -0.16937254782668559 0 0.033338822752702377 -0.1705348433046637 0 0.031516202538524517 -0.1880665147951214 0 0.033338822752702377 -0.1705348433046637 0 0.01995466376250531 -0.16856763066597699 0 0.031516202538524517 -0.1880665147951214 0 0.01995466376250531 -0.16856763066597699 0 0.031516202538524517 -0.1880665147951214 0 0.01995466376250531 -0.16856763066597699 0 0.0091962193441852118 -0.18107109871456811 0 0.01995466376250531 -0.16856763066597699 0 0.030230252537669321 -0.1566253376229266 0 0.008868239412810253 -0.14987004135808221 0 0.033338822752702377 -0.1705348433046637 0 0.01995466376250531 -0.16856763066597699 0 0.030230252537669321 -0.1566253376229266 0 0.01995466376250531 -0.16856763066597699 0 0.030230252537669321 -0.1566253376229266 0 -0.0025999653858941639 -0.16131422913783491 0 0.0067086063528142403 -0.16809244781376179 0 0.008868239412810253 -0.14987004135808221 0 0.01995466376250531 -0.16856763066597699 0 0.008868239412810253 -0.14987004135808221 0 0.01995466376250531 -0.16856763066597699 0 0.0067086063528142403 -0.16809244781376179 0 0.008868239412810253 -0.14987004135808221 0 -0.0084927016390539001 -0.17431231470194719 0 0.0067086063528142403 -0.16809244781376179 0 0.0091962193441852118 -0.18107109871456811 0 0.01995466376250531 -0.16856763066597699 0 0.0091962193441852118 -0.18107109871456811 0 0.01995466376250531 -0.16856763066597699 0 0.0067086063528142403 -0.16809244781376179 0 0.0091962193441852118 -0.18107109871456811 0 -0.0015622250741301779 -0.1935745667631632 0 0.0091962193441852118 -0.18107109871456811 0 0.041700188437408421 -0.13409859591225329 0 0.014197789575412951 -0.12328672932727321 0 0.031290738437872938 -0.1201921761368282 0 0.041700188437408421 -0.13409859591225329 0 0.024480650806643651 -0.1375151559245551 0 0.014197789575412951 -0.12328672932727321 0 0.041700188437408421 -0.13409859591225329 0 0.014197789575412951 -0.12328672932727321 0 0.024480650806643651 -0.1375151559245551 0 0.011332123714495041 -0.13546109466502479 0 0.014197789575412951 -0.12328672932727321 0 0.03393783807298914 -0.14093707321474161 0 0.030230252537669321 -0.1566253376229266 0 0.024480650806643651 -0.1375151559245551 0 0.030230252537669321 -0.1566253376229266 0 0.024480650806643651 -0.1375151559245551 0 0.008868239412810253 -0.14987004135808221 0 0.024480650806643651 -0.1375151559245551 0 0.008868239412810253 -0.14987004135808221 0 0.011332123714495041 -0.13546109466502479 0 -0.00221818493688669 -0.13117245205018849 0 -0.0031786103040098569 -0.14705450477373769 0 0.008868239412810253 -0.14987004135808221 0 -0.0031786103040098569 -0.14705450477373769 0 -0.0025999653858941639 -0.16131422913783491 0 0.008868239412810253 -0.14987004135808221 0 -0.00221818493688669 -0.13117245205018849 0 0.008868239412810253 -0.14987004135808221 0 -0.00221818493688669 -0.13117245205018849 0 0.011332123714495041 -0.13546109466502479 0 0.014197789575412951 -0.12328672932727321 0 -0.00221818493688669 -0.13117245205018849 0 0.008868239412810253 -0.14987004135808221 0 0.011332123714495041 -0.13546109466502479 0 -0.013304609286582791 -0.1124748627422944 0 0.014197789575412951 -0.12328672932727321 0 0.014197789575412951 -0.12328672932727321 0 0.020945276257035669 -0.1055296092587116 0 0.0046245275045138064 -0.1076828264142336 0 -0.013304609286582791 -0.1124748627422944 0 0.014197789575412951 -0.12328672932727321 0 0.0046245275045138064 -0.1076828264142336 0 0.014197789575412951 -0.12328672932727321 0 0.020945276257035669 -0.1055296092587116 0 0.031290738437872938 -0.1201921761368282 0 0.020945276257035669 -0.1055296092587116 0 0.031290738437872938 -0.1201921761368282 0 0.040241467446851142 -0.1026788937802551 0 0.020945276257035669 -0.1055296092587116 0 0.028115865357471449 -0.087896533900266943 0 0.040241467446851142 -0.1026788937802551 0 0.020945276257035669 -0.1055296092587116 0 0.0072012692200917657 -0.09144049599341271 0 0.028115865357471449 -0.087896533900266943 0 -0.0070294542012635762 -0.10327829347153671 0 0.0046245275045138064 -0.1076828264142336 0 0.0072012692200917657 -0.09144049599341271 0 0.020945276257035669 -0.1055296092587116 0 0.0046245275045138064 -0.1076828264142336 0 0.0072012692200917657 -0.09144049599341271 0 0.0072012692200917657 -0.09144049599341271 0 0.0054575408194632406 -0.073720759659108445 0 0.018511759797904249 -0.077210571545524964 0 -0.0056293594721457006 -0.082036805430144924 0 0.0072012692200917657 -0.09144049599341271 0 0.0054575408194632406 -0.073720759659108445 0 0.0054575408194632406 -0.073720759659108445 0 0.018354718881549058 -0.065167425818499949 0 0.003426744450576454 -0.054815297075420773 0 -0.0072319765520409062 -0.068818796064575097 0 0.0054575408194632406 -0.073720759659108445 0 0.003426744450576454 -0.054815297075420773 0 0.0054575408194632406 -0.073720759659108445 0 0.018354718881549058 -0.065167425818499949 0 0.018511759797904249 -0.077210571545524964 0 0.018511759797904249 -0.077210571545524964 0 0.028115865357471449 -0.087896533900266943 0 0.033429404710945708 -0.067827642356336801 0 0.018354718881549058 -0.065167425818499949 0 0.018511759797904249 -0.077210571545524964 0 0.033429404710945708 -0.067827642356336801 0 0.0072012692200917657 -0.09144049599341271 0 0.018511759797904249 -0.077210571545524964 0 0.028115865357471449 -0.087896533900266943 0 0.028115865357471449 -0.087896533900266943 0 0.044094628308957058 -0.087651847290754856 0 0.040241467446851142 -0.1026788937802551 0 0.028115865357471449 -0.087896533900266943 0 0.044094628308957058 -0.087651847290754856 0 0.033429404710945708 -0.067827642356336801 0 0.044094628308957058 -0.087651847290754856 0 0.033429404710945708 -0.067827642356336801 0 0.052580487019044733 -0.06457445167855122 0 0.052580487019044733 -0.06457445167855122 0 0.057640786708643768 -0.07951032993234286 0 0.068682665651441266 -0.069637891440837665 0 0.044094628308957058 -0.087651847290754856 0 0.052580487019044733 -0.06457445167855122 0 0.057640786708643768 -0.07951032993234286 0 0.044094628308957058 -0.087651847290754856 0 0.057640786708643768 -0.07951032993234286 0 0.064045145718632748 -0.088800152685812248 0 0.056223070490067702 -0.1049071233711502 0 0.048525659269531229 -0.11802361343548989 0 0.040241467446851142 -0.1026788937802551 0 0.044094628308957058 -0.087651847290754856 0 0.056223070490067702 -0.1049071233711502 0 0.064045145718632748 -0.088800152685812248 0 0.06118566078759103 -0.13005342953014129 0 0.056223070490067702 -0.1049071233711502 0 0.048525659269531229 -0.11802361343548989 0 0.048525659269531229 -0.11802361343548989 0 0.042102756807481732 -0.1247829815156095 0 0.031290738437872938 -0.1201921761368282 0 0.048525659269531229 -0.11802361343548989 0 0.031290738437872938 -0.1201921761368282 0 0.040241467446851142 -0.1026788937802551 0 0.049352038069647858 -0.1295439288512826 0 0.048525659269531229 -0.11802361343548989 0 0.042102756807481732 -0.1247829815156095 0 0.044094628308957058 -0.087651847290754856 0 0.056223070490067702 -0.1049071233711502 0 0.040241467446851142 -0.1026788937802551 0 0.020415517075116841 0.0076517724901667356 0 0.020207185183206099 -0.010785841930981459 0 0.039787151186370009 -0.0039594854922263374 0 0.020207185183206099 -0.010785841930981459 0 0.0047038114401232534 -0.001040937293712483 0 0.0026421611525163911 -0.019923693291100199 0 0.020415517075116841 0.0076517724901667356 0 0.020207185183206099 -0.010785841930981459 0 0.0047038114401232534 -0.001040937293712483 0 0.020207185183206099 -0.010785841930981459 0 0.0026421611525163911 -0.019923693291100199 0 0.018057611388834851 -0.030223969914345401 0 0.0026421611525163911 -0.019923693291100199 0 0.018057611388834851 -0.030223969914345401 0 0.001114662024295677 -0.034644724797188199 0 0.018057611388834851 -0.030223969914345401 0 0.03214982838215158 -0.036550164909951742 0 0.03396684481877061 -0.021771474300517551 0 0.020207185183206099 -0.010785841930981459 0 0.018057611388834851 -0.030223969914345401 0 0.03396684481877061 -0.021771474300517551 0 0.018057611388834851 -0.030223969914345401 0 0.010882918392325341 -0.043546784918672053 0 0.022583515379492949 -0.04946345385366932 0 0.018057611388834851 -0.030223969914345401 0 0.022583515379492949 -0.04946345385366932 0 0.03214982838215158 -0.036550164909951742 0 0.010882918392325341 -0.043546784918672053 0 0.001114662024295677 -0.034644724797188199 0 0.003426744450576454 -0.054815297075420773 0 0.018057611388834851 -0.030223969914345401 0 0.010882918392325341 -0.043546784918672053 0 0.001114662024295677 -0.034644724797188199 0 0.018354718881549058 -0.065167425818499949 0 0.003426744450576454 -0.054815297075420773 0 0.022583515379492949 -0.04946345385366932 0 0.010882918392325341 -0.043546784918672053 0 0.003426744450576454 -0.054815297075420773 0 0.022583515379492949 -0.04946345385366932 0 0.018354718881549058 -0.065167425818499949 0 0.033429404710945708 -0.067827642356336801 0 0.022583515379492949 -0.04946345385366932 0 0.033429404710945708 -0.067827642356336801 0 0.022583515379492949 -0.04946345385366932 0 0.040434423972952403 -0.049093231793294147 0 0.033429404710945708 -0.067827642356336801 0 0.052580487019044733 -0.06457445167855122 0 0.040434423972952403 -0.049093231793294147 0 0.052580487019044733 -0.06457445167855122 0 0.040434423972952403 -0.049093231793294147 0 0.05544232884238081 -0.044875881875575382 0 0.052580487019044733 -0.06457445167855122 0 0.05544232884238081 -0.044875881875575382 0 0.068339170937992105 -0.053424337060716878 0 0.040434423972952403 -0.049093231793294147 0 0.05544232884238081 -0.044875881875575382 0 0.045706746350707102 -0.032198694687932281 0 0.05544232884238081 -0.044875881875575382 0 0.045706746350707102 -0.032198694687932281 0 0.061157621829282929 -0.025231604425866621 0 0.040434423972952403 -0.049093231793294147 0 0.045706746350707102 -0.032198694687932281 0 0.03214982838215158 -0.036550164909951742 0 0.022583515379492949 -0.04946345385366932 0 0.040434423972952403 -0.049093231793294147 0 0.03214982838215158 -0.036550164909951742 0 0.045706746350707102 -0.032198694687932281 0 0.03214982838215158 -0.036550164909951742 0 0.03396684481877061 -0.021771474300517551 0 0.045706746350707102 -0.032198694687932281 0 0.03396684481877061 -0.021771474300517551 0 0.047710046720236987 -0.018368172826886429 0 0.061157621829282929 -0.025231604425866621 0 0.047710046720236987 -0.018368172826886429 0 0.057931869416054299 -0.0086796052278893948 0 0.045706746350707102 -0.032198694687932281 0 0.061157621829282929 -0.025231604425866621 0 0.047710046720236987 -0.018368172826886429 0 0.053306813386582982 0.0056008818424343951 0 0.057931869416054299 -0.0086796052278893948 0 0.039787151186370009 -0.0039594854922263374 0 0.047710046720236987 -0.018368172826886429 0 0.057931869416054299 -0.0086796052278893948 0 0.039787151186370009 -0.0039594854922263374 0 0.053306813386582982 0.0056008818424343951 0 0.065940651683257009 0.0024831850618150888 0 0.057931869416054299 -0.0086796052278893948 0 0.020207185183206099 -0.010785841930981459 0 0.03396684481877061 -0.021771474300517551 0 0.039787151186370009 -0.0039594854922263374 0 0.03396684481877061 -0.021771474300517551 0 0.047710046720236987 -0.018368172826886429 0 0.039787151186370009 -0.0039594854922263374 0 0.07992851590561921 0.0082161523869754144 0 0.085319843464057188 -0.007629982329875426 0 0.074177093133044117 -0.010507922444979889 0 0.07992851590561921 0.0082161523869754144 0 0.085319843464057188 -0.007629982329875426 0 0.09649789417263642 -0.0037639840011086311 0 0.093491186985964037 -0.01472799792969565 0 0.085319843464057188 -0.007629982329875426 0 0.09649789417263642 -0.0037639840011086311 0 0.093491186985964037 -0.01472799792969565 0 0.085319843464057188 -0.007629982329875426 0 0.083581835824733053 -0.016535058395947159 0 0.085319843464057188 -0.007629982329875426 0 0.074177093133044117 -0.010507922444979889 0 0.083581835824733053 -0.016535058395947159 0 0.061157621829282929 -0.025231604425866621 0 0.057931869416054299 -0.0086796052278893948 0 0.074177093133044117 -0.010507922444979889 0 0.065940651683257009 0.0024831850618150888 0 0.057931869416054299 -0.0086796052278893948 0 0.074177093133044117 -0.010507922444979889 0 0.061157621829282929 -0.025231604425866621 0 0.077044537184394621 -0.024954964190685061 0 0.071280738265345076 -0.03811759874850193 0 0.061157621829282929 -0.025231604425866621 0 0.074177093133044117 -0.010507922444979889 0 0.077044537184394621 -0.024954964190685061 0 0.077044537184394621 -0.024954964190685061 0 0.087876518356205288 -0.024854425084499782 0 0.083696735197635597 -0.035074751153617953 0 0.077044537184394621 -0.024954964190685061 0 0.083581835824733053 -0.016535058395947159 0 0.087876518356205288 -0.024854425084499782 0 0.074177093133044117 -0.010507922444979889 0 0.077044537184394621 -0.024954964190685061 0 0.083581835824733053 -0.016535058395947159 0 0.093491186985964037 -0.01472799792969565 0 0.083581835824733053 -0.016535058395947159 0 0.087876518356205288 -0.024854425084499782 0 0.093491186985964037 -0.01472799792969565 0 0.087876518356205288 -0.024854425084499782 0 0.096892307268332672 -0.02266252034611416 0 0.087876518356205288 -0.024854425084499782 0 0.093921030959280866 -0.033511072873054298 0 0.096892307268332672 -0.02266252034611416 0 0.087876518356205288 -0.024854425084499782 0 0.083696735197635597 -0.035074751153617953 0 0.093921030959280866 -0.033511072873054298 0 0.088828324516270887 -0.041348533459236683 0 0.095977453204919599 -0.050472192210401508 0 0.093921030959280866 -0.033511072873054298 0 0.088828324516270887 -0.041348533459236683 0 0.083696735197635597 -0.035074751153617953 0 0.093921030959280866 -0.033511072873054298 0 0.088828324516270887 -0.041348533459236683 0 0.081718078703247488 -0.046336117599872988 0 0.095977453204919599 -0.050472192210401508 0 0.088828324516270887 -0.041348533459236683 0 0.081718078703247488 -0.046336117599872988 0 0.083696735197635597 -0.035074751153617953 0 0.081718078703247488 -0.046336117599872988 0 0.083696735197635597 -0.035074751153617953 0 0.071280738265345076 -0.03811759874850193 0 0.05544232884238081 -0.044875881875575382 0 0.061157621829282929 -0.025231604425866621 0 0.071280738265345076 -0.03811759874850193 0 0.05544232884238081 -0.044875881875575382 0 0.071280738265345076 -0.03811759874850193 0 0.068339170937992105 -0.053424337060716878 0 0.077044537184394621 -0.024954964190685061 0 0.083696735197635597 -0.035074751153617953 0 0.071280738265345076 -0.03811759874850193 0 0.081718078703247488 -0.046336117599872988 0 0.071280738265345076 -0.03811759874850193 0 0.068339170937992105 -0.053424337060716878 0 0.081718078703247488 -0.046336117599872988 0 0.068339170937992105 -0.053424337060716878 0 0.079819511512682115 -0.059373961925762081 0 0.068339170937992105 -0.053424337060716878 0 0.079819511512682115 -0.059373961925762081 0 0.068682665651441266 -0.069637891440837665 0 0.079819511512682115 -0.059373961925762081 0 0.095977453204919599 -0.050472192210401508 0 0.084380189065810102 -0.076999271316981366 0 0.081718078703247488 -0.046336117599872988 0 0.079819511512682115 -0.059373961925762081 0 0.095977453204919599 -0.050472192210401508 0 0.095977453204919599 -0.050472192210401508 0 0.1084893608633546 -0.054995312108922077 0 0.1003826539890946 -0.069656067773248523 0 0.095977453204919599 -0.050472192210401508 0 0.1084893608633546 -0.054995312108922077 0 0.10497618281608501 -0.042163163930312997 0 0.1084893608633546 -0.054995312108922077 0 0.12021542192502691 -0.05736310542253667 0 0.11225492598618329 -0.067700646346746801 0 0.12021542192502691 -0.05736310542253667 0 0.1181844865236701 -0.045884275653046647 0 0.1350650896680477 -0.050994701792827862 0 0.1084893608633546 -0.054995312108922077 0 0.12021542192502691 -0.05736310542253667 0 0.1181844865236701 -0.045884275653046647 0 0.1084893608633546 -0.054995312108922077 0 0.1181844865236701 -0.045884275653046647 0 0.10497618281608501 -0.042163163930312997 0 0.1181844865236701 -0.045884275653046647 0 0.1169603374125384 -0.034526050343312617 0 0.10497618281608501 -0.042163163930312997 0 0.10497618281608501 -0.042163163930312997 0 0.1139069069496291 -0.021464697665753471 0 0.1169603374125384 -0.034526050343312617 0 0.10497618281608501 -0.042163163930312997 0 0.1139069069496291 -0.021464697665753471 0 0.1181844865236701 -0.045884275653046647 0 0.1169603374125384 -0.034526050343312617 0 0.1283586559847627 -0.040725310836502493 0 0.095977453204919599 -0.050472192210401508 0 0.10497618281608501 -0.042163163930312997 0 0.1075747173440291 -0.023945113103821601 0 0.095977453204919599 -0.050472192210401508 0 0.093921030959280866 -0.033511072873054298 0 0.1075747173440291 -0.023945113103821601 0 0.095977453204919599 -0.050472192210401508 0 0.1075747173440291 -0.023945113103821601 0 0.10497618281608501 -0.042163163930312997 0 0.1075747173440291 -0.023945113103821601 0 0.1139069069496291 -0.021464697665753471 0 0.093921030959280866 -0.033511072873054298 0 0.096892307268332672 -0.02266252034611416 0 0.1075747173440291 -0.023945113103821601 0 0.093491186985964037 -0.01472799792969565 0 0.096892307268332672 -0.02266252034611416 0 0.10169828607787421 -0.015923098960230999 0 0.096892307268332672 -0.02266252034611416 0 0.10169828607787421 -0.015923098960230999 0 0.1075747173440291 -0.023945113103821601 0 0.10169828607787421 -0.015923098960230999 0 0.1075747173440291 -0.023945113103821601 0 0.1082483433893755 -0.0084409933366877514 0 0.1169603374125384 -0.034526050343312617 0 0.1213672368215104 -0.025634276355807499 0 0.12969235634276979 -0.031284000123743903 0 0.1169603374125384 -0.034526050343312617 0 0.1213672368215104 -0.025634276355807499 0 0.1139069069496291 -0.021464697665753471 0 0.1213672368215104 -0.025634276355807499 0 0.1139069069496291 -0.021464697665753471 0 0.12490934658110441 -0.01526235729042 0 0.11917198148314 0.002581966002757949 0 0.1075747173440291 -0.023945113103821601 0 0.1139069069496291 -0.021464697665753471 0 0.11917198148314 0.002581966002757949 0 0.1139069069496291 -0.021464697665753471 0 0.1228376310831711 -0.00076623140119310329 0 0.11917198148314 0.002581966002757949 0 0.1075747173440291 -0.023945113103821601 0 0.1082483433893755 -0.0084409933366877514 0 0.1139069069496291 -0.021464697665753471 0 0.12490934658110441 -0.01526235729042 0 0.1228376310831711 -0.00076623140119310329 0 0.1139069069496291 -0.021464697665753471 0 0.1228376310831711 -0.00076623140119310329 0 0.11917198148314 0.002581966002757949 0 0.1075747173440291 -0.023945113103821601 0 0.11917198148314 0.002581966002757949 0 0.1105415625726717 -0.0014271332550589229 0 0.1082483433893755 -0.0084409933366877514 0 0.1078625722471533 0.0022823866337398822 0 0.1105415625726717 -0.0014271332550589229 0 0.1039166904039584 -0.0028966343462391718 0 0.1039166904039584 -0.0028966343462391718 0 0.1082483433893755 -0.0084409933366877514 0 0.10154047648190589 -0.00941290969201335 0 0.1105415625726717 -0.0014271332550589229 0 0.1039166904039584 -0.0028966343462391718 0 0.1082483433893755 -0.0084409933366877514 0 0.10169828607787421 -0.015923098960230999 0 0.1082483433893755 -0.0084409933366877514 0 0.10154047648190589 -0.00941290969201335 0 0.093491186985964037 -0.01472799792969565 0 0.10154047648190589 -0.00941290969201335 0 0.09649789417263642 -0.0037639840011086311 0 0.093491186985964037 -0.01472799792969565 0 0.10169828607787421 -0.015923098960230999 0 0.10154047648190589 -0.00941290969201335 0 0.1039166904039584 -0.0028966343462391718 0 0.10154047648190589 -0.00941290969201335 0 0.09649789417263642 -0.0037639840011086311 0 0.088046088292129038 -0.10430519341125349 0 0.072782924926700548 -0.1035263504235614 0 0.088717560391344957 -0.092993146067331611 0 0.088046088292129038 -0.10430519341125349 0 0.080670658246847674 -0.112136361820053 0 0.072782924926700548 -0.1035263504235614 0 0.088046088292129038 -0.10430519341125349 0 0.088717560391344957 -0.092993146067331611 0 0.100171096126226 -0.096028489315426471 0 0.088046088292129038 -0.10430519341125349 0 0.089116900718008318 -0.11226838151764811 0 0.096817389343646892 -0.1088784313235004 0 0.088046088292129038 -0.10430519341125349 0 0.089116900718008318 -0.11226838151764811 0 0.080670658246847674 -0.112136361820053 0 0.089116900718008318 -0.11226838151764811 0 0.082844213492092533 -0.1195429602861619 0 0.095577299328253623 -0.1174095529111252 0 0.082362828069140165 -0.1319846138898183 0 0.082844213492092533 -0.1195429602861619 0 0.095577299328253623 -0.1174095529111252 0 0.082362828069140165 -0.1319846138898183 0 0.095577299328253623 -0.1174095529111252 0 0.082362828069140165 -0.1319846138898183 0 0.082844213492092533 -0.1195429602861619 0 0.069837722907261313 -0.1199532536492431 0 0.089116900718008318 -0.11226838151764811 0 0.082844213492092533 -0.1195429602861619 0 0.080670658246847674 -0.112136361820053 0 0.080670658246847674 -0.112136361820053 0 0.069837722907261313 -0.1199532536492431 0 0.072782924926700548 -0.1035263504235614 0 0.06118566078759103 -0.13005342953014129 0 0.072782924926700548 -0.1035263504235614 0 0.06118566078759103 -0.13005342953014129 0 0.069837722907261313 -0.1199532536492431 0 0.072782924926700548 -0.1035263504235614 0 0.06118566078759103 -0.13005342953014129 0 0.056223070490067702 -0.1049071233711502 0 0.072782924926700548 -0.1035263504235614 0 0.082844213492092533 -0.1195429602861619 0 0.080670658246847674 -0.112136361820053 0 0.069837722907261313 -0.1199532536492431 0 0.056223070490067702 -0.1049071233711502 0 0.072782924926700548 -0.1035263504235614 0 0.064045145718632748 -0.088800152685812248 0 0.057640786708643768 -0.07951032993234286 0 0.064045145718632748 -0.088800152685812248 0 0.068682665651441266 -0.069637891440837665 0 0.064045145718632748 -0.088800152685812248 0 0.068682665651441266 -0.069637891440837665 0 0.084380189065810102 -0.076999271316981366 0 0.072782924926700548 -0.1035263504235614 0 0.064045145718632748 -0.088800152685812248 0 0.084380189065810102 -0.076999271316981366 0 0.052580487019044733 -0.06457445167855122 0 0.068339170937992105 -0.053424337060716878 0 0.068682665651441266 -0.069637891440837665 0 0.079819511512682115 -0.059373961925762081 0 0.068682665651441266 -0.069637891440837665 0 0.084380189065810102 -0.076999271316981366 0 0.095977453204919599 -0.050472192210401508 0 0.084380189065810102 -0.076999271316981366 0 0.1003826539890946 -0.069656067773248523 0 0.095977453204919599 -0.050472192210401508 0 0.084380189065810102 -0.076999271316981366 0 0.084380189065810102 -0.076999271316981366 0 0.095693843046354268 -0.0841642264331387 0 0.1003826539890946 -0.069656067773248523 0 0.072782924926700548 -0.1035263504235614 0 0.084380189065810102 -0.076999271316981366 0 0.072782924926700548 -0.1035263504235614 0 0.084380189065810102 -0.076999271316981366 0 0.088717560391344957 -0.092993146067331611 0 0.084380189065810102 -0.076999271316981366 0 0.088717560391344957 -0.092993146067331611 0 0.095693843046354268 -0.0841642264331387 0 0.088717560391344957 -0.092993146067331611 0 0.095693843046354268 -0.0841642264331387 0 0.100171096126226 -0.096028489315426471 0 0.095693843046354268 -0.0841642264331387 0 0.1061825878765964 -0.082065358753895937 0 0.100171096126226 -0.096028489315426471 0 0.095693843046354268 -0.0841642264331387 0 0.1061825878765964 -0.082065358753895937 0 0.1003826539890946 -0.069656067773248523 0 0.1061825878765964 -0.082065358753895937 0 0.1152940355071756 -0.093458773729521216 0 0.100171096126226 -0.096028489315426471 0 0.1061825878765964 -0.082065358753895937 0 0.1003826539890946 -0.069656067773248523 0 0.11225492598618329 -0.067700646346746801 0 0.1084893608633546 -0.054995312108922077 0 0.1003826539890946 -0.069656067773248523 0 0.11225492598618329 -0.067700646346746801 0 0.1061825878765964 -0.082065358753895937 0 0.11225492598618329 -0.067700646346746801 0 0.1171317857577618 -0.078667044940758796 0 0.1171317857577618 -0.078667044940758796 0 0.12857779857738699 -0.078718698725873171 0 0.12708324658387871 -0.067240591211139955 0 0.11225492598618329 -0.067700646346746801 0 0.1171317857577618 -0.078667044940758796 0 0.12708324658387871 -0.067240591211139955 0 0.12021542192502691 -0.05736310542253667 0 0.11225492598618329 -0.067700646346746801 0 0.12708324658387871 -0.067240591211139955 0 0.1061825878765964 -0.082065358753895937 0 0.1152940355071756 -0.093458773729521216 0 0.1171317857577618 -0.078667044940758796 0 0.1171317857577618 -0.078667044940758796 0 0.1286838548293292 -0.09135300801218077 0 0.12857779857738699 -0.078718698725873171 0 0.1152940355071756 -0.093458773729521216 0 0.1171317857577618 -0.078667044940758796 0 0.1286838548293292 -0.09135300801218077 0 0.1152940355071756 -0.093458773729521216 0 0.1230450488982011 -0.098166020395255585 0 0.1286838548293292 -0.09135300801218077 0 0.1152940355071756 -0.093458773729521216 0 0.1230450488982011 -0.098166020395255585 0 0.1196469902177196 -0.1061558951397697 0 0.1230450488982011 -0.098166020395255585 0 0.1196469902177196 -0.1061558951397697 0 0.12917406780106669 -0.1036793655145172 0 0.1196469902177196 -0.1061558951397697 0 0.1094725419179296 -0.1044020385603272 0 0.1154331983948798 -0.1174886032934183 0 0.1152940355071756 -0.093458773729521216 0 0.1196469902177196 -0.1061558951397697 0 0.1094725419179296 -0.1044020385603272 0 0.1152940355071756 -0.093458773729521216 0 0.1094725419179296 -0.1044020385603272 0 0.100171096126226 -0.096028489315426471 0 0.1094725419179296 -0.1044020385603272 0 0.096817389343646892 -0.1088784313235004 0 0.100171096126226 -0.096028489315426471 0 0.088046088292129038 -0.10430519341125349 0 0.096817389343646892 -0.1088784313235004 0 0.100171096126226 -0.096028489315426471 0 0.096817389343646892 -0.1088784313235004 0 0.1051359327507693 -0.1227177542784853 0 0.1154331983948798 -0.1174886032934183 0 0.096817389343646892 -0.1088784313235004 0 0.1154331983948798 -0.1174886032934183 0 0.1005807427949069 -0.13366374688330029 0 0.095577299328253623 -0.1174095529111252 0 0.1051359327507693 -0.1227177542784853 0 0.1094725419179296 -0.1044020385603272 0 0.096817389343646892 -0.1088784313235004 0 0.1154331983948798 -0.1174886032934183 0 0.089116900718008318 -0.11226838151764811 0 0.096817389343646892 -0.1088784313235004 0 0.095577299328253623 -0.1174095529111252 0 0.096817389343646892 -0.1088784313235004 0 0.095577299328253623 -0.1174095529111252 0 0.1051359327507693 -0.1227177542784853 0 0.1154331983948798 -0.1174886032934183 0 0.13404900744611239 -0.12609877526333699 0 0.1196469902177196 -0.1061558951397697 0 0.1154331983948798 -0.1174886032934183 0 0.12686113813069899 -0.1114359576666621 0 0.1154331983948798 -0.1174886032934183 0 0.12686113813069899 -0.1114359576666621 0 0.13390982127973511 -0.11942472678041111 0 0.1154331983948798 -0.1174886032934183 0 0.13390982127973511 -0.11942472678041111 0 0.13404900744611239 -0.12609877526333699 0 0.12686113813069899 -0.1114359576666621 0 0.13614161296009411 -0.11043119760519431 0 0.13390982127973511 -0.11942472678041111 0 0.13614161296009411 -0.11043119760519431 0 0.14023431030656019 -0.11642081500581559 0 0.13390982127973511 -0.11942472678041111 0 0.13614161296009411 -0.11043119760519431 0 0.14023431030656019 -0.11642081500581559 0 0.14347338005148061 -0.1082488085161593 0 0.13773130733042549 -0.12113088311922759 0 0.1427320902892944 -0.12257921542734659 0 0.13404900744611239 -0.12609877526333699 0 0.13390982127973511 -0.11942472678041111 0 0.13773130733042549 -0.12113088311922759 0 0.13404900744611239 -0.12609877526333699 0 0.13390982127973511 -0.11942472678041111 0 0.13404900744611239 -0.12609877526333699 0 0.14023431030656019 -0.11642081500581559 0 0.13773130733042549 -0.12113088311922759 0 0.1427320902892944 -0.12257921542734659 0 0.14023431030656019 -0.11642081500581559 0 0.13390982127973511 -0.11942472678041111 0 0.13773130733042549 -0.12113088311922759 0 0.1427320902892944 -0.12257921542734659 0 0.15192118682329561 -0.12273271218809589 0 0.1490682445489844 -0.1279194233146575 0 0.1427320902892944 -0.12257921542734659 0 0.1474293378639818 -0.11515719203513899 0 0.15192118682329561 -0.12273271218809589 0 0.14023431030656019 -0.11642081500581559 0 0.1427320902892944 -0.12257921542734659 0 0.1474293378639818 -0.11515719203513899 0 0.1474293378639818 -0.11515719203513899 0 0.15201290161170181 -0.107226104105896 0 0.14347338005148061 -0.1082488085161593 0 0.14023431030656019 -0.11642081500581559 0 0.1474293378639818 -0.11515719203513899 0 0.14347338005148061 -0.1082488085161593 0 0.1474293378639818 -0.11515719203513899 0 0.15419764536576119 -0.1149677746217292 0 0.15201290161170181 -0.107226104105896 0 0.15419764536576119 -0.1149677746217292 0 0.15201290161170181 -0.107226104105896 0 0.1590985184781393 -0.1107939778183322 0 0.15419764536576119 -0.1149677746217292 0 0.15192118682329561 -0.12273271218809589 0 0.1605262820516872 -0.11892888696118289 0 0.1474293378639818 -0.11515719203513899 0 0.15419764536576119 -0.1149677746217292 0 0.15192118682329561 -0.12273271218809589 0 0.153855148049276 -0.097460838801678593 0 0.15201290161170181 -0.107226104105896 0 0.1462355681673109 -0.099255024001954253 0 0.153855148049276 -0.097460838801678593 0 0.1462355681673109 -0.099255024001954253 0 0.1490737095502995 -0.088653392770718792 0 0.153855148049276 -0.097460838801678593 0 0.15201290161170181 -0.107226104105896 0 0.16008969536972259 -0.10263897543636979 0 0.14347338005148061 -0.1082488085161593 0 0.1462355681673109 -0.099255024001954253 0 0.13800617896953651 -0.1013117005447786 0 0.15201290161170181 -0.107226104105896 0 0.14347338005148061 -0.1082488085161593 0 0.1462355681673109 -0.099255024001954253 0 0.1462355681673109 -0.099255024001954253 0 0.13800617896953651 -0.1013117005447786 0 0.14099209077157121 -0.092629299272494275 0 0.13800617896953651 -0.1013117005447786 0 0.1286838548293292 -0.09135300801218077 0 0.14099209077157121 -0.092629299272494275 0 0.13614161296009411 -0.11043119760519431 0 0.13800617896953651 -0.1013117005447786 0 0.12917406780106669 -0.1036793655145172 0 0.13614161296009411 -0.11043119760519431 0 0.14347338005148061 -0.1082488085161593 0 0.13800617896953651 -0.1013117005447786 0 0.1196469902177196 -0.1061558951397697 0 0.12686113813069899 -0.1114359576666621 0 0.12917406780106669 -0.1036793655145172 0 0.12686113813069899 -0.1114359576666621 0 0.13614161296009411 -0.11043119760519431 0 0.12917406780106669 -0.1036793655145172 0 0.1230450488982011 -0.098166020395255585 0 0.12917406780106669 -0.1036793655145172 0 0.1286838548293292 -0.09135300801218077 0 0.13800617896953651 -0.1013117005447786 0 0.12917406780106669 -0.1036793655145172 0 0.1286838548293292 -0.09135300801218077 0 0.1286838548293292 -0.09135300801218077 0 0.12857779857738699 -0.078718698725873171 0 0.13748132505412469 -0.08396770010957226 0 0.13748132505412469 -0.08396770010957226 0 0.1367334774756912 -0.073531819827653083 0 0.14538989296775451 -0.078880163337803719 0 0.12857779857738699 -0.078718698725873171 0 0.13748132505412469 -0.08396770010957226 0 0.1367334774756912 -0.073531819827653083 0 0.1286838548293292 -0.09135300801218077 0 0.13748132505412469 -0.08396770010957226 0 0.14099209077157121 -0.092629299272494275 0 0.12857779857738699 -0.078718698725873171 0 0.12708324658387871 -0.067240591211139955 0 0.1367334774756912 -0.073531819827653083 0 0.12708324658387871 -0.067240591211139955 0 0.1367334774756912 -0.073531819827653083 0 0.14110971147140131 -0.064913967020147179 0 0.1367334774756912 -0.073531819827653083 0 0.14110971147140131 -0.064913967020147179 0 0.14964674351361701 -0.070099729323911744 0 0.14110971147140131 -0.064913967020147179 0 0.14964674351361701 -0.070099729323911744 0 0.15194569281242609 -0.056105127932606663 0 0.1367334774756912 -0.073531819827653083 0 0.14964674351361701 -0.070099729323911744 0 0.14538989296775451 -0.078880163337803719 0 0.14964674351361701 -0.070099729323911744 0 0.14538989296775451 -0.078880163337803719 0 0.15822082836811369 -0.079982126599630443 0 0.14964674351361701 -0.070099729323911744 0 0.15822082836811369 -0.079982126599630443 0 0.1603896916223197 -0.069044426588861466 0 0.14964674351361701 -0.070099729323911744 0 0.1603896916223197 -0.069044426588861466 0 0.15194569281242609 -0.056105127932606663 0 0.13748132505412469 -0.08396770010957226 0 0.14099209077157121 -0.092629299272494275 0 0.1490737095502995 -0.088653392770718792 0 0.1462355681673109 -0.099255024001954253 0 0.14099209077157121 -0.092629299272494275 0 0.1490737095502995 -0.088653392770718792 0 0.13748132505412469 -0.08396770010957226 0 0.14538989296775451 -0.078880163337803719 0 0.1490737095502995 -0.088653392770718792 0 0.14538989296775451 -0.078880163337803719 0 0.1490737095502995 -0.088653392770718792 0 0.15822082836811369 -0.079982126599630443 0 0.153855148049276 -0.097460838801678593 0 0.1490737095502995 -0.088653392770718792 0 0.1594354292934542 -0.091737259282716963 0 0.1490737095502995 -0.088653392770718792 0 0.1594354292934542 -0.091737259282716963 0 0.15822082836811369 -0.079982126599630443 0 0.1594354292934542 -0.091737259282716963 0 0.15822082836811369 -0.079982126599630443 0 0.1684140015429216 -0.087293140772549349 0 0.15822082836811369 -0.079982126599630443 0 0.1684140015429216 -0.087293140772549349 0 0.1694423915093585 -0.075846288749261012 0 0.1684140015429216 -0.087293140772549349 0 0.1776016981043757 -0.094466756631608209 0 0.16825903644140999 -0.098606158866582916 0 0.1594354292934542 -0.091737259282716963 0 0.1684140015429216 -0.087293140772549349 0 0.16825903644140999 -0.098606158866582916 0 0.15822082836811369 -0.079982126599630443 0 0.1603896916223197 -0.069044426588861466 0 0.1694423915093585 -0.075846288749261012 0 0.1603896916223197 -0.069044426588861466 0 0.1694423915093585 -0.075846288749261012 0 0.17187576892014289 -0.062138750134232333 0 0.17971720707086189 -0.073145871694163048 0 0.17187576892014289 -0.062138750134232333 0 0.19180584502786041 -0.068172372335855602 0 0.17187576892014289 -0.062138750134232333 0 0.19180584502786041 -0.068172372335855602 0 0.1694423915093585 -0.075846288749261012 0 0.17971720707086189 -0.073145871694163048 0 0.17187576892014289 -0.062138750134232333 0 0.1694423915093585 -0.075846288749261012 0 0.17971720707086189 -0.073145871694163048 0 0.17803685153179119 -0.083473416706129469 0 0.17971720707086189 -0.073145871694163048 0 0.18645595400882431 -0.078186102724248294 0 0.19180584502786041 -0.068172372335855602 0 0.1684140015429216 -0.087293140772549349 0 0.17803685153179119 -0.083473416706129469 0 0.1776016981043757 -0.094466756631608209 0 0.1684140015429216 -0.087293140772549349 0 0.1694423915093585 -0.075846288749261012 0 0.17803685153179119 -0.083473416706129469 0 0.17803685153179119 -0.083473416706129469 0 0.18645595400882431 -0.078186102724248294 0 0.18748362772352481 -0.090285751384613616 0 0.17971720707086189 -0.073145871694163048 0 0.17803685153179119 -0.083473416706129469 0 0.18645595400882431 -0.078186102724248294 0 0.17803685153179119 -0.083473416706129469 0 0.18748362772352481 -0.090285751384613616 0 0.1776016981043757 -0.094466756631608209 0 0.1776016981043757 -0.094466756631608209 0 0.1757785255420414 -0.1036637588673371 0 0.18737718651252391 -0.1018645954104864 0 0.18748362772352481 -0.090285751384613616 0 0.1776016981043757 -0.094466756631608209 0 0.18737718651252391 -0.1018645954104864 0 0.1776016981043757 -0.094466756631608209 0 0.1757785255420414 -0.1036637588673371 0 0.16825903644140999 -0.098606158866582916 0 0.1757785255420414 -0.1036637588673371 0 0.17797479248166551 -0.1125427820454727 0 0.16787713834435419 -0.11000951374301229 0 0.1757785255420414 -0.1036637588673371 0 0.18737718651252391 -0.1018645954104864 0 0.17797479248166551 -0.1125427820454727 0 0.18737718651252391 -0.1018645954104864 0 0.18701697985041221 -0.11880972375357141 0 0.17797479248166551 -0.1125427820454727 0 0.18701697985041221 -0.11880972375357141 0 0.173543926957343 -0.1211375462363173 0 0.17990838590865871 -0.12844737664361131 0 0.18701697985041221 -0.11880972375357141 0 0.173543926957343 -0.1211375462363173 0 0.17797479248166551 -0.1125427820454727 0 0.173543926957343 -0.1211375462363173 0 0.17797479248166551 -0.1125427820454727 0 0.16787713834435419 -0.11000951374301229 0 0.173543926957343 -0.1211375462363173 0 0.16787713834435419 -0.11000951374301229 0 0.1605262820516872 -0.11892888696118289 0 0.173543926957343 -0.1211375462363173 0 0.1605262820516872 -0.11892888696118289 0 0.1641162962428066 -0.126449221113482 0 0.15192118682329561 -0.12273271218809589 0 0.1605262820516872 -0.11892888696118289 0 0.1587247560068413 -0.12564209046719049 0 0.1605262820516872 -0.11892888696118289 0 0.1587247560068413 -0.12564209046719049 0 0.1641162962428066 -0.126449221113482 0 0.15419764536576119 -0.1149677746217292 0 0.1605262820516872 -0.11892888696118289 0 0.1590985184781393 -0.1107939778183322 0 0.16787713834435419 -0.11000951374301229 0 0.1605262820516872 -0.11892888696118289 0 0.1590985184781393 -0.1107939778183322 0 0.15201290161170181 -0.107226104105896 0 0.1590985184781393 -0.1107939778183322 0 0.16008969536972259 -0.10263897543636979 0 0.16787713834435419 -0.11000951374301229 0 0.1590985184781393 -0.1107939778183322 0 0.16008969536972259 -0.10263897543636979 0 0.1594354292934542 -0.091737259282716963 0 0.16008969536972259 -0.10263897543636979 0 0.16825903644140999 -0.098606158866582916 0 0.153855148049276 -0.097460838801678593 0 0.1594354292934542 -0.091737259282716963 0 0.16008969536972259 -0.10263897543636979 0 0.1757785255420414 -0.1036637588673371 0 0.16787713834435419 -0.11000951374301229 0 0.16825903644140999 -0.098606158866582916 0 0.16787713834435419 -0.11000951374301229 0 0.16008969536972259 -0.10263897543636979 0 0.16825903644140999 -0.098606158866582916 0 0.1552076984021574 -0.0047487866015848753 0 0.1380919344669613 -0.01469948322874493 0 0.1606476670511833 -0.017066892083396779 0 0.14127976741107601 0.00215554095495248 0 0.1552076984021574 -0.0047487866015848753 0 0.1380919344669613 -0.01469948322874493 0 0.14127976741107601 0.00215554095495248 0 0.1228376310831711 -0.00076623140119310329 0 0.1380919344669613 -0.01469948322874493 0 0.1228376310831711 -0.00076623140119310329 0 0.1380919344669613 -0.01469948322874493 0 0.12490934658110441 -0.01526235729042 0 0.1228376310831711 -0.00076623140119310329 0 0.1380919344669613 -0.01469948322874493 0 0.1380919344669613 -0.01469948322874493 0 0.1415761600091012 -0.038003691908970592 0 0.12969235634276979 -0.031284000123743903 0 0.1213672368215104 -0.025634276355807499 0 0.12490934658110441 -0.01526235729042 0 0.12969235634276979 -0.031284000123743903 0 0.12490934658110441 -0.01526235729042 0 0.1380919344669613 -0.01469948322874493 0 0.12969235634276979 -0.031284000123743903 0 0.1380919344669613 -0.01469948322874493 0 0.15334623785075199 -0.02863273505629621 0 0.1415761600091012 -0.038003691908970592 0 0.1380919344669613 -0.01469948322874493 0 0.15334623785075199 -0.02863273505629621 0 0.1606476670511833 -0.017066892083396779 0 0.1380919344669613 -0.01469948322874493 0 0.15334623785075199 -0.02863273505629621 0 0.15437572795414581 -0.042117567211766717 0 0.1415761600091012 -0.038003691908970592 0 0.15194569281242609 -0.056105127932606663 0 0.15334623785075199 -0.02863273505629621 0 0.15437572795414581 -0.042117567211766717 0 0.1415761600091012 -0.038003691908970592 0 0.1181844865236701 -0.045884275653046647 0 0.1283586559847627 -0.040725310836502493 0 0.1350650896680477 -0.050994701792827862 0 0.1415761600091012 -0.038003691908970592 0 0.12969235634276979 -0.031284000123743903 0 0.1283586559847627 -0.040725310836502493 0 0.1169603374125384 -0.034526050343312617 0 0.12969235634276979 -0.031284000123743903 0 0.1283586559847627 -0.040725310836502493 0 0.1415761600091012 -0.038003691908970592 0 0.1283586559847627 -0.040725310836502493 0 0.1350650896680477 -0.050994701792827862 0 0.1181844865236701 -0.045884275653046647 0 0.1350650896680477 -0.050994701792827862 0 0.12021542192502691 -0.05736310542253667 0 0.12708324658387871 -0.067240591211139955 0 0.1350650896680477 -0.050994701792827862 0 0.12708324658387871 -0.067240591211139955 0 0.14110971147140131 -0.064913967020147179 0 0.1350650896680477 -0.050994701792827862 0 0.14110971147140131 -0.064913967020147179 0 0.15194569281242609 -0.056105127932606663 0 0.1415761600091012 -0.038003691908970592 0 0.1350650896680477 -0.050994701792827862 0 0.15194569281242609 -0.056105127932606663 0 0.1350650896680477 -0.050994701792827862 0 0.15194569281242609 -0.056105127932606663 0 0.14110971147140131 -0.064913967020147179 0 0.1350650896680477 -0.050994701792827862 0 0.15194569281242609 -0.056105127932606663 0 0.15194569281242609 -0.056105127932606663 0 0.16860054123454279 -0.042565986883847551 0 0.15437572795414581 -0.042117567211766717 0 0.15194569281242609 -0.056105127932606663 0 0.16860054123454279 -0.042565986883847551 0 0.1603896916223197 -0.069044426588861466 0 0.15194569281242609 -0.056105127932606663 0 0.17187576892014289 -0.062138750134232333 0 0.15194569281242609 -0.056105127932606663 0 0.165016394264413 -0.053661354003145263 0 0.17187576892014289 -0.062138750134232333 0 0.15194569281242609 -0.056105127932606663 0 0.165016394264413 -0.053661354003145263 0 0.16860054123454279 -0.042565986883847551 0 0.15194569281242609 -0.056105127932606663 0 0.17187576892014289 -0.062138750134232333 0 0.165016394264413 -0.053661354003145263 0 0.17187576892014289 -0.062138750134232333 0 0.18345715790010181 -0.056135992415964377 0 0.165016394264413 -0.053661354003145263 0 0.18345715790010181 -0.056135992415964377 0 0.16860054123454279 -0.042565986883847551 0 0.17187576892014289 -0.062138750134232333 0 0.18345715790010181 -0.056135992415964377 0 0.19180584502786041 -0.068172372335855602 0 0.18345715790010181 -0.056135992415964377 0 0.17385144243116649 -0.043269821226828903 0 0.18595588634396351 -0.043176695624854357 0 0.18345715790010181 -0.056135992415964377 0 0.17385144243116649 -0.043269821226828903 0 0.16860054123454279 -0.042565986883847551 0 0.18345715790010181 -0.056135992415964377 0 0.16860054123454279 -0.042565986883847551 0 0.18595588634396351 -0.043176695624854357 0 0.1782733089797521 -0.034702753096601993 0 0.1941468740000297 -0.021798736782002521 0 0.17385144243116649 -0.043269821226828903 0 0.18595588634396351 -0.043176695624854357 0 0.1782733089797521 -0.034702753096601993 0 0.17385144243116649 -0.043269821226828903 0 0.1782733089797521 -0.034702753096601993 0 0.16860054123454279 -0.042565986883847551 0 0.1782733089797521 -0.034702753096601993 0 0.16860054123454279 -0.042565986883847551 0 0.17385144243116649 -0.043269821226828903 0 0.1782733089797521 -0.034702753096601993 0 0.1782733089797521 -0.034702753096601993 0 0.16860054123454279 -0.042565986883847551 0 0.1670526359884773 -0.02836254214418232 0 0.15334623785075199 -0.02863273505629621 0 0.16860054123454279 -0.042565986883847551 0 0.1670526359884773 -0.02836254214418232 0 0.15334623785075199 -0.02863273505629621 0 0.15437572795414581 -0.042117567211766717 0 0.16860054123454279 -0.042565986883847551 0 0.15334623785075199 -0.02863273505629621 0 0.16860054123454279 -0.042565986883847551 0 0.15334623785075199 -0.02863273505629621 0 0.1606476670511833 -0.017066892083396779 0 0.1670526359884773 -0.02836254214418232 0 0.1606476670511833 -0.017066892083396779 0 0.1670526359884773 -0.02836254214418232 0 0.1743954248261565 -0.018844343600769399 0 0.1782733089797521 -0.034702753096601993 0 0.1743954248261565 -0.018844343600769399 0 0.1918659379284415 -0.0083679514935210662 0 0.1782733089797521 -0.034702753096601993 0 0.1670526359884773 -0.02836254214418232 0 0.1743954248261565 -0.018844343600769399 0 0.1782733089797521 -0.034702753096601993 0 0.1918659379284415 -0.0083679514935210662 0 0.1782733089797521 -0.034702753096601993 0 0.1941468740000297 -0.021798736782002521 0 0.1743954248261565 -0.018844343600769399 0 0.17983697574181159 -0.0080573062328258595 0 0.1918659379284415 -0.0083679514935210662 0 0.1743954248261565 -0.018844343600769399 0 0.17983697574181159 -0.0080573062328258595 0 0.17056947168728639 -0.0076341498549102596 0 0.17983697574181159 -0.0080573062328258595 0 0.18580903226614379 -0.0011502469314075439 0 0.17786282304025339 -0.001583287003114023 0 0.17983697574181159 -0.0080573062328258595 0 0.18580903226614379 -0.0011502469314075439 0 0.1918659379284415 -0.0083679514935210662 0 0.17983697574181159 -0.0080573062328258595 0 0.17786282304025339 -0.001583287003114023 0 0.17056947168728639 -0.0076341498549102596 0 0.17227434920368959 0.00081991249798677823 0 0.17786282304025339 -0.001583287003114023 0 0.17056947168728639 -0.0076341498549102596 0 0.17227434920368959 0.00081991249798677823 0 0.16550177429739321 0.001625335581948511 0 0.17056947168728639 -0.0076341498549102596 0 0.1606476670511833 -0.017066892083396779 0 0.1743954248261565 -0.018844343600769399 0 0.17056947168728639 -0.0076341498549102596 0 0.1552076984021574 -0.0047487866015848753 0 0.1606476670511833 -0.017066892083396779 0 0.17056947168728639 -0.0076341498549102596 0 0.15830422717032419 0.0026668804518291322 0 0.16550177429739321 0.001625335581948511 0 0.1552076984021574 -0.0047487866015848753 0 0.16550177429739321 0.001625335581948511 0 0.1552076984021574 -0.0047487866015848753 0 0.17056947168728639 -0.0076341498549102596 0 0.21653748859829491 -0.0035968485671754561 0 0.20239897911060981 -0.0049616950454924097 0 0.1941468740000297 -0.021798736782002521 0 0.21653748859829491 -0.0035968485671754561 0 0.1941468740000297 -0.021798736782002521 0 0.20955206102217341 -0.019021580532265901 0 0.21653748859829491 -0.0035968485671754561 0 0.20955206102217341 -0.019021580532265901 0 0.22864161374710179 -0.024239001361894639 0 0.21653748859829491 -0.0035968485671754561 0 0.1941468740000297 -0.021798736782002521 0 0.20938161325362409 0.0025060029461209908 0 0.21653748859829491 -0.0035968485671754561 0 0.20239897911060981 -0.0049616950454924097 0 0.19981118715584381 0.0070254328827108366 0 0.20239897911060981 -0.0049616950454924097 0 0.1918659379284415 -0.0083679514935210662 0 0.19981118715584381 0.0070254328827108366 0 0.1918659379284415 -0.0083679514935210662 0 0.20239897911060981 -0.0049616950454924097 0 0.1918659379284415 -0.0083679514935210662 0 0.1941468740000297 -0.021798736782002521 0 0.1894192936343001 0.0060385698470956234 0 0.18580903226614379 -0.0011502469314075439 0 0.1918659379284415 -0.0083679514935210662 0 0.1894192936343001 0.0060385698470956234 0 0.1918659379284415 -0.0083679514935210662 0 0.1918659379284415 -0.0083679514935210662 0 0.1941468740000297 -0.021798736782002521 0 0.1782733089797521 -0.034702753096601993 0 0.1918659379284415 -0.0083679514935210662 0 0.1941468740000297 -0.021798736782002521 0 0.1941468740000297 -0.021798736782002521 0 0.2031559883210855 -0.029985938475911671 0 0.20955206102217341 -0.019021580532265901 0 0.20955206102217341 -0.019021580532265901 0 0.21066165658577479 -0.033085676709690801 0 0.22864161374710179 -0.024239001361894639 0 0.2031559883210855 -0.029985938475911671 0 0.20955206102217341 -0.019021580532265901 0 0.21066165658577479 -0.033085676709690801 0 0.21864271396698939 -0.038649087319523719 0 0.21066165658577479 -0.033085676709690801 0 0.21034122995680221 -0.050048420551560682 0 0.21066165658577479 -0.033085676709690801 0 0.1982633616763636 -0.046037759879686967 0 0.21034122995680221 -0.050048420551560682 0 0.2031559883210855 -0.029985938475911671 0 0.21066165658577479 -0.033085676709690801 0 0.1982633616763636 -0.046037759879686967 0 0.21864271396698939 -0.038649087319523719 0 0.21034122995680221 -0.050048420551560682 0 0.21819242210762169 -0.050823402618315167 0 0.1941468740000297 -0.021798736782002521 0 0.2031559883210855 -0.029985938475911671 0 0.1982633616763636 -0.046037759879686967 0 0.18595588634396351 -0.043176695624854357 0 0.1941468740000297 -0.021798736782002521 0 0.1982633616763636 -0.046037759879686967 0 0.1941468740000297 -0.021798736782002521 0 0.1982633616763636 -0.046037759879686967 0 0.1982633616763636 -0.046037759879686967 0 0.19180584502786041 -0.068172372335855602 0 0.20237984935269879 -0.070276782977371152 0 0.1982633616763636 -0.046037759879686967 0 0.20237984935269879 -0.070276782977371152 0 0.18345715790010181 -0.056135992415964377 0 0.1982633616763636 -0.046037759879686967 0 0.19180584502786041 -0.068172372335855602 0 0.18345715790010181 -0.056135992415964377 0 0.18595588634396351 -0.043176695624854357 0 0.1982633616763636 -0.046037759879686967 0 0.21034122995680221 -0.050048420551560682 0 0.21390737605136481 -0.061417813804776289 0 0.20237984935269879 -0.070276782977371152 0 0.1982633616763636 -0.046037759879686967 0 0.21034122995680221 -0.050048420551560682 0 0.20237984935269879 -0.070276782977371152 0 0.21034122995680221 -0.050048420551560682 0 0.21819242210762169 -0.050823402618315167 0 0.21390737605136481 -0.061417813804776289 0 0.2255736282180465 -0.056882305063223393 0 0.23627526009844421 -0.049694667024589079 0 0.23165324526163639 -0.065502610206523884 0 0.21390737605136481 -0.061417813804776289 0 0.2255736282180465 -0.056882305063223393 0 0.2221192681341374 -0.068345353637844553 0 0.21819242210762169 -0.050823402618315167 0 0.21390737605136481 -0.061417813804776289 0 0.2255736282180465 -0.056882305063223393 0 0.21819242210762169 -0.050823402618315167 0 0.2255736282180465 -0.056882305063223393 0 0.22546512762764079 -0.044057692677509197 0 0.2255736282180465 -0.056882305063223393 0 0.23627526009844421 -0.049694667024589079 0 0.22546512762764079 -0.044057692677509197 0 0.24617004458672351 -0.058202332164817121 0 0.23627526009844421 -0.049694667024589079 0 0.24390890644978661 -0.075150332687283522 0 0.23627526009844421 -0.049694667024589079 0 0.24390890644978661 -0.075150332687283522 0 0.25164978009717781 -0.053061021673298493 0 0.24617004458672351 -0.058202332164817121 0 0.24422464309495209 -0.046986837608536558 0 0.24617004458672351 -0.058202332164817121 0 0.24422464309495209 -0.046986837608536558 0 0.23627526009844421 -0.049694667024589079 0 0.25164978009717781 -0.053061021673298493 0 0.2539732262079259 -0.044675773385505282 0 0.24422464309495209 -0.046986837608536558 0 0.24422464309495209 -0.046986837608536558 0 0.23627526009844421 -0.049694667024589079 0 0.24524507923365879 -0.0330622213940093 0 0.25845033672230949 -0.02738613623275089 0 0.24422464309495209 -0.046986837608536558 0 0.24524507923365879 -0.0330622213940093 0 0.23627526009844421 -0.049694667024589079 0 0.24524507923365879 -0.0330622213940093 0 0.22864161374710179 -0.024239001361894639 0 0.21864271396698939 -0.038649087319523719 0 0.21066165658577479 -0.033085676709690801 0 0.22864161374710179 -0.024239001361894639 0 0.23627526009844421 -0.049694667024589079 0 0.22864161374710179 -0.024239001361894639 0 0.21864271396698939 -0.038649087319523719 0 0.22546512762764079 -0.044057692677509197 0 0.22864161374710179 -0.024239001361894639 0 0.23627526009844421 -0.049694667024589079 0 0.22546512762764079 -0.044057692677509197 0 0.22864161374710179 -0.024239001361894639 0 0.21864271396698939 -0.038649087319523719 0 0.21819242210762169 -0.050823402618315167 0 0.22546512762764079 -0.044057692677509197 0 0.22864161374710179 -0.024239001361894639 0 0.24437070500465241 -0.019757014484825589 0 0.23246643938152739 -0.0092251246746631842 0 0.24524507923365879 -0.0330622213940093 0 0.22864161374710179 -0.024239001361894639 0 0.24437070500465241 -0.019757014484825589 0 0.25013504981522988 -0.025019616072594848 0 0.24524507923365879 -0.0330622213940093 0 0.24437070500465241 -0.019757014484825589 0 0.25247407830029878 -0.019873092178793648 0 0.25006914023697918 -0.01208141302270524 0 0.24437070500465241 -0.019757014484825589 0 0.25013504981522988 -0.025019616072594848 0 0.25247407830029878 -0.019873092178793648 0 0.24437070500465241 -0.019757014484825589 0 0.24437070500465241 -0.019757014484825589 0 0.242989310538931 -0.0092135161021761666 0 0.23246643938152739 -0.0092251246746631842 0 0.25006914023697918 -0.01208141302270524 0 0.242989310538931 -0.0092135161021761666 0 0.2479891295484222 -0.0022684572774312019 0 0.25006914023697918 -0.01208141302270524 0 0.24437070500465241 -0.019757014484825589 0 0.242989310538931 -0.0092135161021761666 0 0.2429424487767215 0.0026164120279975069 0 0.2479891295484222 -0.0022684572774312019 0 0.24005113852307369 -0.0027355710512556022 0 0.242989310538931 -0.0092135161021761666 0 0.2479891295484222 -0.0022684572774312019 0 0.24005113852307369 -0.0027355710512556022 0 0.23517440673197429 0.0051848507458196356 0 0.24005113852307369 -0.0027355710512556022 0 0.23246643938152739 -0.0092251246746631842 0 0.242989310538931 -0.0092135161021761666 0 0.24005113852307369 -0.0027355710512556022 0 0.23246643938152739 -0.0092251246746631842 0 0.22100796739575951 0.001216664300799794 0 0.22864161374710179 -0.024239001361894639 0 0.23246643938152739 -0.0092251246746631842 0 0.23517440673197429 0.0051848507458196356 0 0.22100796739575951 0.001216664300799794 0 0.23246643938152739 -0.0092251246746631842 0 0.22100796739575951 0.001216664300799794 0 0.21653748859829491 -0.0035968485671754561 0 0.22864161374710179 -0.024239001361894639 0 0.22100796739575951 0.001216664300799794 0 0.22864161374710179 -0.024239001361894639 0 0.206496337029034 -0.094515806075055359 0 0.21061282470536921 -0.1187548291727395 0 0.206496337029034 -0.094515806075055359 0 0.22623965631488491 -0.089683688039789988 0 0.22333782165884589 -0.10574313483481231 0 0.206496337029034 -0.094515806075055359 0 0.21061282470536921 -0.1187548291727395 0 0.22333782165884589 -0.10574313483481231 0 0.18737718651252391 -0.1018645954104864 0 0.18701697985041221 -0.11880972375357141 0 0.21061282470536921 -0.1187548291727395 0 0.18701697985041221 -0.11880972375357141 0 0.21061282470536921 -0.1187548291727395 0 0.19260125287660149 -0.13207131947283501 0 0.18748362772352481 -0.090285751384613616 0 0.18737718651252391 -0.1018645954104864 0 0.206496337029034 -0.094515806075055359 0 0.18737718651252391 -0.1018645954104864 0 0.206496337029034 -0.094515806075055359 0 0.21061282470536921 -0.1187548291727395 0 0.18748362772352481 -0.090285751384613616 0 0.206496337029034 -0.094515806075055359 0 0.19448955746265811 -0.082220240722777116 0 0.206496337029034 -0.094515806075055359 0 0.19448955746265811 -0.082220240722777116 0 0.20237984935269879 -0.070276782977371152 0 0.18645595400882431 -0.078186102724248294 0 0.18748362772352481 -0.090285751384613616 0 0.19448955746265811 -0.082220240722777116 0 0.18645595400882431 -0.078186102724248294 0 0.19448955746265811 -0.082220240722777116 0 0.19180584502786041 -0.068172372335855602 0 0.19448955746265811 -0.082220240722777116 0 0.19180584502786041 -0.068172372335855602 0 0.20237984935269879 -0.070276782977371152 0 0.21390737605136481 -0.061417813804776289 0 0.20237984935269879 -0.070276782977371152 0 0.21248527081093549 -0.070330245212121473 0 0.20237984935269879 -0.070276782977371152 0 0.21248527081093549 -0.070330245212121473 0 0.2145783618208984 -0.079628257083024359 0 0.21248527081093549 -0.070330245212121473 0 0.2145783618208984 -0.079628257083024359 0 0.2221192681341374 -0.068345353637844553 0 0.21390737605136481 -0.061417813804776289 0 0.21248527081093549 -0.070330245212121473 0 0.2221192681341374 -0.068345353637844553 0 0.206496337029034 -0.094515806075055359 0 0.20237984935269879 -0.070276782977371152 0 0.2145783618208984 -0.079628257083024359 0 0.206496337029034 -0.094515806075055359 0 0.2145783618208984 -0.079628257083024359 0 0.22623965631488491 -0.089683688039789988 0 0.206496337029034 -0.094515806075055359 0 0.20237984935269879 -0.070276782977371152 0 0.2145783618208984 -0.079628257083024359 0 0.22623965631488491 -0.089683688039789988 0 0.23038916340776741 -0.077440392619678861 0 0.22623965631488491 -0.089683688039789988 0 0.23038916340776741 -0.077440392619678861 0 0.23781669784438761 -0.088769324738514177 0 0.22623965631488491 -0.089683688039789988 0 0.23781669784438761 -0.088769324738514177 0 0.23714180950183539 -0.10160942858925499 0 0.2145783618208984 -0.079628257083024359 0 0.2221192681341374 -0.068345353637844553 0 0.23038916340776741 -0.077440392619678861 0 0.2255736282180465 -0.056882305063223393 0 0.2221192681341374 -0.068345353637844553 0 0.23165324526163639 -0.065502610206523884 0 0.2221192681341374 -0.068345353637844553 0 0.23038916340776741 -0.077440392619678861 0 0.23165324526163639 -0.065502610206523884 0 0.25256726729664603 -0.064532785491330763 0 0.24617004458672351 -0.058202332164817121 0 0.24390890644978661 -0.075150332687283522 0 0.23627526009844421 -0.049694667024589079 0 0.23165324526163639 -0.065502610206523884 0 0.24390890644978661 -0.075150332687283522 0 0.23038916340776741 -0.077440392619678861 0 0.23165324526163639 -0.065502610206523884 0 0.24390890644978661 -0.075150332687283522 0 0.25154255280112903 -0.1006059983499779 0 0.24390890644978661 -0.075150332687283522 0 0.25154255280112903 -0.1006059983499779 0 0.24390890644978661 -0.075150332687283522 0 0.23781669784438761 -0.088769324738514177 0 0.23038916340776741 -0.077440392619678861 0 0.24390890644978661 -0.075150332687283522 0 0.23781669784438761 -0.088769324738514177 0 0.25154255280112903 -0.1006059983499779 0 0.23714180950183539 -0.10160942858925499 0 0.24954668948061209 -0.11284283178631641 0 0.25154255280112903 -0.1006059983499779 0 0.23781669784438761 -0.088769324738514177 0 0.23714180950183539 -0.10160942858925499 0 0.23714180950183539 -0.10160942858925499 0 0.22333782165884589 -0.10574313483481231 0 0.23542538064511609 -0.1194854446592761 0 0.22623965631488491 -0.089683688039789988 0 0.23714180950183539 -0.10160942858925499 0 0.22333782165884589 -0.10574313483481231 0 0.21061282470536921 -0.1187548291727395 0 0.22333782165884589 -0.10574313483481231 0 0.23542538064511609 -0.1194854446592761 0 0.25741251913389712 -0.1305951081492244 0 0.23542538064511609 -0.1194854446592761 0 0.24954668948061209 -0.11284283178631641 0 0.23714180950183539 -0.10160942858925499 0 0.23542538064511609 -0.1194854446592761 0 0.24954668948061209 -0.11284283178631641 0 0.25741251913389712 -0.1305951081492244 0 0.25452239946831973 -0.14829655140993131 0 0.23191914561449989 -0.13726295483178369 0 0.25741251913389712 -0.1305951081492244 0 0.23542538064511609 -0.1194854446592761 0 0.23191914561449989 -0.13726295483178369 0 0.25452239946831973 -0.14829655140993131 0 0.23782434991563151 -0.15439369078169049 0 0.23191914561449989 -0.13726295483178369 0 0.23782434991563151 -0.15439369078169049 0 0.2147293123817042 -0.1429938522704238 0 0.23782434991563151 -0.15439369078169049 0 0.2147293123817042 -0.1429938522704238 0 0.21952864142792899 -0.1712536350637954 0 0.23782434991563151 -0.15439369078169049 0 0.23191914561449989 -0.13726295483178369 0 0.2147293123817042 -0.1429938522704238 0 0.21061282470536921 -0.1187548291727395 0 0.23542538064511609 -0.1194854446592761 0 0.23191914561449989 -0.13726295483178369 0 0.21061282470536921 -0.1187548291727395 0 0.23191914561449989 -0.13726295483178369 0 0.2147293123817042 -0.1429938522704238 0 0.2147293123817042 -0.1429938522704238 0 0.19260125287660149 -0.13207131947283501 0 0.21061282470536921 -0.1187548291727395 0 0.2147293123817042 -0.1429938522704238 0 0.19260125287660149 -0.13207131947283501 0 0.21061282470536921 -0.1187548291727395 0 0.2147293123817042 -0.1429938522704238 0 0.2147293123817042 -0.1429938522704238 0 0.20548350855114439 -0.15623176612928341 0 0.19677556980284089 -0.14597147697610061 0 0.20548350855114439 -0.15623176612928341 0 0.19677556980284089 -0.14597147697610061 0 0.19325106823209409 -0.153061144976989 0 0.19677556980284089 -0.14597147697610061 0 0.19325106823209409 -0.153061144976989 0 0.18786488322971459 -0.15098965934649999 0 0.19325106823209409 -0.153061144976989 0 0.18786488322971459 -0.15098965934649999 0 0.1842505296355367 -0.15589311325690541 0 0.19677556980284089 -0.14597147697610061 0 0.18786488322971459 -0.15098965934649999 0 0.188659048266132 -0.1418371739210742 0 0.2147293123817042 -0.1429938522704238 0 0.19677556980284089 -0.14597147697610061 0 0.19260125287660149 -0.13207131947283501 0 0.19677556980284089 -0.14597147697610061 0 0.188659048266132 -0.1418371739210742 0 0.19260125287660149 -0.13207131947283501 0 0.18830323417204939 -0.1765657128700695 0 0.20313295091115369 -0.1678787213591082 0 0.20600005448239761 -0.18645800734220749 0 0.18830323417204939 -0.1765657128700695 0 0.20600005448239761 -0.18645800734220749 0 0.1956377870383576 -0.1970896374814364 0 0.19325106823209409 -0.153061144976989 0 0.18830323417204939 -0.1765657128700695 0 0.19325106823209409 -0.153061144976989 0 0.18830323417204939 -0.1765657128700695 0 0.20313295091115369 -0.1678787213591082 0 0.19325106823209409 -0.153061144976989 0 0.18830323417204939 -0.1765657128700695 0 0.18144082188941271 -0.16389154531309821 0 0.20548350855114439 -0.15623176612928341 0 0.19325106823209409 -0.153061144976989 0 0.20313295091115369 -0.1678787213591082 0 0.20548350855114439 -0.15623176612928341 0 0.20313295091115369 -0.1678787213591082 0 0.21952864142792899 -0.1712536350637954 0 0.2147293123817042 -0.1429938522704238 0 0.21952864142792899 -0.1712536350637954 0 0.2147293123817042 -0.1429938522704238 0 0.20548350855114439 -0.15623176612928341 0 0.21952864142792899 -0.1712536350637954 0 0.20600005448239761 -0.18645800734220749 0 0.21952864142792899 -0.1712536350637954 0 0.22432797047415351 -0.19951341785716731 0 0.20313295091115369 -0.1678787213591082 0 0.20600005448239761 -0.18645800734220749 0 0.21952864142792899 -0.1712536350637954 0 0.21952864142792899 -0.1712536350637954 0 0.2437278363918948 -0.18195096812212239 0 0.22432797047415351 -0.19951341785716731 0 0.21952864142792899 -0.1712536350637954 0 0.22432797047415351 -0.19951341785716731 0 0.23782434991563151 -0.15439369078169049 0 0.21952864142792899 -0.1712536350637954 0 0.2437278363918948 -0.18195096812212239 0 0.260919387449559 -0.16579352929295721 0 0.23782434991563151 -0.15439369078169049 0 0.260919387449559 -0.16579352929295721 0 0.23782434991563151 -0.15439369078169049 0 0.2437278363918948 -0.18195096812212239 0 0.2437278363918948 -0.18195096812212239 0 0.24314545538918961 -0.20571013864437751 0 0.22432797047415351 -0.19951341785716731 0 0.2593871514889205 -0.19799184377322379 0 0.2437278363918948 -0.18195096812212239 0 0.24314545538918961 -0.20571013864437751 0 0.22432797047415351 -0.19951341785716731 0 0.2342802842193491 -0.2219117808856606 0 0.21564630723174069 -0.21833189921059021 0 0.24314545538918961 -0.20571013864437751 0 0.22432797047415351 -0.19951341785716731 0 0.2342802842193491 -0.2219117808856606 0 0.2462907050713771 -0.25204034373521428 0 0.2499607574480687 -0.24385609709525671 0 0.2374752251495614 -0.24157268794541539 0 0.25134951441318748 -0.22920843539767929 0 0.2499607574480687 -0.24385609709525671 0 0.2374752251495614 -0.24157268794541539 0 0.25134951441318748 -0.22920843539767929 0 0.24314545538918961 -0.20571013864437751 0 0.2342802842193491 -0.2219117808856606 0 0.25134951441318748 -0.22920843539767929 0 0.2374752251495614 -0.24157268794541539 0 0.2342802842193491 -0.2219117808856606 0 0.2374752251495614 -0.24157268794541539 0 0.22060620183210919 -0.232775489656291 0 0.2342802842193491 -0.2219117808856606 0 0.22060620183210919 -0.232775489656291 0 0.2342802842193491 -0.2219117808856606 0 0.21564630723174069 -0.21833189921059021 0 0.22198339683909701 -0.25340717595137879 0 0.2374752251495614 -0.24157268794541539 0 0.22060620183210919 -0.232775489656291 0 0.22198339683909701 -0.25340717595137879 0 0.22060620183210919 -0.232775489656291 0 0.22198339683909701 -0.25340717595137879 0 0.22060620183210919 -0.232775489656291 0 0.20573671357227499 -0.23448295905173899 0 0.22198339683909701 -0.25340717595137879 0 0.20573671357227499 -0.23448295905173899 0 0.19815896102696709 -0.24816545406213189 0 0.22060620183210919 -0.232775489656291 0 0.20573671357227499 -0.23448295905173899 0 0.21564630723174069 -0.21833189921059021 0 0.20573671357227499 -0.23448295905173899 0 0.19801089506944891 -0.22061097325298201 0 0.21564630723174069 -0.21833189921059021 0 0.20573671357227499 -0.23448295905173899 0 0.19801089506944891 -0.22061097325298201 0 0.18862314846194941 -0.23474346369713109 0 0.19801089506944891 -0.22061097325298201 0 0.18862314846194941 -0.23474346369713109 0 0.17884496266341901 -0.22149700646801701 0 0.20573671357227499 -0.23448295905173899 0 0.18862314846194941 -0.23474346369713109 0 0.19815896102696709 -0.24816545406213189 0 0.20600005448239761 -0.18645800734220749 0 0.22432797047415351 -0.19951341785716731 0 0.20571207111442141 -0.20503903284801611 0 0.22432797047415351 -0.19951341785716731 0 0.21564630723174069 -0.21833189921059021 0 0.20571207111442141 -0.20503903284801611 0 0.19801089506944891 -0.22061097325298201 0 0.21564630723174069 -0.21833189921059021 0 0.20571207111442141 -0.20503903284801611 0 0.19801089506944891 -0.22061097325298201 0 0.19227081910603411 -0.2100117569492751 0 0.17884496266341901 -0.22149700646801701 0 0.20571207111442141 -0.20503903284801611 0 0.19227081910603411 -0.2100117569492751 0 0.1956377870383576 -0.1970896374814364 0 0.19801089506944891 -0.22061097325298201 0 0.20571207111442141 -0.20503903284801611 0 0.19227081910603411 -0.2100117569492751 0 0.18830323417204939 -0.1765657128700695 0 0.1956377870383576 -0.1970896374814364 0 0.18335540011200491 -0.20007028076315 0 0.19227081910603411 -0.2100117569492751 0 0.1956377870383576 -0.1970896374814364 0 0.18335540011200491 -0.20007028076315 0 0.1956377870383576 -0.1970896374814364 0 0.18335540011200491 -0.20007028076315 0 0.20600005448239761 -0.18645800734220749 0 0.20571207111442141 -0.20503903284801611 0 0.1956377870383576 -0.1970896374814364 0 0.18830323417204939 -0.1765657128700695 0 0.18335540011200491 -0.20007028076315 0 0.18335540011200491 -0.20007028076315 0 0.16873688803845349 -0.19227854821165941 0 0.17543185729929969 -0.18273889272689711 0 0.19227081910603411 -0.2100117569492751 0 0.18335540011200491 -0.20007028076315 0 0.17884496266341901 -0.22149700646801701 0 0.18335540011200491 -0.20007028076315 0 0.17884496266341901 -0.22149700646801701 0 0.18335540011200491 -0.20007028076315 0 0.16621660047528611 -0.21253283526692829 0 0.17884496266341901 -0.22149700646801701 0 0.16621660047528611 -0.21253283526692829 0 0.1593158439583067 -0.2059041094785751 0 0.15302060169630469 -0.2217977003443504 0 0.18335540011200491 -0.20007028076315 0 0.16621660047528611 -0.21253283526692829 0 0.1593158439583067 -0.2059041094785751 0 0.16621660047528611 -0.21253283526692829 0 0.1593158439583067 -0.2059041094785751 0 0.1593158439583067 -0.2059041094785751 0 0.15759932706250929 -0.18907488386135229 0 0.16873688803845349 -0.19227854821165941 0 0.18335540011200491 -0.20007028076315 0 0.1593158439583067 -0.2059041094785751 0 0.18335540011200491 -0.20007028076315 0 0.1593158439583067 -0.2059041094785751 0 0.16873688803845349 -0.19227854821165941 0 0.18066177981631051 -0.25348299893649828 0 0.19815896102696709 -0.24816545406213189 0 0.17433452521483719 -0.24292373217288479 0 0.19815896102696709 -0.24816545406213189 0 0.17433452521483719 -0.24292373217288479 0 0.18862314846194941 -0.23474346369713109 0 0.19815896102696709 -0.24816545406213189 0 0.17433452521483719 -0.24292373217288479 0 0.18066177981631051 -0.25348299893649828 0 0.17304535898525439 -0.24904788565112909 0 0.17433452521483719 -0.24292373217288479 0 0.17304535898525439 -0.24904788565112909 0 0.17433452521483719 -0.24292373217288479 0 0.18862314846194941 -0.23474346369713109 0 0.17433452521483719 -0.24292373217288479 0 0.17884496266341901 -0.22149700646801701 0 0.17433452521483719 -0.24292373217288479 0 0.17884496266341901 -0.22149700646801701 0 0.17433452521483719 -0.24292373217288479 0 0.17884496266341901 -0.22149700646801701 0 0.16512535944417561 -0.22744738033917331 0 0.16512535944417561 -0.22744738033917331 0 0.15532271566916761 -0.23874085795770611 0 0.15302060169630469 -0.2217977003443504 0 0.16621660047528611 -0.21253283526692829 0 0.17884496266341901 -0.22149700646801701 0 0.16512535944417561 -0.22744738033917331 0 0.16621660047528611 -0.21253283526692829 0 0.16512535944417561 -0.22744738033917331 0 0.15302060169630469 -0.2217977003443504 0 0.17304535898525439 -0.24904788565112909 0 0.17433452521483719 -0.24292373217288479 0 0.15532271566916761 -0.23874085795770611 0 0.15867772839633809 -0.25707915377424612 0 0.17304535898525439 -0.24904788565112909 0 0.15532271566916761 -0.23874085795770611 0 0.17433452521483719 -0.24292373217288479 0 0.16512535944417561 -0.22744738033917331 0 0.15532271566916761 -0.23874085795770611 0 0.17433452521483719 -0.24292373217288479 0 0.15532271566916761 -0.23874085795770611 0 0.15532271566916761 -0.23874085795770611 0 0.1363109061234978 -0.23455798374252809 0 0.13687529418603939 -0.26162068250561471 0 0.15532271566916761 -0.23874085795770611 0 0.1363109061234978 -0.23455798374252809 0 0.15532271566916761 -0.23874085795770611 0 0.15302060169630469 -0.2217977003443504 0 0.1363109061234978 -0.23455798374252809 0 0.15302060169630469 -0.2217977003443504 0 0.1363109061234978 -0.23455798374252809 0 0.13583218450739579 -0.2116030352811932 0 0.12594488917549271 -0.2231145762792166 0 0.1363109061234978 -0.23455798374252809 0 0.13583218450739579 -0.2116030352811932 0 0.1363109061234978 -0.23455798374252809 0 0.13583218450739579 -0.2116030352811932 0 0.13687529418603939 -0.26162068250561471 0 0.1363109061234978 -0.23455798374252809 0 0.13687529418603939 -0.26162068250561471 0 0.1223190960555403 -0.2394332616338683 0 0.1363109061234978 -0.23455798374252809 0 0.1593158439583067 -0.2059041094785751 0 0.15759932706250929 -0.18907488386135229 0 0.14727334507129489 -0.19433633097022029 0 0.14727334507129489 -0.19433633097022029 0 0.13523084618428721 -0.18276855246186111 0 0.1593158439583067 -0.2059041094785751 0 0.14727334507129489 -0.19433633097022029 0 0.1593158439583067 -0.2059041094785751 0 0.14727334507129489 -0.19433633097022029 0 0.13583218450739579 -0.2116030352811932 0 0.1593158439583067 -0.2059041094785751 0 0.13583218450739579 -0.2116030352811932 0 0.1593158439583067 -0.2059041094785751 0 0.15302060169630469 -0.2217977003443504 0 0.13583218450739579 -0.2116030352811932 0 0.1146962174531268 -0.21673223195775559 0 0.12594488917549271 -0.2231145762792166 0 0.13583218450739579 -0.2116030352811932 0 0.1146962174531268 -0.21673223195775559 0 0.13583218450739579 -0.2116030352811932 0 0.13583218450739579 -0.2116030352811932 0 0.13523084618428721 -0.18276855246186111 0 0.1210323504124224 -0.2015702574875764 0 0.13583218450739579 -0.2116030352811932 0 0.13523084618428721 -0.18276855246186111 0 0.14727334507129489 -0.19433633097022029 0 0.13583218450739579 -0.2116030352811932 0 0.13523084618428721 -0.18276855246186111 0 0.13523084618428721 -0.18276855246186111 0 0.13483495552902119 -0.16378539130439421 0 0.13523084618428721 -0.18276855246186111 0 0.14953284821028701 -0.17659781711855899 0 0.13483495552902119 -0.16378539130439421 0 0.12574768761326591 -0.17365922399620121 0 0.13523084618428721 -0.18276855246186111 0 0.13483495552902119 -0.16378539130439421 0 0.12574768761326591 -0.17365922399620121 0 0.13523084618428721 -0.18276855246186111 0 0.15759932706250929 -0.18907488386135229 0 0.14727334507129489 -0.19433633097022029 0 0.14953284821028701 -0.17659781711855899 0 0.14727334507129489 -0.19433633097022029 0 0.13523084618428721 -0.18276855246186111 0 0.14953284821028701 -0.17659781711855899 0 0.15759932706250929 -0.18907488386135229 0 0.14953284821028701 -0.17659781711855899 0 0.16056198994912749 -0.17787080610445691 0 0.14953284821028701 -0.17659781711855899 0 0.15118562361057611 -0.16212531631630639 0 0.13483495552902119 -0.16378539130439421 0 0.15118562361057611 -0.16212531631630639 0 0.13483495552902119 -0.16378539130439421 0 0.15272907190244081 -0.1550331303974728 0 0.15118562361057611 -0.16212531631630639 0 0.15272907190244081 -0.1550331303974728 0 0.15987479688754311 -0.1572750313981319 0 0.14953284821028701 -0.17659781711855899 0 0.15118562361057611 -0.16212531631630639 0 0.1601367247146048 -0.167216461388007 0 0.1232701832726428 -0.15427141090171109 0 0.12574768761326591 -0.17365922399620121 0 0.13483495552902119 -0.16378539130439421 0 0.12574768761326591 -0.17365922399620121 0 0.13483495552902119 -0.16378539130439421 0 0.13483495552902119 -0.16378539130439421 0 0.13444198148756639 -0.1449420832838656 0 0.14315652521050079 -0.14523933820255211 0 0.1232701832726428 -0.15427141090171109 0 0.13483495552902119 -0.16378539130439421 0 0.13444198148756639 -0.1449420832838656 0 0.13483495552902119 -0.16378539130439421 0 0.13444198148756639 -0.1449420832838656 0 0.13444198148756639 -0.1449420832838656 0 0.1434537453928684 -0.13532839273855221 0 0.14315652521050079 -0.14523933820255211 0 0.13444198148756639 -0.1449420832838656 0 0.13404900744611239 -0.12609877526333699 0 0.13444198148756639 -0.1449420832838656 0 0.13404900744611239 -0.12609877526333699 0 0.1434537453928684 -0.13532839273855221 0 0.11727103389215909 -0.1361484369810822 0 0.13444198148756639 -0.1449420832838656 0 0.13404900744611239 -0.12609877526333699 0 0.13404900744611239 -0.12609877526333699 0 0.1490682445489844 -0.1279194233146575 0 0.1609569453379138 -0.13854421730491809 0 0.13404900744611239 -0.12609877526333699 0 0.1609569453379138 -0.13854421730491809 0 0.13404900744611239 -0.12609877526333699 0 0.1434537453928684 -0.13532839273855221 0 0.1609569453379138 -0.13854421730491809 0 0.1434537453928684 -0.13532839273855221 0 0.14993504674019009 -0.14021612160814689 0 0.1609569453379138 -0.13854421730491809 0 0.1427320902892944 -0.12257921542734659 0 0.13404900744611239 -0.12609877526333699 0 0.1490682445489844 -0.1279194233146575 0 0.1434537453928684 -0.13532839273855221 0 0.14993504674019009 -0.14021612160814689 0 0.14315652521050079 -0.14523933820255211 0 0.14993504674019009 -0.14021612160814689 0 0.15469010670848909 -0.14221164189652771 0 0.1609569453379138 -0.13854421730491809 0 0.15568199284830581 -0.1296421963895899 0 0.1490682445489844 -0.1279194233146575 0 0.1609569453379138 -0.13854421730491809 0 0.15192118682329561 -0.12273271218809589 0 0.15568199284830581 -0.1296421963895899 0 0.1587247560068413 -0.12564209046719049 0 0.15192118682329561 -0.12273271218809589 0 0.15568199284830581 -0.1296421963895899 0 0.1490682445489844 -0.1279194233146575 0 0.13483495552902119 -0.16378539130439421 0 0.15469010670848909 -0.14221164189652771 0 0.13483495552902119 -0.16378539130439421 0 0.14315652521050079 -0.14523933820255211 0 0.15469010670848909 -0.14221164189652771 0 0.13483495552902119 -0.16378539130439421 0 0.15469010670848909 -0.14221164189652771 0 0.15272907190244081 -0.1550331303974728 0 0.14993504674019009 -0.14021612160814689 0 0.14315652521050079 -0.14523933820255211 0 0.15469010670848909 -0.14221164189652771 0 0.15272907190244081 -0.1550331303974728 0 0.16278769519534109 -0.1503194818261428 0 0.15987479688754311 -0.1572750313981319 0 0.16278769519534109 -0.1503194818261428 0 0.15987479688754311 -0.1572750313981319 0 0.16866771310860729 -0.15951236945753941 0 0.15469010670848909 -0.14221164189652771 0 0.15272907190244081 -0.1550331303974728 0 0.16278769519534109 -0.1503194818261428 0 0.15469010670848909 -0.14221164189652771 0 0.16278769519534109 -0.1503194818261428 0 0.1609569453379138 -0.13854421730491809 0 0.16278769519534109 -0.1503194818261428 0 0.1609569453379138 -0.13854421730491809 0 0.17433915911560069 -0.15342176620747169 0 0.16278769519534109 -0.1503194818261428 0 0.17433915911560069 -0.15342176620747169 0 0.16866771310860729 -0.15951236945753941 0 0.1609569453379138 -0.13854421730491809 0 0.16898528270356589 -0.1319020538664718 0 0.17739448715537109 -0.13831623988886119 0 0.1587247560068413 -0.12564209046719049 0 0.1613780220681113 -0.13045743568360191 0 0.1641162962428066 -0.126449221113482 0 0.15568199284830581 -0.1296421963895899 0 0.1587247560068413 -0.12564209046719049 0 0.1613780220681113 -0.13045743568360191 0 0.15568199284830581 -0.1296421963895899 0 0.1613780220681113 -0.13045743568360191 0 0.1609569453379138 -0.13854421730491809 0 0.1613780220681113 -0.13045743568360191 0 0.1609569453379138 -0.13854421730491809 0 0.16898528270356589 -0.1319020538664718 0 0.173543926957343 -0.1211375462363173 0 0.16898528270356589 -0.1319020538664718 0 0.1641162962428066 -0.126449221113482 0 0.1613780220681113 -0.13045743568360191 0 0.16898528270356589 -0.1319020538664718 0 0.1641162962428066 -0.126449221113482 0 0.173543926957343 -0.1211375462363173 0 0.16898528270356589 -0.1319020538664718 0 0.17990838590865871 -0.12844737664361131 0 0.16898528270356589 -0.1319020538664718 0 0.17739448715537109 -0.13831623988886119 0 0.17990838590865871 -0.12844737664361131 0 0.188659048266132 -0.1418371739210742 0 0.19260125287660149 -0.13207131947283501 0 0.17739448715537109 -0.13831623988886119 0 0.19260125287660149 -0.13207131947283501 0 0.17739448715537109 -0.13831623988886119 0 0.17990838590865871 -0.12844737664361131 0 0.18701697985041221 -0.11880972375357141 0 0.19260125287660149 -0.13207131947283501 0 0.17990838590865871 -0.12844737664361131 0 0.18786488322971459 -0.15098965934649999 0 0.1609569453379138 -0.13854421730491809 0 0.17433915911560069 -0.15342176620747169 0 0.18786488322971459 -0.15098965934649999 0 0.1609569453379138 -0.13854421730491809 0 0.18786488322971459 -0.15098965934649999 0 0.1609569453379138 -0.13854421730491809 0 0.17739448715537109 -0.13831623988886119 0 0.18786488322971459 -0.15098965934649999 0 0.188659048266132 -0.1418371739210742 0 0.17739448715537109 -0.13831623988886119 0 0.18786488322971459 -0.15098965934649999 0 0.17433915911560069 -0.15342176620747169 0 0.1842505296355367 -0.15589311325690541 0 0.17433915911560069 -0.15342176620747169 0 0.1842505296355367 -0.15589311325690541 0 0.18144082188941271 -0.16389154531309821 0 0.19325106823209409 -0.153061144976989 0 0.1842505296355367 -0.15589311325690541 0 0.18144082188941271 -0.16389154531309821 0 0.18830323417204939 -0.1765657128700695 0 0.18144082188941271 -0.16389154531309821 0 0.17072519494025609 -0.1704686386871877 0 0.17433915911560069 -0.15342176620747169 0 0.18144082188941271 -0.16389154531309821 0 0.16866771310860729 -0.15951236945753941 0 0.18144082188941271 -0.16389154531309821 0 0.16866771310860729 -0.15951236945753941 0 0.17072519494025609 -0.1704686386871877 0 0.18830323417204939 -0.1765657128700695 0 0.18335540011200491 -0.20007028076315 0 0.17543185729929969 -0.18273889272689711 0 0.18830323417204939 -0.1765657128700695 0 0.17543185729929969 -0.18273889272689711 0 0.17072519494025609 -0.1704686386871877 0 0.17543185729929969 -0.18273889272689711 0 0.16056198994912749 -0.17787080610445691 0 0.17072519494025609 -0.1704686386871877 0 0.16873688803845349 -0.19227854821165941 0 0.17543185729929969 -0.18273889272689711 0 0.16056198994912749 -0.17787080610445691 0 0.15759932706250929 -0.18907488386135229 0 0.16873688803845349 -0.19227854821165941 0 0.16056198994912749 -0.17787080610445691 0 0.14953284821028701 -0.17659781711855899 0 0.16056198994912749 -0.17787080610445691 0 0.1601367247146048 -0.167216461388007 0 0.16056198994912749 -0.17787080610445691 0 0.1601367247146048 -0.167216461388007 0 0.17072519494025609 -0.1704686386871877 0 0.1601367247146048 -0.167216461388007 0 0.15987479688754311 -0.1572750313981319 0 0.16866771310860729 -0.15951236945753941 0 0.15118562361057611 -0.16212531631630639 0 0.1601367247146048 -0.167216461388007 0 0.15987479688754311 -0.1572750313981319 0 0.1601367247146048 -0.167216461388007 0 0.16866771310860729 -0.15951236945753941 0 0.17072519494025609 -0.1704686386871877 0 
</DataArray>
</Points>
<Cells>
<DataArray type="UInt32" Name="connectivity" format="ascii">
0 1 2 3 4 5 6 7 8 9 10 11 12 13 14 15 16 17 18 19 20 21 22 23 24 25 26 27 28 29 30 31 32 33 34 35 36 37 38 39 40 41 42 43 44 45 46 47 48 49 50 51 52 53 54 55 56 57 58 59 60 61 62 63 64 65 66 67 68 69 70 71 72 73 74 75 76 77 78 79 80 81 82 83 84 85 86 87 88 89 90 91 92 93 94 95 96 97 98 99 100 101 102 103 104 105 106 107 108 109 110 111 112 113 114 115 116 117 118 119 120 121 122 123 124 125 126 127 128 129 130 131 132 133 134 135 136 137 138 139 140 141 142 143 144 145 146 147 148 149 150 151 152 153 154 155 156 157 158 159 160 161 162 163 164 165 166 167 168 169 170 171 172 173 174 175 176 177 178 179 180 181 182 183 184 185 186 187 188 189 190 191 192 193 194 195 196 197 198 199 200 201 202 203 204 205 206 207 208 209 210 211 212 213 214 215 216 217 218 219 220 221 222 223 224 225 226 227 228 229 230 231 232 233 234 235 236 237 238 239 240 241 242 243 244 245 246 247 248 249 250 251 252 253 254 255 256 257 258 259 260 261 262 263 264 265 266 267 268 269 270 271 272 273 274 275 276 277 278 279 280 281 282 283 284 285 286 287 288 289 290 291 292 293 294 295 296 297 298 299 300 301 302 303 304 305 306 307 308 309 310 311 312 313 314 315 316 317 318 319 320 321 322 323 324 325 326 327 328 329 330 331 332 333 334 335 336 337 338 339 340 341 342 343 344 345 346 347 348 349 350 351 352 353 354 355 356 357 358 359 360 361 362 363 364 365 366 367 368 369 370 371 372 373 374 375 376 377 378 379 380 381 382 383 384 385 386 387 388 389 390 391 392 393 394 395 396 397 398 399 400 401 402 403 404 405 406 407 408 409 410 411 412 413 414 415 416 417 418 419 420 421 422 423 424 425 426 427 428 429 430 431 432 433 434 435 436 437 438 439 440 441 442 443 444 445 446 447 448 449 450 451 452 453 454 455 456 457 458 459 460 461 462 463 464 465 466 467 468 469 470 471 472 473 474 475 476 477 478 479 480 481 482 483 484 485 486 487 488 489 490 491 492 493 494 495 496 497 498 499 500 501 502 503 504 505 506 507 508 509 510 511 512 513 514 515 516 517 518 519 520 521 522 523 524 525 526 527 528 529 530 531 532 533 534 535 536 537 538 539 540 541 542 543 544 545 546 547 548 549 550 551 552 553 554 555 556 557 558 559 560 561 562 563 564 565 566 567 568 569 570 571 572 573 574 575 576 577 578 579 580 581 582 583 584 585 586 587 588 589 590 591 592 593 594 595 596 597 598 599 600 601 602 603 604 605 606 607 608 609 610 611 612 613 614 615 616 617 618 619 620 621 622 623 624 625 626 627 628 629 630 631 632 633 634 635 636 637 638 639 640 641 642 643 644 645 646 647 648 649 650 651 652 653 654 655 656 657 658 659 660 661 662 663 664 665 666 667 668 669 670 671 672 673 674 675 676 677 678 679 680 681 682 683 684 685 686 687 688 689 690 691 692 693 694 695 696 697 698 699 700 701 702 703 704 705 706 707 708 709 710 711 712 713 714 715 716 717 718 719 720 721 722 723 724 725 726 727 728 729 730 731 732 733 734 735 736 737 738 739 740 741 742 743 744 745 746 747 748 749 750 751 752 753 754 755 756 757 758 759 760 761 762 763 764 765 766 767 768 769 770 771 772 773 774 775 776 777 778 779 780 781 782 783 784 785 786 787 788 789 790 791 792 793 794 795 796 797 798 799 800 801 802 803 804 805 806 807 808 809 810 811 812 813 814 815 816 817 818 819 820 821 822 823 824 825 826 827 828 829 830 831 832 833 834 835 836 837 838 839 840 841 842 843 844 845 846 847 848 849 850 851 852 853 854 855 856 857 858 859 860 861 862 863 864 865 866 867 868 869 870 871 872 873 874 875 876 877 878 879 880 881 882 883 884 885 886 887 888 889 890 891 892 893 894 895 896 897 898 899 900 901 902 903 904 905 906 907 908 909 910 911 912 913 914 915 916 917 918 919 920 921 922 923 924 925 926 927 928 929 930 931 932 933 934 935 936 937 938 939 940 941 942 943 944 945 946 947 948 949 950 951 952 953 954 955 956 957 958 959 960 961 962 963 964 965 966 967 968 969 970 971 972 973 974 975 976 977 978 979 980 981 982 983 984 985 986 987 988 989 990 991 992 993 994 995 996 997 998 999 1000 1001 1002 1003 1004 1005 1006 1007 1008 1009 1010 1011 1012 1013 1014 1015 1016 1017 1018 1019 1020 1021 1022 1023 1024 1025 1026 1027 1028 1029 1030 1031 1032 1033 1034 1035 1036 1037 1038 1039 1040 1041 1042 1043 1044 1045 1046 1047 1048 1049 1050 1051 1052 1053 1054 1055 1056 1057 1058 1059 1060 1061 1062 1063 1064 1065 1066 1067 1068 1069 1070 1071 1072 1073 1074 1075 1076 1077 1078 1079 1080 1081 1082 1083 1084 1085 1086 1087 1088 1089 1090 1091 1092 1093 1094 1095 1096 1097 1098 1099 1100 1101 1102 1103 1104 1105 1106 1107 1108 1109 1110 1111 1112 1113 1114 1115 1116 1117 1118 1119 1120 1121 1122 1123 1124 1125 1126 1127 1128 1129 1130 1131 1132 1133 1134 1135 1136 1137 1138 1139 1140 1141 1142 1143 1144 1145 1146 1147 1148 1149 1150 1151 1152 1153 1154 1155 1156 1157 1158 1159 1160 1161 1162 1163 1164 1165 1166 1167 1168 1169 1170 1171 1172 1173 1174 1175 1176 1177 1178 1179 1180 1181 1182 1183 1184 1185 1186 1187 1188 1189 1190 1191 1192 1193 1194 1195 1196 1197 1198 1199 1200 1201 1202 1203 1204 1205 1206 1207 1208 1209 1210 1211 1212 1213 1214 1215 1216 1217 1218 1219 1220 1221 1222 1223 1224 1225 1226 1227 1228 1229 1230 1231 1232 1233 1234 1235 1236 1237 1238 1239 1240 1241 1242 1243 1244 1245 1246 1247 1248 1249 1250 1251 1252 1253 1254 1255 1256 1257 1258 1259 1260 1261 1262 1263 1264 1265 1266 1267 1268 1269 1270 1271 1272 1273 1274 1275 1276 1277 1278 1279 1280 1281 1282 1283 1284 1285 1286 1287 1288 1289 1290 1291 1292 1293 1294 1295 1296 1297 1298 1299 1300 1301 1302 1303 1304 1305 1306 1307 1308 1309 1310 1311 1312 1313 1314 1315 1316 1317 1318 1319 1320 1321 1322 1323 1324 1325 1326 1327 1328 1329 1330 1331 1332 1333 1334 1335 1336 1337 1338 1339 1340 1341 1342 1343 1344 1345 1346 1347 1348 1349 1350 1351 1352 1353 1354 1355 1356 1357 1358 1359 1360 1361 1362 1363 1364 1365 1366 1367 1368 1369 1370 1371 1372 1373 1374 1375 1376 1377 1378 1379 1380 1381 1382 1383 1384 1385 1386 1387 1388 1389 1390 1391 1392 1393 1394 1395 1396 1397 1398 1399 1400 1401 1402 1403 1404 1405 1406 1407 1408 1409 1410 1411 1412 1413 1414 1415 1416 1417 1418 1419 1420 1421 1422 1423 1424 1425 1426 1427 1428 1429 1430 1431 1432 1433 1434 1435 1436 1437 1438 1439 1440 1441 1442 1443 1444 1445 1446 1447 1448 1449 1450 1451 1452 1453 1454 1455 1456 1457 1458 1459 1460 1461 1462 1463 1464 1465 1466 1467 1468 1469 1470 1471 1472 1473 1474 1475 1476 1477 1478 1479 1480 1481 1482 1483 1484 1485 1486 1487 1488 1489 1490 1491 1492 1493 1494 1495 1496 1497 1498 1499 1500 1501 1502 1503 1504 1505 1506 1507 1508 1509 1510 1511 1512 1513 1514 1515 1516 1517 1518 1519 1520 1521 1522 1523 1524 1525 1526 1527 1528 1529 1530 1531 1532 1533 1534 1535 1536 1537 1538 1539 1540 1541 1542 1543 1544 1545 1546 1547 1548 1549 1550 1551 1552 1553 1554 1555 1556 1557 1558 1559 1560 1561 1562 1563 1564 1565 1566 1567 1568 1569 1570 1571 1572 1573 1574 1575 1576 1577 1578 1579 1580 1581 1582 1583 1584 1585 1586 1587 1588 1589 1590 1591 1592 1593 1594 1595 1596 1597 1598 1599 1600 1601 1602 1603 1604 1605 1606 1607 1608 1609 1610 1611 1612 1613 1614 1615 1616 1617 1618 1619 1620 1621 1622 1623 1624 1625 1626 1627 1628 1629 1630 1631 1632 1633 1634 1635 1636 1637 1638 1639 1640 1641 1642 1643 1644 1645 1646 1647 1648 1649 1650 1651 1652 1653 1654 1655 1656 1657 1658 1659 1660 1661 1662 1663 1664 1665 1666 1667 1668 1669 1670 1671 1672 1673 1674 1675 1676 1677 1678 1679 1680 1681 1682 1683 1684 1685 1686 1687 1688 1689 1690 1691 1692 1693 1694 1695 1696 1697 1698 1699 1700 1701 1702 1703 1704 1705 1706 1707 1708 1709 1710 1711 1712 1713 1714 1715 1716 1717 1718 1719 1720 1721 1722 1723 1724 1725 1726 1727 1728 1729 1730 1731 1732 1733 1734 1735 1736 1737 1738 1739 1740 1741 1742 1743 1744 1745 1746 1747 1748 1749 1750 1751 1752 1753 1754 1755 1756 1757 1758 1759 1760 1761 1762 1763 1764 1765 1766 1767 1768 1769 1770 1771 1772 1773 1774 1775 1776 1777 1778 1779 1780 1781 1782 1783 1784 1785 1786 1787 1788 1789 1790 1791 1792 1793 1794 1795 1796 1797 1798 1799 1800 1801 1802 1803 1804 1805 1806 1807 1808 1809 1810 1811 1812 1813 1814 1815 1816 1817 1818 1819 1820 1821 1822 1823 1824 1825 1826 1827 1828 1829 1830 1831 1832 1833 1834 1835 1836 1837 1838 1839 1840 1841 1842 1843 1844 1845 1846 1847 1848 1849 1850 1851 1852 1853 1854 1855 1856 1857 1858 1859 1860 1861 1862 1863 1864 1865 1866 1867 1868 1869 1870 1871 1872 1873 1874 1875 1876 1877 1878 1879 1880 1881 1882 1883 1884 1885 1886 1887 1888 1889 1890 1891 1892 1893 1894 1895 1896 1897 1898 1899 1900 1901 1902 1903 1904 1905 1906 1907 1908 1909 1910 1911 1912 1913 1914 1915 1916 1917 1918 1919 1920 1921 1922 1923 1924 1925 1926 1927 1928 1929 1930 1931 1932 1933 1934 1935 1936 1937 1938 1939 1940 1941 1942 1943 1944 1945 1946 1947 1948 1949 1950 1951 1952 1953 1954 1955 1956 1957 1958 1959 1960 1961 1962 1963 1964 1965 1966 1967 1968 1969 1970 1971 1972 1973 1974 1975 1976 1977 1978 1979 1980 1981 1982 1983 1984 1985 1986 1987 1988 1989 1990 1991 1992 1993 1994 1995 1996 1997 1998 1999 2000 2001 2002 2003 2004 2005 2006 2007 2008 2009 2010 2011 2012 2013 2014 2015 2016 2017 2018 2019 2020 2021 2022 2023 2024 2025 2026 2027 2028 2029 2030 2031 2032 2033 2034 2035 2036 2037 2038 2039 2040 2041 2042 2043 2044 2045 2046 2047 2048 2049 2050 2051 2052 2053 2054 2055 2056 2057 2058 2059 2060 2061 2062 2063 2064 2065 2066 2067 2068 2069 2070 2071 2072 2073 2074 2075 2076 2077 2078 2079 2080 2081 2082 2083 2084 2085 2086 2087 2088 2089 2090 2091 2092 2093 2094 2095 2096 2097 2098 2099 2100 2101 2102 2103 2104 2105 2106 2107 2108 2109 2110 2111 2112 2113 2114 2115 2116 2117 2118 2119 2120 2121 2122 2123 2124 2125 2126 2127 2128 2129 2130 2131 2132 2133 2134 2135 2136 2137 2138 2139 2140 2141 2142 2143 2144 2145 2146 2147 2148 2149 2150 2151 2152 2153 2154 2155 2156 2157 2158 2159 2160 2161 2162 2163 2164 2165 2166 2167 2168 2169 2170 2171 2172 2173 2174 2175 2176 2177 2178 2179 2180 2181 2182 2183 2184 2185 2186 2187 2188 2189 2190 2191 2192 2193 2194 2195 2196 2197 2198 2199 2200 2201 2202 2203 2204 2205 2206 2207 2208 2209 2210 2211 2212 2213 2214 2215 2216 2217 2218 2219 2220 2221 2222 2223 2224 2225 2226 2227 2228 2229 2230 2231 2232 2233 2234 2235 2236 2237 2238 2239 2240 2241 2242 2243 2244 2245 2246 2247 2248 2249 2250 2251 2252 2253 2254 2255 2256 2257 2258 2259 2260 2261 2262 2263 2264 2265 2266 2267 2268 2269 2270 2271 2272 2273 2274 2275 2276 2277 2278 2279 2280 2281 2282 2283 2284 2285 2286 2287 2288 2289 2290 2291 2292 2293 2294 2295 2296 2297 2298 2299 2300 2301 2302 2303 2304 2305 2306 2307 2308 2309 2310 2311 2312 2313 2314 2315 2316 2317 2318 2319 2320 2321 2322 2323 2324 2325 2326 2327 2328 2329 2330 2331 2332 2333 2334 2335 2336 2337 2338 2339 2340 2341 2342 2343 2344 2345 2346 2347 2348 2349 2350 2351 2352 2353 2354 2355 2356 2357 2358 2359 2360 2361 2362 2363 2364 2365 2366 2367 2368 2369 2370 2371 2372 2373 2374 2375 2376 2377 2378 2379 2380 2381 2382 2383 2384 2385 2386 2387 2388 2389 2390 2391 2392 2393 2394 2395 2396 2397 2398 2399 2400 2401 2402 2403 2404 2405 2406 2407 2408 2409 2410 2411 2412 2413 2414 2415 2416 2417 2418 2419 2420 2421 2422 2423 2424 2425 2426 2427 2428 2429 2430 2431 2432 2433 2434 2435 2436 2437 2438 2439 2440 2441 2442 2443 2444 2445 2446 2447 2448 2449 2450 2451 2452 2453 2454 2455 2456 2457 2458 2459 2460 2461 2462 2463 2464 2465 2466 2467 2468 2469 2470 2471 2472 2473 2474 2475 2476 2477 2478 2479 2480 2481 2482 2483 2484 2485 2486 2487 2488 2489 2490 2491 2492 2493 2494 2495 2496 2497 2498 2499 2500 2501 2502 2503 2504 2505 2506 2507 2508 2509 2510 2511 2512 2513 2514 2515 2516 2517 2518 2519 2520 2521 2522 2523 2524 2525 2526 2527 2528 2529 2530 2531 2532 2533 2534 2535 2536 2537 2538 2539 2540 2541 2542 2543 2544 2545 2546 2547 2548 2549 2550 2551 2552 2553 2554 2555 2556 2557 2558 2559 2560 2561 2562 2563 2564 2565 2566 2567 2568 2569 2570 2571 2572 2573 2574 2575 2576 2577 2578 2579 2580 2581 2582 2583 2584 2585 2586 2587 2588 2589 2590 2591 2592 2593 2594 2595 2596 2597 2598 2599 2600 2601 2602 2603 2604 2605 2606 2607 2608 2609 2610 2611 2612 2613 2614 2615 2616 2617 2618 2619 2620 2621 2622 2623 2624 2625 2626 2627 2628 2629 2630 2631 2632 2633 2634 2635 2636 2637 2638 2639 2640 2641 2642 2643 2644 2645 2646 2647 2648 2649 2650 2651 2652 2653 2654 2655 2656 2657 2658 2659 2660 2661 2662 2663 2664 2665 2666 2667 2668 2669 2670 2671 2672 2673 2674 2675 2676 2677 2678 2679 2680 2681 2682 2683 2684 2685 2686 2687 2688 2689 2690 2691 2692 2693 2694 2695 2696 2697 2698 2699 2700 2701 2702 2703 2704 2705 2706 2707 2708 2709 2710 2711 2712 2713 2714 2715 2716 2717 2718 2719 2720 2721 2722 2723 2724 2725 2726 2727 2728 2729 2730 2731 2732 2733 2734 2735 2736 2737 2738 2739 2740 2741 2742 2743 2744 2745 2746 2747 2748 2749 2750 2751 2752 2753 2754 2755 2756 2757 2758 2759 2760 2761 2762 2763 2764 2765 2766 2767 2768 2769 2770 2771 2772 2773 2774 2775 2776 2777 2778 2779 2780 2781 2782 2783 2784 2785 2786 2787 2788 2789 2790 2791 2792 2793 2794 2795 2796 2797 2798 2799 2800 2801 2802 2803 2804 2805 2806 2807 2808 2809 2810 2811 2812 2813 2814 2815 2816 2817 2818 2819 2820 2821 2822 2823 2824 2825 2826 2827 2828 2829 2830 2831 2832 2833 2834 2835 2836 2837 2838 2839 2840 2841 2842 2843 2844 2845 2846 2847 2848 2849 2850 2851 2852 2853 2854 2855 2856 2857 2858 2859 2860 2861 2862 2863 2864 2865 2866 2867 2868 2869 2870 2871 2872 2873 2874 2875 2876 2877 2878 2879 2880 2881 2882 2883 2884 2885 2886 2887 2888 2889 2890 2891 2892 2893 2894 2895 2896 2897 2898 2899 2900 2901 2902 2903 2904 2905 2906 2907 2908 2909 2910 2911 2912 2913 2914 2915 2916 2917 2918 2919 2920 2921 2922 2923 2924 2925 2926 2927 2928 2929 2930 2931 2932 2933 2934 2935 2936 2937 2938 2939 2940 2941 2942 2943 2944 2945 2946 2947 2948 2949 2950 2951 2952 2953 2954 2955 2956 2957 2958 2959 2960 2961 2962 2963 2964 2965 2966 2967 2968 2969 2970 2971 2972 2973 2974 2975 2976 2977 2978 2979 2980 2981 2982 2983 2984 2985 2986 2987 2988 2989 2990 2991 2992 2993 2994 2995 2996 2997 2998 2999 3000 3001 3002 3003 3004 3005 3006 3007 3008 3009 3010 3011 3012 3013 3014 3015 3016 3017 3018 3019 3020 3021 3022 3023 3024 3025 3026 3027 3028 3029 3030 3031 3032 3033 3034 3035 3036 3037 3038 3039 3040 3041 3042 3043 3044 3045 3046 3047 3048 3049 3050 3051 3052 3053 3054 3055 3056 3057 3058 3059 3060 3061 3062 3063 3064 3065 3066 3067 3068 3069 3070 3071 3072 3073 3074 3075 3076 3077 3078 3079 3080 3081 3082 3083 3084 3085 3086 3087 3088 3089 3090 3091 3092 3093 3094 3095 3096 3097 3098 3099 3100 3101 3102 3103 3104 3105 3106 3107 3108 3109 3110 3111 3112 3113 3114 3115 3116 3117 3118 3119 3120 3121 3122 3123 3124 3125 3126 3127 3128 3129 3130 3131 3132 3133 3134 3135 3136 3137 3138 3139 3140 3141 3142 3143 3144 3145 3146 3147 3148 3149 3150 3151 3152 3153 3154 3155 3156 3157 3158 3159 3160 3161 3162 3163 3164 3165 3166 3167 3168 3169 3170 3171 3172 3173 3174 3175 3176 3177 3178 3179 3180 3181 3182 3183 3184 3185 3186 3187 3188 3189 3190 3191 3192 3193 3194 3195 3196 3197 3198 3199 3200 3201 3202 3203 3204 3205 3206 3207 3208 3209 3210 3211 3212 3213 3214 3215 3216 3217 3218 3219 3220 3221 3222 3223 3224 3225 3226 3227 3228 3229 3230 3231 3232 3233 3234 3235 3236 3237 3238 3239 3240 3241 3242 3243 3244 3245 3246 3247 3248 3249 3250 3251 3252 3253 3254 3255 3256 3257 3258 3259 3260 3261 3262 3263 3264 3265 3266 3267 3268 3269 3270 3271 3272 3273 3274 3275 3276 3277 3278 3279 3280 3281 3282 3283 3284 3285 3286 3287 3288 3289 3290 3291 3292 3293 3294 3295 3296 3297 3298 3299 3300 3301 3302 3303 3304 3305 3306 3307 3308 3309 3310 3311 3312 3313 3314 3315 3316 3317 3318 3319 3320 3321 3322 3323 3324 3325 3326 3327 3328 3329 3330 3331 3332 3333 3334 3335 3336 3337 3338 3339 3340 3341 3342 3343 3344 3345 3346 3347 3348 3349 3350 3351 3352 3353 3354 3355 3356 3357 3358 3359 3360 3361 3362 3363 3364 3365 3366 3367 3368 3369 3370 3371 3372 3373 3374 3375 3376 3377 3378 3379 3380 3381 3382 3383 3384 3385 3386 3387 3388 3389 3390 3391 3392 3393 3394 3395 3396 3397 3398 3399 3400 3401 3402 3403 3404 3405 3406 3407 3408 3409 3410 3411 3412 3413 3414 3415 3416 3417 3418 3419 3420 3421 3422 3423 3424 3425 3426 3427 3428 3429 3430 3431 3432 3433 3434 3435 3436 3437 3438 3439 3440 3441 3442 3443 3444 3445 3446 3447 3448 3449 3450 3451 3452 3453 3454 3455 3456 3457 3458 3459 3460 3461 3462 3463 3464 3465 3466 3467 3468 3469 3470 3471 3472 3473 3474 3475 3476 3477 3478 3479 3480 3481 3482 3483 3484 3485 3486 3487 3488 3489 3490 3491 3492 3493 3494 3495 3496 3497 3498 3499 3500 3501 3502 3503 3504 3505 3506 3507 3508 3509 3510 3511 3512 3513 3514 3515 3516 3517 3518 3519 3520 3521 3522 3523 3524 3525 3526 3527 3528 3529 3530 3531 3532 3533 3534 3535 3536 3537 3538 3539 3540 3541 3542 3543 3544 3545 3546 3547 3548 3549 3550 3551 3552 3553 3554 3555 3556 3557 3558 3559 3560 3561 3562 3563 3564 3565 3566 3567 3568 3569 3570 3571 3572 3573 3574 3575 3576 3577 3578 3579 3580 3581 3582 3583 3584 3585 3586 3587 3588 3589 3590 3591 3592 3593 3594 3595 3596 3597 3598 3599 3600 3601 3602 3603 3604 3605 3606 3607 3608 3609 3610 3611 3612 3613 3614 3615 3616 3617 3618 3619 3620 3621 3622 3623 3624 3625 3626 3627 3628 3629 3630 3631 3632 3633 3634 3635 3636 3637 3638 3639 3640 3641 3642 3643 3644 3645 3646 3647 3648 3649 3650 3651 3652 3653 3654 3655 3656 3657 3658 3659 3660 3661 3662 3663 3664 3665 3666 3667 3668 3669 3670 3671 3672 3673 3674 3675 3676 3677 3678 3679 3680 3681 3682 3683 3684 3685 3686 3687 3688 3689 3690 3691 3692 3693 3694 3695 3696 3697 3698 3699 3700 3701 3702 3703 3704 3705 3706 3707 3708 3709 3710 3711 3712 3713 3714 3715 3716 3717 3718 3719 3720 3721 3722 3723 3724 3725 3726 3727 3728 3729 3730 3731 3732 3733 3734 3735 3736 3737 3738 3739 3740 3741 3742 3743 3744 3745 3746 3747 3748 3749 3750 3751 3752 3753 3754 3755 3756 3757 3758 3759 3760 3761 3762 3763 3764 3765 3766 3767 3768 3769 3770 3771 3772 3773 3774 3775 3776 3777 3778 3779 3780 3781 3782 3783 3784 3785 3786 3787 3788 3789 3790 3791 3792 3793 3794 3795 3796 3797 3798 3799 3800 3801 3802 3803 3804 3805 3806 3807 3808 3809 3810 3811 3812 3813 3814 3815 3816 3817 3818 3819 3820 3821 3822 3823 3824 3825 3826 3827 3828 3829 3830 3831 3832 3833 3834 3835 3836 3837 3838 3839 3840 3841 3842 3843 3844 3845 3846 3847 3848 3849 3850 3851 3852 3853 3854 3855 3856 3857 3858 3859 3860 3861 3862 3863 3864 3865 3866 3867 3868 3869 3870 3871 3872 3873 3874 3875 3876 3877 3878 3879 3880 3881 3882 3883 3884 3885 3886 3887 3888 3889 3890 3891 3892 3893 3894 3895 3896 3897 3898 3899 3900 3901 3902 3903 3904 3905 3906 3907 3908 3909 3910 3911 3912 3913 3914 3915 3916 3917 3918 3919 3920 3921 3922 3923 3924 3925 3926 3927 3928 3929 3930 3931 3932 3933 3934 3935 3936 3937 3938 3939 3940 3941 3942 3943 3944 3945 3946 3947 3948 3949 3950 3951 3952 3953 3954 3955 3956 3957 3958 3959 3960 3961 3962 3963 3964 3965 3966 3967 3968 3969 3970 3971 3972 3973 3974 3975 3976 3977 3978 3979 3980 3981 3982 3983 3984 3985 3986 3987 3988 3989 3990 3991 3992 3993 3994 3995 3996 3997 3998 3999 4000 4001 4002 4003 4004 4005 4006 4007 4008 4009 4010 4011 4012 4013 4014 4015 4016 4017 4018 4019 4020 4021 4022 4023 4024 4025 4026 4027 4028 4029 4030 4031 4032 4033 4034 4035 4036 4037 4038 4039 4040 4041 4042 4043 4044 4045 4046 4047 4048 4049 4050 4051 4052 4053 4054 4055 4056 4057 4058 4059 4060 4061 4062 4063 4064 4065 4066 4067 4068 4069 4070 4071 4072 4073 4074 4075 4076 4077 4078 4079 4080 4081 4082 4083 4084 4085 4086 4087 4088 4089 4090 4091 4092 4093 4094 4095 4096 4097 4098 4099 4100 4101 4102 4103 4104 4105 4106 4107 4108 4109 4110 4111 4112 4113 4114 4115 4116 4117 4118 4119 4120 4121 4122 4123 4124 4125 4126 4127 4128 4129 4130 4131 4132 4133 4134 4135 4136 4137 4138 4139 4140 4141 4142 4143 4144 4145 4146 4147 4148 4149 4150 4151 4152 4153 4154 4155 4156 4157 4158 4159 4160 4161 4162 4163 4164 4165 4166 4167 4168 4169 4170 4171 4172 4173 4174 4175 4176 4177 4178 4179 4180 4181 4182 4183 4184 4185 4186 4187 4188 4189 4190 4191 4192 4193 4194 4195 4196 4197 4198 4199 4200 4201 4202 4203 4204 4205 4206 4207 4208 4209 4210 4211 4212 4213 4214 4215 4216 4217 4218 4219 4220 4221 4222 4223 4224 4225 4226 4227 4228 4229 4230 4231 4232 4233 4234 4235 4236 4237 4238 4239 4240 4241 4242 4243 4244 4245 4246 4247 4248 4249 4250 4251 4252 4253 4254 4255 4256 4257 4258 4259 4260 4261 4262 4263 4264 4265 4266 4267 4268 4269 4270 4271 4272 4273 4274 4275 4276 4277 4278 4279 4280 4281 4282 4283 4284 4285 4286 4287 4288 4289 4290 4291 4292 4293 4294 4295 4296 4297 4298 4299 4300 4301 4302 4303 4304 4305 4306 4307 4308 4309 4310 4311 4312 4313 4314 4315 4316 4317 4318 4319 4320 4321 4322 4323 4324 4325 4326 4327 4328 4329 4330 4331 4332 4333 4334 4335 4336 4337 4338 4339 4340 4341 4342 4343 4344 4345 4346 4347 4348 4349 4350 4351 4352 4353 4354 4355 4356 4357 4358 4359 4360 4361 4362 4363 4364 4365 4366 4367 4368 4369 4370 4371 4372 4373 4374 4375 4376 4377 4378 4379 4380 4381 4382 4383 4384 4385 4386 4387 4388 4389 4390 4391 4392 4393 4394 4395 4396 4397 4398 4399 4400 4401 4402 4403 4404 4405 4406 4407 4408 4409 4410 4411 4412 4413 4414 4415 4416 4417 4418 4419 4420 4421 4422 4423 4424 4425 4426 4427 4428 4429 4430 4431 4432 4433 4434 4435 4436 4437 4438 4439 4440 4441 4442 4443 4444 4445 4446 4447 4448 4449 4450 4451 4452 4453 4454 4455 4456 4457 4458 4459 4460 4461 4462 4463 4464 4465 4466 4467 4468 4469 4470 4471 4472 4473 4474 4475 4476 4477 4478 4479 4480 4481 4482 4483 4484 4485 4486 4487 4488 4489 4490 4491 4492 4493 4494 4495 4496 4497 4498 4499 4500 4501 4502 4503 4504 4505 4506 4507 4508 4509 4510 4511 4512 4513 4514 4515 4516 4517 4518 4519 4520 4521 4522 4523 4524 4525 4526 4527 4528 4529 4530 4531 4532 4533 4534 4535 4536 4537 4538 4539 4540 4541 4542 4543 4544 4545 4546 4547 4548 4549 4550 4551 4552 4553 4554 4555 4556 4557 4558 4559 4560 4561 4562 4563 4564 4565 4566 4567 4568 4569 4570 4571 4572 4573 4574 4575 4576 4577 4578 4579 4580 4581 4582 4583 4584 4585 4586 4587 4588 4589 4590 4591 4592 4593 4594 4595 4596 4597 4598 4599 4600 4601 4602 4603 4604 4605 4606 4607 4608 4609 4610 4611 4612 4613 4614 4615 4616 4617 4618 4619 4620 4621 4622 4623 4624 4625 4626 4627 4628 4629 4630 4631 4632 4633 4634 4635 4636 4637 4638 4639 4640 4641 4642 4643 4644 4645 4646 4647 4648 4649 4650 4651 4652 4653 4654 4655 4656 4657 4658 4659 4660 4661 4662 4663 4664 4665 4666 4667 4668 4669 4670 4671 4672 4673 4674 4675 4676 4677 4678 4679 4680 4681 4682 4683 4684 4685 4686 4687 4688 4689 4690 4691 4692 4693 4694 4695 4696 4697 4698 4699 4700 4701 4702 4703 4704 4705 4706 4707 4708 4709 4710 4711 4712 4713 4714 4715 4716 4717 4718 4719 4720 4721 4722 4723 4724 4725 4726 4727 4728 4729 4730 4731 4732 4733 4734 4735 4736 4737 4738 4739 4740 4741 4742 4743 4744 4745 4746 4747 4748 4749 4750 4751 4752 4753 4754 4755 4756 4757 4758 4759 4760 4761 4762 4763 4764 4765 4766 4767 4768 4769 4770 4771 4772 4773 4774 4775 4776 4777 4778 4779 4780 4781 4782 4783 4784 4785 4786 4787 4788 4789 4790 4791 4792 4793 4794 4795 4796 4797 4798 4799 4800 4801 4802 4803 4804 4805 4806 4807 4808 4809 4810 4811 4812 4813 4814 4815 4816 4817 4818 4819 4820 4821 4822 4823 4824 4825 4826 4827 4828 4829 4830 4831 4832 4833 4834 4835 4836 4837 4838 4839 4840 4841 4842 4843 4844 4845 4846 4847 4848 4849 4850 4851 4852 4853 4854 4855 4856 4857 4858 4859 4860 4861 4862 4863 4864 4865 4866 4867 4868 4869 4870 4871 4872 4873 4874 4875 4876 4877 4878 4879 4880 4881 4882 4883 4884 4885 4886 4887 4888 4889 4890 4891 4892 4893 4894 4895 4896 4897 4898 4899 4900 4901 4902 4903 4904 4905 4906 4907 4908 4909 4910 4911 4912 4913 4914 4915 4916 4917 4918 4919 4920 4921 4922 4923 4924 4925 4926 4927 4928 4929 4930 4931 4932 4933 4934 4935 4936 4937 4938 4939 4940 4941 4942 4943 4944 4945 4946 4947 4948 4949 4950 4951 4952 4953 4954 4955 4956 4957 4958 4959 4960 4961 4962 4963 4964 4965 4966 4967 4968 4969 4970 4971 4972 4973 4974 4975 4976 4977 4978 4979 4980 4981 4982 4983 4984 4985 4986 4987 4988 4989 4990 4991 4992 4993 4994 4995 4996 4997 4998 4999 5000 5001 5002 5003 5004 5005 5006 5007 5008 5009 5010 5011 5012 5013 5014 5015 5016 5017 5018 5019 5020 5021 5022 5023 5024 5025 5026 5027 5028 5029 5030 5031 5032 5033 5034 5035 5036 5037 5038 5039 5040 5041 5042 5043 5044 5045 5046 5047 5048 5049 5050 5051 5052 5053 5054 5055 5056 5057 5058 5059 5060 5061 5062 5063 5064 5065 5066 5067 5068 5069 5070 5071 5072 5073 5074 5075 5076 5077 5078 5079 5080 5081 5082 5083 5084 5085 5086 5087 5088 5089 5090 5091 5092 5093 5094 5095 5096 5097 5098 5099 5100 5101 5102 5103 5104 5105 5106 5107 5108 5109 5110 5111 5112 5113 5114 5115 5116 5117 5118 5119 5120 5121 5122 5123 5124 5125 5126 5127 5128 5129 5130 5131 5132 5133 5134 5135 5136 5137 5138 5139 5140 5141 5142 5143 5144 5145 5146 5147 5148 5149 5150 5151 5152 5153 5154 5155 5156 5157 5158 5159 5160 5161 5162 5163 5164 5165 5166 5167 5168 5169 5170 5171 5172 5173 5174 5175 5176 5177 5178 5179 5180 5181 5182 5183 5184 5185 5186 5187 5188 5189 5190 5191 5192 5193 5194 5195 5196 5197 5198 5199 5200 5201 5202 5203 5204 5205 5206 5207 5208 5209 5210 5211 5212 5213 5214 5215 5216 5217 5218 5219 5220 5221 5222 5223 5224 5225 5226 5227 5228 5229 5230 5231 5232 5233 5234 5235 5236 5237 5238 5239 5240 5241 5242 5243 5244 5245 5246 5247 5248 5249 5250 5251 5252 5253 5254 5255 5256 5257 5258 5259 5260 5261 5262 5263 5264 5265 5266 5267 5268 5269 5270 5271 5272 5273 5274 5275 5276 5277 5278 5279 5280 5281 5282 5283 5284 5285 5286 5287 5288 5289 5290 5291 5292 5293 5294 5295 5296 5297 5298 5299 5300 5301 5302 5303 5304 5305 5306 5307 5308 5309 5310 5311 5312 5313 5314 5315 5316 5317 5318 5319 5320 5321 5322 5323 5324 5325 5326 5327 5328 5329 5330 5331 5332 5333 5334 5335 5336 5337 5338 5339 5340 5341 5342 5343 5344 5345 5346 5347 5348 5349 5350 5351 5352 5353 5354 5355 5356 5357 5358 5359 5360 5361 5362 5363 5364 5365 5366 5367 5368 5369 5370 5371 5372 5373 5374 5375 5376 5377 5378 5379 5380 5381 5382 5383 5384 5385 5386 5387 5388 5389 5390 5391 5392 5393 5394 5395 5396 5397 5398 5399 5400 5401 5402 5403 5404 5405 5406 5407 5408 5409 5410 5411 5412 5413 5414 5415 5416 5417 5418 5419 5420 5421 5422 5423 5424 5425 5426 5427 5428 5429 5430 5431 5432 5433 5434 5435 5436 5437 5438 5439 5440 5441 5442 5443 5444 5445 5446 5447 5448 5449 5450 5451 5452 5453 5454 5455 5456 5457 5458 5459 5460 5461 5462 5463 5464 5465 5466 5467 5468 5469 5470 5471 5472 5473 5474 5475 5476 5477 5478 5479 5480 5481 5482 5483 5484 5485 5486 5487 5488 5489 5490 5491 5492 5493 5494 5495 5496 5497 5498 5499 5500 5501 5502 5503 5504 5505 5506 5507 5508 5509 5510 5511 5512 5513 5514 5515 5516 5517 5518 5519 5520 5521 5522 5523 5524 5525 5526 5527 5528 5529 5530 5531 5532 5533 5534 5535 5536 5537 5538 5539 5540 5541 5542 5543 5544 5545 5546 5547 5548 5549 5550 5551 5552 5553 5554 5555 5556 5557 5558 5559 5560 5561 5562 5563 5564 5565 5566 5567 5568 5569 5570 5571 5572 5573 5574 5575 5576 5577 5578 5579 5580 5581 5582 5583 5584 5585 5586 5587 5588 5589 5590 5591 5592 5593 5594 5595 5596 5597 5598 5599 5600 5601 5602 5603 5604 5605 5606 5607 5608 5609 5610 5611 5612 5613 5614 5615 5616 5617 5618 5619 5620 5621 5622 5623 5624 5625 5626 5627 5628 5629 5630 5631 5632 5633 5634 5635 5636 5637 5638 5639 5640 5641 5642 5643 5644 5645 5646 5647 5648 5649 5650 5651 5652 5653 5654 5655 5656 5657 5658 5659 5660 5661 5662 5663 5664 5665 5666 5667 5668 5669 5670 5671 5672 5673 5674 5675 5676 5677 5678 5679 5680 5681 5682 5683 5684 5685 5686 5687 5688 5689 5690 5691 5692 5693 5694 5695 5696 5697 5698 5699 5700 5701 5702 5703 5704 5705 5706 5707 5708 5709 5710 5711 5712 5713 5714 5715 5716 5717 5718 5719 5720 5721 5722 5723 5724 5725 5726 5727 5728 5729 5730 5731 5732 5733 5734 5735 5736 5737 5738 5739 5740 5741 5742 5743 5744 5745 5746 5747 5748 5749 5750 5751 5752 5753 5754 5755 5756 5757 5758 5759 5760 5761 5762 5763 5764 5765 5766 5767 5768 5769 5770 5771 5772 5773 5774 5775 5776 5777 5778 5779 5780 5781 5782 5783 5784 5785 5786 5787 5788 5789 5790 5791 5792 5793 5794 5795 5796 5797 5798 5799 5800 5801 5802 5803 5804 5805 5806 5807 5808 5809 5810 5811 5812 5813 5814 5815 5816 5817 5818 5819 5820 5821 5822 5823 5824 5825 5826 5827 5828 5829 5830 5831 5832 5833 5834 5835 5836 5837 5838 5839 5840 5841 5842 5843 5844 5845 5846 5847 5848 5849 5850 5851 5852 5853 5854 5855 5856 5857 5858 5859 5860 5861 5862 5863 5864 5865 5866 5867 5868 5869 5870 5871 5872 5873 5874 5875 5876 5877 5878 5879 5880 5881 5882 5883 5884 5885 5886 5887 5888 5889 5890 5891 5892 5893 5894 5895 5896 5897 5898 5899 5900 5901 5902 5903 5904 5905 5906 5907 5908 5909 5910 5911 5912 5913 5914 5915 5916 5917 5918 5919 5920 5921 5922 5923 5924 5925 5926 5927 5928 5929 5930 5931 5932 5933 5934 5935 5936 5937 5938 5939 5940 5941 5942 5943 5944 5945 5946 5947 5948 5949 5950 5951 5952 5953 5954 5955 5956 5957 5958 5959 5960 5961 5962 5963 5964 5965 5966 5967 5968 5969 5970 5971 5972 5973 5974 5975 5976 5977 5978 5979 5980 5981 5982 5983 5984 5985 5986 5987 5988 5989 5990 5991 5992 5993 5994 5995 5996 5997 5998 5999 6000 6001 6002 6003 6004 6005 6006 6007 6008 6009 6010 6011 6012 6013 6014 6015 6016 6017 6018 6019 6020 6021 6022 6023 6024 6025 6026 6027 6028 6029 6030 6031 6032 6033 6034 6035 6036 6037 6038 6039 6040 6041 6042 6043 6044 6045 6046 6047 6048 6049 6050 6051 6052 6053 6054 6055 6056 6057 6058 6059 6060 6061 6062 6063 6064 6065 6066 6067 6068 6069 6070 6071 6072 6073 6074 6075 6076 6077 6078 6079 6080 6081 6082 6083 6084 6085 6086 6087 6088 6089 6090 6091 6092 6093 6094 6095 6096 6097 6098 6099 6100 6101 6102 6103 6104 6105 6106 6107 6108 6109 6110 6111 6112 6113 6114 6115 6116 6117 6118 6119 6120 6121 6122 6123 6124 6125 6126 6127 6128 6129 6130 6131 6132 6133 6134 6135 6136 6137 6138 6139 6140 6141 6142 6143 6144 6145 6146 6147 6148 6149 6150 6151 6152 6153 6154 6155 6156 6157 6158 6159 6160 6161 6162 6163 6164 6165 6166 6167 6168 6169 6170 6171 6172 6173 6174 6175 6176 6177 6178 6179 6180 6181 6182 6183 6184 6185 6186 6187 6188 6189 6190 6191 6192 6193 6194 6195 6196 6197 6198 6199 6200 6201 6202 6203 6204 6205 6206 6207 6208 6209 6210 6211 6212 6213 6214 6215 6216 6217 6218 6219 6220 6221 6222 6223 6224 6225 6226 6227 6228 6229 6230 6231 6232 6233 6234 6235 6236 6237 6238 6239 6240 6241 6242 6243 6244 6245 6246 6247 6248 6249 6250 6251 6252 6253 6254 6255 6256 6257 6258 6259 6260 6261 6262 6263 6264 6265 6266 6267 6268 6269 6270 6271 6272 6273 6274 6275 6276 6277 6278 6279 6280 6281 6282 6283 6284 6285 6286 6287 6288 6289 6290 6291 6292 6293 6294 6295 6296 6297 6298 6299 6300 6301 6302 6303 6304 6305 6306 6307 6308 6309 6310 6311 6312 6313 6314 6315 6316 6317 6318 6319 6320 6321 6322 6323 6324 6325 6326 6327 6328 6329 6330 6331 6332 6333 6334 6335 6336 6337 6338 6339 6340 6341 6342 6343 6344 6345 6346 6347 6348 6349 6350 6351 6352 6353 6354 6355 6356 6357 6358 6359 6360 6361 6362 6363 6364 6365 6366 6367 6368 6369 6370 6371 6372 6373 6374 6375 6376 6377 6378 6379 6380 6381 6382 6383 6384 6385 6386 6387 6388 6389 6390 6391 6392 6393 6394 6395 6396 6397 6398 6399 6400 6401 6402 6403 6404 6405 6406 6407 6408 6409 6410 6411 6412 6413 6414 6415 6416 6417 6418 6419 6420 6421 6422 6423 6424 6425 6426 6427 6428 6429 6430 6431 6432 6433 6434 6435 6436 6437 6438 6439 6440 6441 6442 6443 6444 6445 6446 6447 6448 6449 6450 6451 6452 6453 6454 6455 6456 6457 6458 6459 6460 6461 6462 6463 6464 6465 6466 6467 6468 6469 6470 6471 6472 6473 6474 6475 6476 6477 6478 6479 6480 6481 6482 6483 6484 6485 6486 6487 6488 6489 6490 6491 6492 6493 6494 6495 6496 6497 6498 6499 6500 6501 6502 6503 6504 6505 6506 6507 6508 6509 6510 6511 6512 6513 6514 6515 6516 6517 6518 6519 6520 6521 6522 6523 6524 6525 6526 6527 6528 6529 6530 6531 6532 6533 6534 6535 6536 6537 6538 6539 6540 6541 6542 6543 6544 6545 6546 6547 6548 6549 6550 6551 6552 6553 6554 6555 6556 6557 6558 6559 6560 6561 6562 6563 6564 6565 6566 6567 6568 6569 6570 6571 6572 6573 6574 6575 6576 6577 6578 6579 6580 6581 6582 6583 6584 6585 6586 6587 6588 6589 6590 6591 6592 6593 6594 6595 6596 6597 6598 6599 6600 6601 6602 6603 6604 6605 6606 6607 6608 6609 6610 6611 6612 6613 6614 6615 6616 6617 6618 6619 6620 6621 6622 6623 6624 6625 6626 6627 6628 6629 6630 6631 6632 6633 6634 6635 6636 6637 6638 6639 6640 6641 6642 6643 6644 6645 6646 6647 6648 6649 6650 6651 6652 6653 6654 6655 6656 6657 6658 6659 6660 6661 6662 6663 6664 6665 6666 6667 6668 6669 6670 6671 6672 6673 6674 6675 6676 6677 6678 6679 6680 6681 6682 6683 6684 6685 6686 6687 6688 6689 6690 6691 6692 6693 6694 6695 6696 6697 6698 6699 6700 6701 6702 6703 6704 6705 6706 6707 6708 6709 6710 6711 6712 6713 6714 6715 6716 6717 6718 6719 6720 6721 6722 6723 6724 6725 6726 6727 6728 6729 6730 6731 6732 6733 6734 6735 6736 6737 6738 6739 6740 6741 6742 6743 6744 6745 6746 6747 6748 6749 6750 6751 6752 6753 6754 6755 6756 6757 6758 6759 6760 6761 6762 6763 6764 6765 6766 6767 6768 6769 6770 6771 6772 6773 6774 6775 6776 6777 6778 6779 6780 6781 6782 6783 6784 6785 6786 6787 6788 6789 6790 6791 6792 6793 6794 6795 6796 6797 6798 6799 6800 6801 6802 6803 6804 6805 6806 6807 6808 6809 6810 6811 6812 6813 6814 6815 6816 6817 6818 6819 6820 6821 6822 6823 6824 6825 6826 6827 6828 6829 6830 6831 6832 6833 6834 6835 6836 6837 6838 6839 6840 6841 6842 6843 6844 6845 6846 6847 6848 6849 6850 6851 6852 6853 6854 6855 6856 6857 6858 6859 6860 6861 6862 6863 6864 6865 6866 6867 6868 6869 6870 6871 6872 6873 6874 6875 6876 6877 6878 6879 6880 6881 6882 6883 6884 6885 6886 6887 6888 6889 6890 6891 6892 6893 6894 6895 6896 6897 6898 6899 6900 6901 6902 6903 6904 6905 6906 6907 6908 6909 6910 6911 6912 6913 6914 6915 6916 6917 6918 6919 6920 6921 6922 6923 6924 6925 6926 6927 6928 6929 6930 6931 6932 6933 6934 6935 6936 6937 6938 6939 6940 6941 6942 6943 6944 6945 6946 6947 6948 6949 6950 6951 6952 6953 6954 6955 6956 6957 6958 6959 6960 6961 6962 6963 6964 6965 6966 6967 6968 6969 6970 6971 6972 6973 6974 6975 6976 6977 6978 6979 6980 6981 6982 6983 6984 6985 6986 6987 6988 6989 6990 6991 6992 6993 6994 6995 6996 6997 6998 6999 7000 7001 7002 7003 7004 7005 7006 7007 7008 7009 7010 7011 7012 7013 7014 7015 7016 7017 7018 7019 7020 7021 7022 7023 7024 7025 7026 7027 7028 7029 7030 7031 7032 7033 7034 7035 7036 7037 7038 7039 7040 7041 7042 7043 7044 7045 7046 7047 7048 7049 7050 7051 7052 7053 7054 7055 7056 7057 7058 7059 7060 7061 7062 7063 7064 7065 7066 7067 7068 7069 7070 7071 7072 7073 7074 7075 7076 7077 7078 7079 7080 7081 7082 7083 7084 7085 7086 7087 7088 7089 7090 7091 7092 7093 7094 7095 7096 7097 7098 7099 7100 7101 7102 7103 7104 7105 7106 7107 7108 7109 7110 7111 7112 7113 7114 7115 7116 7117 7118 7119 7120 7121 7122 7123 7124 7125 7126 7127 7128 7129 7130 7131 7132 7133 7134 7135 7136 7137 7138 7139 7140 7141 7142 7143 7144 7145 7146 7147 7148 7149 7150 7151 7152 7153 7154 7155 7156 7157 7158 7159 7160 7161 7162 7163 7164 7165 7166 7167 7168 7169 7170 7171 7172 7173 7174 7175 7176 7177 7178 7179 7180 7181 7182 7183 7184 7185 7186 7187 7188 7189 7190 7191 7192 7193 7194 7195 7196 7197 7198 7199 7200 7201 7202 7203 7204 7205 7206 7207 7208 7209 7210 7211 7212 7213 7214 7215 7216 7217 7218 7219 7220 7221 7222 7223 7224 7225 7226 7227 7228 7229 7230 7231 7232 7233 7234 7235 7236 7237 7238 7239 7240 7241 7242 7243 7244 7245 7246 7247 7248 7249 7250 7251 7252 7253 7254 7255 7256 7257 7258 7259 7260 7261 7262 7263 7264 7265 7266 7267 7268 7269 7270 7271 7272 7273 7274 7275 7276 7277 7278 7279 7280 7281 7282 7283 7284 7285 7286 7287 7288 7289 7290 7291 7292 7293 7294 7295 7296 7297 7298 7299 7300 7301 7302 7303 7304 7305 7306 7307 7308 7309 7310 7311 7312 7313 7314 7315 7316 7317 7318 7319 7320 7321 7322 7323 7324 7325 7326 7327 7328 7329 7330 7331 7332 7333 7334 7335 7336 7337 7338 7339 7340 7341 7342 7343 7344 7345 7346 7347 7348 7349 7350 7351 7352 7353 7354 7355 7356 7357 7358 7359 7360 7361 7362 7363 7364 7365 7366 7367 7368 7369 7370 7371 7372 7373 7374 7375 7376 7377 7378 7379 7380 7381 7382 7383 7384 7385 7386 7387 7388 7389 7390 7391 7392 7393 7394 7395 7396 7397 7398 7399 7400 7401 7402 7403 7404 7405 7406 7407 7408 7409 7410 7411 7412 7413 7414 7415 7416 7417 7418 7419 7420 7421 7422 7423 7424 7425 7426 7427 7428 7429 7430 7431 7432 7433 7434 7435 7436 7437 7438 7439 7440 7441 7442 7443 7444 7445 7446 7447 7448 7449 7450 7451 7452 7453 7454 7455 7456 7457 7458 7459 7460 7461 7462 7463 7464 7465 7466 7467 7468 7469 7470 7471 7472 7473 7474 7475 7476 7477 7478 7479 7480 7481 7482 7483 7484 7485 7486 7487 7488 7489 7490 7491 7492 7493 7494 7495 7496 7497 7498 7499 7500 7501 7502 7503 7504 7505 7506 7507 7508 7509 7510 7511 7512 7513 7514 7515 7516 7517 7518 7519 7520 7521 7522 7523 7524 7525 7526 7527 7528 7529 7530 7531 7532 7533 7534 7535 7536 7537 7538 7539 7540 7541 7542 7543 7544 7545 7546 7547 7548 7549 7550 7551 7552 7553 7554 7555 7556 7557 7558 7559 7560 7561 7562 7563 7564 7565 7566 7567 7568 7569 7570 7571 7572 7573 7574 7575 7576 7577 7578 7579 7580 7581 7582 7583 7584 7585 7586 7587 7588 7589 7590 7591 7592 7593 7594 7595 7596 7597 7598 7599 7600 7601 7602 7603 7604 7605 7606 7607 7608 7609 7610 7611 7612 7613 7614 7615 7616 7617 7618 7619 7620 7621 7622 7623 7624 7625 7626 7627 7628 7629 7630 7631 7632 7633 7634 7635 7636 7637 7638 7639 7640 7641 7642 7643 7644 7645 7646 7647 7648 7649 7650 7651 7652 7653 7654 7655 7656 7657 7658 7659 7660 7661 7662 7663 7664 7665 7666 7667 7668 7669 7670 7671 7672 7673 7674 7675 7676 7677 7678 7679 7680 7681 7682 7683 7684 7685 7686 7687 7688 7689 7690 7691 7692 7693 7694 7695 7696 7697 7698 7699 7700 7701 7702 7703 7704 7705 7706 7707 7708 7709 7710 7711 7712 7713 7714 7715 7716 7717 7718 7719 7720 7721 7722 7723 7724 7725 7726 7727 7728 7729 7730 7731 7732 7733 7734 7735 7736 7737 7738 7739 7740 7741 7742 7743 7744 7745 7746 7747 7748 7749 7750 7751 7752 7753 7754 7755 7756 7757 7758 7759 7760 7761 7762 7763 7764 7765 7766 7767 7768 7769 7770 7771 7772 7773 7774 7775 7776 7777 7778 7779 7780 7781 7782 7783 7784 7785 7786 7787 7788 7789 7790 7791 7792 7793 7794 7795 7796 7797 7798 7799 7800 7801 7802 7803 7804 7805 7806 7807 7808 7809 7810 7811 7812 7813 7814 7815 7816 7817 7818 7819 7820 7821 7822 7823 7824 7825 7826 7827 7828 7829 7830 7831 7832 7833 7834 7835 7836 7837 7838 7839 7840 7841 7842 7843 7844 7845 7846 7847 7848 7849 7850 7851 7852 7853 7854 7855 7856 7857 7858 7859 7860 7861 7862 7863 7864 7865 7866 7867 7868 7869 7870 7871 7872 7873 7874 7875 7876 7877 7878 7879 7880 7881 7882 7883 7884 7885 7886 7887 7888 7889 7890 7891 7892 7893 7894 7895 7896 7897 7898 7899 7900 7901 7902 7903 7904 7905 7906 7907 7908 7909 7910 7911 7912 7913 7914 7915 7916 7917 7918 7919 7920 7921 7922 7923 7924 7925 7926 7927 7928 7929 7930 7931 7932 7933 7934 7935 7936 7937 7938 7939 7940 7941 7942 7943 7944 7945 7946 7947 7948 7949 7950 7951 7952 7953 7954 7955 7956 7957 7958 7959 7960 7961 7962 7963 7964 7965 7966 7967 7968 7969 7970 7971 7972 7973 7974 7975 7976 7977 7978 7979 7980 7981 7982 7983 7984 7985 7986 7987 7988 7989 7990 7991 7992 7993 7994 7995 7996 7997 7998 7999 8000 8001 8002 8003 8004 8005 8006 8007 8008 8009 8010 8011 8012 8013 8014 8015 8016 8017 8018 8019 8020 8021 8022 8023 8024 8025 8026 8027 8028 8029 8030 8031 8032 8033 8034 8035 8036 8037 8038 8039 8040 8041 8042 8043 8044 8045 8046 8047 8048 8049 8050 8051 8052 8053 8054 8055 8056 8057 8058 8059 8060 8061 8062 8063 8064 8065 8066 8067 8068 8069 8070 8071 8072 8073 8074 8075 8076 8077 8078 8079 8080 8081 8082 8083 8084 8085 8086 8087 8088 8089 8090 8091 8092 8093 8094 8095 8096 8097 8098 8099 8100 8101 8102 8103 8104 8105 8106 8107 8108 8109 8110 8111 8112 8113 8114 8115 8116 8117 8118 8119 8120 8121 8122 8123 8124 8125 8126 8127 8128 8129 8130 8131 8132 8133 8134 8135 8136 8137 8138 8139 8140 8141 8142 8143 8144 8145 8146 8147 8148 8149 8150 8151 8152 8153 8154 8155 8156 8157 8158 8159 8160 8161 8162 8163 8164 8165 8166 8167 8168 8169 8170 8171 8172 8173 8174 8175 8176 8177 8178 8179 8180 8181 8182 8183 8184 8185 8186 8187 8188 8189 8190 8191 8192 8193 8194 8195 8196 8197 8198 8199 8200 8201 8202 8203 8204 8205 8206 8207 8208 8209 8210 8211 8212 8213 8214 8215 8216 8217 8218 8219 8220 8221 8222 8223 8224 8225 8226 8227 8228 8229 8230 8231 8232 8233 8234 8235 8236 8237 8238 8239 8240 8241 8242 8243 8244 8245 8246 8247 8248 8249 8250 8251 8252 8253 8254 8255 8256 8257 8258 8259 8260 8261 8262 8263 8264 8265 8266 8267 8268 8269 8270 8271 8272 8273 8274 8275 8276 8277 8278 8279 8280 8281 8282 8283 8284 8285 8286 8287 8288 8289 8290 8291 8292 8293 8294 8295 8296 8297 8298 8299 8300 8301 8302 8303 8304 8305 8306 8307 8308 8309 8310 8311 8312 8313 8314 8315 8316 8317 8318 8319 8320 8321 8322 8323 8324 8325 8326 8327 8328 8329 8330 8331 8332 8333 8334 8335 8336 8337 8338 8339 8340 8341 8342 8343 8344 8345 8346 8347 8348 8349 8350 8351 8352 8353 8354 8355 8356 8357 8358 8359 8360 8361 8362 8363 8364 8365 8366 8367 8368 8369 8370 8371 8372 8373 8374 8375 8376 8377 8378 8379 8380 8381 8382 8383 8384 8385 8386 8387 8388 8389 8390 8391 8392 8393 8394 8395 8396 8397 8398 8399 8400 8401 8402 8403 8404 8405 8406 8407 8408 8409 8410 8411 8412 8413 8414 8415 8416 8417 8418 8419 8420 8421 8422 8423 8424 8425 8426 8427 8428 8429 8430 8431 8432 8433 8434 8435 8436 8437 8438 8439 8440 8441 8442 8443 8444 8445 8446 8447 8448 8449 8450 8451 8452 8453 8454 8455 8456 8457 8458 8459 8460 8461 8462 8463 8464 8465 8466 8467 8468 8469 8470 8471 8472 8473 8474 8475 8476 8477 8478 8479 8480 8481 8482 8483 8484 8485 8486 8487 8488 8489 8490 8491 8492 8493 8494 8495 8496 8497 8498 8499 8500 8501 8502 8503 8504 8505 8506 8507 8508 8509 8510 8511 8512 8513 8514 8515 8516 8517 8518 8519 8520 8521 8522 8523 8524 8525 8526 8527 8528 8529 8530 8531 8532 8533 8534 8535 8536 8537 8538 8539 8540 8541 8542 8543 8544 8545 8546 8547 8548 8549 8550 8551 8552 8553 8554 8555 8556 8557 8558 8559 8560 8561 8562 8563 8564 8565 8566 8567 8568 8569 8570 8571 8572 8573 8574 8575 8576 8577 8578 8579 8580 8581 8582 8583 8584 8585 8586 8587 8588 8589 8590 8591 8592 8593 8594 8595 8596 8597 8598 8599 8600 8601 8602 8603 8604 8605 8606 8607 8608 8609 8610 8611 8612 8613 8614 8615 8616 8617 8618 8619 8620 8621 8622 8623 8624 8625 8626 8627 8628 8629 8630 8631 8632 8633 8634 8635 8636 8637 8638 8639 8640 8641 8642 8643 8644 8645 8646 8647 8648 8649 8650 8651 8652 8653 8654 8655 8656 8657 8658 8659 8660 8661 8662 8663 8664 8665 8666 8667 8668 8669 8670 8671 8672 8673 8674 8675 8676 8677 8678 8679 8680 8681 8682 8683 8684 8685 8686 8687 8688 8689 8690 8691 8692 8693 8694 8695 8696 8697 8698 8699 8700 8701 8702 8703 8704 8705 8706 8707 8708 8709 8710 8711 8712 8713 8714 8715 8716 8717 8718 8719 8720 8721 8722 8723 8724 8725 8726 8727 8728 8729 8730 8731 8732 8733 8734 8735 8736 8737 8738 8739 8740 8741 8742 8743 8744 8745 8746 8747 8748 8749 8750 8751 8752 8753 8754 8755 8756 8757 8758 8759 8760 8761 8762 8763 8764 8765 8766 8767 8768 8769 8770 8771 8772 8773 8774 8775 8776 8777 8778 8779 8780 8781 8782 8783 8784 8785 8786 8787 8788 8789 8790 8791 8792 8793 8794 8795 8796 8797 8798 8799 8800 8801 8802 8803 8804 8805 8806 8807 8808 8809 8810 8811 8812 8813 8814 8815 8816 8817 8818 8819 8820 8821 8822 8823 8824 8825 8826 8827 8828 8829 8830 8831 8832 8833 8834 8835 8836 8837 8838 8839 8840 8841 8842 8843 8844 8845 8846 8847 8848 8849 8850 8851 8852 8853 8854 8855 8856 8857 8858 8859 8860 8861 8862 8863 8864 8865 8866 8867 8868 8869 8870 8871 8872 8873 8874 8875 8876 8877 8878 8879 8880 8881 8882 8883 8884 8885 8886 8887 8888 8889 8890 8891 8892 8893 8894 8895 8896 8897 8898 8899 8900 8901 8902 8903 8904 8905 8906 8907 8908 8909 8910 8911 8912 8913 8914 8915 8916 8917 8918 8919 8920 8921 8922 8923 8924 8925 8926 8927 8928 8929 8930 8931 8932 8933 8934 8935 8936 8937 8938 8939 8940 8941 8942 8943 8944 8945 8946 8947 8948 8949 8950 8951 8952 8953 8954 8955 8956 8957 8958 8959 8960 8961 8962 8963 8964 8965 8966 8967 8968 8969 8970 8971 8972 8973 8974 8975 8976 8977 8978 8979 8980 8981 8982 8983 8984 8985 8986 8987 8988 8989 8990 8991 8992 8993 8994 8995 8996 8997 8998 8999 9000 9001 9002 9003 9004 9005 9006 9007 9008 9009 9010 9011 9012 9013 9014 9015 9016 9017 9018 9019 9020 9021 9022 9023 9024 9025 9026 9027 9028 9029 9030 9031 9032 9033 9034 9035 9036 9037 9038 9039 9040 9041 9042 9043 9044 9045 9046 9047 9048 9049 9050 9051 9052 9053 9054 9055 9056 9057 9058 9059 9060 9061 9062 9063 9064 9065 9066 9067 9068 9069 9070 9071 9072 9073 9074 9075 9076 9077 9078 9079 9080 9081 9082 9083 9084 9085 9086 9087 9088 9089 9090 9091 9092 9093 9094 9095 9096 9097 9098 9099 9100 9101 9102 9103 9104 9105 9106 9107 9108 9109 9110 9111 9112 9113 9114 9115 9116 9117 9118 9119 9120 9121 9122 9123 9124 9125 9126 9127 9128 9129 9130 9131 9132 9133 9134 9135 9136 9137 9138 9139 9140 9141 9142 9143 9144 9145 9146 9147 9148 9149 9150 9151 9152 9153 9154 9155 9156 9157 9158 9159 9160 9161 9162 9163 9164 9165 9166 9167 9168 9169 9170 9171 9172 9173 9174 9175 9176 9177 9178 9179 9180 9181 9182 9183 9184 9185 9186 9187 9188 9189 9190 9191 9192 9193 9194 9195 9196 9197 9198 9199 9200 9201 9202 9203 9204 9205 9206 9207 9208 9209 9210 9211 9212 9213 9214 9215 9216 9217 9218 9219 9220 9221 9222 9223 9224 9225 9226 9227 9228 9229 9230 9231 9232 9233 9234 9235 9236 9237 9238 9239 9240 9241 9242 9243 9244 9245 9246 9247 9248 9249 9250 9251 9252 9253 9254 9255 9256 9257 9258 9259 9260 9261 9262 9263 9264 9265 9266 9267 9268 9269 9270 9271 9272 9273 9274 9275 9276 9277 9278 9279 9280 9281 9282 9283 9284 9285 9286 9287 9288 9289 9290 9291 9292 9293 9294 9295 9296 9297 9298 9299 9300 9301 9302 9303 9304 9305 9306 9307 9308 9309 9310 9311 9312 9313 9314 9315 9316 9317 9318 9319 9320 9321 9322 9323 9324 9325 9326 9327 9328 9329 9330 9331 9332 9333 9334 9335 9336 9337 9338 9339 9340 9341 9342 9343 9344 9345 9346 9347 9348 9349 9350 9351 9352 9353 9354 9355 9356 9357 9358 9359 9360 9361 9362 9363 9364 9365 9366 9367 9368 9369 9370 9371 9372 9373 9374 9375 9376 9377 9378 9379 9380 9381 9382 9383 9384 9385 9386 9387 9388 9389 9390 9391 9392 9393 9394 9395 9396 9397 9398 9399 9400 9401 9402 9403 9404 9405 9406 9407 9408 9409 9410 9411 9412 9413 9414 9415 9416 9417 9418 9419 9420 9421 9422 9423 9424 9425 9426 9427 9428 9429 9430 9431 9432 9433 9434 9435 9436 9437 9438 9439 9440 9441 9442 9443 9444 9445 9446 9447 9448 9449 9450 9451 9452 9453 9454 9455 9456 9457 9458 9459 9460 9461 9462 9463 9464 9465 9466 9467 9468 9469 9470 9471 9472 9473 9474 9475 9476 9477 9478 9479 9480 9481 9482 9483 9484 9485 9486 9487 9488 9489 9490 9491 9492 9493 9494 9495 9496 9497 9498 9499 9500 9501 9502 9503 9504 9505 9506 9507 9508 9509 9510 9511 9512 9513 9514 9515 9516 9517 9518 9519 9520 9521 9522 9523 9524 9525 9526 9527 9528 9529 9530 9531 9532 9533 9534 9535 9536 9537 9538 9539 9540 9541 9542 9543 9544 9545 9546 9547 9548 9549 9550 9551 9552 9553 9554 9555 9556 9557 9558 9559 9560 9561 9562 9563 9564 9565 9566 9567 9568 9569 9570 9571 9572 9573 9574 9575 9576 9577 9578 9579 9580 9581 9582 9583 9584 9585 9586 9587 9588 9589 9590 9591 9592 9593 9594 9595 9596 9597 9598 9599 9600 9601 9602 9603 9604 9605 9606 9607 9608 9609 9610 9611 9612 9613 9614 9615 9616 9617 9618 9619 9620 9621 9622 9623 9624 9625 9626 9627 9628 9629 9630 9631 9632 9633 9634 9635 9636 9637 9638 9639 9640 9641 9642 9643 9644 9645 9646 9647 9648 9649 9650 9651 9652 9653 9654 9655 9656 9657 9658 9659 9660 9661 9662 9663 9664 9665 9666 9667 9668 9669 9670 9671 9672 9673 9674 9675 9676 9677 9678 9679 9680 9681 9682 9683 9684 9685 9686 9687 9688 9689 9690 9691 9692 9693 9694 9695 9696 9697 9698 9699 9700 9701 9702 9703 9704 9705 9706 9707 9708 9709 9710 9711 9712 9713 9714 9715 9716 9717 9718 9719 9720 9721 9722 9723 9724 9725 9726 9727 9728 9729 9730 9731 9732 9733 9734 9735 9736 9737 9738 9739 9740 9741 9742 9743 9744 9745 9746 9747 9748 9749 9750 9751 9752 9753 9754 9755 9756 9757 9758 9759 9760 9761 9762 9763 9764 9765 9766 9767 9768 9769 9770 9771 9772 9773 9774 9775 9776 9777 9778 9779 9780 9781 9782 9783 9784 9785 9786 9787 9788 9789 9790 9791 9792 9793 9794 9795 9796 9797 9798 9799 9800 9801 9802 9803 9804 9805 9806 9807 9808 9809 9810 9811 9812 9813 9814 9815 9816 9817 9818 9819 9820 9821 9822 9823 9824 9825 9826 9827 9828 9829 9830 9831 9832 9833 9834 9835 9836 9837 9838 9839 9840 9841 9842 9843 9844 9845 9846 9847 9848 9849 9850 9851 9852 9853 9854 9855 9856 9857 9858 9859 9860 9861 9862 9863 9864 9865 9866 9867 9868 9869 9870 9871 9872 9873 9874 9875 9876 9877 9878 9879 9880 9881 9882 9883 9884 9885 9886 9887 9888 9889 9890 9891 9892 9893 9894 9895 9896 9897 9898 9899 9900 9901 9902 9903 9904 9905 9906 9907 9908 9909 9910 9911 9912 9913 9914 9915 9916 9917 9918 9919 9920 9921 9922 9923 9924 9925 9926 9927 9928 9929 9930 9931 9932 9933 9934 9935 9936 9937 9938 9939 9940 9941 9942 9943 9944 9945 9946 9947 9948 9949 9950 9951 9952 9953 9954 9955 9956 9957 9958 9959 9960 9961 9962 9963 9964 9965 9966 9967 9968 9969 9970 9971 9972 9973 9974 9975 9976 9977 9978 9979 9980 9981 9982 9983 9984 9985 9986 9987 9988 9989 9990 9991 9992 9993 9994 9995 9996 9997 9998 9999 10000 10001 10002 10003 10004 10005 10006 10007 10008 10009 10010 10011 10012 10013 10014 10015 10016 10017 10018 10019 10020 10021 10022 10023 10024 10025 10026 10027 10028 10029 10030 10031 10032 10033 10034 10035 10036 10037 10038 10039 10040 10041 10042 10043 10044 10045 10046 10047 10048 10049 10050 10051 10052 10053 10054 10055 10056 10057 10058 10059 10060 10061 10062 10063 10064 10065 10066 10067 10068 10069 10070 10071 10072 10073 10074 10075 10076 10077 10078 10079 10080 10081 10082 10083 10084 10085 10086 10087 10088 10089 10090 10091 10092 10093 10094 10095 10096 10097 10098 10099 10100 10101 10102 10103 10104 10105 10106 10107 10108 10109 10110 10111 10112 10113 10114 10115 10116 10117 10118 10119 10120 10121 10122 10123 10124 10125 10126 10127 10128 10129 10130 10131 10132 10133 10134 10135 10136 10137 10138 10139 10140 10141 10142 10143 10144 10145 10146 10147 10148 10149 10150 10151 10152 10153 10154 10155 10156 10157 10158 10159 10160 10161 10162 10163 10164 10165 10166 10167 10168 10169 10170 10171 10172 10173 10174 10175 10176 10177 10178 10179 10180 10181 10182 10183 10184 10185 10186 10187 10188 10189 10190 10191 10192 10193 10194 10195 10196 10197 10198 10199 10200 10201 10202 10203 10204 10205 10206 10207 10208 10209 10210 10211 10212 10213 10214 10215 10216 10217 10218 10219 10220 10221 10222 10223 10224 10225 10226 10227 10228 10229 10230 10231 10232 10233 10234 10235 10236 10237 10238 10239 10240 10241 10242 10243 10244 10245 10246 10247 10248 10249 10250 10251 10252 10253 10254 10255 10256 10257 10258 10259 10260 10261 10262 10263 10264 10265 10266 10267 10268 10269 10270 10271 10272 10273 10274 10275 10276 10277 10278 10279 10280 10281 10282 10283 10284 10285 10286 10287 10288 10289 10290 10291 10292 10293 10294 10295 10296 10297 10298 10299 10300 10301 10302 10303 10304 10305 10306 10307 10308 10309 10310 10311 10312 10313 10314 10315 10316 10317 10318 10319 10320 10321 10322 10323 10324 10325 10326 10327 10328 10329 10330 10331 10332 10333 10334 10335 10336 10337 10338 10339 10340 10341 10342 10343 10344 10345 10346 10347 10348 10349 10350 10351 10352 10353 10354 10355 10356 10357 10358 10359 10360 10361 10362 10363 10364 10365 10366 10367 10368 10369 10370 10371 10372 10373 10374 10375 10376 10377 10378 10379 10380 10381 10382 10383 10384 10385 10386 10387 10388 10389 10390 10391 10392 10393 10394 10395 10396 10397 10398 10399 10400 10401 10402 10403 10404 10405 10406 10407 10408 10409 10410 10411 10412 10413 10414 10415 10416 10417 10418 10419 10420 10421 10422 10423 10424 10425 10426 10427 10428 10429 10430 10431 10432 10433 10434 10435 10436 10437 10438 10439 10440 10441 10442 10443 10444 10445 10446 10447 10448 10449 10450 10451 10452 10453 10454 10455 10456 10457 10458 10459 10460 10461 10462 10463 10464 10465 10466 10467 10468 10469 10470 10471 10472 10473 10474 10475 10476 10477 10478 10479 10480 10481 10482 10483 10484 10485 10486 10487 10488 10489 10490 10491 10492 10493 10494 10495 10496 10497 10498 10499 10500 10501 10502 10503 10504 10505 10506 10507 10508 10509 10510 10511 10512 10513 10514 10515 10516 10517 10518 10519 10520 10521 10522 10523 10524 10525 10526 10527 10528 10529 10530 10531 10532 10533 10534 10535 10536 10537 10538 10539 10540 10541 10542 10543 10544 10545 10546 10547 10548 10549 10550 10551 10552 10553 10554 10555 10556 10557 10558 10559 10560 10561 10562 10563 10564 10565 10566 10567 10568 10569 10570 10571 10572 10573 10574 10575 10576 10577 10578 10579 10580 10581 10582 10583 10584 10585 10586 10587 10588 10589 10590 10591 10592 10593 10594 10595 10596 10597 10598 10599 10600 10601 10602 10603 10604 10605 10606 10607 10608 10609 10610 10611 10612 10613 10614 10615 10616 10617 10618 10619 10620 10621 10622 10623 10624 10625 10626 10627 10628 10629 10630 10631 10632 10633 10634 10635 10636 10637 10638 10639 10640 10641 10642 10643 10644 10645 10646 10647 10648 10649 10650 10651 10652 10653 10654 10655 10656 10657 10658 10659 10660 10661 10662 10663 10664 10665 10666 10667 10668 10669 10670 10671 10672 10673 10674 10675 10676 10677 10678 10679 10680 10681 10682 10683 10684 10685 10686 10687 10688 10689 10690 10691 10692 10693 10694 10695 10696 10697 10698 10699 10700 10701 10702 10703 10704 10705 10706 10707 10708 10709 10710 10711 10712 10713 10714 10715 10716 10717 10718 10719 10720 10721 10722 10723 10724 10725 10726 10727 10728 10729 10730 10731 10732 10733 10734 10735 10736 10737 10738 10739 10740 10741 10742 10743 10744 10745 10746 10747 10748 10749 10750 10751 10752 10753 10754 10755 10756 10757 10758 10759 10760 10761 10762 10763 10764 10765 10766 10767 10768 10769 10770 10771 10772 10773 10774 10775 10776 10777 10778 10779 10780 10781 10782 10783 10784 10785 10786 10787 10788 10789 10790 10791 10792 10793 10794 10795 10796 10797 10798 10799 10800 10801 10802 10803 10804 10805 10806 10807 10808 10809 10810 10811 10812 10813 10814 10815 10816 10817 10818 10819 10820 10821 10822 10823 10824 10825 10826 10827 10828 10829 10830 10831 10832 10833 10834 10835 10836 10837 10838 10839 10840 10841 10842 10843 10844 10845 10846 10847 10848 10849 10850 10851 10852 10853 10854 10855 10856 10857 10858 10859 10860 10861 10862 10863 10864 10865 10866 10867 10868 10869 10870 10871 10872 10873 10874 10875 10876 10877 10878 10879 10880 10881 10882 10883 10884 10885 10886 10887 10888 10889 10890 10891 10892 10893 10894 10895 10896 10897 10898 10899 10900 10901 10902 10903 10904 10905 10906 10907 10908 10909 10910 10911 10912 10913 10914 10915 10916 10917 10918 10919 10920 10921 10922 10923 10924 10925 10926 10927 10928 10929 10930 10931 10932 10933 10934 10935 10936 10937 10938 10939 10940 10941 10942 10943 10944 10945 10946 10947 10948 10949 10950 10951 10952 10953 10954 10955 10956 10957 10958 10959 10960 10961 10962 10963 10964 10965 10966 10967 10968 10969 10970 10971 10972 10973 10974 10975 10976 10977 10978 10979 10980 10981 10982 10983 10984 10985 10986 10987 10988 10989 10990 10991 10992 10993 10994 10995 10996 10997 10998 10999 11000 11001 11002 11003 11004 11005 11006 11007 11008 11009 11010 11011 11012 11013 11014 11015 11016 11017 11018 11019 11020 11021 11022 11023 11024 11025 11026 11027 11028 11029 11030 11031 11032 11033 11034 11035 11036 11037 11038 11039 11040 11041 11042 11043 11044 11045 11046 11047 11048 11049 11050 11051 11052 11053 11054 11055 11056 11057 11058 11059 11060 11061 11062 11063 11064 11065 11066 11067 11068 11069 11070 11071 11072 11073 11074 11075 11076 11077 11078 11079 11080 11081 11082 11083 11084 11085 11086 11087 11088 11089 11090 11091 11092 11093 11094 11095 11096 11097 11098 11099 11100 11101 11102 11103 11104 11105 11106 11107 11108 11109 11110 11111 11112 11113 11114 11115 11116 11117 11118 11119 11120 11121 11122 11123 11124 11125 11126 11127 11128 11129 11130 11131 11132 11133 11134 11135 11136 11137 11138 11139 11140 11141 11142 11143 11144 11145 11146 11147 11148 11149 11150 11151 11152 11153 11154 11155 11156 11157 11158 11159 11160 11161 11162 11163 11164 11165 11166 11167 11168 11169 11170 11171 11172 11173 11174 11175 11176 11177 11178 11179 11180 11181 11182 11183 11184 11185 11186 11187 11188 11189 11190 11191 11192 11193 11194 11195 11196 11197 11198 11199 11200 11201 11202 11203 11204 11205 11206 11207 11208 11209 11210 11211 11212 11213 11214 11215 11216 11217 11218 11219 11220 11221 11222 11223 11224 11225 11226 11227 11228 11229 11230 11231 11232 11233 11234 11235 11236 11237 11238 11239 11240 11241 11242 11243 11244 11245 11246 11247 11248 11249 11250 11251 11252 11253 11254 11255 11256 11257 11258 11259 11260 11261 11262 11263 11264 11265 11266 11267 11268 11269 11270 11271 11272 11273 11274 11275 11276 11277 11278 11279 11280 11281 11282 11283 11284 11285 11286 11287 11288 11289 11290 11291 11292 11293 11294 11295 11296 11297 11298 11299 11300 11301 11302 11303 11304 11305 11306 11307 11308 11309 11310 11311 11312 11313 11314 11315 11316 11317 11318 11319 11320 11321 11322 11323 11324 11325 11326 11327 11328 11329 11330 11331 11332 11333 11334 11335 11336 11337 11338 11339 11340 11341 11342 11343 11344 11345 11346 11347 11348 11349 11350 11351 11352 11353 11354 11355 11356 11357 11358 11359 11360 11361 11362 11363 11364 11365 11366 11367 11368 11369 11370 11371 11372 11373 11374 11375 11376 11377 11378 11379 11380 11381 11382 11383 11384 11385 11386 11387 11388 11389 11390 11391 11392 11393 11394 11395 11396 11397 11398 11399 11400 11401 11402 11403 11404 11405 11406 11407 11408 11409 11410 11411 11412 11413 11414 11415 11416 11417 11418 11419 11420 11421 11422 11423 11424 11425 11426 11427 11428 11429 11430 11431 11432 11433 11434 11435 11436 11437 11438 11439 11440 11441 11442 11443 11444 11445 11446 11447 11448 11449 11450 11451 11452 11453 11454 11455 11456 11457 11458 11459 11460 11461 11462 11463 11464 11465 11466 11467 11468 11469 11470 11471 11472 11473 11474 11475 11476 11477 11478 11479 11480 11481 11482 11483 11484 11485 11486 11487 11488 11489 11490 11491 11492 11493 11494 11495 11496 11497 11498 11499 11500 11501 11502 11503 11504 11505 11506 11507 11508 11509 11510 11511 11512 11513 11514 11515 11516 11517 11518 11519 11520 11521 11522 11523 11524 11525 11526 11527 11528 11529 11530 11531 11532 11533 11534 11535 11536 11537 11538 11539 11540 11541 11542 11543 11544 11545 11546 11547 11548 11549 11550 11551 11552 11553 11554 11555 11556 11557 11558 11559 11560 11561 11562 11563 11564 11565 11566 11567 11568 11569 11570 11571 11572 11573 11574 11575 11576 11577 11578 11579 11580 11581 11582 11583 11584 11585 11586 11587 11588 11589 11590 11591 11592 11593 11594 11595 11596 11597 11598 11599 11600 11601 11602 11603 11604 11605 11606 11607 11608 11609 11610 11611 11612 11613 11614 11615 11616 11617 11618 11619 11620 11621 11622 11623 11624 11625 11626 11627 11628 11629 11630 11631 11632 11633 11634 11635 11636 11637 11638 11639 11640 11641 11642 11643 11644 11645 11646 11647 11648 11649 11650 11651 11652 11653 11654 11655 11656 11657 11658 11659 11660 11661 11662 11663 11664 11665 11666 11667 11668 11669 11670 11671 11672 11673 11674 11675 11676 11677 11678 11679 11680 11681 11682 11683 11684 11685 11686 11687 11688 11689 11690 11691 11692 11693 11694 11695 11696 11697 11698 11699 11700 11701 11702 11703 11704 11705 11706 11707 11708 11709 11710 11711 11712 11713 11714 11715 11716 11717 11718 11719 11720 11721 11722 11723 11724 11725 11726 11727 11728 11729 11730 11731 11732 11733 11734 11735 11736 11737 11738 11739 11740 11741 11742 11743 11744 11745 11746 11747 11748 11749 11750 11751 11752 11753 11754 11755 11756 11757 11758 11759 11760 11761 11762 11763 11764 11765 11766 11767 11768 11769 11770 11771 11772 11773 11774 11775 11776 11777 11778 11779 11780 11781 11782 11783 11784 11785 11786 11787 11788 11789 11790 11791 11792 11793 11794 11795 11796 11797 11798 11799 11800 11801 11802 11803 11804 11805 11806 11807 11808 11809 11810 11811 11812 11813 11814 11815 11816 11817 11818 11819 11820 11821 11822 11823 11824 11825 11826 11827 11828 11829 11830 11831 11832 11833 11834 11835 11836 11837 11838 11839 11840 11841 11842 11843 11844 11845 11846 11847 11848 11849 11850 11851 11852 11853 11854 11855 11856 11857 11858 11859 11860 11861 11862 11863 11864 11865 11866 11867 11868 11869 11870 11871 11872 11873 11874 11875 11876 11877 11878 11879 11880 11881 11882 11883 11884 11885 11886 11887 11888 11889 11890 11891 11892 11893 11894 11895 11896 11897 11898 11899 11900 11901 11902 11903 11904 11905 11906 11907 11908 11909 11910 11911 11912 11913 11914 11915 11916 11917 11918 11919 11920 11921 11922 11923 11924 11925 11926 11927 11928 11929 11930 11931 11932 11933 11934 11935 11936 11937 11938 11939 11940 11941 11942 11943 11944 11945 11946 11947 11948 11949 11950 11951 11952 11953 11954 11955 11956 11957 11958 11959 11960 11961 11962 11963 11964 11965 11966 11967 11968 11969 11970 11971 11972 11973 11974 11975 11976 11977 11978 11979 11980 11981 11982 11983 11984 11985 11986 11987 11988 11989 11990 11991 11992 11993 11994 11995 11996 11997 11998 11999 12000 12001 12002 12003 12004 12005 12006 12007 12008 12009 12010 12011 12012 12013 12014 12015 12016 12017 12018 12019 12020 12021 12022 12023 12024 12025 12026 12027 12028 12029 12030 12031 12032 12033 12034 12035 12036 12037 12038 12039 12040 12041 12042 12043 12044 12045 12046 12047 12048 12049 12050 12051 12052 12053 12054 12055 12056 12057 12058 12059 12060 12061 12062 12063 12064 12065 12066 12067 12068 12069 12070 12071 12072 12073 12074 12075 12076 12077 12078 12079 12080 12081 12082 12083 12084 12085 12086 12087 12088 12089 12090 12091 12092 12093 12094 12095 12096 12097 12098 12099 12100 12101 12102 12103 12104 12105 12106 12107 12108 12109 12110 12111 12112 12113 12114 12115 12116 12117 12118 12119 12120 12121 12122 12123 12124 12125 12126 12127 12128 12129 12130 12131 12132 12133 12134 12135 12136 12137 12138 12139 12140 12141 12142 12143 12144 12145 12146 12147 12148 12149 12150 12151 12152 12153 12154 12155 12156 12157 12158 12159 12160 12161 12162 12163 12164 12165 12166 12167 12168 12169 12170 12171 12172 12173 12174 12175 12176 12177 12178 12179 12180 12181 12182 12183 12184 12185 12186 12187 12188 12189 12190 12191 12192 12193 12194 12195 12196 12197 12198 12199 12200 12201 12202 12203 12204 12205 12206 12207 12208 12209 12210 12211 12212 12213 12214 12215 12216 12217 12218 12219 12220 12221 12222 12223 12224 12225 12226 12227 12228 12229 12230 12231 12232 12233 12234 12235 12236 12237 12238 12239 12240 12241 12242 12243 12244 12245 12246 12247 12248 12249 12250 12251 12252 12253 12254 12255 12256 12257 12258 12259 12260 12261 12262 12263 12264 12265 12266 12267 12268 12269 12270 12271 12272 12273 12274 12275 12276 12277 12278 12279 12280 12281 12282 12283 12284 12285 12286 12287 12288 12289 12290 12291 12292 12293 12294 12295 12296 12297 12298 12299 12300 12301 12302 12303 12304 12305 12306 12307 12308 12309 12310 12311 12312 12313 12314 12315 12316 12317 12318 12319 12320 12321 12322 12323 12324 12325 12326 12327 12328 12329 12330 12331 12332 12333 12334 12335 12336 12337 12338 12339 12340 12341 12342 12343 12344 12345 12346 12347 12348 12349 12350 12351 12352 12353 12354 12355 12356 12357 12358 12359 12360 12361 12362 12363 12364 12365 12366 12367 12368 12369 12370 12371 12372 12373 12374 12375 12376 12377 12378 12379 12380 12381 12382 12383 12384 12385 12386 12387 12388 12389 12390 12391 12392 12393 12394 12395 12396 12397 12398 12399 12400 12401 12402 12403 12404 12405 12406 12407 12408 12409 12410 12411 12412 12413 12414 12415 12416 12417 12418 12419 12420 12421 12422 12423 12424 12425 12426 12427 12428 12429 12430 12431 12432 12433 12434 12435 12436 12437 12438 12439 12440 12441 12442 12443 12444 12445 12446 12447 12448 12449 12450 12451 12452 12453 12454 12455 12456 12457 12458 12459 12460 12461 12462 12463 12464 12465 12466 12467 12468 12469 12470 12471 12472 12473 12474 12475 12476 12477 12478 12479 12480 12481 12482 12483 12484 12485 12486 12487 12488 12489 12490 12491 12492 12493 12494 12495 12496 12497 12498 12499 12500 12501 12502 12503 12504 12505 12506 12507 12508 12509 12510 12511 12512 12513 12514 12515 12516 12517 12518 12519 12520 12521 12522 12523 12524 12525 12526 12527 12528 12529 12530 12531 12532 12533 12534 12535 12536 12537 12538 12539 12540 12541 12542 12543 12544 12545 12546 12547 12548 12549 12550 12551 12552 12553 12554 12555 12556 12557 12558 12559 12560 12561 12562 12563 12564 12565 12566 12567 12568 12569 12570 12571 12572 12573 12574 12575 12576 12577 12578 12579 12580 12581 12582 12583 12584 12585 12586 12587 12588 12589 12590 12591 12592 12593 12594 12595 12596 12597 12598 12599 12600 12601 12602 12603 12604 12605 12606 12607 12608 12609 12610 12611 12612 12613 12614 12615 12616 12617 12618 12619 12620 12621 12622 12623 12624 12625 12626 12627 12628 12629 12630 12631 12632 12633 12634 12635 12636 12637 12638 12639 12640 12641 12642 12643 12644 12645 12646 12647 12648 12649 12650 12651 12652 12653 12654 12655 12656 12657 12658 12659 12660 12661 12662 12663 12664 12665 12666 12667 12668 12669 12670 12671 12672 12673 12674 12675 12676 12677 12678 12679 12680 12681 12682 12683 12684 12685 12686 12687 12688 12689 12690 12691 12692 12693 12694 12695 12696 12697 12698 12699 12700 12701 12702 12703 12704 12705 12706 12707 12708 12709 12710 12711 12712 12713 12714 12715 12716 12717 12718 12719 12720 12721 12722 12723 12724 12725 12726 12727 12728 12729 12730 12731 12732 12733 12734 12735 12736 12737 12738 12739 12740 12741 12742 12743 12744 12745 12746 12747 12748 12749 12750 12751 12752 12753 12754 12755 12756 12757 12758 12759 12760 12761 12762 12763 12764 12765 12766 12767 12768 12769 12770 12771 12772 12773 12774 12775 12776 12777 12778 12779 12780 12781 12782 12783 12784 12785 12786 12787 12788 12789 12790 12791 12792 12793 12794 12795 12796 12797 12798 12799 12800 12801 12802 12803 12804 12805 12806 12807 12808 12809 12810 12811 12812 12813 12814 12815 12816 12817 12818 12819 12820 12821 12822 12823 12824 12825 12826 12827 12828 12829 12830 12831 12832 12833 12834 12835 12836 12837 12838 12839 12840 12841 12842 12843 12844 12845 12846 12847 12848 12849 12850 12851 12852 12853 12854 12855 12856 12857 12858 12859 12860 12861 12862 12863 12864 12865 12866 12867 12868 12869 12870 12871 12872 12873 12874 12875 12876 12877 12878 12879 12880 12881 12882 12883 12884 12885 12886 12887 12888 12889 12890 12891 12892 12893 12894 12895 12896 12897 12898 12899 12900 12901 12902 12903 12904 12905 12906 12907 12908 12909 12910 12911 12912 12913 12914 12915 12916 12917 12918 12919 12920 12921 12922 12923 12924 12925 12926 12927 12928 12929 12930 12931 12932 12933 12934 12935 12936 12937 12938 12939 12940 12941 12942 12943 12944 12945 12946 12947 12948 12949 12950 12951 12952 12953 12954 12955 12956 12957 12958 12959 12960 12961 12962 12963 12964 12965 12966 12967 12968 12969 12970 12971 12972 12973 12974 12975 12976 12977 12978 12979 12980 12981 12982 12983 12984 12985 12986 12987 12988 12989 12990 12991 12992 12993 12994 12995 12996 12997 12998 12999 13000 13001 13002 13003 13004 13005 13006 13007 13008 13009 13010 13011 13012 13013 13014 13015 13016 13017 13018 13019 13020 13021 13022 13023 13024 13025 13026 13027 13028 13029 13030 13031 13032 13033 13034 13035 13036 13037 13038 13039 13040 13041 13042 13043 13044 13045 13046 13047 13048 13049 13050 13051 13052 13053 13054 13055 13056 13057 13058 13059 13060 13061 13062 13063 13064 13065 13066 13067 13068 13069 13070 13071 13072 13073 13074 13075 13076 13077 13078 13079 13080 13081 13082 13083 13084 13085 13086 13087 13088 13089 13090 13091 13092 13093 13094 13095 13096 13097 13098 13099 13100 13101 13102 13103 13104 13105 13106 13107 13108 13109 13110 13111 13112 13113 13114 13115 13116 13117 13118 13119 13120 13121 13122 13123 13124 13125 13126 13127 13128 13129 13130 13131 13132 13133 13134 13135 13136 13137 13138 13139 13140 13141 13142 13143 13144 13145 13146 13147 13148 13149 13150 13151 13152 13153 13154 13155 13156 13157 13158 13159 13160 13161 13162 13163 13164 13165 13166 13167 13168 13169 13170 13171 13172 13173 13174 13175 13176 13177 13178 13179 13180 13181 13182 13183 13184 13185 13186 13187 13188 13189 13190 13191 13192 13193 13194 13195 13196 13197 13198 13199 13200 13201 13202 13203 13204 13205 13206 13207 13208 13209 13210 13211 13212 13213 13214 13215 13216 13217 13218 13219 13220 13221 13222 13223 13224 13225 13226 13227 13228 13229 13230 13231 13232 13233 13234 13235 13236 13237 13238 13239 13240 13241 13242 13243 13244 13245 13246 13247 13248 13249 13250 13251 13252 13253 13254 13255 13256 13257 13258 13259 13260 13261 13262 13263 13264 13265 13266 13267 13268 13269 13270 13271 13272 13273 13274 13275 13276 13277 13278 13279 13280 13281 13282 13283 13284 13285 13286 13287 13288 13289 13290 13291 13292 13293 13294 13295 13296 13297 13298 13299 13300 13301 13302 13303 13304 13305 13306 13307 13308 13309 13310 13311 13312 13313 13314 13315 13316 13317 13318 13319 13320 13321 13322 13323 13324 13325 13326 13327 13328 13329 13330 13331 13332 13333 13334 13335 13336 13337 13338 13339 13340 13341 13342 13343 13344 13345 13346 13347 13348 13349 13350 13351 13352 13353 13354 13355 13356 13357 13358 13359 13360 13361 13362 13363 13364 13365 13366 13367 13368 13369 13370 13371 13372 13373 13374 13375 13376 13377 13378 13379 13380 13381 13382 13383 13384 13385 13386 13387 13388 13389 13390 13391 13392 13393 13394 13395 13396 13397 13398 13399 13400 13401 13402 13403 13404 13405 13406 13407 13408 13409 13410 13411 13412 13413 13414 13415 13416 13417 13418 13419 13420 13421 13422 13423 13424 13425 13426 13427 13428 13429 13430 13431 13432 13433 13434 13435 13436 13437 13438 13439 13440 13441 13442 13443 13444 13445 13446 13447 13448 13449 13450 13451 13452 13453 13454 13455 13456 13457 13458 13459 13460 13461 13462 13463 13464 13465 13466 13467 13468 13469 13470 13471 13472 13473 13474 13475 13476 13477 13478 13479 13480 13481 13482 13483 13484 13485 13486 13487 13488 13489 13490 13491 13492 13493 13494 13495 13496 13497 13498 13499 13500 13501 13502 13503 13504 13505 13506 13507 13508 13509 13510 13511 13512 13513 13514 13515 13516 13517 13518 13519 13520 13521 13522 13523 13524 13525 13526 13527 13528 13529 13530 13531 13532 13533 13534 13535 13536 13537 13538 13539 13540 13541 13542 13543 13544 13545 13546 13547 13548 13549 13550 13551 13552 13553 13554 13555 13556 13557 13558 13559 13560 13561 13562 13563 13564 13565 13566 13567 13568 13569 13570 13571 13572 13573 13574 13575 13576 13577 13578 13579 13580 13581 13582 13583 13584 13585 13586 13587 13588 13589 13590 13591 13592 13593 13594 13595 13596 13597 13598 13599 13600 13601 13602 13603 13604 13605 13606 13607 13608 13609 13610 13611 13612 13613 13614 13615 13616 13617 13618 13619 13620 13621 13622 13623 13624 13625 13626 13627 13628 13629 13630 13631 13632 13633 13634 13635 13636 13637 13638 13639 13640 13641 13642 13643 13644 13645 13646 13647 13648 13649 13650 13651 13652 13653 13654 13655 13656 13657 13658 13659 13660 13661 13662 13663 13664 13665 13666 13667 13668 13669 13670 13671 13672 13673 13674 13675 13676 13677 13678 13679 13680 13681 13682 13683 13684 13685 13686 13687 13688 13689 13690 13691 13692 13693 13694 13695 13696 13697 13698 13699 13700 13701 13702 13703 13704 13705 13706 13707 13708 13709 13710 13711 13712 13713 13714 13715 13716 13717 13718 13719 13720 13721 13722 13723 13724 13725 13726 13727 13728 13729 13730 13731 13732 13733 13734 13735 13736 13737 13738 13739 13740 13741 13742 13743 13744 13745 13746 13747 13748 13749 13750 13751 13752 13753 13754 13755 13756 13757 13758 13759 13760 13761 13762 13763 13764 13765 13766 13767 13768 13769 13770 13771 13772 13773 13774 13775 13776 13777 13778 13779 13780 13781 13782 13783 13784 13785 13786 13787 13788 13789 13790 13791 13792 13793 13794 13795 13796 13797 13798 13799 13800 13801 13802 13803 13804 13805 13806 13807 13808 13809 13810 13811 13812 13813 13814 13815 13816 13817 13818 13819 13820 13821 13822 13823 13824 13825 13826 13827 13828 13829 13830 13831 13832 13833 13834 13835 13836 13837 13838 13839 13840 13841 13842 13843 13844 13845 13846 13847 13848 13849 13850 13851 13852 13853 13854 13855 13856 13857 13858 13859 13860 13861 13862 13863 13864 13865 13866 13867 13868 13869 13870 13871 13872 13873 13874 13875 13876 13877 13878 13879 13880 13881 13882 13883 13884 13885 13886 13887 13888 13889 13890 13891 13892 13893 13894 13895 13896 13897 13898 13899 13900 13901 13902 13903 13904 13905 13906 13907 13908 13909 13910 13911 13912 13913 13914 13915 13916 13917 13918 13919 13920 13921 13922 13923 13924 13925 13926 13927 13928 13929 13930 13931 13932 13933 13934 13935 13936 13937 13938 13939 13940 13941 13942 13943 13944 13945 13946 13947 13948 13949 13950 13951 13952 13953 13954 13955 13956 13957 13958 13959 13960 13961 13962 13963 13964 13965 13966 13967 13968 13969 13970 13971 13972 13973 13974 13975 13976 13977 13978 13979 13980 13981 13982 13983 13984 13985 13986 13987 13988 13989 13990 13991 13992 13993 13994 13995 13996 13997 13998 13999 14000 14001 14002 14003 14004 14005 14006 14007 14008 14009 14010 14011 14012 14013 14014 14015 14016 14017 14018 14019 14020 14021 14022 14023 14024 14025 14026 14027 14028 14029 14030 14031 14032 14033 14034 14035 14036 14037 14038 14039 14040 14041 14042 14043 14044 14045 14046 14047 14048 14049 14050 14051 14052 14053 14054 14055 14056 14057 14058 14059 14060 14061 14062 14063 14064 14065 14066 14067 14068 14069 14070 14071 14072 14073 14074 14075 14076 14077 14078 14079 14080 14081 14082 14083 14084 14085 14086 14087 14088 14089 14090 14091 14092 14093 14094 14095 14096 14097 14098 14099 14100 14101 14102 14103 14104 14105 14106 14107 14108 14109 14110 14111 14112 14113 14114 14115 14116 14117 14118 14119 14120 14121 14122 14123 14124 14125 14126 14127 14128 14129 14130 14131 14132 14133 14134 14135 14136 14137 14138 14139 14140 14141 14142 14143 14144 14145 14146 14147 14148 14149 14150 14151 14152 14153 14154 14155 14156 14157 14158 14159 14160 14161 14162 14163 14164 14165 14166 14167 14168 14169 14170 14171 14172 14173 14174 14175 14176 14177 14178 14179 14180 14181 14182 14183 14184 14185 14186 14187 14188 14189 14190 14191 14192 14193 14194 14195 14196 14197 14198 14199 14200 14201 14202 14203 14204 14205 14206 14207 14208 14209 14210 14211 14212 14213 14214 14215 14216 14217 14218 14219 14220 14221 14222 14223 14224 14225 14226 14227 14228 14229 14230 14231 14232 14233 14234 14235 14236 14237 14238 14239 14240 14241 14242 14243 14244 14245 14246 14247 14248 14249 14250 14251 14252 14253 14254 14255 14256 14257 14258 14259 14260 14261 14262 14263 14264 14265 14266 14267 14268 14269 14270 14271 14272 14273 14274 14275 14276 14277 14278 14279 14280 14281 14282 14283 14284 14285 14286 14287 14288 14289 14290 14291 14292 14293 14294 14295 14296 14297 14298 14299 14300 14301 14302 14303 14304 14305 14306 14307 14308 14309 14310 14311 14312 14313 14314 14315 14316 14317 14318 14319 14320 14321 14322 14323 14324 14325 14326 14327 14328 14329 14330 14331 14332 14333 14334 14335 14336 14337 14338 14339 14340 14341 14342 14343 14344 14345 14346 14347 14348 14349 14350 14351 14352 14353 14354 14355 14356 14357 14358 14359 14360 14361 14362 14363 14364 14365 14366 14367 14368 14369 14370 14371 14372 14373 14374 14375 14376 14377 14378 14379 14380 14381 14382 14383 14384 14385 14386 14387 14388 14389 14390 14391 14392 14393 14394 14395 14396 14397 14398 14399 14400 14401 14402 14403 14404 14405 14406 14407 14408 14409 14410 14411 14412 14413 14414 14415 14416 14417 14418 14419 14420 14421 14422 14423 14424 14425 14426 14427 14428 14429 14430 14431 14432 14433 14434 14435 14436 14437 14438 14439 14440 14441 14442 14443 14444 14445 14446 14447 14448 14449 14450 14451 14452 14453 14454 14455 14456 14457 14458 14459 14460 14461 14462 14463 14464 14465 14466 14467 14468 14469 14470 14471 14472 14473 14474 14475 14476 14477 14478 14479 14480 14481 14482 14483 14484 14485 14486 14487 14488 14489 14490 14491 14492 14493 14494 14495 14496 14497 14498 14499 14500 14501 14502 14503 14504 14505 14506 14507 14508 14509 14510 14511 14512 14513 14514 14515 14516 14517 14518 14519 14520 14521 14522 14523 14524 14525 14526 14527 14528 14529 14530 14531 14532 14533 14534 14535 14536 14537 14538 14539 14540 14541 14542 14543 14544 14545 14546 14547 14548 14549 14550 14551 14552 14553 14554 14555 14556 14557 14558 14559 14560 14561 14562 14563 14564 14565 14566 14567 14568 14569 14570 14571 14572 14573 14574 14575 14576 14577 14578 14579 14580 14581 14582 14583 14584 14585 14586 14587 14588 14589 14590 14591 14592 14593 14594 14595 14596 14597 14598 14599 14600 14601 14602 14603 14604 14605 14606 14607 14608 14609 14610 14611 14612 14613 14614 14615 14616 14617 14618 14619 14620 14621 14622 14623 14624 14625 14626 14627 14628 14629 14630 14631 14632 14633 14634 14635 14636 14637 14638 14639 14640 14641 14642 14643 14644 14645 14646 14647 14648 14649 14650 14651 14652 14653 14654 14655 14656 14657 14658 14659 14660 14661 14662 14663 14664 14665 14666 14667 14668 14669 14670 14671 14672 14673 14674 14675 14676 14677 14678 14679 14680 14681 14682 14683 14684 14685 14686 14687 14688 14689 14690 14691 14692 14693 14694 14695 14696 14697 14698 14699 14700 14701 14702 14703 14704 14705 14706 14707 14708 14709 14710 14711 14712 14713 14714 14715 14716 14717 14718 14719 14720 14721 14722 14723 14724 14725 14726 14727 14728 14729 14730 14731 14732 14733 14734 14735 14736 14737 14738 14739 14740 14741 14742 14743 14744 14745 14746 14747 14748 14749 14750 14751 14752 14753 14754 14755 14756 14757 14758 14759 14760 14761 14762 14763 14764 14765 14766 14767 14768 14769 14770 14771 14772 14773 14774 14775 14776 14777 14778 14779 14780 14781 14782 14783 14784 14785 14786 14787 14788 14789 14790 14791 14792 14793 14794 14795 14796 14797 14798 14799 14800 14801 14802 14803 14804 14805 14806 14807 14808 14809 14810 14811 14812 14813 14814 14815 14816 14817 14818 14819 14820 14821 14822 14823 14824 14825 14826 14827 14828 14829 14830 14831 14832 14833 14834 14835 14836 14837 14838 14839 14840 14841 14842 14843 14844 14845 14846 14847 14848 14849 14850 14851 14852 14853 14854 14855 14856 14857 14858 14859 14860 14861 14862 14863 14864 14865 14866 14867 14868 14869 14870 14871 14872 14873 14874 14875 14876 14877 14878 14879 14880 14881 14882 14883 14884 14885 14886 14887 14888 14889 14890 14891 14892 14893 14894 14895 14896 14897 14898 14899 14900 14901 14902 14903 14904 14905 14906 14907 14908 14909 14910 14911 14912 14913 14914 14915 14916 14917 14918 14919 14920 14921 14922 14923 14924 14925 14926 14927 14928 14929 14930 14931 14932 14933 14934 14935 14936 14937 14938 14939 14940 14941 14942 14943 14944 14945 14946 14947 14948 14949 14950 14951 14952 14953 14954 14955 14956 14957 14958 14959 14960 14961 14962 14963 14964 14965 14966 14967 14968 14969 14970 14971 14972 14973 14974 14975 14976 14977 14978 14979 14980 14981 14982 14983 14984 14985 14986 14987 14988 14989 14990 14991 14992 14993 14994 14995 14996 14997 14998 14999 15000 15001 15002 15003 15004 15005 15006 15007 15008 15009 15010 15011 15012 15013 15014 15015 15016 15017 15018 15019 15020 15021 15022 15023 15024 15025 15026 15027 15028 15029 15030 15031 15032 15033 15034 15035 15036 15037 15038 15039 15040 15041 15042 15043 15044 15045 15046 15047 15048 15049 15050 15051 15052 15053 15054 15055 15056 15057 15058 15059 15060 15061 15062 15063 15064 15065 15066 15067 15068 15069 15070 15071 15072 15073 15074 15075 15076 15077 15078 15079 15080 15081 15082 15083 15084 15085 15086 15087 15088 15089 15090 15091 15092 15093 15094 15095 15096 15097 15098 15099 15100 15101 15102 15103 15104 15105 15106 15107 15108 15109 15110 15111 15112 15113 15114 15115 15116 15117 15118 15119 15120 15121 15122 15123 15124 15125 15126 15127 15128 15129 15130 15131 15132 15133 15134 15135 15136 15137 15138 15139 15140 15141 15142 15143 15144 15145 15146 15147 15148 15149 15150 15151 15152 15153 15154 15155 15156 15157 15158 15159 15160 15161 15162 15163 15164 15165 15166 15167 15168 15169 15170 15171 15172 15173 15174 15175 15176 15177 15178 15179 15180 15181 15182 15183 15184 15185 15186 15187 15188 15189 15190 15191 15192 15193 15194 15195 15196 15197 15198 15199 15200 15201 15202 15203 15204 15205 15206 15207 15208 15209 15210 15211 15212 15213 15214 15215 15216 15217 15218 15219 15220 15221 15222 15223 15224 15225 15226 15227 15228 15229 15230 15231 15232 15233 15234 15235 15236 15237 15238 15239 15240 15241 15242 15243 15244 15245 15246 15247 15248 15249 15250 15251 15252 15253 15254 15255 15256 15257 15258 15259 15260 15261 15262 15263 15264 15265 15266 15267 15268 15269 15270 15271 15272 15273 15274 15275 15276 15277 15278 15279 15280 15281 15282 15283 15284 15285 15286 15287 15288 15289 15290 15291 15292 15293 15294 15295 15296 15297 15298 15299 15300 15301 15302 15303 15304 15305 15306 15307 15308 15309 15310 15311 15312 15313 15314 15315 15316 15317 15318 15319 15320 15321 15322 15323 15324 15325 15326 15327 15328 15329 15330 15331 15332 15333 15334 15335 15336 15337 15338 15339 15340 15341 15342 15343 15344 15345 15346 15347 15348 15349 15350 15351 15352 15353 15354 15355 15356 15357 15358 15359 15360 15361 15362 15363 15364 15365 15366 15367 15368 15369 15370 15371 15372 15373 15374 15375 15376 15377 15378 15379 15380 15381 15382 15383 15384 15385 15386 15387 15388 15389 15390 15391 15392 15393 15394 15395 15396 15397 15398 15399 15400 15401 15402 15403 15404 15405 15406 15407 15408 15409 15410 15411 15412 15413 15414 15415 15416 15417 15418 15419 15420 15421 15422 15423 15424 15425 15426 15427 15428 15429 15430 15431 15432 15433 15434 15435 15436 15437 15438 15439 15440 15441 15442 15443 15444 15445 15446 15447 15448 15449 15450 15451 15452 15453 15454 15455 15456 15457 15458 15459 15460 15461 15462 15463 15464 15465 15466 15467 15468 15469 15470 15471 15472 15473 15474 15475 15476 15477 15478 15479 15480 15481 15482 15483 15484 15485 15486 15487 15488 15489 15490 15491 15492 15493 15494 15495 15496 15497 15498 15499 15500 15501 15502 15503 15504 15505 15506 15507 15508 15509 15510 15511 15512 15513 15514 15515 15516 15517 15518 15519 15520 15521 15522 15523 15524 15525 15526 15527 15528 15529 15530 15531 15532 15533 15534 15535 15536 15537 15538 15539 15540 15541 15542 15543 15544 15545 15546 15547 15548 15549 15550 15551 15552 15553 15554 15555 15556 15557 15558 15559 15560 15561 15562 15563 15564 15565 15566 15567 15568 15569 15570 15571 15572 15573 15574 15575 15576 15577 15578 15579 15580 15581 15582 15583 15584 15585 15586 15587 15588 15589 15590 15591 15592 15593 15594 15595 15596 15597 15598 15599 15600 15601 15602 15603 15604 15605 15606 15607 15608 15609 15610 15611 15612 15613 15614 15615 15616 15617 15618 15619 15620 15621 15622 15623 15624 15625 15626 15627 15628 15629 15630 15631 15632 15633 15634 15635 15636 15637 15638 15639 15640 15641 15642 15643 15644 15645 15646 15647 15648 15649 15650 15651 15652 15653 15654 15655 15656 15657 15658 15659 15660 15661 15662 15663 15664 15665 15666 15667 15668 15669 15670 15671 15672 15673 15674 15675 15676 15677 15678 15679 15680 15681 15682 15683 15684 15685 15686 15687 15688 15689 15690 15691 15692 15693 15694 15695 15696 15697 15698 15699 15700 15701 15702 15703 15704 15705 15706 15707 15708 15709 15710 15711 15712 15713 15714 15715 15716 15717 15718 15719 15720 15721 15722 15723 15724 15725 15726 15727 15728 15729 15730 15731 15732 15733 15734 15735 15736 15737 15738 15739 15740 15741 15742 15743 15744 15745 15746 15747 15748 15749 15750 15751 15752 15753 15754 15755 15756 15757 15758 15759 15760 15761 15762 15763 15764 15765 15766 15767 15768 15769 15770 15771 15772 15773 15774 15775 15776 15777 15778 15779 15780 15781 15782 15783 15784 15785 15786 15787 15788 15789 15790 15791 15792 15793 15794 15795 15796 15797 15798 15799 15800 15801 15802 15803 15804 15805 15806 15807 15808 15809 15810 15811 15812 15813 15814 15815 15816 15817 15818 15819 15820 15821 15822 15823 15824 15825 15826 15827 15828 15829 15830 15831 15832 15833 15834 15835 15836 15837 15838 15839 15840 15841 15842 15843 15844 15845 15846 15847 15848 15849 15850 15851 15852 15853 15854 15855 15856 15857 15858 15859 15860 15861 15862 15863 15864 15865 15866 15867 15868 15869 15870 15871 15872 15873 15874 15875 15876 15877 15878 15879 15880 15881 15882 15883 15884 15885 15886 15887 15888 15889 15890 15891 15892 15893 15894 15895 15896 15897 15898 15899 15900 15901 15902 15903 15904 15905 15906 15907 15908 15909 15910 15911 15912 15913 15914 15915 15916 15917 15918 15919 15920 15921 15922 15923 15924 15925 15926 15927 15928 15929 15930 15931 15932 15933 15934 15935 15936 15937 15938 15939 15940 15941 15942 15943 15944 15945 15946 15947 15948 15949 15950 15951 15952 15953 15954 15955 15956 15957 15958 15959 15960 15961 15962 15963 15964 15965 15966 15967 15968 15969 15970 15971 15972 15973 15974 15975 15976 15977 15978 15979 15980 15981 15982 15983 15984 15985 15986 15987 15988 15989 15990 15991 15992 15993 15994 15995 15996 15997 15998 15999 16000 16001 16002 16003 16004 16005 16006 16007 16008 16009 16010 16011 16012 16013 16014 16015 16016 16017 16018 16019 16020 16021 16022 16023 16024 16025 16026 16027 16028 16029 16030 16031 16032 16033 16034 16035 16036 16037 16038 16039 16040 16041 16042 16043 16044 16045 16046 16047 16048 16049 16050 16051 16052 16053 16054 16055 16056 16057 16058 16059 16060 16061 16062 16063 16064 16065 16066 16067 16068 16069 16070 16071 16072 16073 16074 16075 16076 16077 16078 16079 16080 16081 16082 16083 16084 16085 16086 16087 16088 16089 16090 16091 16092 16093 16094 16095 16096 16097 16098 16099 16100 16101 16102 16103 16104 16105 16106 16107 16108 16109 16110 16111 16112 16113 16114 16115 16116 16117 16118 16119 16120 16121 16122 16123 16124 16125 16126 16127 16128 16129 16130 16131 16132 16133 16134 16135 16136 16137 16138 16139 16140 16141 16142 16143 16144 16145 16146 16147 16148 16149 16150 16151 16152 16153 16154 16155 16156 16157 16158 16159 16160 16161 16162 16163 16164 16165 16166 16167 16168 16169 16170 16171 16172 16173 16174 16175 16176 16177 16178 16179 16180 16181 16182 16183 16184 16185 16186 16187 16188 16189 16190 16191 16192 16193 16194 16195 16196 16197 16198 16199 16200 16201 16202 16203 16204 16205 16206 16207 16208 16209 16210 16211 16212 16213 16214 16215 16216 16217 16218 16219 16220 16221 16222 16223 16224 16225 16226 16227 16228 16229 16230 16231 16232 16233 16234 16235 16236 16237 16238 16239 16240 16241 16242 16243 16244 16245 16246 16247 16248 16249 16250 16251 16252 16253 16254 16255 16256 16257 16258 16259 16260 16261 16262 16263 16264 16265 16266 16267 16268 16269 16270 16271 16272 16273 16274 16275 16276 16277 16278 16279 16280 16281 16282 16283 16284 16285 16286 16287 16288 16289 16290 16291 16292 16293 16294 16295 16296 16297 16298 16299 16300 16301 16302 16303 16304 16305 16306 16307 16308 16309 16310 16311 16312 16313 16314 16315 16316 16317 16318 16319 16320 16321 16322 16323 16324 16325 16326 16327 16328 16329 16330 16331 16332 16333 16334 16335 16336 16337 16338 16339 16340 16341 16342 16343 16344 16345 16346 16347 16348 16349 16350 16351 16352 16353 16354 16355 16356 16357 16358 16359 16360 16361 16362 16363 16364 16365 16366 16367 16368 16369 16370 16371 16372 16373 16374 16375 16376 16377 16378 16379 16380 16381 16382 16383 16384 16385 16386 16387 16388 16389 16390 16391 16392 16393 16394 16395 16396 16397 16398 16399 16400 16401 16402 16403 16404 16405 16406 16407 16408 16409 16410 16411 16412 16413 16414 16415 16416 16417 16418 16419 16420 16421 16422 16423 16424 16425 16426 16427 16428 16429 16430 16431 16432 16433 16434 16435 16436 16437 16438 16439 16440 16441 16442 16443 16444 16445 16446 16447 16448 16449 16450 16451 16452 16453 16454 16455 16456 16457 16458 16459 16460 16461 16462 16463 16464 16465 16466 16467 16468 16469 16470 16471 16472 16473 16474 16475 16476 16477 16478 16479 16480 16481 16482 16483 16484 16485 16486 16487 16488 16489 16490 16491 16492 16493 16494 16495 16496 16497 16498 16499 16500 16501 16502 16503 16504 16505 16506 16507 16508 16509 16510 16511 16512 16513 16514 16515 16516 16517 16518 16519 16520 16521 16522 16523 16524 16525 16526 16527 16528 16529 16530 16531 16532 16533 16534 16535 16536 16537 16538 16539 16540 16541 16542 16543 16544 16545 16546 16547 16548 16549 16550 16551 16552 16553 16554 16555 16556 16557 16558 16559 16560 16561 16562 16563 16564 16565 16566 16567 16568 16569 16570 16571 16572 16573 16574 16575 16576 16577 16578 16579 16580 16581 16582 16583 16584 16585 16586 16587 16588 16589 16590 16591 16592 16593 16594 16595 16596 16597 16598 16599 16600 16601 16602 16603 16604 16605 16606 16607 16608 16609 16610 16611 16612 16613 16614 16615 16616 16617 16618 16619 16620 16621 16622 16623 16624 16625 16626 16627 16628 16629 16630 16631 16632 16633 16634 16635 16636 16637 16638 16639 16640 16641 16642 16643 16644 16645 16646 16647 16648 16649 16650 16651 16652 16653 16654 16655 16656 16657 16658 16659 16660 16661 16662 16663 16664 16665 16666 16667 16668 16669 16670 16671 16672 16673 16674 16675 16676 16677 16678 16679 16680 16681 16682 16683 16684 16685 16686 16687 16688 16689 16690 16691 16692 16693 16694 16695 16696 16697 16698 16699 16700 16701 16702 16703 16704 16705 16706 16707 16708 16709 16710 16711 16712 16713 16714 16715 16716 16717 16718 16719 16720 16721 16722 16723 16724 16725 16726 16727 16728 16729 16730 16731 16732 16733 16734 16735 16736 16737 16738 16739 16740 16741 16742 16743 16744 16745 16746 16747 16748 16749 16750 16751 16752 16753 16754 16755 16756 16757 16758 16759 16760 16761 16762 16763 16764 16765 16766 16767 16768 16769 16770 16771 16772 16773 16774 16775 16776 16777 16778 16779 16780 16781 16782 16783 16784 16785 16786 16787 16788 16789 16790 16791 16792 16793 16794 16795 16796 16797 16798 16799 16800 16801 16802 16803 16804 16805 16806 16807 16808 16809 16810 16811 16812 16813 16814 16815 16816 16817 16818 16819 16820 16821 16822 16823 16824 16825 16826 16827 16828 16829 16830 16831 16832 16833 16834 16835 16836 16837 16838 16839 16840 16841 16842 16843 16844 16845 16846 16847 16848 16849 16850 16851 16852 16853 16854 16855 16856 16857 16858 16859 16860 16861 16862 16863 16864 16865 16866 16867 16868 16869 16870 16871 16872 16873 16874 16875 16876 16877 16878 16879 16880 16881 16882 16883 16884 16885 16886 16887 16888 16889 16890 16891 16892 16893 16894 16895 16896 16897 16898 16899 16900 16901 16902 16903 16904 16905 16906 16907 16908 16909 16910 16911 16912 16913 16914 16915 16916 16917 16918 16919 16920 16921 16922 16923 16924 16925 16926 16927 16928 16929 16930 16931 16932 16933 16934 16935 16936 16937 16938 16939 16940 16941 16942 16943 16944 16945 16946 16947 16948 16949 16950 16951 16952 16953 16954 16955 16956 16957 16958 16959 16960 16961 16962 16963 16964 16965 16966 16967 16968 16969 16970 16971 16972 16973 16974 16975 16976 16977 16978 16979 16980 16981 16982 16983 16984 16985 16986 16987 16988 16989 16990 16991 16992 16993 16994 16995 16996 16997 16998 16999 17000 17001 17002 17003 17004 17005 17006 17007 17008 17009 17010 17011 17012 17013 17014 17015 17016 17017 17018 17019 17020 17021 17022 17023 17024 17025 17026 17027 17028 17029 17030 17031 17032 17033 17034 17035 17036 17037 17038 17039 17040 17041 17042 17043 17044 17045 17046 17047 17048 17049 17050 17051 17052 17053 17054 17055 17056 17057 17058 17059 17060 17061 17062 17063 17064 17065 17066 17067 17068 17069 17070 17071 17072 17073 17074 17075 17076 17077 17078 17079 17080 17081 17082 17083 17084 17085 17086 17087 17088 17089 17090 17091 17092 17093 17094 17095 17096 17097 17098 17099 17100 17101 17102 17103 17104 17105 17106 17107 17108 17109 17110 17111 17112 17113 17114 17115 17116 17117 17118 17119 17120 17121 17122 17123 17124 17125 17126 17127 17128 17129 17130 17131 17132 17133 17134 17135 17136 17137 17138 17139 17140 17141 17142 17143 17144 17145 17146 17147 17148 17149 17150 17151 17152 17153 17154 17155 17156 17157 17158 17159 17160 17161 17162 17163 17164 17165 17166 17167 17168 17169 17170 17171 17172 17173 17174 17175 17176 17177 17178 17179 17180 17181 17182 17183 17184 17185 17186 17187 17188 17189 17190 17191 17192 17193 17194 17195 17196 17197 17198 17199 17200 17201 17202 17203 17204 17205 17206 17207 17208 17209 17210 17211 17212 17213 17214 17215 17216 17217 17218 17219 17220 17221 17222 17223 17224 17225 17226 17227 17228 17229 17230 17231 17232 17233 17234 17235 17236 17237 17238 17239 17240 17241 17242 17243 17244 17245 17246 17247 17248 17249 17250 17251 17252 17253 17254 17255 17256 17257 17258 17259 17260 17261 17262 17263 17264 17265 17266 17267 17268 17269 17270 17271 17272 17273 17274 17275 17276 17277 17278 17279 17280 17281 17282 17283 17284 17285 17286 17287 17288 17289 17290 17291 17292 17293 17294 17295 17296 17297 17298 17299 17300 17301 17302 17303 17304 17305 17306 17307 17308 17309 17310 17311 17312 17313 17314 17315 17316 17317 17318 17319 17320 17321 17322 17323 17324 17325 17326 17327 17328 17329 17330 17331 17332 17333 17334 17335 17336 17337 17338 17339 17340 17341 17342 17343 17344 17345 17346 17347 17348 17349 17350 17351 17352 17353 17354 17355 17356 17357 17358 17359 17360 17361 17362 17363 17364 17365 17366 17367 17368 17369 17370 17371 17372 17373 17374 17375 17376 17377 17378 17379 17380 17381 17382 17383 17384 17385 17386 17387 17388 17389 17390 17391 17392 17393 17394 17395 17396 17397 17398 17399 17400 17401 17402 17403 17404 17405 17406 17407 17408 17409 17410 17411 17412 17413 17414 17415 17416 17417 17418 17419 17420 17421 17422 17423 17424 17425 17426 17427 17428 17429 17430 17431 17432 17433 17434 17435 17436 17437 17438 17439 17440 17441 17442 17443 17444 17445 17446 17447 17448 17449 17450 17451 17452 17453 17454 17455 17456 17457 17458 17459 17460 17461 17462 17463 17464 17465 17466 17467 17468 17469 17470 17471 17472 17473 17474 17475 17476 17477 17478 17479 17480 17481 17482 17483 17484 17485 17486 17487 17488 17489 17490 17491 17492 17493 17494 17495 17496 17497 17498 17499 17500 17501 17502 17503 17504 17505 17506 17507 17508 17509 17510 17511 17512 17513 17514 17515 17516 17517 17518 17519 17520 17521 17522 17523 17524 17525 17526 17527 17528 17529 17530 17531 17532 17533 17534 17535 17536 17537 17538 17539 17540 17541 17542 17543 17544 17545 17546 17547 17548 17549 17550 17551 17552 17553 17554 17555 17556 17557 17558 17559 17560 17561 17562 17563 17564 17565 17566 17567 17568 17569 17570 17571 17572 17573 17574 17575 17576 17577 17578 17579 17580 17581 17582 17583 17584 17585 17586 17587 17588 17589 17590 17591 17592 17593 17594 17595 17596 17597 17598 17599 17600 17601 17602 17603 17604 17605 17606 17607 17608 17609 17610 17611 17612 17613 17614 17615 17616 17617 17618 17619 17620 17621 17622 17623 17624 17625 17626 17627 17628 17629 17630 17631 17632 17633 17634 17635 17636 17637 17638 17639 17640 17641 17642 17643 17644 17645 17646 17647 17648 17649 17650 17651 17652 17653 17654 17655 17656 17657 17658 17659 17660 17661 17662 17663 17664 17665 17666 17667 17668 17669 17670 17671 17672 17673 17674 17675 17676 17677 17678 17679 17680 17681 17682 17683 17684 17685 17686 17687 17688 17689 17690 17691 17692 17693 17694 17695 17696 17697 17698 17699 17700 17701 17702 17703 17704 17705 17706 17707 17708 17709 17710 17711 17712 17713 17714 17715 17716 17717 17718 17719 17720 17721 17722 17723 17724 17725 17726 17727 17728 17729 17730 17731 17732 17733 17734 17735 17736 17737 17738 17739 17740 17741 17742 17743 17744 17745 17746 17747 17748 17749 17750 17751 17752 17753 17754 17755 17756 17757 17758 17759 17760 17761 17762 17763 17764 17765 17766 17767 17768 17769 17770 17771 17772 17773 17774 17775 17776 17777 17778 17779 17780 17781 17782 17783 17784 17785 17786 17787 17788 17789 17790 17791 17792 17793 17794 17795 17796 17797 17798 17799 17800 17801 17802 17803 17804 17805 17806 17807 17808 17809 17810 17811 17812 17813 17814 17815 17816 17817 17818 17819 17820 17821 17822 17823 17824 17825 17826 17827 17828 17829 17830 17831 17832 17833 17834 17835 17836 17837 17838 17839 17840 17841 17842 17843 17844 17845 17846 17847 17848 17849 17850 17851 17852 17853 17854 17855 17856 17857 17858 17859 17860 17861 17862 17863 17864 17865 17866 17867 17868 17869 17870 17871 17872 17873 17874 17875 17876 17877 17878 17879 17880 17881 17882 17883 17884 17885 17886 17887 17888 17889 17890 17891 17892 17893 17894 17895 17896 17897 17898 17899 17900 17901 17902 17903 17904 17905 17906 17907 17908 17909 17910 17911 17912 17913 17914 17915 17916 17917 17918 17919 17920 17921 17922 17923 17924 17925 17926 17927 17928 17929 17930 17931 17932 17933 17934 17935 17936 17937 17938 17939 17940 17941 17942 17943 17944 17945 17946 17947 17948 17949 17950 17951 17952 17953 17954 17955 17956 17957 17958 17959 17960 17961 17962 17963 17964 17965 17966 17967 17968 17969 17970 17971 17972 17973 17974 17975 17976 17977 17978 17979 17980 17981 17982 17983 17984 17985 17986 17987 17988 17989 17990 17991 17992 17993 17994 17995 17996 17997 17998 17999 18000 18001 18002 18003 18004 18005 18006 18007 18008 18009 18010 18011 18012 18013 18014 18015 18016 18017 18018 18019 18020 18021 18022 18023 18024 18025 18026 18027 18028 18029 18030 18031 18032 18033 18034 18035 18036 18037 18038 18039 18040 18041 18042 18043 18044 18045 18046 18047 18048 18049 18050 18051 18052 18053 18054 18055 18056 18057 18058 18059 18060 18061 18062 18063 18064 18065 18066 18067 18068 18069 18070 18071 18072 18073 18074 18075 18076 18077 18078 18079 18080 18081 18082 18083 18084 18085 18086 18087 18088 18089 18090 18091 18092 18093 18094 18095 18096 18097 18098 18099 18100 18101 18102 18103 18104 18105 18106 18107 18108 18109 18110 18111 18112 18113 18114 18115 18116 18117 18118 18119 18120 18121 18122 18123 18124 18125 18126 18127 18128 18129 18130 18131 18132 18133 18134 18135 18136 18137 18138 18139 18140 18141 18142 18143 18144 18145 18146 18147 18148 18149 18150 18151 18152 18153 18154 18155 18156 18157 18158 18159 18160 18161 18162 18163 18164 18165 18166 18167 18168 18169 18170 18171 18172 18173 18174 18175 18176 18177 18178 18179 18180 18181 18182 18183 18184 18185 18186 18187 18188 18189 18190 18191 18192 18193 18194 18195 18196 18197 18198 18199 18200 18201 18202 18203 18204 18205 18206 18207 18208 18209 18210 18211 18212 18213 18214 18215 18216 18217 18218 18219 18220 18221 18222 18223 18224 18225 18226 18227 18228 18229 18230 18231 18232 18233 18234 18235 18236 18237 18238 18239 18240 18241 18242 18243 18244 18245 18246 18247 18248 18249 18250 18251 18252 18253 18254 18255 18256 18257 18258 18259 18260 18261 18262 18263 18264 18265 18266 18267 18268 18269 18270 18271 18272 18273 18274 18275 18276 18277 18278 18279 18280 18281 18282 18283 18284 18285 18286 18287 18288 18289 18290 18291 18292 18293 18294 18295 18296 18297 18298 18299 18300 18301 18302 18303 18304 18305 18306 18307 18308 18309 18310 18311 18312 18313 18314 18315 18316 18317 18318 18319 18320 18321 18322 18323 18324 18325 18326 18327 18328 18329 18330 18331 18332 18333 18334 18335 18336 18337 18338 18339 18340 18341 18342 18343 18344 18345 18346 18347 18348 18349 18350 18351 18352 18353 18354 18355 18356 18357 18358 18359 18360 18361 18362 18363 18364 18365 18366 18367 18368 18369 18370 18371 18372 18373 18374 18375 18376 18377 18378 18379 18380 18381 18382 18383 18384 18385 18386 18387 18388 18389 18390 18391 18392 18393 18394 18395 18396 18397 18398 18399 18400 18401 18402 18403 18404 18405 18406 18407 18408 18409 18410 18411 18412 18413 18414 18415 18416 18417 18418 18419 18420 18421 18422 18423 18424 18425 18426 18427 18428 18429 18430 18431 18432 18433 18434 18435 18436 18437 18438 18439 18440 18441 18442 18443 18444 18445 18446 18447 18448 18449 18450 18451 18452 18453 18454 18455 18456 18457 18458 18459 18460 18461 18462 18463 18464 18465 18466 18467 18468 18469 18470 18471 18472 18473 18474 18475 18476 18477 18478 18479 18480 18481 18482 18483 18484 18485 18486 18487 18488 18489 18490 18491 18492 18493 18494 18495 18496 18497 18498 18499 18500 18501 18502 18503 18504 18505 18506 18507 18508 18509 18510 18511 18512 18513 18514 18515 18516 18517 18518 18519 18520 18521 18522 18523 18524 18525 18526 18527 18528 18529 18530 18531 18532 18533 18534 18535 18536 18537 18538 18539 18540 18541 18542 18543 18544 18545 18546 18547 18548 18549 18550 18551 18552 18553 18554 18555 18556 18557 18558 18559 18560 18561 18562 18563 18564 18565 18566 18567 18568 18569 18570 18571 18572 18573 18574 18575 18576 18577 18578 18579 18580 18581 18582 18583 18584 18585 18586 18587 18588 18589 18590 18591 18592 18593 18594 18595 18596 18597 18598 18599 18600 18601 18602 18603 18604 18605 18606 18607 18608 18609 18610 18611 18612 18613 18614 18615 18616 18617 18618 18619 18620 18621 18622 18623 18624 18625 18626 18627 18628 18629 18630 18631 18632 18633 18634 18635 18636 18637 18638 18639 18640 18641 18642 18643 18644 18645 18646 18647 18648 18649 18650 18651 18652 18653 18654 18655 18656 18657 18658 18659 18660 18661 18662 18663 18664 18665 18666 18667 18668 18669 18670 18671 18672 18673 18674 18675 18676 18677 18678 18679 18680 18681 18682 18683 18684 18685 18686 18687 18688 18689 18690 18691 18692 18693 18694 18695 18696 18697 18698 18699 18700 18701 18702 18703 18704 18705 18706 18707 18708 18709 18710 18711 18712 18713 18714 18715 18716 18717 18718 18719 18720 18721 18722 18723 18724 18725 18726 18727 18728 18729 18730 18731 18732 18733 18734 18735 18736 18737 18738 18739 18740 18741 18742 18743 18744 18745 18746 18747 18748 18749 18750 18751 18752 18753 18754 18755 18756 18757 18758 18759 18760 18761 18762 18763 18764 18765 18766 18767 18768 18769 18770 18771 18772 18773 18774 18775 18776 18777 18778 18779 18780 18781 18782 18783 18784 18785 18786 18787 18788 18789 18790 18791 18792 18793 18794 18795 18796 18797 18798 18799 18800 18801 18802 18803 18804 18805 18806 18807 18808 18809 18810 18811 18812 18813 18814 18815 18816 18817 18818 18819 18820 18821 18822 18823 18824 18825 18826 18827 18828 18829 18830 18831 18832 18833 18834 18835 18836 18837 18838 18839 18840 18841 18842 18843 18844 18845 18846 18847 18848 18849 18850 18851 18852 18853 18854 18855 18856 18857 18858 18859 18860 18861 18862 18863 18864 18865 18866 18867 18868 18869 18870 18871 18872 18873 18874 18875 18876 18877 18878 18879 18880 18881 18882 18883 18884 18885 18886 18887 18888 18889 18890 18891 18892 18893 18894 18895 18896 18897 18898 18899 18900 18901 18902 18903 18904 18905 18906 18907 18908 18909 18910 18911 18912 18913 18914 18915 18916 18917 18918 18919 18920 18921 18922 18923 18924 18925 18926 18927 18928 18929 18930 18931 18932 18933 18934 18935 18936 18937 18938 18939 18940 18941 18942 18943 18944 18945 18946 18947 18948 18949 18950 18951 18952 18953 18954 18955 18956 18957 18958 18959 18960 18961 18962 18963 18964 18965 18966 18967 18968 18969 18970 18971 18972 18973 18974 18975 18976 18977 18978 18979 18980 18981 18982 18983 18984 18985 18986 18987 18988 18989 18990 18991 18992 18993 18994 18995 18996 18997 18998 18999 19000 19001 19002 19003 19004 19005 19006 19007 19008 19009 19010 19011 19012 19013 19014 19015 19016 19017 19018 19019 19020 19021 19022 19023 19024 19025 19026 19027 19028 19029 19030 19031 19032 19033 19034 19035 19036 19037 19038 19039 19040 19041 19042 19043 19044 19045 19046 19047 19048 19049 19050 19051 19052 19053 19054 19055 19056 19057 19058 19059 19060 19061 19062 19063 19064 19065 19066 19067 19068 19069 19070 19071 19072 19073 19074 19075 19076 19077 19078 19079 19080 19081 19082 19083 19084 19085 19086 19087 19088 19089 19090 19091 19092 19093 19094 19095 19096 19097 19098 19099 19100 19101 19102 19103 19104 19105 19106 19107 19108 19109 19110 19111 19112 19113 19114 19115 19116 19117 19118 19119 19120 19121 19122 19123 19124 19125 19126 19127 19128 19129 19130 19131 19132 19133 19134 19135 19136 19137 19138 19139 19140 19141 19142 19143 19144 19145 19146 19147 19148 19149 19150 19151 19152 19153 19154 19155 19156 19157 19158 19159 19160 19161 19162 19163 19164 19165 19166 19167 19168 19169 19170 19171 19172 19173 19174 19175 19176 19177 19178 19179 19180 19181 19182 19183 19184 19185 19186 19187 19188 19189 19190 19191 19192 19193 19194 19195 19196 19197 19198 19199 19200 19201 19202 19203 19204 19205 19206 19207 19208 19209 19210 19211 19212 19213 19214 19215 19216 19217 19218 19219 19220 19221 19222 19223 19224 19225 19226 19227 19228 19229 19230 19231 19232 19233 19234 19235 19236 19237 19238 19239 19240 19241 19242 19243 19244 19245 19246 19247 19248 19249 19250 19251 19252 19253 19254 19255 19256 19257 19258 19259 19260 19261 19262 19263 19264 19265 19266 19267 19268 19269 19270 19271 19272 19273 19274 19275 19276 19277 19278 19279 19280 19281 19282 19283 19284 19285 19286 19287 19288 19289 19290 19291 19292 19293 19294 19295 19296 19297 19298 19299 19300 19301 19302 19303 19304 19305 19306 19307 19308 19309 19310 19311 19312 19313 19314 19315 19316 19317 19318 19319 19320 19321 19322 19323 19324 19325 19326 19327 19328 19329 19330 19331 19332 19333 19334 19335 19336 19337 19338 19339 19340 19341 19342 19343 19344 19345 19346 19347 19348 19349 19350 19351 19352 19353 19354 19355 19356 19357 19358 19359 19360 19361 19362 19363 19364 19365 19366 19367 19368 19369 19370 19371 19372 19373 19374 19375 19376 19377 19378 19379 19380 19381 19382 19383 19384 19385 19386 19387 19388 19389 19390 19391 19392 19393 19394 19395 19396 19397 19398 19399 19400 19401 19402 19403 19404 19405 19406 19407 19408 19409 19410 19411 19412 19413 19414 19415 19416 19417 19418 19419 19420 19421 19422 19423 19424 19425 19426 19427 19428 19429 19430 19431 19432 19433 19434 19435 19436 19437 19438 19439 19440 19441 19442 19443 19444 19445 19446 19447 19448 19449 19450 19451 19452 19453 19454 19455 19456 19457 19458 19459 19460 19461 19462 19463 19464 19465 19466 19467 19468 19469 19470 19471 19472 19473 19474 19475 19476 19477 19478 19479 19480 19481 19482 19483 19484 19485 19486 19487 19488 19489 19490 19491 19492 19493 19494 19495 19496 19497 19498 19499 19500 19501 19502 19503 19504 19505 19506 19507 19508 19509 19510 19511 19512 19513 19514 19515 19516 19517 19518 19519 19520 19521 19522 19523 19524 19525 19526 19527 19528 19529 19530 19531 19532 19533 19534 19535 19536 19537 19538 19539 19540 19541 19542 19543 19544 19545 19546 19547 19548 19549 19550 19551 19552 19553 19554 19555 19556 19557 19558 19559 19560 19561 19562 19563 19564 19565 19566 19567 19568 19569 19570 19571 19572 19573 19574 19575 19576 19577 19578 19579 19580 19581 19582 19583 19584 19585 19586 19587 19588 19589 19590 19591 19592 19593 19594 19595 19596 19597 19598 19599 19600 19601 19602 19603 19604 19605 19606 19607 19608 19609 19610 19611 19612 19613 19614 19615 19616 19617 19618 19619 19620 19621 19622 19623 19624 19625 19626 19627 19628 19629 19630 19631 19632 19633 19634 19635 19636 19637 19638 19639 19640 19641 19642 19643 19644 19645 19646 19647 19648 19649 19650 19651 19652 19653 19654 19655 19656 19657 19658 19659 19660 19661 19662 19663 19664 19665 19666 19667 19668 19669 19670 19671 19672 19673 19674 19675 19676 19677 19678 19679 19680 19681 19682 19683 19684 19685 19686 19687 19688 19689 19690 19691 19692 19693 19694 19695 19696 19697 19698 19699 19700 19701 19702 19703 19704 19705 19706 19707 19708 19709 19710 19711 19712 19713 19714 19715 19716 19717 19718 19719 19720 19721 19722 19723 19724 19725 19726 19727 19728 19729 19730 19731 19732 19733 19734 19735 19736 19737 19738 19739 19740 19741 19742 19743 19744 19745 19746 19747 19748 19749 19750 19751 19752 19753 19754 19755 19756 19757 19758 19759 19760 19761 19762 19763 19764 19765 19766 19767 19768 19769 19770 19771 19772 19773 19774 19775 19776 19777 19778 19779 19780 19781 19782 19783 19784 19785 19786 19787 19788 19789 19790 19791 19792 19793 19794 19795 19796 19797 19798 19799 19800 19801 19802 19803 19804 19805 19806 19807 19808 19809 19810 19811 19812 19813 19814 19815 19816 19817 19818 19819 19820 19821 19822 19823 19824 19825 19826 19827 19828 19829 19830 19831 19832 19833 19834 19835 19836 19837 19838 19839 19840 19841 19842 19843 19844 19845 19846 19847 19848 19849 19850 19851 19852 19853 19854 19855 19856 19857 19858 19859 19860 19861 19862 19863 19864 19865 19866 19867 19868 19869 19870 19871 19872 19873 19874 19875 19876 19877 19878 19879 19880 19881 19882 19883 19884 19885 19886 19887 19888 19889 19890 19891 19892 19893 19894 19895 19896 19897 19898 19899 19900 19901 19902 19903 19904 19905 19906 19907 19908 19909 19910 19911 19912 19913 19914 19915 19916 19917 19918 19919 19920 19921 19922 19923 19924 19925 19926 19927 19928 19929 19930 19931 19932 19933 19934 19935 19936 19937 19938 19939 19940 19941 19942 19943 19944 19945 19946 19947 19948 19949 19950 19951 19952 19953 19954 19955 19956 19957 19958 19959 19960 19961 19962 19963 19964 19965 19966 19967 19968 19969 19970 19971 19972 19973 19974 19975 19976 19977 19978 19979 19980 19981 19982 19983 19984 19985 19986 19987 19988 19989 19990 19991 19992 19993 19994 19995 19996 19997 19998 19999 20000 20001 20002 20003 20004 20005 20006 20007 20008 20009 20010 20011 20012 20013 20014 20015 20016 20017 20018 20019 20020 20021 20022 20023 20024 20025 20026 20027 20028 20029 20030 20031 20032 20033 20034 20035 20036 20037 20038 20039 20040 20041 20042 20043 20044 20045 20046 20047 20048 20049 20050 20051 20052 20053 20054 20055 20056 20057 20058 20059 20060 20061 20062 20063 20064 20065 20066 20067 20068 20069 20070 20071 20072 20073 20074 20075 20076 20077 20078 20079 20080 20081 20082 20083 20084 20085 20086 20087 20088 20089 20090 20091 20092 20093 20094 20095 20096 20097 20098 20099 20100 20101 20102 20103 20104 20105 20106 20107 20108 20109 20110 20111 20112 20113 20114 20115 20116 20117 20118 20119 20120 20121 20122 20123 20124 20125 20126 20127 20128 20129 20130 20131 20132 20133 20134 20135 20136 20137 20138 20139 20140 20141 20142 20143 20144 20145 20146 20147 20148 20149 20150 20151 20152 20153 20154 20155 20156 20157 20158 20159 20160 20161 20162 20163 20164 20165 20166 20167 20168 20169 20170 20171 20172 20173 20174 20175 20176 20177 20178 20179 20180 20181 20182 20183 20184 20185 20186 20187 20188 20189 20190 20191 20192 20193 20194 20195 20196 20197 20198 20199 20200 20201 20202 20203 20204 20205 20206 20207 20208 20209 20210 20211 20212 20213 20214 20215 20216 20217 20218 20219 20220 20221 20222 20223 20224 20225 20226 20227 20228 20229 20230 20231 20232 20233 20234 20235 20236 20237 20238 20239 20240 20241 20242 20243 20244 20245 20246 20247 20248 20249 20250 20251 20252 20253 20254 20255 20256 20257 20258 20259 20260 20261 20262 20263 20264 20265 20266 20267 20268 20269 20270 20271 20272 20273 20274 20275 20276 20277 20278 20279 20280 20281 20282 20283 20284 20285 20286 20287 20288 20289 20290 20291 20292 20293 20294 20295 20296 20297 20298 20299 20300 20301 20302 20303 20304 20305 20306 20307 20308 20309 20310 20311 20312 20313 20314 20315 20316 20317 20318 20319 20320 20321 20322 20323 20324 20325 20326 20327 20328 20329 20330 20331 20332 20333 20334 20335 20336 20337 20338 20339 20340 20341 20342 20343 20344 20345 20346 20347 20348 20349 20350 20351 20352 20353 20354 20355 20356 20357 20358 20359 20360 20361 20362 20363 20364 20365 20366 20367 20368 20369 20370 20371 20372 20373 20374 20375 20376 20377 20378 20379 20380 20381 20382 20383 20384 20385 20386 20387 20388 20389 20390 20391 20392 20393 20394 20395 20396 20397 20398 20399 20400 20401 20402 20403 20404 20405 20406 20407 20408 20409 20410 20411 20412 20413 20414 20415 20416 20417 20418 20419 20420 20421 20422 20423 20424 20425 20426 20427 20428 20429 20430 20431 20432 20433 20434 20435 20436 20437 20438 20439 20440 20441 20442 20443 20444 20445 20446 20447 20448 20449 20450 20451 20452 20453 20454 20455 20456 20457 20458 20459 20460 20461 20462 20463 20464 20465 20466 20467 20468 20469 20470 20471 20472 20473 20474 20475 20476 20477 20478 20479 20480 20481 20482 20483 20484 20485 20486 20487 20488 20489 20490 20491 20492 20493 20494 20495 20496 20497 20498 20499 20500 20501 20502 20503 20504 20505 20506 20507 20508 20509 20510 20511 20512 20513 20514 20515 20516 20517 20518 20519 20520 20521 20522 20523 20524 20525 20526 20527 20528 20529 20530 20531 20532 20533 20534 20535 20536 20537 20538 20539 20540 20541 20542 20543 20544 20545 20546 20547 20548 20549 20550 20551 20552 20553 20554 20555 20556 20557 20558 20559 20560 20561 20562 20563 20564 20565 20566 20567 20568 20569 20570 20571 20572 20573 20574 20575 20576 20577 20578 20579 20580 20581 20582 20583 20584 20585 20586 20587 20588 20589 20590 20591 20592 20593 20594 20595 20596 20597 20598 20599 20600 20601 20602 20603 20604 20605 20606 20607 20608 20609 20610 20611 20612 20613 20614 20615 20616 20617 20618 20619 20620 20621 20622 20623 20624 20625 20626 20627 20628 20629 20630 20631 20632 20633 20634 20635 20636 20637 20638 20639 20640 20641 20642 20643 20644 20645 20646 20647 20648 20649 20650 20651 20652 20653 20654 20655 20656 20657 20658 20659 20660 20661 20662 20663 20664 20665 20666 20667 20668 20669 20670 20671 20672 20673 20674 20675 20676 20677 20678 20679 20680 20681 20682 20683 20684 20685 20686 20687 20688 20689 20690 20691 20692 20693 20694 20695 20696 20697 20698 20699 20700 20701 20702 20703 20704 20705 20706 20707 20708 20709 20710 20711 20712 20713 20714 20715 20716 20717 20718 20719 20720 20721 20722 20723 20724 20725 20726 20727 20728 20729 20730 20731 20732 20733 20734 20735 20736 20737 20738 20739 20740 20741 20742 20743 20744 20745 20746 20747 20748 20749 20750 20751 20752 20753 20754 20755 20756 20757 20758 20759 20760 20761 20762 20763 20764 20765 20766 20767 20768 20769 20770 20771 20772 20773 20774 20775 20776 20777 20778 20779 20780 20781 20782 20783 20784 20785 20786 20787 20788 20789 20790 20791 20792 20793 20794 20795 20796 20797 20798 20799 20800 20801 20802 20803 20804 20805 20806 20807 20808 20809 20810 20811 20812 20813 20814 20815 20816 20817 20818 20819 20820 20821 20822 20823 20824 20825 20826 20827 20828 20829 20830 20831 20832 20833 20834 20835 20836 20837 20838 20839 20840 20841 20842 20843 20844 20845 20846 20847 20848 20849 20850 20851 20852 20853 20854 20855 20856 20857 20858 20859 20860 20861 20862 20863 20864 20865 20866 20867 20868 20869 20870 20871 20872 20873 20874 20875 20876 20877 20878 20879 20880 20881 20882 20883 20884 20885 20886 20887 20888 20889 20890 20891 20892 20893 20894 20895 20896 20897 20898 20899 20900 20901 20902 20903 20904 20905 20906 20907 20908 20909 20910 20911 20912 20913 20914 20915 20916 20917 20918 20919 20920 20921 20922 20923 20924 20925 20926 20927 20928 20929 20930 20931 20932 20933 20934 20935 20936 20937 20938 20939 20940 20941 20942 20943 20944 20945 20946 20947 20948 20949 20950 20951 20952 20953 20954 20955 20956 20957 20958 20959 20960 20961 20962 20963 20964 20965 20966 20967 20968 20969 20970 20971 20972 20973 20974 20975 20976 20977 20978 20979 20980 20981 20982 20983 20984 20985 20986 20987 20988 20989 20990 20991 20992 20993 20994 20995 20996 20997 20998 20999 21000 21001 21002 21003 21004 21005 21006 21007 21008 21009 21010 21011 21012 21013 21014 21015 21016 21017 21018 21019 21020 21021 21022 21023 21024 21025 21026 21027 21028 21029 21030 21031 21032 21033 21034 21035 21036 21037 21038 21039 21040 21041 21042 21043 21044 21045 21046 21047 21048 21049 21050 21051 21052 21053 21054 21055 21056 21057 21058 21059 21060 21061 21062 21063 21064 21065 21066 21067 21068 21069 21070 21071 21072 21073 21074 21075 21076 21077 21078 21079 21080 21081 21082 21083 21084 21085 21086 21087 21088 21089 21090 21091 21092 21093 21094 21095 21096 21097 21098 21099 21100 21101 21102 21103 21104 21105 21106 21107 21108 21109 21110 21111 21112 21113 21114 21115 21116 21117 21118 21119 21120 21121 21122 21123 21124 21125 21126 21127 21128 21129 21130 21131 21132 21133 21134 21135 21136 21137 21138 21139 21140 21141 21142 21143 21144 21145 21146 21147 21148 21149 21150 21151 21152 21153 21154 21155 21156 21157 21158 21159 21160 21161 21162 21163 21164 21165 21166 21167 21168 21169 21170 21171 21172 21173 21174 21175 21176 21177 21178 21179 21180 21181 21182 21183 21184 21185 21186 21187 21188 21189 21190 21191 21192 21193 21194 21195 21196 21197 21198 21199 21200 21201 21202 21203 21204 21205 21206 21207 21208 21209 21210 21211 21212 21213 21214 21215 21216 21217 21218 21219 21220 21221 21222 21223 21224 21225 21226 21227 21228 21229 21230 21231 21232 21233 21234 21235 21236 21237 21238 21239 21240 21241 21242 21243 21244 21245 21246 21247 21248 21249 21250 21251 21252 21253 21254 21255 21256 21257 21258 21259 21260 21261 21262 21263 21264 21265 21266 21267 21268 21269 21270 21271 21272 21273 21274 21275 21276 21277 21278 21279 21280 21281 21282 21283 21284 21285 21286 21287 21288 21289 21290 21291 21292 21293 21294 21295 21296 21297 21298 21299 21300 21301 21302 21303 21304 21305 21306 21307 21308 21309 21310 21311 21312 21313 21314 21315 21316 21317 21318 21319 21320 21321 21322 21323 21324 21325 21326 21327 21328 21329 21330 21331 21332 21333 21334 21335 21336 21337 21338 21339 21340 21341 21342 21343 21344 21345 21346 21347 21348 21349 21350 21351 21352 21353 21354 21355 21356 21357 21358 21359 21360 21361 21362 21363 21364 21365 21366 21367 21368 21369 21370 21371 21372 21373 21374 21375 21376 21377 21378 21379 21380 21381 21382 21383 21384 21385 21386 21387 21388 21389 21390 21391 21392 21393 21394 21395 21396 21397 21398 21399 21400 21401 21402 21403 21404 21405 21406 21407 21408 21409 21410 21411 21412 21413 21414 21415 21416 21417 21418 21419 21420 21421 21422 21423 21424 21425 21426 21427 21428 21429 21430 21431 21432 21433 21434 21435 21436 21437 21438 21439 21440 21441 21442 21443 21444 21445 21446 21447 21448 21449 21450 21451 21452 21453 21454 21455 21456 21457 21458 21459 21460 21461 21462 21463 21464 21465 21466 21467 21468 21469 21470 21471 21472 21473 21474 21475 21476 21477 21478 21479 21480 21481 21482 21483 21484 21485 21486 21487 21488 21489 21490 21491 21492 21493 21494 21495 21496 21497 21498 21499 21500 21501 21502 21503 21504 21505 21506 21507 21508 21509 21510 21511 21512 21513 21514 21515 21516 21517 21518 21519 21520 21521 21522 21523 21524 21525 21526 21527 21528 21529 21530 21531 21532 21533 21534 21535 21536 21537 21538 21539 21540 21541 21542 21543 21544 21545 21546 21547 21548 21549 21550 21551 21552 21553 21554 21555 21556 21557 21558 21559 21560 21561 21562 21563 21564 21565 21566 21567 21568 21569 21570 21571 21572 21573 21574 21575 21576 21577 21578 21579 21580 21581 21582 21583 21584 21585 21586 21587 21588 21589 21590 21591 21592 21593 21594 21595 21596 21597 21598 21599 21600 21601 21602 21603 21604 21605 21606 21607 21608 21609 21610 21611 21612 21613 21614 21615 21616 21617 21618 21619 21620 21621 21622 21623 21624 21625 21626 21627 21628 21629 21630 21631 21632 21633 21634 21635 21636 21637 21638 21639 21640 21641 21642 21643 21644 21645 21646 21647 21648 21649 21650 21651 21652 21653 21654 21655 21656 21657 21658 21659 21660 21661 21662 21663 21664 21665 21666 21667 21668 21669 21670 21671 21672 21673 21674 21675 21676 21677 21678 21679 21680 21681 21682 21683 21684 21685 21686 21687 21688 21689 21690 21691 21692 21693 21694 21695 21696 21697 21698 21699 21700 21701 21702 21703 21704 21705 21706 21707 21708 21709 21710 21711 21712 21713 21714 21715 21716 21717 21718 21719 21720 21721 21722 21723 21724 21725 21726 21727 21728 21729 21730 21731 21732 21733 21734 21735 21736 21737 21738 21739 21740 21741 21742 21743 21744 21745 21746 21747 21748 21749 21750 21751 21752 21753 21754 21755 21756 21757 21758 21759 21760 21761 21762 21763 21764 21765 21766 21767 21768 21769 21770 21771 21772 21773 21774 21775 21776 21777 21778 21779 21780 21781 21782 21783 21784 21785 21786 21787 21788 21789 21790 21791 21792 21793 21794 21795 21796 21797 21798 21799 21800 21801 21802 21803 21804 21805 21806 21807 21808 21809 21810 21811 21812 21813 21814 21815 21816 21817 21818 21819 21820 21821 21822 21823 21824 21825 21826 21827 21828 21829 21830 21831 21832 21833 21834 21835 21836 21837 21838 21839 21840 21841 21842 21843 21844 21845 21846 21847 21848 21849 21850 21851 21852 21853 21854 21855 21856 21857 21858 21859 21860 21861 21862 21863 21864 21865 21866 21867 21868 21869 21870 21871 21872 21873 21874 21875 21876 21877 21878 21879 21880 21881 21882 21883 21884 21885 21886 21887 21888 21889 21890 21891 21892 21893 21894 21895 21896 21897 21898 21899 21900 21901 21902 21903 21904 21905 21906 21907 21908 21909 21910 21911 21912 21913 21914 21915 21916 21917 21918 21919 21920 21921 21922 21923 21924 21925 21926 21927 21928 21929 21930 21931 21932 21933 21934 21935 21936 21937 21938 21939 21940 21941 21942 21943 21944 21945 21946 21947 21948 21949 21950 21951 21952 21953 21954 21955 21956 21957 21958 21959 21960 21961 21962 21963 21964 21965 21966 21967 21968 21969 21970 21971 21972 21973 21974 21975 21976 21977 21978 21979 21980 21981 21982 21983 21984 21985 21986 21987 21988 21989 21990 21991 21992 21993 21994 21995 21996 21997 21998 21999 22000 22001 22002 22003 22004 22005 22006 22007 22008 22009 22010 22011 22012 22013 22014 22015 22016 22017 22018 22019 22020 22021 22022 22023 22024 22025 22026 22027 22028 22029 22030 22031 22032 22033 22034 22035 22036 22037 22038 22039 22040 22041 22042 22043 22044 22045 22046 22047 22048 22049 22050 22051 22052 22053 22054 22055 22056 22057 22058 22059 22060 22061 22062 22063 22064 22065 22066 22067 22068 22069 22070 22071 22072 22073 22074 22075 22076 22077 22078 22079 22080 22081 22082 22083 22084 22085 22086 22087 22088 22089 22090 22091 22092 22093 22094 22095 22096 22097 22098 22099 22100 22101 22102 22103 22104 22105 22106 22107 22108 22109 22110 22111 22112 22113 22114 22115 22116 22117 22118 22119 22120 22121 22122 22123 22124 22125 22126 22127 22128 22129 22130 22131 22132 22133 22134 22135 22136 22137 22138 22139 22140 22141 22142 22143 22144 22145 22146 22147 22148 22149 22150 22151 22152 22153 22154 22155 22156 22157 22158 22159 22160 22161 22162 22163 22164 22165 22166 22167 22168 22169 22170 22171 22172 22173 22174 22175 22176 22177 22178 22179 22180 22181 22182 22183 22184 22185 22186 22187 22188 22189 22190 22191 22192 22193 22194 22195 22196 22197 22198 22199 22200 22201 22202 22203 22204 22205 22206 22207 22208 22209 22210 22211 22212 22213 22214 22215 22216 22217 22218 22219 22220 22221 22222 22223 22224 22225 22226 22227 22228 22229 22230 22231 22232 22233 22234 22235 22236 22237 22238 22239 22240 22241 22242 22243 22244 22245 22246 22247 22248 22249 22250 22251 22252 22253 22254 22255 22256 22257 22258 22259 22260 22261 22262 22263 22264 22265 22266 22267 22268 22269 22270 22271 22272 22273 22274 22275 22276 22277 22278 22279 22280 22281 22282 22283 22284 22285 22286 22287 22288 22289 22290 22291 22292 22293 22294 22295 22296 22297 22298 22299 22300 22301 22302 22303 22304 22305 22306 22307 22308 22309 22310 22311 22312 22313 22314 22315 22316 22317 22318 22319 22320 22321 22322 22323 22324 22325 22326 22327 22328 22329 22330 22331 22332 22333 22334 22335 22336 22337 22338 22339 22340 22341 22342 22343 22344 22345 22346 22347 22348 22349 22350 22351 22352 22353 22354 22355 22356 22357 22358 22359 22360 22361 22362 22363 22364 22365 22366 22367 22368 22369 22370 22371 22372 22373 22374 22375 22376 22377 22378 22379 22380 22381 22382 22383 22384 22385 22386 22387 22388 22389 22390 22391 22392 22393 22394 22395 22396 22397 22398 22399 22400 22401 22402 22403 22404 22405 22406 22407 22408 22409 22410 22411 22412 22413 22414 22415 22416 22417 22418 22419 22420 22421 22422 22423 22424 22425 22426 22427 22428 22429 22430 22431 22432 22433 22434 22435 22436 22437 22438 22439 22440 22441 22442 22443 22444 22445 22446 22447 22448 22449 22450 22451 22452 22453 22454 22455 22456 22457 22458 22459 22460 22461 22462 22463 22464 22465 22466 22467 22468 22469 22470 22471 22472 22473 22474 22475 22476 22477 22478 22479 22480 22481 22482 22483 22484 22485 22486 22487 22488 22489 22490 22491 22492 22493 22494 22495 22496 22497 22498 22499 22500 22501 22502 22503 22504 22505 22506 22507 22508 22509 22510 22511 22512 22513 22514 22515 22516 22517 22518 22519 22520 22521 22522 22523 22524 22525 22526 22527 22528 22529 22530 22531 22532 22533 22534 22535 22536 22537 22538 22539 22540 22541 22542 22543 22544 22545 22546 22547 22548 22549 22550 22551 22552 22553 22554 22555 22556 22557 22558 22559 22560 22561 22562 22563 22564 22565 22566 22567 22568 22569 22570 22571 22572 22573 22574 22575 22576 22577 22578 22579 22580 22581 22582 22583 22584 22585 22586 22587 22588 22589 22590 22591 22592 22593 22594 22595 22596 22597 22598 22599 22600 22601 22602 22603 22604 22605 22606 22607 22608 22609 22610 22611 22612 22613 22614 22615 22616 22617 22618 22619 22620 22621 22622 22623 22624 22625 22626 22627 22628 22629 22630 22631 22632 22633 22634 22635 22636 22637 22638 22639 22640 22641 22642 22643 22644 22645 22646 22647 22648 22649 22650 22651 22652 22653 22654 22655 22656 22657 22658 22659 22660 22661 22662 22663 22664 22665 22666 22667 22668 22669 22670 22671 22672 22673 22674 22675 22676 22677 22678 22679 22680 22681 22682 22683 22684 22685 22686 22687 22688 22689 22690 22691 22692 22693 22694 22695 22696 22697 22698 22699 22700 22701 22702 22703 22704 22705 22706 22707 22708 22709 22710 22711 22712 22713 22714 22715 22716 22717 22718 22719 22720 22721 22722 22723 22724 22725 22726 22727 22728 22729 22730 22731 22732 22733 22734 22735 22736 22737 22738 22739 22740 22741 22742 22743 22744 22745 22746 22747 22748 22749 22750 22751 22752 22753 22754 22755 22756 22757 22758 22759 22760 22761 22762 22763 22764 22765 22766 22767 22768 22769 22770 22771 22772 22773 22774 22775 22776 22777 22778 22779 22780 22781 22782 22783 22784 22785 22786 22787 22788 22789 22790 22791 22792 22793 22794 22795 22796 22797 22798 22799 22800 22801 22802 22803 22804 22805 22806 22807 22808 22809 22810 22811 22812 22813 22814 22815 22816 22817 22818 22819 22820 22821 22822 22823 22824 22825 22826 22827 22828 22829 22830 22831 22832 22833 22834 22835 22836 22837 22838 22839 22840 22841 22842 22843 22844 22845 22846 22847 22848 22849 22850 22851 22852 22853 22854 22855 22856 22857 22858 22859 22860 22861 22862 22863 22864 22865 22866 22867 22868 22869 22870 22871 22872 22873 22874 22875 22876 22877 22878 22879 22880 22881 22882 22883 22884 22885 22886 22887 22888 22889 22890 22891 22892 22893 22894 22895 22896 22897 22898 22899 22900 22901 22902 22903 22904 22905 22906 22907 22908 22909 22910 22911 22912 22913 22914 22915 22916 22917 22918 22919 22920 22921 22922 22923 22924 22925 22926 22927 22928 22929 22930 22931 22932 22933 22934 22935 22936 22937 22938 22939 22940 22941 22942 22943 22944 22945 22946 22947 22948 22949 22950 22951 22952 22953 22954 22955 22956 22957 22958 22959 22960 22961 22962 22963 22964 22965 22966 22967 22968 22969 22970 22971 22972 22973 22974 22975 22976 22977 22978 22979 22980 22981 22982 22983 22984 22985 22986 22987 22988 22989 22990 22991 22992 22993 22994 22995 22996 22997 22998 22999 23000 23001 23002 23003 23004 23005 23006 23007 23008 23009 23010 23011 23012 23013 23014 23015 23016 23017 23018 23019 23020 23021 23022 23023 23024 23025 23026 23027 23028 23029 23030 23031 23032 23033 23034 23035 23036 23037 23038 23039 23040 23041 23042 23043 23044 23045 23046 23047 23048 23049 23050 23051 23052 23053 23054 23055 23056 23057 23058 23059 23060 23061 23062 23063 23064 23065 23066 23067 23068 23069 23070 23071 23072 23073 23074 23075 23076 23077 23078 23079 23080 23081 23082 23083 23084 23085 23086 23087 23088 23089 23090 23091 23092 23093 23094 23095 23096 23097 23098 23099 23100 23101 23102 23103 23104 23105 23106 23107 23108 23109 23110 23111 23112 23113 23114 23115 23116 23117 23118 23119 23120 23121 23122 23123 23124 23125 23126 23127 23128 23129 23130 23131 23132 23133 23134 23135 23136 23137 23138 23139 23140 23141 23142 23143 23144 23145 23146 23147 23148 23149 23150 23151 23152 23153 23154 23155 23156 23157 23158 23159 23160 23161 23162 23163 23164 23165 23166 23167 23168 23169 23170 23171 23172 23173 23174 23175 23176 23177 23178 23179 23180 23181 23182 23183 23184 23185 23186 23187 23188 23189 23190 23191 23192 23193 23194 23195 23196 23197 23198 23199 23200 23201 23202 23203 23204 23205 23206 23207 23208 23209 23210 23211 23212 23213 23214 23215 23216 23217 23218 23219 23220 23221 23222 23223 23224 23225 23226 23227 23228 23229 23230 23231 23232 23233 23234 23235 23236 23237 23238 23239 23240 23241 23242 23243 23244 23245 23246 23247 23248 23249 23250 23251 23252 23253 23254 23255 23256 23257 23258 23259 23260 23261 23262 23263 23264 23265 23266 23267 23268 23269 23270 23271 23272 23273 23274 23275 23276 23277 23278 23279 23280 23281 23282 23283 23284 23285 23286 23287 23288 23289 23290 23291 23292 23293 23294 23295 23296 23297 23298 23299 23300 23301 23302 23303 23304 23305 23306 23307 23308 23309 23310 23311 23312 23313 23314 23315 23316 23317 23318 23319 23320 23321 23322 23323 23324 23325 23326 23327 23328 23329 23330 23331 23332 23333 23334 23335 23336 23337 23338 23339 23340 23341 23342 23343 23344 23345 23346 23347 23348 23349 23350 23351 23352 23353 23354 23355 23356 23357 23358 23359 23360 23361 23362 23363 23364 23365 23366 23367 23368 23369 23370 23371 23372 23373 23374 23375 23376 23377 23378 23379 23380 23381 23382 23383 23384 23385 23386 23387 23388 23389 23390 23391 23392 23393 23394 23395 23396 23397 23398 23399 23400 23401 23402 23403 23404 23405 23406 23407 23408 23409 23410 23411 23412 23413 23414 23415 23416 23417 23418 23419 23420 23421 23422 23423 23424 23425 23426 23427 23428 23429 23430 23431 23432 23433 23434 23435 23436 23437 23438 23439 23440 23441 23442 23443 23444 23445 23446 23447 23448 23449 23450 23451 23452 23453 23454 23455 23456 23457 23458 23459 23460 23461 23462 23463 23464 23465 23466 23467 23468 23469 23470 23471 23472 23473 23474 23475 23476 23477 23478 23479 23480 23481 23482 23483 23484 23485 23486 23487 23488 23489 23490 23491 23492 23493 23494 23495 23496 23497 23498 23499 23500 23501 23502 23503 23504 23505 23506 23507 23508 23509 23510 23511 23512 23513 23514 23515 23516 23517 23518 23519 23520 23521 23522 23523 23524 23525 23526 23527 23528 23529 23530 23531 23532 23533 23534 23535 23536 23537 23538 23539 23540 23541 23542 23543 23544 23545 23546 23547 23548 23549 23550 23551 23552 23553 23554 23555 23556 23557 23558 23559 23560 23561 23562 23563 23564 23565 23566 23567 23568 23569 23570 23571 23572 23573 23574 23575 23576 23577 23578 23579 23580 23581 23582 23583 23584 23585 23586 23587 23588 23589 23590 23591 23592 23593 23594 23595 23596 23597 23598 23599 23600 23601 23602 23603 23604 23605 23606 23607 23608 23609 23610 23611 23612 23613 23614 23615 23616 23617 23618 23619 23620 23621 23622 23623 23624 23625 23626 23627 23628 23629 23630 23631 23632 23633 23634 23635 23636 23637 23638 23639 23640 23641 23642 23643 23644 23645 23646 23647 23648 23649 23650 23651 23652 23653 23654 23655 23656 23657 23658 23659 23660 23661 23662 23663 23664 23665 23666 23667 23668 23669 23670 23671 23672 23673 23674 23675 23676 23677 23678 23679 23680 23681 23682 23683 23684 23685 23686 23687 23688 23689 23690 23691 23692 23693 23694 23695 23696 23697 23698 23699 23700 23701 23702 23703 23704 23705 23706 23707 23708 23709 23710 23711 23712 23713 23714 23715 23716 23717 23718 23719 23720 23721 23722 23723 23724 23725 23726 23727 23728 23729 23730 23731 23732 23733 23734 23735 23736 23737 23738 23739 23740 23741 23742 23743 23744 23745 23746 23747 23748 23749 23750 23751 23752 23753 23754 23755 23756 23757 23758 23759 23760 23761 23762 23763 23764 23765 23766 23767 23768 23769 23770 23771 23772 23773 23774 23775 23776 23777 23778 23779 23780 23781 23782 23783 23784 23785 23786 23787 23788 23789 23790 23791 23792 23793 23794 23795 23796 23797 23798 23799 23800 23801 23802 23803 23804 23805 23806 23807 23808 23809 23810 23811 23812 23813 23814 23815 23816 23817 23818 23819 23820 23821 23822 23823 23824 23825 23826 23827 23828 23829 23830 23831 23832 23833 23834 23835 23836 23837 23838 23839 23840 23841 23842 23843 23844 23845 23846 23847 23848 23849 23850 23851 23852 23853 23854 23855 23856 23857 23858 23859 23860 23861 23862 23863 23864 23865 23866 23867 23868 23869 23870 23871 23872 23873 23874 23875 23876 23877 23878 23879 23880 23881 23882 23883 23884 23885 23886 23887 23888 23889 23890 23891 23892 23893 23894 23895 23896 23897 23898 23899 23900 23901 23902 23903 23904 23905 23906 23907 23908 23909 23910 23911 23912 23913 23914 23915 23916 23917 23918 23919 23920 23921 23922 23923 23924 23925 23926 23927 23928 23929 23930 23931 23932 23933 23934 23935 23936 23937 23938 23939 23940 23941 23942 23943 23944 23945 23946 23947 23948 23949 23950 23951 23952 23953 23954 23955 23956 23957 23958 23959 23960 23961 23962 23963 23964 23965 23966 23967 23968 23969 23970 23971 23972 23973 23974 23975 23976 23977 23978 23979 23980 23981 23982 23983 23984 23985 23986 23987 23988 23989 23990 23991 23992 23993 23994 23995 23996 23997 23998 23999 24000 24001 24002 24003 24004 24005 24006 24007 24008 24009 24010 24011 24012 24013 24014 24015 24016 24017 24018 24019 24020 24021 24022 24023 24024 24025 24026 24027 24028 24029 24030 24031 24032 24033 24034 24035 24036 24037 24038 24039 24040 24041 24042 24043 24044 24045 24046 24047 24048 24049 24050 24051 24052 24053 24054 24055 24056 24057 24058 24059 24060 24061 24062 24063 24064 24065 24066 24067 24068 24069 24070 24071 24072 24073 24074 24075 24076 24077 24078 24079 24080 24081 24082 24083 24084 24085 24086 24087 24088 24089 24090 24091 24092 24093 24094 24095 24096 24097 24098 24099 24100 24101 24102 24103 24104 24105 24106 24107 24108 24109 24110 24111 24112 24113 24114 24115 24116 24117 24118 24119 24120 24121 24122 24123 24124 24125 24126 24127 24128 24129 24130 24131 24132 24133 24134 24135 24136 24137 24138 24139 24140 24141 24142 24143 24144 24145 24146 24147 24148 24149 24150 24151 24152 24153 24154 24155 24156 24157 24158 24159 24160 24161 24162 24163 24164 24165 24166 24167 24168 24169 24170 24171 24172 24173 24174 24175 24176 24177 24178 24179 24180 24181 24182 24183 24184 24185 24186 24187 24188 24189 24190 24191 24192 24193 24194 24195 24196 24197 24198 24199 24200 24201 24202 24203 24204 24205 24206 24207 24208 24209 24210 24211 24212 24213 24214 24215 24216 24217 24218 24219 24220 24221 24222 24223 24224 24225 24226 24227 24228 24229 24230 24231 24232 24233 24234 24235 24236 24237 24238 24239 24240 24241 24242 24243 24244 24245 24246 24247 24248 24249 24250 24251 24252 24253 24254 24255 24256 24257 24258 24259 24260 24261 24262 24263 24264 24265 24266 24267 24268 24269 24270 24271 24272 24273 24274 24275 24276 24277 24278 24279 24280 24281 24282 24283 24284 24285 24286 24287 24288 24289 24290 24291 24292 24293 24294 24295 24296 24297 24298 24299 24300 24301 24302 24303 24304 24305 24306 24307 24308 24309 24310 24311 24312 24313 24314 24315 24316 24317 24318 24319 24320 24321 24322 24323 24324 24325 24326 24327 24328 24329 24330 24331 24332 24333 24334 24335 24336 24337 24338 24339 24340 24341 24342 24343 24344 24345 24346 24347 24348 24349 24350 24351 24352 24353 24354 24355 24356 24357 24358 24359 24360 24361 24362 24363 24364 24365 24366 24367 24368 24369 24370 24371 24372 24373 24374 24375 24376 24377 24378 24379 24380 24381 24382 24383 24384 24385 24386 24387 24388 24389 24390 24391 24392 24393 24394 24395 24396 24397 24398 24399 24400 24401 24402 24403 24404 24405 24406 24407 24408 24409 24410 24411 24412 24413 24414 24415 24416 24417 24418 24419 24420 24421 24422 24423 24424 24425 24426 24427 24428 24429 24430 24431 24432 24433 24434 24435 24436 24437 24438 24439 24440 24441 24442 24443 24444 24445 24446 24447 24448 24449 24450 24451 24452 24453 24454 24455 24456 24457 24458 24459 24460 24461 24462 24463 24464 24465 24466 24467 24468 24469 24470 24471 24472 24473 24474 24475 24476 24477 24478 24479 24480 24481 24482 24483 24484 24485 24486 24487 24488 24489 24490 24491 24492 24493 24494 24495 24496 24497 24498 24499 24500 24501 24502 24503 24504 24505 24506 24507 24508 24509 24510 24511 24512 24513 24514 24515 24516 24517 24518 24519 24520 24521 24522 24523 24524 24525 24526 24527 24528 24529 24530 24531 24532 24533 24534 24535 24536 24537 24538 24539 24540 24541 24542 24543 24544 24545 24546 24547 24548 24549 24550 24551 24552 24553 24554 24555 24556 24557 24558 24559 24560 24561 24562 24563 24564 24565 24566 24567 24568 24569 24570 24571 24572 24573 24574 24575 24576 24577 24578 24579 24580 24581 24582 24583 24584 24585 24586 24587 24588 24589 24590 24591 24592 24593 24594 24595 24596 24597 24598 24599 24600 24601 24602 24603 24604 24605 24606 24607 24608 24609 24610 24611 24612 24613 24614 24615 24616 24617 24618 24619 24620 24621 24622 24623 24624 24625 24626 24627 24628 24629 24630 24631 24632 24633 24634 24635 24636 24637 24638 24639 24640 24641 24642 24643 24644 24645 24646 24647 24648 24649 24650 24651 24652 24653 24654 24655 24656 24657 24658 24659 24660 24661 24662 24663 24664 24665 24666 24667 24668 24669 24670 24671 24672 24673 24674 24675 24676 24677 24678 24679 24680 24681 24682 24683 24684 24685 24686 24687 24688 24689 24690 24691 24692 24693 24694 24695 24696 24697 24698 24699 24700 24701 24702 24703 24704 24705 24706 24707 24708 24709 24710 24711 24712 24713 24714 24715 24716 24717 24718 24719 24720 24721 24722 24723 24724 24725 24726 24727 24728 24729 24730 24731 24732 24733 24734 24735 24736 24737 24738 24739 24740 24741 24742 24743 24744 24745 24746 24747 24748 24749 24750 24751 24752 24753 24754 24755 24756 24757 24758 24759 24760 24761 24762 24763 24764 24765 24766 24767 24768 24769 24770 24771 24772 24773 24774 24775 24776 24777 24778 24779 24780 24781 24782 24783 24784 24785 24786 24787 24788 24789 24790 24791 24792 24793 24794 24795 24796 24797 24798 24799 24800 24801 24802 24803 24804 24805 24806 24807 24808 24809 24810 24811 24812 24813 24814 24815 24816 24817 24818 24819 24820 24821 24822 24823 24824 24825 24826 24827 24828 24829 24830 24831 24832 24833 24834 24835 24836 24837 24838 24839 24840 24841 24842 24843 24844 24845 24846 24847 24848 24849 24850 24851 24852 24853 24854 24855 24856 24857 24858 24859 24860 24861 24862 24863 24864 24865 24866 24867 24868 24869 24870 24871 24872 24873 24874 24875 24876 24877 24878 24879 24880 24881 24882 24883 24884 24885 24886 24887 24888 24889 24890 24891 24892 24893 24894 24895 24896 24897 24898 24899 24900 24901 24902 24903 24904 24905 24906 24907 24908 24909 24910 24911 24912 24913 24914 24915 24916 24917 24918 24919 24920 24921 24922 24923 24924 24925 24926 24927 24928 24929 24930 24931 24932 24933 24934 24935 24936 24937 24938 24939 24940 24941 24942 24943 24944 24945 24946 24947 24948 24949 24950 24951 24952 24953 24954 24955 24956 24957 24958 24959 24960 24961 24962 24963 24964 24965 24966 24967 24968 24969 24970 24971 24972 24973 24974 24975 24976 24977 24978 24979 24980 24981 24982 24983 24984 24985 24986 24987 24988 24989 24990 24991 24992 24993 24994 24995 24996 24997 24998 24999 25000 25001 25002 25003 25004 25005 25006 25007 25008 25009 25010 25011 25012 25013 25014 25015 25016 25017 25018 25019 25020 25021 25022 25023 25024 25025 25026 25027 25028 25029 25030 25031 25032 25033 25034 25035 25036 25037 25038 25039 25040 25041 25042 25043 25044 25045 25046 25047 25048 25049 25050 25051 25052 25053 25054 25055 25056 25057 25058 25059 25060 25061 25062 25063 25064 25065 25066 25067 25068 25069 25070 25071 25072 25073 25074 25075 25076 25077 25078 25079 25080 25081 25082 25083 25084 25085 25086 25087 25088 25089 25090 25091 25092 25093 25094 25095 25096 25097 25098 25099 25100 25101 25102 25103 25104 25105 25106 25107 25108 25109 25110 25111 25112 25113 25114 25115 25116 25117 25118 25119 25120 25121 25122 25123 25124 25125 25126 25127 25128 25129 25130 25131 25132 25133 25134 25135 25136 25137 25138 25139 25140 25141 25142 25143 25144 25145 25146 25147 25148 25149 25150 25151 25152 25153 25154 25155 25156 25157 25158 25159 25160 25161 25162 25163 25164 25165 25166 25167 25168 25169 25170 25171 25172 25173 25174 25175 25176 25177 25178 25179 25180 25181 25182 25183 25184 25185 25186 25187 25188 25189 25190 25191 25192 25193 25194 25195 25196 25197 25198 25199 25200 25201 25202 25203 25204 25205 25206 25207 25208 25209 25210 25211 25212 25213 25214 25215 25216 25217 25218 25219 25220 25221 25222 25223 25224 25225 25226 25227 25228 25229 25230 25231 25232 25233 25234 25235 25236 25237 25238 25239 25240 25241 25242 25243 25244 25245 25246 25247 25248 25249 25250 25251 25252 25253 25254 25255 25256 25257 25258 25259 25260 25261 25262 25263 25264 25265 25266 25267 25268 25269 25270 25271 25272 25273 25274 25275 25276 25277 25278 25279 25280 25281 25282 25283 25284 25285 25286 25287 25288 25289 25290 25291 25292 25293 25294 25295 25296 25297 25298 25299 25300 25301 25302 25303 25304 25305 25306 25307 25308 25309 25310 25311 25312 25313 25314 25315 25316 25317 25318 25319 25320 25321 25322 25323 25324 25325 25326 25327 25328 25329 25330 25331 25332 25333 25334 25335 25336 25337 25338 25339 25340 25341 25342 25343 25344 25345 25346 25347 25348 25349 25350 25351 25352 25353 25354 25355 25356 25357 25358 25359 25360 25361 25362 25363 25364 25365 25366 25367 25368 25369 25370 25371 25372 25373 25374 25375 25376 25377 25378 25379 25380 25381 25382 25383 25384 25385 25386 25387 25388 25389 25390 25391 25392 25393 25394 25395 25396 25397 25398 25399 25400 25401 25402 25403 25404 25405 25406 25407 25408 25409 25410 25411 25412 25413 25414 25415 25416 25417 25418 25419 25420 25421 25422 25423 25424 25425 25426 25427 25428 25429 25430 25431 25432 25433 25434 25435 25436 25437 25438 25439 25440 25441 25442 25443 25444 25445 25446 25447 25448 25449 25450 25451 25452 25453 25454 25455 25456 25457 25458 25459 25460 25461 25462 25463 25464 25465 25466 25467 25468 25469 25470 25471 25472 25473 25474 25475 25476 25477 25478 25479 25480 25481 25482 25483 25484 25485 25486 25487 25488 25489 25490 25491 25492 25493 25494 25495 25496 25497 25498 25499 25500 25501 25502 25503 25504 25505 25506 25507 25508 25509 25510 25511 25512 25513 25514 25515 25516 25517 25518 25519 25520 25521 25522 25523 25524 25525 25526 25527 25528 25529 25530 25531 25532 25533 25534 25535 25536 25537 25538 25539 25540 25541 25542 25543 25544 25545 25546 25547 25548 25549 25550 25551 25552 25553 25554 25555 25556 25557 25558 25559 25560 25561 25562 25563 25564 25565 25566 25567 25568 25569 25570 25571 25572 25573 25574 25575 25576 25577 25578 25579 25580 25581 25582 25583 25584 25585 25586 25587 25588 25589 25590 25591 25592 25593 25594 25595 25596 25597 25598 25599 25600 25601 25602 25603 25604 25605 25606 25607 25608 25609 25610 25611 25612 25613 25614 25615 25616 25617 25618 25619 25620 25621 25622 25623 25624 25625 25626 25627 25628 25629 25630 25631 25632 25633 25634 25635 25636 25637 25638 25639 25640 25641 25642 25643 25644 25645 25646 25647 25648 25649 25650 25651 25652 25653 25654 25655 25656 25657 25658 25659 25660 25661 25662 25663 25664 25665 25666 25667 25668 25669 25670 25671 25672 25673 25674 25675 25676 25677 25678 25679 25680 25681 25682 25683 25684 25685 25686 25687 25688 25689 25690 25691 25692 25693 25694 25695 25696 25697 25698 25699 25700 25701 25702 25703 25704 25705 25706 25707 25708 25709 25710 25711 25712 25713 25714 25715 25716 25717 25718 25719 25720 25721 25722 25723 25724 25725 25726 25727 25728 25729 25730 25731 25732 25733 25734 25735 25736 25737 25738 25739 25740 25741 25742 25743 25744 25745 25746 25747 25748 25749 25750 25751 25752 25753 25754 25755 25756 25757 25758 25759 25760 25761 25762 25763 25764 25765 25766 25767 25768 25769 25770 25771 25772 25773 25774 25775 25776 25777 25778 25779 25780 25781 25782 25783 25784 25785 25786 25787 25788 25789 25790 25791 25792 25793 25794 25795 25796 25797 25798 25799 25800 25801 25802 25803 25804 25805 25806 25807 25808 25809 25810 25811 25812 25813 25814 25815 25816 25817 25818 25819 25820 25821 25822 25823 25824 25825 25826 25827 25828 25829 25830 25831 25832 25833 25834 25835 25836 25837 25838 25839 25840 25841 25842 25843 25844 25845 25846 25847 25848 25849 25850 25851 25852 25853 25854 25855 25856 25857 25858 25859 25860 25861 25862 25863 25864 25865 25866 25867 25868 25869 25870 25871 25872 25873 25874 25875 25876 25877 25878 25879 25880 25881 25882 25883 25884 25885 25886 25887 25888 25889 25890 25891 25892 25893 25894 25895 25896 25897 25898 25899 25900 25901 25902 25903 25904 25905 25906 25907 25908 25909 25910 25911 25912 25913 25914 25915 25916 25917 25918 25919 25920 25921 25922 25923 25924 25925 25926 25927 25928 25929 25930 25931 25932 25933 25934 25935 25936 25937 25938 25939 25940 25941 25942 25943 25944 25945 25946 25947 25948 25949 25950 25951 25952 25953 25954 25955 25956 25957 25958 25959 25960 25961 25962 25963 25964 25965 25966 25967 25968 25969 25970 25971 25972 25973 25974 25975 25976 25977 25978 25979 25980 25981 25982 25983 25984 25985 25986 25987 25988 25989 25990 25991 25992 25993 25994 25995 25996 25997 25998 25999 26000 26001 26002 26003 26004 26005 26006 26007 26008 26009 26010 26011 26012 26013 26014 26015 26016 26017 26018 26019 26020 26021 26022 26023 26024 26025 26026 26027 26028 26029 26030 26031 26032 26033 26034 26035 26036 26037 26038 26039 26040 26041 26042 26043 26044 26045 26046 26047 26048 26049 26050 26051 26052 26053 26054 26055 26056 26057 26058 26059 26060 26061 26062 26063 26064 26065 26066 26067 26068 26069 26070 26071 26072 26073 26074 26075 26076 26077 26078 26079 26080 26081 26082 26083 26084 26085 26086 26087 26088 26089 26090 26091 26092 26093 26094 26095 26096 26097 26098 26099 26100 26101 26102 26103 26104 26105 26106 26107 26108 26109 26110 26111 26112 26113 26114 26115 26116 26117 26118 26119 26120 26121 26122 26123 26124 26125 26126 26127 26128 26129 26130 26131 26132 26133 26134 26135 26136 26137 26138 26139 26140 26141 26142 26143 26144 26145 26146 26147 26148 26149 26150 26151 26152 26153 26154 26155 26156 26157 26158 26159 26160 26161 26162 26163 26164 26165 26166 26167 26168 26169 26170 26171 26172 26173 26174 26175 26176 26177 26178 26179 26180 26181 26182 26183 26184 26185 26186 26187 26188 26189 26190 26191 26192 26193 26194 26195 26196 26197 26198 26199 26200 26201 26202 26203 26204 26205 26206 26207 26208 26209 26210 26211 26212 26213 26214 26215 26216 26217 26218 26219 26220 26221 26222 26223 26224 26225 26226 26227 26228 26229 26230 26231 26232 26233 26234 26235 26236 26237 26238 26239 26240 26241 26242 26243 26244 26245 26246 26247 26248 26249 26250 26251 26252 26253 26254 26255 26256 26257 26258 26259 26260 26261 26262 26263 26264 26265 26266 26267 26268 26269 26270 26271 26272 26273 26274 26275 26276 26277 26278 26279 26280 26281 26282 26283 26284 26285 26286 26287 26288 26289 26290 26291 26292 26293 26294 26295 26296 26297 26298 26299 26300 26301 26302 26303 26304 26305 26306 26307 26308 26309 26310 26311 26312 26313 26314 26315 26316 26317 26318 26319 26320 26321 26322 26323 26324 26325 26326 26327 26328 26329 26330 26331 26332 26333 26334 26335 26336 26337 26338 26339 26340 26341 26342 26343 26344 26345 26346 26347 26348 26349 26350 26351 26352 26353 26354 26355 26356 26357 26358 26359 26360 26361 26362 26363 26364 26365 26366 26367 26368 26369 26370 26371 26372 26373 26374 26375 26376 26377 26378 26379 26380 26381 26382 26383 26384 26385 26386 26387 26388 26389 26390 26391 26392 26393 26394 26395 26396 26397 26398 26399 26400 26401 26402 26403 26404 26405 26406 26407 26408 26409 26410 26411 26412 26413 26414 26415 26416 26417 26418 26419 26420 26421 26422 26423 26424 26425 26426 26427 26428 26429 26430 26431 26432 26433 26434 26435 26436 26437 26438 26439 26440 26441 26442 26443 26444 26445 26446 26447 26448 26449 26450 26451 26452 26453 26454 26455 26456 26457 26458 26459 26460 26461 26462 26463 26464 26465 26466 26467 26468 26469 26470 26471 26472 26473 26474 26475 26476 26477 26478 26479 26480 26481 26482 26483 26484 26485 26486 26487 26488 26489 26490 26491 26492 26493 26494 26495 26496 26497 26498 26499 26500 26501 26502 26503 26504 26505 26506 26507 26508 26509 26510 26511 26512 26513 26514 26515 26516 26517 26518 26519 26520 26521 26522 26523 26524 26525 26526 26527 26528 26529 26530 26531 26532 26533 26534 26535 26536 26537 26538 26539 26540 26541 26542 26543 26544 26545 26546 26547 26548 26549 26550 26551 26552 26553 26554 26555 26556 26557 26558 26559 26560 26561 26562 26563 26564 26565 26566 26567 26568 26569 26570 26571 26572 26573 26574 26575 26576 26577 26578 26579 26580 26581 26582 26583 26584 26585 26586 26587 26588 26589 26590 26591 26592 26593 26594 26595 26596 26597 26598 26599 26600 26601 26602 26603 26604 26605 26606 26607 26608 26609 26610 26611 26612 26613 26614 26615 26616 26617 26618 26619 26620 26621 26622 26623 26624 26625 26626 26627 26628 26629 26630 26631 26632 26633 26634 26635 26636 26637 26638 26639 26640 26641 26642 26643 26644 26645 26646 26647 26648 26649 26650 26651 26652 26653 26654 26655 26656 26657 26658 26659 26660 26661 26662 26663 26664 26665 26666 26667 26668 26669 26670 26671 26672 26673 26674 26675 26676 26677 26678 26679 26680 26681 26682 26683 26684 26685 26686 26687 26688 26689 26690 26691 26692 26693 26694 26695 26696 26697 26698 26699 26700 26701 26702 26703 26704 26705 26706 26707 26708 26709 26710 26711 26712 26713 26714 26715 26716 26717 26718 26719 26720 26721 26722 26723 26724 26725 26726 26727 26728 26729 26730 26731 26732 26733 26734 26735 26736 26737 26738 26739 26740 26741 26742 26743 26744 26745 26746 26747 26748 26749 26750 26751 26752 26753 26754 26755 26756 26757 26758 26759 26760 26761 26762 26763 26764 26765 26766 26767 26768 26769 26770 26771 26772 26773 26774 26775 26776 26777 26778 26779 26780 26781 26782 26783 26784 26785 26786 26787 26788 26789 26790 26791 26792 26793 26794 26795 26796 26797 26798 26799 26800 26801 26802 26803 26804 26805 26806 26807 26808 26809 26810 26811 26812 26813 26814 26815 26816 26817 26818 26819 26820 26821 26822 26823 26824 26825 26826 26827 26828 26829 26830 26831 26832 26833 26834 26835 26836 26837 26838 26839 26840 26841 26842 26843 26844 26845 26846 26847 26848 26849 26850 26851 26852 26853 26854 26855 26856 26857 26858 26859 26860 26861 26862 26863 26864 26865 26866 26867 26868 26869 26870 26871 26872 26873 26874 26875 26876 26877 26878 26879 26880 26881 26882 26883 26884 26885 26886 26887 26888 26889 26890 26891 26892 26893 26894 26895 26896 26897 26898 26899 26900 26901 26902 26903 26904 26905 26906 26907 26908 26909 26910 26911 26912 26913 26914 26915 26916 26917 26918 26919 26920 26921 26922 26923 26924 26925 26926 26927 26928 26929 26930 26931 26932 26933 26934 26935 26936 26937 26938 26939 26940 26941 26942 26943 26944 26945 26946 26947 26948 26949 26950 26951 26952 26953 26954 26955 26956 26957 26958 26959 26960 26961 26962 26963 26964 26965 26966 26967 26968 26969 26970 26971 26972 26973 26974 26975 26976 26977 26978 26979 26980 26981 26982 26983 26984 26985 26986 26987 26988 26989 26990 26991 26992 26993 26994 26995 26996 26997 26998 26999 27000 27001 27002 27003 27004 27005 27006 27007 27008 27009 27010 27011 27012 27013 27014 27015 27016 27017 27018 27019 27020 27021 27022 27023 27024 27025 27026 27027 27028 27029 27030 27031 27032 27033 27034 27035 27036 27037 27038 27039 27040 27041 27042 27043 27044 27045 27046 27047 27048 27049 27050 27051 27052 27053 27054 27055 27056 27057 27058 27059 27060 27061 27062 27063 27064 27065 27066 27067 27068 27069 27070 27071 27072 27073 27074 27075 27076 27077 27078 27079 27080 27081 27082 27083 27084 27085 27086 27087 27088 27089 27090 27091 27092 27093 27094 27095 27096 27097 27098 27099 27100 27101 27102 27103 27104 27105 27106 27107 27108 27109 27110 27111 27112 27113 27114 27115 27116 27117 27118 27119 27120 27121 27122 27123 27124 27125 27126 27127 27128 27129 27130 27131 27132 27133 27134 27135 27136 27137 27138 27139 27140 27141 27142 27143 27144 27145 27146 27147 27148 27149 27150 27151 27152 27153 27154 27155 27156 27157 27158 27159 27160 27161 27162 27163 27164 27165 27166 27167 27168 27169 27170 27171 27172 27173 27174 27175 27176 27177 27178 27179 27180 27181 27182 27183 27184 27185 27186 27187 27188 27189 27190 27191 27192 27193 27194 27195 27196 27197 27198 27199 27200 27201 27202 27203 27204 27205 27206 27207 27208 27209 27210 27211 27212 27213 27214 27215 27216 27217 27218 27219 27220 27221 27222 27223 27224 27225 27226 27227 27228 27229 27230 27231 27232 27233 27234 27235 27236 27237 27238 27239 27240 27241 27242 27243 27244 27245 27246 27247 27248 27249 27250 27251 27252 27253 27254 27255 27256 27257 27258 27259 27260 27261 27262 27263 27264 27265 27266 27267 27268 27269 27270 27271 27272 27273 27274 27275 27276 27277 27278 27279 27280 27281 27282 27283 27284 27285 27286 27287 27288 27289 27290 27291 27292 27293 27294 27295 27296 27297 27298 27299 27300 27301 27302 27303 27304 27305 27306 27307 27308 27309 27310 27311 27312 27313 27314 27315 27316 27317 27318 27319 27320 27321 27322 27323 27324 27325 27326 27327 27328 27329 27330 27331 27332 27333 27334 27335 27336 27337 27338 27339 27340 27341 27342 27343 27344 27345 27346 27347 27348 27349 27350 27351 27352 27353 27354 27355 27356 27357 27358 27359 27360 27361 27362 27363 27364 27365 27366 27367 27368 27369 27370 27371 27372 27373 27374 27375 27376 27377 27378 27379 27380 27381 27382 27383 27384 27385 27386 27387 27388 27389 27390 27391 27392 27393 27394 27395 27396 27397 27398 27399 27400 27401 27402 27403 27404 27405 27406 27407 27408 27409 27410 27411 27412 27413 27414 27415 27416 27417 27418 27419 27420 27421 27422 27423 27424 27425 27426 27427 27428 27429 27430 27431 27432 27433 27434 27435 27436 27437 27438 27439 27440 27441 27442 27443 27444 27445 27446 27447 27448 27449 27450 27451 27452 27453 27454 27455 27456 27457 27458 27459 27460 27461 27462 27463 27464 27465 27466 27467 27468 27469 27470 27471 27472 27473 27474 27475 27476 27477 27478 27479 27480 27481 27482 27483 27484 27485 27486 27487 27488 27489 27490 27491 27492 27493 27494 27495 27496 27497 27498 27499 27500 27501 27502 27503 27504 27505 27506 27507 27508 27509 27510 27511 27512 27513 27514 27515 27516 27517 27518 27519 27520 27521 27522 27523 27524 27525 27526 27527 27528 27529 27530 27531 27532 27533 27534 27535 27536 27537 27538 27539 27540 27541 27542 27543 27544 27545 27546 27547 27548 27549 27550 27551 27552 27553 27554 27555 27556 27557 27558 27559 27560 27561 27562 27563 27564 27565 27566 27567 27568 27569 27570 27571 27572 27573 27574 27575 27576 27577 27578 27579 27580 27581 27582 27583 27584 27585 27586 27587 27588 27589 27590 27591 27592 27593 27594 27595 27596 27597 27598 27599 27600 27601 27602 27603 27604 27605 27606 27607 27608 27609 27610 27611 27612 27613 27614 27615 27616 27617 27618 27619 27620 27621 27622 27623 27624 27625 27626 27627 27628 27629 27630 27631 27632 27633 27634 27635 27636 27637 27638 27639 27640 27641 27642 27643 27644 27645 27646 27647 27648 27649 27650 27651 27652 27653 27654 27655 27656 27657 27658 27659 27660 27661 27662 27663 27664 27665 27666 27667 27668 27669 27670 27671 27672 27673 27674 27675 27676 27677 27678 27679 27680 27681 27682 27683 27684 27685 27686 27687 27688 27689 27690 27691 27692 27693 27694 27695 27696 27697 27698 27699 27700 27701 27702 27703 27704 27705 27706 27707 27708 27709 27710 27711 27712 27713 27714 27715 27716 27717 27718 27719 27720 27721 27722 27723 27724 27725 27726 27727 27728 27729 27730 27731 27732 27733 27734 27735 27736 27737 27738 27739 27740 27741 27742 27743 27744 27745 27746 27747 27748 27749 27750 27751 27752 27753 27754 27755 27756 27757 27758 27759 27760 27761 27762 27763 27764 27765 27766 27767 27768 27769 27770 27771 27772 27773 27774 27775 27776 27777 27778 27779 27780 27781 27782 27783 27784 27785 27786 27787 27788 27789 27790 27791 27792 27793 27794 27795 27796 27797 27798 27799 27800 27801 27802 27803 27804 27805 27806 27807 27808 27809 27810 27811 27812 27813 27814 27815 27816 27817 27818 27819 27820 27821 27822 27823 27824 27825 27826 27827 27828 27829 27830 27831 27832 27833 27834 27835 27836 27837 27838 27839 27840 27841 27842 27843 27844 27845 27846 27847 27848 27849 27850 27851 27852 27853 27854 27855 27856 27857 27858 27859 27860 27861 27862 27863 27864 27865 27866 27867 27868 27869 27870 27871 27872 27873 27874 27875 27876 27877 27878 27879 27880 27881 27882 27883 27884 27885 27886 27887 27888 27889 27890 27891 27892 27893 27894 27895 27896 27897 27898 27899 27900 27901 27902 27903 27904 27905 27906 27907 27908 27909 27910 27911 27912 27913 27914 27915 27916 27917 27918 27919 27920 27921 27922 27923 27924 27925 27926 27927 27928 27929 27930 27931 27932 27933 27934 27935 27936 27937 27938 27939 27940 27941 27942 27943 27944 27945 27946 27947 27948 27949 27950 27951 27952 27953 27954 27955 27956 27957 27958 27959 27960 27961 27962 27963 27964 27965 27966 27967 27968 27969 27970 27971 27972 27973 27974 27975 27976 27977 27978 27979 27980 27981 27982 27983 27984 27985 27986 27987 27988 27989 27990 27991 27992 27993 27994 27995 27996 27997 27998 27999 28000 28001 28002 28003 28004 28005 28006 28007 28008 28009 28010 28011 28012 28013 28014 28015 28016 28017 28018 28019 28020 28021 28022 28023 28024 28025 28026 28027 28028 28029 28030 28031 28032 28033 28034 28035 28036 28037 28038 28039 28040 28041 28042 28043 28044 28045 28046 28047 28048 28049 28050 28051 28052 28053 28054 28055 28056 28057 28058 28059 28060 28061 28062 28063 28064 28065 28066 28067 28068 28069 28070 28071 28072 28073 28074 28075 28076 28077 28078 28079 28080 28081 28082 28083 28084 28085 28086 28087 28088 28089 28090 28091 28092 28093 28094 28095 28096 28097 28098 28099 28100 28101 28102 28103 28104 28105 28106 28107 28108 28109 28110 28111 28112 28113 28114 28115 28116 28117 28118 28119 28120 28121 28122 28123 28124 28125 28126 28127 28128 28129 28130 28131 28132 28133 28134 28135 28136 28137 28138 28139 28140 28141 28142 28143 28144 28145 28146 28147 28148 28149 28150 28151 28152 28153 28154 28155 28156 28157 28158 28159 28160 28161 28162 28163 28164 28165 28166 28167 28168 28169 28170 28171 28172 28173 28174 28175 28176 28177 28178 28179 28180 28181 28182 28183 28184 28185 28186 28187 28188 28189 28190 28191 28192 28193 28194 28195 28196 28197 28198 28199 28200 28201 28202 28203 28204 28205 28206 28207 28208 28209 28210 28211 28212 28213 28214 28215 28216 28217 28218 28219 28220 28221 28222 28223 28224 28225 28226 28227 28228 28229 28230 28231 28232 28233 28234 28235 28236 28237 28238 28239 28240 28241 28242 28243 28244 28245 28246 28247 28248 28249 28250 28251 28252 28253 28254 28255 28256 28257 28258 28259 28260 28261 28262 28263 28264 28265 28266 28267 28268 28269 28270 28271 28272 28273 28274 28275 28276 28277 28278 28279 28280 28281 28282 28283 28284 28285 28286 28287 28288 28289 28290 28291 28292 28293 28294 28295 28296 28297 28298 28299 28300 28301 28302 28303 28304 28305 28306 28307 28308 28309 28310 28311 28312 28313 28314 28315 28316 28317 28318 28319 28320 28321 28322 28323 28324 28325 28326 28327 28328 28329 28330 28331 28332 28333 28334 28335 28336 28337 28338 28339 28340 28341 28342 28343 28344 28345 28346 28347 28348 28349 28350 28351 28352 28353 28354 28355 28356 28357 28358 28359 28360 28361 28362 28363 28364 28365 28366 28367 28368 28369 28370 28371 28372 28373 28374 28375 28376 28377 28378 28379 28380 28381 28382 28383 28384 28385 28386 28387 28388 28389 28390 28391 28392 28393 28394 28395 28396 28397 28398 28399 28400 28401 28402 28403 28404 28405 28406 28407 28408 28409 28410 28411 28412 28413 28414 28415 28416 28417 28418 28419 28420 28421 28422 28423 28424 28425 28426 28427 28428 28429 28430 28431 28432 28433 28434 28435 28436 28437 28438 28439 28440 28441 28442 28443 28444 28445 28446 28447 28448 28449 28450 28451 28452 28453 28454 28455 28456 28457 28458 28459 28460 28461 28462 28463 28464 28465 28466 28467 28468 28469 28470 28471 28472 28473 28474 28475 28476 28477 28478 28479 28480 28481 28482 28483 28484 28485 28486 28487 28488 28489 28490 28491 28492 28493 28494 28495 28496 28497 28498 28499 28500 28501 28502 28503 28504 28505 28506 28507 28508 28509 28510 28511 28512 28513 28514 28515 28516 28517 28518 28519 28520 28521 28522 28523 28524 28525 28526 28527 28528 28529 28530 28531 28532 28533 28534 28535 28536 28537 28538 28539 28540 28541 28542 28543 28544 28545 28546 28547 28548 28549 28550 28551 28552 28553 28554 28555 28556 28557 28558 28559 28560 28561 28562 28563 28564 28565 28566 28567 28568 28569 28570 28571 28572 28573 28574 28575 28576 28577 28578 28579 28580 28581 28582 28583 28584 28585 28586 28587 28588 28589 28590 28591 28592 28593 28594 28595 28596 28597 28598 28599 28600 28601 28602 28603 28604 28605 28606 28607 28608 28609 28610 28611 28612 28613 28614 28615 28616 28617 28618 28619 28620 28621 28622 28623 28624 28625 28626 28627 28628 28629 28630 28631 28632 28633 28634 28635 28636 28637 28638 28639 28640 28641 28642 28643 28644 28645 28646 28647 28648 28649 28650 28651 28652 28653 28654 28655 28656 28657 28658 28659 28660 28661 28662 28663 28664 28665 28666 28667 28668 28669 28670 28671 28672 28673 28674 28675 28676 28677 28678 28679 28680 28681 28682 28683 28684 28685 28686 28687 28688 28689 28690 28691 28692 28693 28694 28695 28696 28697 28698 28699 28700 28701 28702 28703 28704 28705 28706 28707 28708 28709 28710 28711 28712 28713 28714 28715 28716 28717 28718 28719 28720 28721 28722 28723 28724 28725 28726 28727 28728 28729 28730 28731 28732 28733 28734 28735 28736 28737 28738 28739 28740 28741 28742 28743 28744 28745 28746 28747 28748 28749 28750 28751 28752 28753 28754 28755 28756 28757 28758 28759 28760 28761 28762 28763 28764 28765 28766 28767 28768 28769 28770 28771 28772 28773 28774 28775 28776 28777 28778 28779 28780 28781 28782 28783 28784 28785 28786 28787 28788 28789 28790 28791 28792 28793 28794 28795 28796 28797 28798 28799 28800 28801 28802 28803 28804 28805 28806 28807 28808 28809 28810 28811 28812 28813 28814 28815 28816 28817 28818 28819 28820 28821 28822 28823 28824 28825 28826 28827 28828 28829 28830 28831 28832 28833 28834 28835 28836 28837 28838 28839 28840 28841 28842 28843 28844 28845 28846 28847 28848 28849 28850 28851 28852 28853 28854 28855 28856 28857 28858 28859 28860 28861 28862 28863 28864 28865 28866 28867 28868 28869 28870 28871 28872 28873 28874 28875 28876 28877 28878 28879 28880 28881 28882 28883 28884 28885 28886 28887 28888 28889 28890 28891 28892 28893 28894 28895 28896 28897 28898 28899 28900 28901 28902 28903 28904 28905 28906 28907 28908 28909 28910 28911 28912 28913 28914 28915 28916 28917 28918 28919 28920 28921 28922 28923 28924 28925 28926 28927 28928 28929 28930 28931 28932 28933 28934 28935 28936 28937 28938 28939 28940 28941 28942 28943 28944 28945 28946 28947 28948 28949 28950 28951 28952 28953 28954 28955 28956 28957 28958 28959 28960 28961 28962 28963 28964 28965 28966 28967 28968 28969 28970 28971 28972 28973 28974 28975 28976 28977 28978 28979 28980 28981 28982 28983 28984 28985 28986 28987 28988 28989 28990 28991 28992 28993 28994 28995 28996 28997 28998 28999 29000 29001 29002 29003 29004 29005 29006 29007 29008 29009 29010 29011 29012 29013 29014 29015 29016 29017 29018 29019 29020 29021 29022 29023 29024 29025 29026 29027 29028 29029 29030 29031 29032 29033 29034 29035 29036 29037 29038 29039 29040 29041 29042 29043 29044 29045 29046 29047 29048 29049 29050 29051 29052 29053 29054 29055 29056 29057 29058 29059 29060 29061 29062 29063 29064 29065 29066 29067 29068 29069 29070 29071 29072 29073 29074 29075 29076 29077 29078 29079 29080 29081 29082 29083 29084 29085 29086 29087 29088 29089 29090 29091 29092 29093 29094 29095 29096 29097 29098 29099 29100 29101 29102 29103 29104 29105 29106 29107 29108 29109 29110 29111 29112 29113 29114 29115 29116 29117 29118 29119 29120 29121 29122 29123 29124 29125 29126 29127 29128 29129 29130 29131 29132 29133 29134 29135 29136 29137 29138 29139 29140 29141 29142 29143 29144 29145 29146 29147 29148 29149 29150 29151 29152 29153 29154 29155 29156 29157 29158 29159 29160 29161 29162 29163 29164 29165 29166 29167 29168 29169 29170 29171 29172 29173 29174 29175 29176 29177 29178 29179 29180 29181 29182 29183 29184 29185 29186 29187 29188 29189 29190 29191 29192 29193 29194 29195 29196 29197 29198 29199 29200 29201 29202 29203 29204 29205 29206 29207 29208 29209 29210 29211 29212 29213 29214 29215 29216 29217 29218 29219 29220 29221 29222 29223 29224 29225 29226 29227 29228 29229 29230 29231 29232 29233 29234 29235 29236 29237 29238 29239 29240 29241 29242 29243 29244 29245 29246 29247 29248 29249 29250 29251 29252 29253 29254 29255 29256 29257 29258 29259 29260 29261 29262 29263 29264 29265 29266 29267 29268 29269 29270 29271 29272 29273 29274 29275 29276 29277 29278 29279 29280 29281 29282 29283 29284 29285 29286 29287 29288 29289 29290 29291 29292 29293 29294 29295 29296 29297 29298 29299 29300 29301 29302 29303 29304 29305 29306 29307 29308 29309 29310 29311 29312 29313 29314 29315 29316 29317 29318 29319 29320 29321 29322 29323 29324 29325 29326 29327 29328 29329 29330 29331 29332 29333 29334 29335 29336 29337 29338 29339 29340 29341 29342 29343 29344 29345 29346 29347 29348 29349 29350 29351 29352 29353 29354 29355 29356 29357 29358 29359 29360 29361 29362 29363 29364 29365 29366 29367 29368 29369 29370 29371 29372 29373 29374 29375 29376 29377 29378 29379 29380 29381 29382 29383 29384 29385 29386 29387 29388 29389 29390 29391 29392 29393 29394 29395 29396 29397 29398 29399 29400 29401 29402 29403 29404 29405 29406 29407 29408 29409 29410 29411 29412 29413 29414 29415 29416 29417 29418 29419 29420 29421 29422 29423 29424 29425 29426 29427 29428 29429 29430 29431 29432 29433 29434 29435 29436 29437 29438 29439 29440 29441 29442 29443 29444 29445 29446 29447 29448 29449 29450 29451 29452 29453 29454 29455 29456 29457 29458 29459 29460 29461 29462 29463 29464 29465 29466 29467 29468 29469 29470 29471 29472 29473 29474 29475 29476 29477 29478 29479 29480 29481 29482 29483 29484 29485 29486 29487 29488 29489 29490 29491 29492 29493 29494 29495 29496 29497 29498 29499 29500 29501 29502 29503 29504 29505 29506 29507 29508 29509 29510 29511 29512 29513 29514 29515 29516 29517 29518 29519 29520 29521 29522 29523 29524 29525 29526 29527 29528 29529 29530 29531 29532 29533 29534 29535 29536 29537 29538 29539 29540 29541 29542 29543 29544 29545 29546 29547 29548 29549 29550 29551 29552 29553 29554 29555 29556 29557 29558 29559 29560 29561 29562 29563 29564 29565 29566 29567 29568 29569 29570 29571 29572 29573 29574 29575 29576 29577 29578 29579 29580 29581 29582 29583 29584 29585 29586 29587 29588 29589 29590 29591 29592 29593 29594 29595 29596 29597 29598 29599 29600 29601 29602 29603 29604 29605 29606 29607 29608 29609 29610 29611 29612 29613 29614 29615 29616 29617 29618 29619 29620 29621 29622 29623 29624 29625 29626 29627 29628 29629 29630 29631 29632 29633 29634 29635 29636 29637 29638 29639 29640 29641 29642 29643 29644 29645 29646 29647 29648 29649 29650 29651 29652 29653 29654 29655 29656 29657 29658 29659 29660 29661 29662 29663 29664 29665 29666 29667 29668 29669 29670 29671 29672 29673 29674 29675 29676 29677 29678 29679 29680 29681 29682 29683 29684 29685 29686 29687 29688 29689 29690 29691 29692 29693 29694 29695 29696 29697 29698 29699 29700 29701 29702 29703 29704 29705 29706 29707 29708 29709 29710 29711 29712 29713 29714 29715 29716 29717 29718 29719 29720 29721 29722 29723 29724 29725 29726 29727 29728 29729 29730 29731 29732 29733 29734 29735 29736 29737 29738 29739 29740 29741 29742 29743 29744 29745 29746 29747 29748 29749 29750 29751 29752 29753 29754 29755 29756 29757 29758 29759 29760 29761 29762 29763 29764 29765 29766 29767 29768 29769 29770 29771 29772 29773 29774 29775 29776 29777 29778 29779 29780 29781 29782 29783 29784 29785 29786 29787 29788 29789 29790 29791 29792 29793 29794 29795 29796 29797 29798 29799 29800 29801 29802 29803 29804 29805 29806 29807 29808 29809 29810 29811 29812 29813 29814 29815 29816 29817 29818 29819 29820 29821 29822 29823 29824 29825 29826 29827 29828 29829 29830 29831 29832 29833 29834 29835 29836 29837 29838 29839 29840 29841 29842 29843 29844 29845 29846 29847 29848 29849 29850 29851 29852 29853 29854 29855 29856 29857 29858 29859 29860 29861 29862 29863 29864 29865 29866 29867 29868 29869 29870 29871 29872 29873 29874 29875 29876 29877 29878 29879 29880 29881 29882 29883 29884 29885 29886 29887 29888 29889 29890 29891 29892 29893 29894 29895 29896 29897 29898 29899 29900 29901 29902 29903 29904 29905 29906 29907 29908 29909 29910 29911 29912 29913 29914 29915 29916 29917 29918 29919 29920 29921 29922 29923 29924 29925 29926 29927 29928 29929 29930 29931 29932 29933 29934 29935 29936 29937 29938 29939 29940 29941 29942 29943 29944 29945 29946 29947 29948 29949 29950 29951 29952 29953 29954 29955 29956 29957 29958 29959 29960 29961 29962 29963 29964 29965 29966 29967 29968 29969 29970 29971 29972 29973 29974 29975 29976 29977 29978 29979 29980 29981 29982 29983 29984 29985 29986 29987 29988 29989 29990 29991 29992 29993 29994 29995 29996 29997 29998 29999 30000 30001 30002 30003 30004 30005 30006 30007 30008 30009 30010 30011 30012 30013 30014 30015 30016 30017 30018 30019 30020 30021 30022 30023 30024 30025 30026 30027 30028 30029 30030 30031 30032 30033 30034 30035 30036 30037 30038 30039 30040 30041 30042 30043 30044 30045 30046 30047 30048 30049 30050 30051 30052 30053 30054 30055 30056 30057 30058 30059 30060 30061 30062 30063 30064 30065 30066 30067 30068 30069 30070 30071 30072 30073 30074 30075 30076 30077 30078 30079 30080 30081 30082 30083 30084 30085 30086 30087 30088 30089 30090 30091 30092 30093 30094 30095 30096 30097 30098 30099 30100 30101 30102 30103 30104 30105 30106 30107 30108 30109 30110 30111 30112 30113 30114 30115 30116 30117 30118 30119 30120 30121 30122 30123 30124 30125 30126 30127 30128 30129 30130 30131 30132 30133 30134 30135 30136 30137 30138 30139 30140 30141 30142 30143 30144 30145 30146 30147 30148 30149 30150 30151 30152 30153 30154 30155 30156 30157 30158 30159 30160 30161 30162 30163 30164 30165 30166 30167 30168 30169 30170 30171 30172 30173 30174 30175 30176 30177 30178 30179 30180 30181 30182 30183 30184 30185 30186 30187 30188 30189 30190 30191 30192 30193 30194 30195 30196 30197 30198 30199 30200 30201 30202 30203 30204 30205 30206 30207 30208 30209 30210 30211 30212 30213 30214 30215 30216 30217 30218 30219 30220 30221 30222 30223 30224 30225 30226 30227 30228 30229 30230 30231 30232 30233 30234 30235 30236 30237 30238 30239 30240 30241 30242 30243 30244 30245 30246 30247 30248 30249 30250 30251 30252 30253 30254 30255 30256 30257 30258 30259 30260 30261 30262 30263 30264 30265 30266 30267 30268 30269 30270 30271 30272 30273 30274 30275 30276 30277 30278 30279 30280 30281 30282 30283 30284 30285 30286 30287 30288 30289 30290 30291 30292 30293 30294 30295 30296 30297 30298 30299 30300 30301 30302 30303 30304 30305 30306 30307 30308 30309 30310 30311 30312 30313 30314 30315 30316 30317 30318 30319 30320 30321 30322 30323 30324 30325 30326 30327 30328 30329 30330 30331 30332 30333 30334 30335 30336 30337 30338 30339 30340 30341 30342 30343 30344 30345 30346 30347 30348 30349 30350 30351 30352 30353 30354 30355 30356 30357 30358 30359 30360 30361 30362 30363 30364 30365 30366 30367 30368 30369 30370 30371 30372 30373 30374 30375 30376 30377 30378 30379 30380 30381 30382 30383 30384 30385 30386 30387 30388 30389 30390 30391 30392 30393 30394 30395 30396 30397 30398 30399 30400 30401 30402 30403 30404 30405 30406 30407 30408 30409 30410 30411 30412 30413 30414 30415 30416 30417 30418 30419 30420 30421 30422 30423 30424 30425 30426 30427 30428 30429 30430 30431 30432 30433 30434 30435 30436 30437 30438 30439 30440 30441 30442 30443 30444 30445 30446 30447 30448 30449 30450 30451 30452 30453 30454 30455 30456 30457 30458 30459 30460 30461 30462 30463 30464 30465 30466 30467 30468 30469 30470 30471 30472 30473 30474 30475 30476 30477 30478 30479 30480 30481 30482 30483 30484 30485 30486 30487 30488 30489 30490 30491 30492 30493 30494 30495 30496 30497 30498 30499 30500 30501 30502 30503 30504 30505 30506 30507 30508 30509 30510 30511 30512 30513 30514 30515 30516 30517 30518 30519 30520 30521 30522 30523 30524 30525 30526 30527 30528 30529 30530 30531 30532 30533 30534 30535 30536 30537 30538 30539 30540 30541 30542 30543 30544 30545 30546 30547 30548 30549 30550 30551 30552 30553 30554 30555 30556 30557 30558 30559 30560 30561 30562 30563 30564 30565 30566 30567 30568 30569 30570 30571 30572 30573 30574 30575 30576 30577 
</DataArray>
<DataArray type="UInt32" Name="offsets" format="ascii">
3 6 9 12 15 18 20 23 26 29 31 34 37 40 42 45 48 51 54 57 60 62 64 67 70 73 76 78 80 83 85 87 90 92 95 98 101 103 106 109 111 114 117 120 123 126 129 132 134 137 140 143 146 149 152 155 158 160 163 166 168 171 173 176 178 181 183 186 189 192 195 198 201 204 207 210 213 216 219 222 225 228 231 233 236 239 242 245 248 251 254 257 259 262 265 267 269 272 275 278 281 284 287 290 293 296 299 302 305 307 310 313 316 319 322 324 327 330 332 335 338 341 344 347 350 353 356 359 362 365 368 371 374 377 380 383 386 389 391 394 397 400 403 406 408 411 414 417 420 423 426 429 432 435 438 441 444 447 450 453 456 459 462 465 468 471 474 477 480 482 485 487 490 493 496 498 501 504 507 509 512 515 518 520 522 525 528 530 533 536 539 542 544 547 550 553 556 559 561 564 567 570 573 575 578 580 583 586 588 591 594 597 599 602 605 607 610 613 616 619 622 625 628 631 634 637 639 642 645 647 650 653 656 659 662 665 668 670 673 676 679 682 685 688 691 694 697 700 703 706 709 712 715 718 721 724 727 730 733 735 738 740 743 746 749 752 755 757 760 763 766 769 772 775 778 781 783 786 789 792 794 797 800 802 805 808 811 814 816 819 822 824 827 830 833 836 839 841 844 846 849 852 855 858 861 864 867 870 873 876 879 882 885 888 891 894 897 900 902 905 908 911 914 917 919 921 924 927 930 933 936 939 942 945 948 951 953 956 959 962 965 968 971 974 977 980 982 985 988 990 992 995 998 1001 1003 1006 1009 1011 1014 1017 1020 1023 1026 1029 1032 1035 1038 1041 1044 1047 1050 1053 1056 1058 1061 1064 1067 1070 1073 1076 1079 1082 1084 1087 1090 1092 1095 1098 1101 1104 1106 1109 1112 1115 1118 1121 1124 1127 1130 1133 1136 1139 1142 1145 1148 1150 1152 1155 1158 1160 1162 1165 1167 1170 1172 1175 1177 1180 1183 1185 1188 1191 1194 1197 1200 1203 1206 1209 1212 1214 1216 1219 1222 1224 1227 1230 1233 1236 1239 1241 1244 1247 1249 1252 1255 1258 1261 1263 1266 1269 1272 1274 1277 1280 1283 1285 1288 1290 1293 1296 1298 1301 1304 1307 1310 1313 1316 1319 1322 1325 1328 1331 1333 1336 1339 1342 1345 1348 1351 1353 1356 1359 1362 1364 1367 1370 1373 1376 1379 1382 1385 1387 1390 1393 1396 1399 1402 1404 1407 1409 1412 1415 1418 1421 1424 1426 1428 1431 1434 1437 1439 1441 1444 1446 1449 1452 1455 1458 1461 1464 1467 1469 1472 1475 1478 1481 1484 1487 1490 1493 1496 1499 1502 1505 1508 1511 1513 1516 1519 1521 1524 1526 1529 1532 1535 1538 1541 1544 1547 1550 1553 1556 1559 1562 1565 1568 1570 1573 1576 1579 1582 1585 1588 1591 1594 1597 1600 1603 1606 1609 1612 1615 1618 1620 1623 1626 1629 1632 1635 1638 1641 1644 1647 1650 1653 1655 1657 1660 1663 1666 1669 1672 1675 1678 1681 1684 1687 1690 1693 1696 1699 1702 1705 1707 1710 1713 1716 1719 1722 1725 1728 1730 1733 1736 1739 1742 1745 1748 1751 1754 1756 1759 1762 1765 1767 1770 1773 1776 1779 1782 1785 1788 1791 1794 1797 1800 1803 1806 1809 1812 1815 1818 1821 1824 1827 1830 1833 1836 1839 1842 1845 1848 1851 1853 1856 1858 1861 1864 1867 1870 1873 1876 1879 1882 1885 1888 1891 1894 1897 1899 1902 1905 1908 1910 1913 1916 1919 1922 1925 1928 1931 1934 1937 1940 1943 1946 1949 1951 1953 1956 1959 1962 1965 1968 1971 1974 1976 1979 1982 1985 1988 1991 1994 1997 2000 2003 2006 2009 2011 2014 2017 2020 2023 2026 2029 2032 2034 2037 2040 2043 2046 2049 2052 2055 2058 2061 2064 2067 2070 2073 2076 2079 2082 2085 2087 2090 2093 2096 2099 2102 2105 2108 2111 2114 2117 2119 2122 2125 2128 2131 2134 2136 2139 2142 2145 2147 2150 2153 2156 2159 2161 2164 2167 2170 2173 2176 2179 2182 2184 2187 2189 2192 2195 2197 2200 2202 2205 2208 2211 2214 2217 2220 2223 2226 2229 2232 2235 2238 2241 2244 2247 2250 2253 2256 2259 2262 2265 2268 2271 2274 2277 2280 2283 2286 2289 2292 2295 2298 2301 2304 2307 2309 2312 2314 2316 2319 2322 2325 2328 2331 2334 2337 2340 2343 2346 2349 2351 2354 2357 2360 2363 2366 2369 2372 2374 2377 2379 2382 2384 2387 2390 2393 2396 2399 2402 2404 2407 2409 2411 2414 2417 2420 2423 2426 2429 2432 2435 2438 2441 2444 2447 2450 2453 2456 2459 2462 2464 2467 2470 2473 2476 2479 2482 2485 2488 2491 2494 2497 2500 2503 2506 2508 2511 2514 2517 2520 2523 2526 2529 2532 2535 2538 2541 2544 2547 2549 2552 2555 2558 2561 2564 2567 2570 2573 2576 2578 2581 2584 2587 2590 2593 2595 2597 2600 2603 2606 2609 2611 2613 2616 2619 2622 2625 2628 2631 2634 2637 2640 2643 2646 2648 2651 2654 2657 2660 2662 2665 2668 2671 2674 2677 2680 2682 2685 2688 2690 2693 2695 2698 2701 2704 2706 2709 2712 2715 2718 2721 2724 2727 2729 2732 2735 2738 2741 2743 2745 2748 2751 2753 2756 2759 2762 2764 2766 2768 2770 2773 2776 2778 2781 2784 2787 2790 2793 2796 2799 2802 2804 2806 2809 2812 2815 2818 2821 2824 2826 2829 2831 2834 2837 2840 2842 2845 2848 2851 2854 2857 2860 2863 2866 2869 2872 2875 2878 2881 2884 2887 2890 2893 2896 2899 2902 2905 2908 2911 2914 2917 2920 2923 2926 2928 2931 2934 2937 2940 2943 2946 2949 2952 2955 2958 2961 2964 2967 2970 2973 2976 2979 2982 2985 2988 2991 2993 2996 2999 3002 3005 3008 3011 3014 3017 3020 3022 3025 3028 3031 3034 3037 3040 3042 3045 3048 3051 3054 3057 3059 3062 3065 3068 3071 3074 3076 3079 3082 3085 3088 3091 3094 3097 3100 3103 3106 3108 3111 3114 3117 3120 3122 3124 3127 3130 3132 3135 3138 3141 3144 3146 3149 3152 3154 3157 3160 3163 3166 3169 3171 3173 3176 3179 3182 3185 3188 3191 3193 3196 3199 3202 3205 3208 3211 3214 3216 3218 3221 3224 3227 3229 3232 3235 3238 3240 3243 3246 3248 3251 3253 3256 3259 3262 3264 3267 3270 3272 3274 3277 3280 3283 3286 3289 3292 3294 3297 3299 3302 3304 3307 3310 3313 3315 3317 3320 3322 3325 3328 3331 3334 3337 3340 3343 3346 3349 3352 3355 3358 3361 3364 3367 3370 3372 3375 3378 3381 3384 3387 3390 3393 3395 3398 3401 3404 3407 3410 3412 3415 3418 3421 3423 3426 3429 3432 3435 3437 3440 3442 3445 3447 3450 3453 3456 3459 3461 3464 3467 3469 3472 3475 3478 3481 3484 3487 3490 3493 3496 3499 3502 3504 3507 3510 3513 3516 3518 3521 3524 3527 3530 3532 3535 3538 3541 3544 3547 3550 3552 3555 3558 3561 3563 3566 3568 3570 3573 3576 3579 3582 3585 3588 3591 3594 3597 3600 3603 3606 3609 3612 3615 3618 3621 3624 3627 3630 3633 3636 3639 3642 3645 3648 3651 3654 3656 3659 3662 3664 3666 3669 3671 3674 3677 3680 3683 3685 3688 3691 3693 3696 3699 3702 3705 3708 3711 3714 3717 3720 3723 3726 3729 3732 3735 3738 3741 3744 3747 3750 3753 3756 3759 3762 3765 3768 3771 3774 3777 3779 3782 3785 3788 3791 3794 3797 3800 3803 3805 3808 3811 3814 3817 3820 3823 3826 3828 3831 3833 3836 3839 3842 3844 3847 3850 3853 3856 3859 3862 3865 3867 3870 3872 3875 3878 3881 3884 3887 3889 3892 3895 3898 3901 3904 3907 3910 3913 3916 3919 3922 3925 3928 3931 3934 3937 3940 3943 3946 3949 3952 3955 3958 3961 3964 3967 3970 3973 3976 3979 3982 3985 3988 3991 3994 3997 4000 4003 4006 4008 4010 4013 4016 4018 4021 4024 4027 4029 4032 4035 4038 4040 4042 4045 4048 4050 4053 4056 4059 4062 4065 4068 4071 4074 4077 4080 4083 4086 4089 4092 4095 4098 4101 4104 4107 4110 4113 4115 4118 4120 4123 4126 4129 4132 4135 4138 4141 4144 4147 4150 4153 4156 4159 4162 4165 4168 4171 4174 4177 4180 4183 4186 4189 4192 4195 4198 4201 4204 4207 4210 4213 4216 4219 4222 4225 4228 4231 4234 4237 4240 4243 4246 4249 4252 4255 4257 4260 4262 4265 4267 4270 4273 4275 4278 4281 4284 4287 4290 4293 4296 4299 4302 4305 4308 4311 4314 4317 4320 4323 4326 4329 4332 4335 4338 4341 4344 4347 4350 4353 4356 4358 4361 4364 4367 4370 4373 4376 4379 4382 4385 4388 4391 4394 4397 4400 4403 4406 4409 4412 4415 4418 4421 4424 4427 4430 4433 4436 4439 4442 4445 4448 4451 4454 4457 4460 4463 4466 4469 4472 4475 4478 4481 4484 4487 4490 4493 4496 4499 4502 4505 4507 4510 4513 4516 4519 4521 4524 4527 4530 4533 4536 4539 4542 4545 4547 4550 4553 4556 4559 4562 4564 4566 4568 4571 4574 4577 4580 4582 4584 4587 4590 4592 4595 4598 4601 4604 4607 4610 4613 4616 4619 4622 4625 4628 4631 4634 4636 4638 4641 4643 4646 4649 4652 4655 4658 4661 4664 4667 4670 4673 4676 4679 4682 4685 4688 4691 4694 4697 4699 4702 4705 4708 4711 4714 4717 4719 4722 4725 4728 4731 4734 4737 4740 4743 4746 4749 4752 4755 4758 4761 4764 4767 4770 4773 4775 4778 4781 4784 4787 4790 4793 4796 4799 4802 4804 4807 4810 4812 4815 4818 4821 4824 4827 4830 4833 4836 4839 4842 4845 4848 4851 4854 4857 4860 4862 4865 4867 4870 4873 4876 4879 4881 4884 4886 4889 4892 4894 4896 4899 4902 4904 4907 4910 4913 4915 4918 4921 4924 4927 4930 4933 4935 4938 4941 4944 4946 4949 4952 4955 4958 4960 4963 4966 4969 4972 4975 4978 4981 4983 4986 4989 4992 4995 4998 5000 5003 5006 5008 5011 5014 5017 5020 5023 5026 5029 5031 5034 5037 5040 5042 5044 5047 5050 5053 5055 5058 5061 5064 5067 5070 5072 5074 5076 5079 5082 5085 5088 5091 5094 5097 5100 5103 5105 5107 5110 5112 5115 5118 5121 5124 5127 5129 5132 5135 5137 5140 5142 5145 5148 5151 5153 5156 5159 5161 5164 5167 5170 5173 5176 5179 5182 5184 5187 5190 5192 5194 5197 5200 5202 5205 5207 5210 5213 5215 5218 5221 5223 5226 5228 5231 5234 5237 5239 5242 5245 5247 5250 5252 5255 5258 5260 5263 5265 5268 5271 5274 5277 5279 5281 5284 5287 5290 5293 5296 5299 5302 5305 5308 5310 5313 5316 5319 5322 5325 5328 5331 5334 5337 5340 5343 5346 5349 5352 5355 5358 5361 5364 5366 5368 5371 5374 5377 5379 5382 5385 5388 5391 5393 5396 5399 5401 5404 5407 5410 5412 5415 5418 5420 5423 5426 5429 5432 5434 5437 5440 5443 5446 5449 5451 5454 5457 5460 5462 5464 5467 5470 5472 5475 5478 5481 5484 5487 5489 5491 5494 5497 5500 5503 5505 5508 5511 5514 5517 5519 5522 5525 5528 5531 5534 5537 5540 5543 5546 5549 5552 5555 5558 5561 5564 5567 5570 5573 5576 5579 5582 5585 5588 5591 5594 5597 5600 5603 5605 5608 5611 5614 5617 5620 5623 5626 5629 5632 5635 5638 5640 5643 5646 5649 5652 5654 5657 5660 5663 5665 5668 5671 5673 5676 5679 5682 5685 5688 5690 5693 5696 5699 5702 5705 5708 5711 5714 5717 5720 5723 5726 5729 5732 5735 5738 5741 5744 5747 5750 5752 5755 5758 5761 5764 5767 5769 5772 5775 5778 5781 5784 5787 5790 5792 5795 5798 5801 5804 5807 5810 5813 5816 5819 5822 5825 5828 5831 5833 5836 5839 5842 5845 5848 5850 5852 5855 5858 5861 5864 5866 5869 5871 5874 5877 5880 5882 5884 5887 5890 5892 5895 5898 5901 5903 5906 5909 5912 5915 5917 5920 5923 5925 5927 5930 5933 5936 5939 5942 5945 5947 5950 5953 5955 5958 5961 5964 5967 5969 5972 5975 5978 5981 5984 5987 5990 5993 5996 5999 6002 6005 6008 6011 6014 6017 6020 6023 6026 6028 6031 6033 6036 6039 6042 6044 6047 6049 6052 6054 6057 6060 6062 6065 6068 6070 6072 6074 6077 6080 6083 6085 6088 6091 6094 6097 6100 6103 6105 6108 6111 6114 6117 6120 6123 6126 6128 6131 6133 6136 6139 6142 6145 6148 6151 6154 6156 6159 6162 6165 6168 6171 6174 6177 6180 6183 6186 6189 6191 6194 6197 6199 6202 6205 6208 6211 6214 6217 6220 6223 6226 6229 6232 6235 6238 6241 6244 6247 6249 6252 6255 6258 6261 6264 6267 6270 6273 6276 6279 6282 6285 6288 6291 6294 6297 6300 6303 6306 6309 6312 6314 6317 6320 6323 6325 6328 6331 6334 6337 6340 6343 6346 6349 6352 6355 6357 6360 6363 6366 6369 6372 6375 6378 6381 6384 6387 6389 6392 6395 6398 6401 6404 6407 6409 6412 6415 6418 6420 6423 6426 6429 6432 6435 6438 6441 6444 6447 6450 6453 6456 6459 6462 6465 6468 6471 6474 6477 6480 6483 6485 6488 6491 6494 6497 6500 6502 6505 6508 6510 6513 6516 6519 6522 6525 6528 6530 6533 6536 6539 6542 6544 6547 6550 6553 6556 6559 6562 6565 6568 6571 6574 6577 6580 6583 6586 6589 6592 6595 6598 6600 6603 6606 6609 6612 6615 6617 6620 6623 6626 6628 6631 6633 6636 6639 6642 6645 6648 6651 6654 6656 6659 6662 6665 6667 6669 6672 6675 6678 6681 6684 6686 6689 6692 6695 6697 6700 6703 6706 6709 6712 6715 6718 6721 6724 6727 6730 6733 6736 6739 6742 6744 6747 6750 6753 6756 6759 6762 6764 6767 6770 6773 6776 6779 6782 6785 6788 6791 6794 6797 6799 6802 6805 6808 6811 6814 6817 6820 6823 6826 6828 6831 6834 6837 6840 6842 6844 6847 6850 6853 6856 6859 6862 6865 6868 6870 6872 6875 6877 6880 6883 6886 6889 6892 6894 6897 6900 6903 6906 6909 6912 6914 6917 6919 6922 6925 6928 6931 6934 6937 6940 6943 6946 6949 6951 6954 6957 6960 6963 6966 6969 6971 6974 6977 6980 6983 6986 6989 6992 6995 6997 7000 7003 7006 7009 7012 7014 7017 7020 7022 7025 7028 7031 7034 7037 7040 7042 7045 7048 7051 7054 7057 7060 7063 7066 7068 7071 7074 7077 7080 7082 7085 7088 7091 7094 7097 7100 7103 7106 7109 7112 7114 7117 7120 7123 7126 7129 7132 7135 7138 7141 7143 7146 7149 7152 7155 7157 7160 7163 7166 7169 7172 7175 7178 7181 7183 7186 7188 7191 7194 7197 7199 7202 7205 7208 7211 7214 7217 7220 7223 7225 7228 7231 7234 7236 7239 7242 7245 7247 7250 7253 7255 7258 7261 7264 7267 7270 7273 7276 7279 7282 7285 7288 7291 7294 7297 7300 7303 7306 7309 7312 7315 7318 7321 7324 7327 7330 7333 7336 7339 7342 7345 7348 7351 7354 7357 7360 7363 7366 7369 7372 7375 7378 7381 7384 7387 7390 7393 7396 7399 7402 7405 7408 7411 7414 7416 7419 7422 7425 7427 7430 7433 7436 7439 7442 7445 7447 7450 7452 7455 7458 7461 7464 7466 7468 7471 7474 7477 7480 7483 7486 7489 7492 7495 7498 7501 7504 7507 7510 7513 7516 7519 7522 7525 7528 7531 7534 7536 7539 7542 7544 7547 7550 7553 7555 7558 7561 7564 7567 7570 7573 7576 7579 7582 7585 7588 7591 7594 7597 7599 7602 7604 7607 7609 7612 7615 7618 7621 7624 7627 7630 7633 7636 7639 7642 7645 7648 7651 7654 7657 7660 7662 7665 7668 7671 7674 7677 7680 7683 7686 7689 7692 7695 7698 7701 7704 7707 7710 7713 7716 7719 7722 7725 7728 7731 7734 7737 7740 7743 7746 7749 7752 7755 7758 7761 7763 7766 7769 7772 7775 7778 7781 7783 7786 7789 7791 7794 7796 7799 7802 7804 7807 7810 7813 7815 7818 7821 7824 7827 7830 7833 7836 7839 7842 7845 7848 7851 7854 7857 7860 7863 7866 7869 7872 7875 7878 7881 7884 7887 7890 7892 7895 7898 7901 7904 7906 7909 7912 7914 7917 7920 7923 7926 7929 7932 7935 7938 7941 7944 7947 7950 7953 7956 7959 7962 7965 7968 7971 7974 7977 7980 7983 7986 7989 7992 7995 7998 8001 8004 8006 8009 8012 8015 8017 8020 8023 8026 8029 8031 8034 8037 8040 8043 8046 8048 8051 8054 8057 8060 8062 8065 8068 8071 8074 8077 8080 8083 8086 8089 8092 8095 8098 8101 8104 8106 8108 8111 8113 8116 8118 8121 8124 8127 8130 8133 8136 8139 8142 8145 8148 8151 8154 8157 8160 8163 8166 8169 8172 8175 8178 8181 8184 8187 8190 8193 8195 8197 8200 8203 8205 8208 8211 8213 8216 8219 8222 8225 8228 8231 8234 8237 8240 8243 8246 8248 8251 8254 8256 8259 8262 8265 8268 8271 8274 8277 8280 8283 8286 8289 8292 8295 8298 8300 8302 8305 8307 8309 8312 8315 8318 8321 8323 8326 8329 8332 8334 8336 8339 8342 8345 8348 8351 8354 8357 8359 8362 8365 8368 8371 8374 8377 8380 8383 8386 8389 8392 8395 8398 8401 8404 8407 8409 8412 8415 8418 8421 8423 8426 8429 8432 8435 8438 8441 8444 8446 8449 8452 8455 8458 8461 8464 8467 8469 8472 8475 8477 8480 8483 8486 8489 8492 8495 8498 8501 8504 8507 8510 8513 8516 8519 8522 8524 8527 8530 8533 8536 8539 8542 8545 8548 8550 8553 8556 8559 8562 8565 8568 8571 8573 8576 8579 8582 8585 8588 8590 8593 8596 8599 8602 8604 8607 8610 8613 8616 8619 8622 8625 8628 8631 8634 8637 8640 8642 8645 8648 8651 8654 8657 8660 8663 8666 8669 8672 8675 8678 8681 8684 8686 8689 8692 8695 8698 8701 8704 8707 8710 8713 8716 8719 8722 8725 8727 8729 8732 8735 8737 8740 8743 8746 8749 8751 8754 8757 8760 8762 8765 8768 8770 8773 8776 8779 8782 8784 8787 8790 8793 8796 8799 8802 8805 8808 8811 8814 8817 8820 8823 8826 8829 8832 8835 8838 8841 8844 8847 8850 8853 8856 8859 8862 8865 8868 8871 8874 8877 8880 8883 8886 8888 8891 8894 8897 8899 8902 8904 8907 8910 8913 8916 8919 8922 8925 8928 8931 8934 8937 8940 8943 8946 8948 8951 8954 8957 8960 8963 8966 8969 8972 8974 8977 8980 8983 8985 8988 8991 8994 8997 9000 9003 9006 9008 9011 9013 9016 9019 9022 9025 9028 9031 9034 9037 9040 9043 9046 9049 9052 9055 9057 9060 9063 9065 9068 9071 9074 9077 9080 9083 9086 9088 9091 9094 9097 9100 9103 9106 9109 9112 9115 9118 9121 9124 9127 9130 9133 9136 9139 9142 9145 9148 9151 9154 9157 9160 9163 9166 9169 9171 9174 9177 9179 9182 9185 9188 9190 9193 9196 9198 9201 9204 9207 9210 9213 9216 9219 9222 9225 9228 9231 9234 9237 9240 9243 9246 9249 9252 9255 9257 9260 9263 9266 9269 9272 9275 9278 9281 9284 9287 9290 9293 9296 9298 9301 9304 9307 9310 9313 9316 9319 9322 9325 9328 9331 9334 9337 9340 9343 9346 9349 9352 9355 9357 9360 9363 9366 9369 9372 9375 9378 9381 9384 9387 9390 9393 9396 9399 9402 9405 9407 9410 9413 9415 9418 9421 9424 9426 9429 9432 9434 9437 9440 9443 9446 9449 9452 9455 9458 9461 9464 9467 9470 9473 9476 9478 9481 9484 9486 9489 9492 9495 9498 9501 9504 9507 9510 9513 9516 9519 9522 9525 9528 9531 9534 9537 9540 9543 9546 9549 9552 9555 9558 9561 9564 9567 9570 9573 9576 9579 9582 9585 9588 9591 9594 9596 9599 9602 9605 9608 9610 9613 9616 9619 9622 9625 9628 9631 9634 9637 9640 9643 9646 9649 9652 9655 9657 9660 9662 9664 9667 9670 9672 9675 9677 9680 9683 9686 9689 9692 9695 9698 9701 9703 9706 9709 9711 9714 9717 9720 9723 9725 9727 9730 9732 9735 9738 9741 9744 9747 9750 9753 9756 9759 9762 9765 9768 9771 9774 9777 9780 9783 9786 9789 9792 9795 9797 9800 9803 9806 9809 9812 9815 9818 9821 9824 9827 9830 9833 9836 9839 9842 9845 9848 9851 9854 9857 9860 9863 9866 9869 9872 9874 9877 9880 9883 9886 9889 9891 9894 9897 9900 9903 9906 9909 9912 9915 9918 9920 9923 9926 9929 9932 9935 9938 9941 9944 9947 9950 9953 9956 9959 9962 9965 9968 9971 9973 9975 9978 9981 9983 9986 9989 9992 9994 9997 10000 10003 10006 10009 10012 10015 10018 10021 10024 10026 10029 10032 10034 10037 10039 10042 10045 10048 10051 10053 10056 10059 10062 10064 10067 10070 10073 10076 10079 10082 10084 10087 10090 10093 10096 10099 10102 10104 10107 10110 10113 10116 10119 10122 10125 10128 10131 10134 10137 10140 10143 10146 10148 10151 10154 10156 10159 10162 10165 10167 10169 10172 10175 10178 10181 10184 10187 10190 10193 10196 10199 10201 10204 10207 10210 10212 10215 10218 10221 10224 10226 10229 10232 10235 10238 10241 10244 10247 10250 10252 10255 10258 10261 10264 10267 10269 10271 10274 10277 10280 10282 10285 10287 10289 10292 10295 10298 10301 10304 10306 10309 10312 10315 10318 10321 10324 10326 10329 10332 10335 10338 10341 10344 10347 10349 10352 10355 10357 10360 10363 10365 10368 10371 10374 10377 10380 10383 10386 10389 10392 10395 10398 10401 10404 10407 10409 10412 10415 10418 10420 10423 10426 10428 10431 10434 10437 10440 10442 10445 10448 10451 10454 10457 10460 10463 10466 10468 10471 10474 10477 10480 10482 10485 10488 10491 10494 10497 10500 10503 10506 10508 10511 10514 10517 10520 10523 10526 10529 10532 10535 10537 10540 10543 10546 10548 10551 10554 10556 10559 10562 10564 10567 10570 10573 10576 10579 10582 10585 10588 10591 10593 10596 10599 10602 10605 10608 10611 10614 10617 10620 10623 10626 10629 10632 10635 10638 10641 10643 10646 10649 10652 10655 10658 10661 10664 10667 10670 10673 10676 10679 10682 10685 10688 10691 10694 10697 10700 10703 10706 10709 10712 10715 10718 10721 10723 10726 10728 10731 10734 10737 10740 10743 10746 10749 10752 10755 10758 10760 10763 10766 10768 10771 10774 10777 10780 10783 10786 10789 10792 10795 10798 10801 10804 10807 10810 10813 10816 10819 10822 10825 10828 10831 10833 10836 10839 10842 10845 10848 10851 10854 10857 10860 10862 10865 10867 10870 10873 10876 10879 10882 10885 10888 10890 10893 10895 10898 10901 10904 10907 10910 10913 10916 10919 10922 10925 10928 10930 10933 10936 10939 10942 10944 10947 10949 10952 10955 10958 10961 10964 10967 10969 10972 10975 10977 10980 10983 10985 10988 10991 10994 10996 10998 11000 11003 11006 11009 11012 11015 11018 11021 11024 11027 11030 11033 11036 11039 11041 11044 11047 11050 11053 11056 11059 11062 11064 11067 11069 11072 11074 11077 11080 11082 11084 11087 11090 11093 11096 11099 11102 11104 11107 11110 11113 11116 11118 11121 11123 11126 11128 11131 11133 11136 11139 11142 11145 11147 11150 11153 11156 11159 11162 11164 11167 11170 11173 11176 11179 11182 11185 11188 11191 11194 11197 11200 11203 11206 11208 11211 11214 11217 11220 11223 11225 11228 11231 11234 11236 11239 11242 11245 11248 11251 11254 11257 11260 11263 11266 11269 11272 11275 11278 11281 11284 11287 11289 11292 11295 11298 11301 11303 11306 11309 11312 11315 11318 11321 11323 11326 11329 11332 11335 11338 11341 11344 11347 11350 11353 11355 11358 11361 11363 11366 11368 11371 11374 11377 11380 11383 11386 11389 11392 11395 11398 11401 11403 11406 11409 11412 11415 11418 11421 11423 11426 11428 11430 11433 11435 11438 11441 11444 11447 11450 11453 11456 11458 11461 11464 11467 11470 11473 11476 11479 11482 11485 11488 11491 11494 11497 11500 11503 11506 11508 11511 11514 11517 11520 11523 11526 11529 11532 11535 11538 11540 11543 11546 11549 11552 11555 11558 11561 11564 11567 11570 11572 11575 11578 11581 11584 11586 11589 11592 11595 11598 11601 11603 11606 11609 11612 11615 11617 11620 11623 11626 11629 11632 11635 11638 11641 11644 11647 11650 11653 11656 11659 11662 11665 11668 11671 11673 11676 11679 11682 11685 11688 11691 11694 11697 11699 11702 11704 11706 11709 11712 11715 11718 11721 11723 11726 11729 11732 11735 11738 11741 11744 11747 11750 11753 11756 11759 11762 11765 11767 11770 11773 11775 11778 11780 11782 11785 11788 11791 11794 11797 11800 11802 11805 11808 11811 11814 11816 11819 11821 11824 11827 11829 11832 11835 11838 11841 11844 11847 11849 11851 11854 11857 11860 11863 11866 11869 11872 11875 11878 11881 11884 11887 11890 11893 11896 11898 11901 11904 11907 11910 11913 11916 11919 11921 11924 11926 11929 11932 11935 11937 11940 11942 11945 11948 11951 11954 11957 11960 11963 11966 11968 11971 11974 11977 11980 11983 11985 11988 11990 11993 11996 11999 12002 12004 12007 12010 12013 12016 12019 12021 12024 12027 12030 12033 12036 12039 12042 12045 12048 12051 12054 12057 12060 12063 12066 12069 12072 12075 12078 12081 12084 12087 12090 12093 12095 12098 12101 12104 12106 12109 12111 12114 12117 12120 12122 12125 12128 12131 12134 12137 12140 12143 12146 12149 12152 12155 12158 12161 12164 12167 12170 12173 12175 12177 12179 12181 12184 12187 12190 12193 12196 12199 12201 12204 12207 12210 12212 12215 12218 12221 12224 12227 12230 12233 12236 12239 12242 12244 12246 12248 12251 12254 12256 12258 12261 12264 12267 12270 12273 12276 12279 12282 12285 12287 12290 12293 12296 12299 12302 12305 12308 12311 12313 12315 12318 12321 12324 12326 12329 12332 12335 12338 12341 12344 12347 12350 12353 12356 12359 12361 12364 12366 12369 12372 12375 12378 12381 12383 12385 12388 12391 12393 12395 12398 12401 12404 12407 12410 12413 12416 12419 12422 12425 12428 12431 12434 12437 12440 12443 12446 12449 12452 12455 12458 12461 12464 12467 12470 12473 12476 12479 12482 12485 12488 12491 12494 12497 12500 12503 12506 12509 12512 12515 12518 12521 12523 12525 12528 12531 12534 12537 12540 12543 12546 12549 12552 12555 12558 12561 12564 12567 12570 12573 12576 12579 12582 12585 12587 12590 12593 12596 12599 12602 12605 12608 12611 12614 12617 12620 12623 12626 12629 12632 12635 12637 12640 12642 12645 12648 12651 12654 12657 12660 12663 12666 12668 12671 12674 12677 12680 12683 12686 12689 12692 12695 12698 12701 12703 12706 12709 12711 12714 12717 12719 12722 12725 12728 12731 12733 12736 12739 12742 12745 12747 12750 12753 12755 12758 12760 12763 12766 12769 12772 12775 12777 12780 12783 12786 12789 12792 12795 12798 12800 12803 12806 12809 12812 12815 12818 12821 12824 12827 12830 12833 12836 12839 12842 12845 12848 12851 12854 12857 12860 12863 12866 12869 12872 12874 12877 12880 12883 12885 12888 12891 12893 12896 12899 12902 12904 12907 12910 12913 12916 12918 12921 12923 12926 12929 12932 12935 12938 12941 12944 12947 12949 12952 12955 12958 12961 12964 12967 12970 12973 12976 12979 12981 12984 12987 12989 12992 12995 12997 13000 13003 13005 13007 13010 13013 13016 13019 13022 13025 13028 13030 13032 13035 13038 13041 13043 13046 13049 13051 13053 13056 13059 13062 13064 13066 13069 13071 13074 13077 13079 13082 13085 13088 13091 13093 13096 13098 13100 13103 13106 13109 13111 13114 13116 13118 13121 13123 13125 13127 13129 13132 13134 13137 13139 13142 13144 13147 13150 13153 13155 13158 13161 13163 13166 13168 13170 13173 13176 13179 13182 13184 13187 13189 13191 13194 13197 13200 13202 13204 13207 13210 13212 13214 13217 13220 13223 13226 13228 13231 13234 13237 13240 13242 13245 13248 13251 13254 13256 13259 13261 13264 13266 13269 13271 13274 13276 13279 13281 13284 13287 13290 13293 13296 13298 13301 13304 13306 13308 13310 13313 13316 13318 13320 13323 13325 13328 13331 13333 13336 13339 13342 13345 13348 13351 13353 13356 13359 13361 13364 13366 13369 13372 13375 13378 13380 13383 13385 13388 13390 13393 13396 13399 13401 13404 13407 13409 13412 13414 13417 13419 13422 13425 13428 13431 13434 13436 13439 13442 13445 13448 13451 13454 13457 13460 13463 13466 13468 13471 13474 13477 13480 13482 13485 13488 13490 13493 13496 13499 13502 13505 13507 13510 13513 13515 13518 13521 13524 13526 13529 13531 13534 13537 13540 13542 13545 13548 13551 13554 13556 13559 13562 13565 13568 13570 13572 13575 13578 13581 13584 13587 13590 13592 13595 13598 13600 13603 13606 13609 13612 13615 13618 13621 13624 13627 13630 13633 13636 13639 13642 13645 13648 13651 13654 13657 13660 13663 13666 13669 13672 13675 13678 13681 13684 13687 13690 13693 13696 13699 13702 13705 13708 13711 13714 13717 13720 13723 13726 13729 13732 13735 13738 13741 13744 13747 13750 13753 13756 13759 13762 13765 13768 13771 13774 13776 13779 13782 13785 13788 13791 13794 13797 13800 13803 13806 13809 13812 13814 13817 13820 13822 13825 13828 13831 13833 13836 13839 13842 13845 13848 13851 13854 13857 13860 13863 13866 13869 13872 13875 13878 13880 13883 13886 13889 13892 13895 13898 13901 13904 13907 13910 13913 13916 13919 13922 13925 13928 13930 13933 13936 13939 13942 13945 13948 13951 13954 13957 13960 13963 13966 13969 13971 13974 13977 13979 13982 13985 13987 13990 13992 13995 13998 14001 14004 14007 14010 14013 14015 14018 14021 14024 14027 14030 14033 14036 14039 14042 14045 14048 14051 14053 14056 14059 14062 14064 14067 14070 14073 14076 14079 14082 14085 14088 14091 14093 14096 14099 14102 14105 14108 14111 14113 14116 14119 14122 14125 14128 14131 14133 14136 14139 14142 14144 14147 14150 14153 14156 14159 14162 14165 14167 14170 14173 14176 14179 14182 14185 14188 14191 14194 14197 14199 14202 14205 14208 14211 14214 14217 14220 14223 14226 14229 14232 14235 14238 14241 14244 14247 14249 14252 14254 14257 14260 14263 14266 14269 14272 14275 14278 14281 14284 14286 14289 14291 14294 14297 14300 14303 14306 14309 14312 14315 14318 14321 14324 14326 14329 14332 14335 14338 14341 14344 14347 14350 14353 14356 14359 14361 14364 14367 14370 14373 14376 14379 14382 14384 14387 14390 14393 14396 14399 14402 14405 14407 14410 14413 14416 14419 14422 14425 14428 14431 14434 14437 14440 14442 14445 14448 14451 14454 14457 14460 14463 14466 14468 14471 14473 14476 14479 14482 14485 14488 14491 14494 14497 14500 14503 14505 14508 14511 14514 14516 14519 14522 14525 14528 14531 14534 14537 14540 14543 14545 14548 14551 14554 14557 14560 14563 14566 14569 14572 14575 14578 14581 14584 14587 14590 14593 14595 14598 14601 14604 14607 14610 14613 14616 14619 14622 14625 14628 14631 14634 14637 14640 14643 14646 14649 14651 14654 14657 14659 14662 14665 14667 14670 14673 14676 14679 14682 14684 14687 14690 14693 14696 14699 14702 14705 14708 14711 14714 14717 14720 14723 14726 14729 14732 14735 14738 14741 14744 14747 14750 14753 14756 14759 14762 14765 14768 14771 14774 14777 14780 14783 14786 14789 14792 14795 14798 14801 14804 14807 14810 14813 14816 14819 14822 14825 14828 14831 14834 14837 14840 14843 14846 14849 14852 14855 14858 14861 14863 14866 14869 14871 14874 14877 14880 14883 14886 14889 14892 14895 14898 14901 14904 14907 14910 14913 14916 14919 14922 14925 14928 14931 14934 14937 14940 14943 14945 14947 14950 14953 14956 14959 14962 14965 14968 14971 14974 14977 14980 14983 14986 14989 14992 14995 14997 14999 15002 15005 15008 15011 15014 15017 15020 15022 15025 15027 15030 15033 15035 15037 15040 15043 15046 15049 15052 15055 15058 15061 15064 15067 15070 15072 15075 15077 15080 15083 15086 15088 15091 15094 15097 15099 15102 15104 15107 15110 15113 15116 15119 15121 15123 15126 15129 15132 15135 15138 15141 15144 15147 15150 15153 15156 15159 15162 15165 15168 15171 15174 15177 15180 15183 15186 15189 15192 15195 15198 15201 15204 15207 15210 15213 15216 15219 15222 15225 15228 15231 15234 15237 15240 15243 15246 15249 15252 15255 15258 15261 15264 15267 15270 15273 15276 15279 15282 15285 15288 15291 15294 15297 15300 15303 15306 15309 15312 15315 15318 15321 15324 15327 15330 15333 15336 15339 15342 15345 15348 15351 15354 15357 15360 15363 15366 15369 15372 15375 15378 15381 15384 15387 15390 15393 15396 15399 15402 15405 15408 15411 15414 15417 15420 15423 15426 15429 15432 15435 15437 15439 15442 15444 15447 15449 15452 15455 15457 15460 15463 15466 15469 15471 15474 15477 15480 15483 15486 15489 15492 15494 15496 15498 15501 15504 15507 15510 15513 15515 15517 15520 15523 15526 15529 15532 15535 15538 15541 15544 15547 15550 15553 15556 15559 15562 15565 15568 15571 15574 15577 15580 15583 15586 15589 15592 15595 15598 15601 15604 15607 15610 15613 15616 15619 15621 15624 15627 15629 15632 15635 15638 15641 15644 15647 15650 15653 15656 15659 15662 15664 15667 15670 15673 15676 15679 15682 15685 15687 15690 15693 15696 15699 15702 15705 15708 15711 15714 15717 15720 15723 15726 15729 15732 15735 15737 15740 15743 15745 15748 15751 15754 15757 15760 15763 15766 15769 15772 15775 15778 15781 15784 15787 15790 15793 15796 15799 15802 15805 15808 15811 15814 15816 15819 15822 15824 15827 15830 15832 15835 15838 15841 15844 15847 15850 15853 15855 15858 15861 15864 15867 15870 15873 15875 15878 15881 15883 15886 15889 15892 15895 15897 15900 15902 15905 15908 15910 15913 15916 15919 15922 15924 15927 15929 15932 15935 15937 15940 15943 15946 15949 15952 15955 15958 15961 15964 15967 15970 15973 15975 15978 15981 15984 15986 15989 15992 15994 15997 16000 16003 16006 16008 16011 16014 16017 16020 16023 16026 16029 16032 16035 16038 16040 16043 16046 16049 16052 16055 16058 16061 16064 16067 16070 16072 16075 16078 16081 16084 16087 16090 16093 16096 16099 16102 16105 16108 16110 16113 16116 16118 16121 16124 16127 16130 16133 16136 16139 16142 16145 16148 16150 16153 16156 16159 16162 16165 16167 16170 16172 16174 16177 16180 16182 16185 16188 16191 16194 16197 16200 16203 16206 16209 16211 16213 16216 16219 16222 16225 16228 16231 16233 16236 16239 16242 16245 16248 16251 16254 16257 16260 16263 16266 16269 16272 16275 16278 16281 16284 16287 16290 16293 16296 16299 16302 16305 16308 16310 16313 16316 16319 16322 16325 16328 16331 16334 16337 16340 16343 16346 16349 16352 16355 16358 16361 16364 16367 16370 16373 16376 16379 16382 16385 16388 16391 16394 16397 16400 16403 16406 16409 16412 16415 16418 16421 16424 16427 16430 16432 16435 16438 16441 16444 16447 16450 16453 16456 16459 16462 16464 16467 16470 16473 16475 16478 16480 16483 16486 16489 16491 16494 16497 16500 16502 16505 16507 16510 16512 16515 16517 16519 16522 16525 16527 16530 16533 16536 16538 16541 16544 16547 16550 16553 16555 16558 16561 16564 16567 16569 16572 16575 16578 16580 16583 16586 16589 16592 16594 16597 16599 16602 16605 16608 16611 16614 16617 16620 16623 16626 16629 16632 16635 16638 16641 16643 16646 16649 16652 16655 16657 16660 16663 16665 16668 16671 16673 16675 16678 16681 16683 16686 16688 16691 16694 16697 16699 16701 16703 16705 16708 16711 16713 16716 16719 16722 16725 16727 16730 16732 16735 16738 16740 16742 16744 16747 16749 16752 16755 16757 16759 16761 16764 16767 16770 16773 16776 16779 16782 16785 16788 16790 16792 16795 16798 16801 16804 16806 16808 16811 16814 16817 16819 16822 16824 16827 16830 16833 16836 16839 16842 16845 16848 16851 16854 16857 16859 16862 16865 16868 16871 16874 16877 16880 16883 16886 16889 16892 16895 16898 16901 16904 16907 16910 16913 16916 16919 16922 16925 16928 16930 16933 16936 16939 16942 16945 16948 16951 16954 16957 16960 16963 16966 16969 16972 16975 16978 16980 16983 16986 16988 16991 16994 16997 17000 17003 17006 17009 17012 17015 17017 17020 17023 17026 17028 17030 17033 17036 17038 17041 17044 17047 17050 17053 17055 17058 17060 17063 17066 17069 17071 17074 17077 17080 17083 17086 17089 17092 17094 17097 17100 17102 17105 17108 17111 17114 17116 17119 17122 17125 17127 17129 17132 17135 17137 17140 17143 17146 17148 17151 17154 17157 17160 17163 17166 17169 17171 17174 17177 17179 17182 17184 17186 17188 17191 17193 17196 17198 17200 17203 17206 17209 17212 17215 17218 17220 17223 17226 17228 17231 17234 17237 17240 17243 17246 17249 17252 17255 17258 17261 17264 17267 17270 17273 17276 17279 17282 17285 17288 17291 17294 17297 17300 17303 17306 17309 17312 17315 17318 17321 17324 17327 17330 17333 17335 17337 17340 17343 17346 17349 17352 17355 17358 17361 17363 17365 17367 17369 17372 17375 17377 17380 17383 17386 17389 17392 17395 17398 17401 17403 17406 17409 17411 17414 17417 17420 17422 17425 17428 17431 17434 17436 17439 17442 17445 17448 17451 17454 17457 17460 17463 17466 17469 17472 17475 17478 17480 17483 17486 17489 17492 17495 17497 17500 17503 17506 17509 17512 17515 17518 17521 17523 17526 17529 17532 17534 17536 17539 17542 17544 17546 17549 17552 17555 17558 17561 17563 17566 17569 17572 17575 17578 17581 17583 17586 17588 17591 17594 17597 17600 17603 17606 17609 17612 17614 17616 17619 17621 17623 17625 17628 17630 17633 17636 17639 17642 17645 17648 17650 17653 17656 17659 17662 17665 17668 17671 17673 17676 17679 17682 17685 17688 17691 17694 17697 17700 17703 17706 17709 17712 17715 17718 17721 17724 17727 17730 17733 17736 17739 17742 17745 17748 17751 17754 17757 17760 17763 17766 17769 17772 17775 17778 17781 17784 17787 17790 17793 17796 17799 17802 17805 17808 17811 17814 17817 17820 17823 17826 17829 17832 17835 17838 17841 17844 17846 17849 17852 17855 17858 17861 17864 17867 17869 17872 17875 17877 17880 17883 17886 17888 17891 17893 17896 17899 17901 17904 17907 17910 17913 17916 17919 17922 17924 17927 17930 17933 17935 17938 17941 17944 17947 17950 17953 17956 17958 17961 17963 17966 17969 17972 17975 17978 17981 17984 17987 17990 17993 17996 17999 18002 18005 18008 18011 18014 18017 18020 18023 18026 18029 18032 18035 18038 18040 18042 18045 18047 18050 18053 18056 18059 18062 18065 18068 18070 18073 18075 18078 18080 18082 18084 18087 18090 18092 18095 18098 18100 18103 18106 18109 18111 18114 18117 18120 18123 18126 18129 18132 18134 18136 18139 18142 18144 18147 18150 18153 18155 18158 18161 18164 18167 18169 18172 18174 18177 18180 18183 18186 18189 18192 18194 18197 18199 18202 18205 18208 18211 18214 18216 18219 18222 18224 18227 18230 18233 18236 18239 18242 18245 18248 18251 18254 18257 18260 18263 18266 18269 18272 18274 18277 18280 18282 18284 18287 18289 18292 18295 18298 18301 18304 18307 18310 18313 18315 18318 18321 18324 18327 18330 18333 18336 18339 18342 18345 18348 18351 18354 18357 18360 18363 18365 18368 18371 18374 18376 18379 18382 18384 18387 18390 18393 18396 18399 18402 18404 18407 18410 18413 18416 18419 18422 18425 18428 18431 18434 18437 18440 18443 18446 18449 18452 18455 18458 18461 18463 18465 18468 18471 18474 18477 18480 18483 18486 18488 18491 18494 18497 18499 18502 18505 18507 18510 18512 18515 18518 18520 18523 18525 18527 18530 18532 18535 18537 18540 18542 18545 18548 18551 18554 18557 18560 18563 18566 18569 18572 18575 18578 18581 18584 18587 18589 18591 18594 18597 18600 18603 18606 18609 18612 18614 18617 18620 18623 18626 18629 18632 18635 18638 18641 18644 18647 18650 18653 18656 18659 18661 18664 18666 18669 18672 18675 18678 18681 18684 18686 18689 18692 18695 18697 18700 18703 18706 18708 18711 18714 18717 18720 18723 18726 18729 18732 18735 18738 18741 18744 18747 18750 18753 18756 18759 18762 18765 18768 18771 18773 18776 18779 18782 18785 18787 18790 18793 18796 18799 18802 18804 18807 18810 18813 18815 18818 18821 18824 18827 18830 18833 18836 18839 18842 18845 18848 18851 18853 18856 18859 18862 18865 18867 18870 18873 18876 18879 18882 18885 18888 18891 18893 18896 18899 18902 18905 18908 18911 18914 18916 18919 18922 18925 18928 18930 18933 18936 18939 18942 18945 18948 18951 18954 18956 18959 18962 18965 18968 18971 18974 18977 18980 18983 18985 18988 18991 18994 18997 19000 19003 19006 19009 19012 19015 19018 19021 19024 19027 19030 19033 19036 19039 19042 19045 19048 19051 19054 19057 19060 19063 19066 19069 19071 19074 19077 19080 19083 19086 19089 19092 19094 19097 19100 19103 19106 19109 19112 19115 19118 19121 19124 19127 19130 19133 19136 19139 19142 19145 19148 19151 19154 19157 19160 19163 19166 19169 19172 19175 19178 19181 19183 19186 19189 19192 19195 19198 19201 19204 19207 19210 19213 19216 19219 19222 19225 19228 19231 19234 19237 19240 19243 19246 19249 19252 19255 19258 19261 19264 19267 19270 19273 19276 19279 19281 19284 19287 19289 19292 19295 19298 19301 19303 19306 19309 19311 19314 19317 19320 19323 19325 19328 19331 19334 19336 19339 19342 19345 19347 19350 19353 19356 19359 19362 19365 19368 19371 19374 19377 19379 19382 19385 19387 19390 19393 19396 19399 19402 19405 19407 19410 19413 19416 19419 19422 19424 19427 19430 19433 19436 19438 19441 19444 19447 19450 19453 19456 19459 19462 19465 19468 19470 19473 19476 19479 19482 19485 19488 19491 19494 19497 19499 19502 19505 19508 19511 19514 19517 19520 19523 19526 19529 19532 19535 19538 19540 19543 19546 19549 19552 19555 19558 19561 19563 19566 19569 19572 19575 19578 19580 19583 19586 19589 19592 19595 19598 19601 19604 19607 19610 19613 19616 19619 19622 19624 19627 19630 19633 19636 19639 19642 19645 19648 19650 19653 19656 19659 19662 19665 19668 19671 19674 19677 19680 19683 19686 19689 19692 19695 19698 19701 19704 19707 19710 19713 19716 19719 19722 19725 19728 19731 19734 19737 19740 19743 19746 19749 19751 19754 19757 19760 19763 19765 19767 19770 19773 19775 19778 19781 19783 19786 19789 19791 19794 19797 19800 19803 19806 19809 19812 19815 19818 19821 19824 19827 19830 19833 19836 19839 19842 19845 19848 19850 19853 19856 19859 19862 19864 19867 19870 19873 19876 19879 19882 19885 19888 19891 19894 19897 19900 19903 19906 19909 19912 19915 19918 19921 19924 19927 19930 19933 19936 19939 19942 19945 19948 19951 19954 19957 19960 19963 19966 19969 19972 19975 19978 19981 19984 19987 19990 19993 19996 19999 20002 20005 20008 20011 20014 20017 20020 20023 20026 20029 20032 20035 20038 20041 20044 20047 20050 20053 20056 20059 20062 20065 20068 20071 20074 20077 20079 20082 20085 20088 20091 20093 20096 20098 20101 20104 20106 20109 20112 20115 20118 20120 20123 20126 20128 20131 20134 20137 20140 20143 20146 20149 20152 20155 20158 20161 20164 20167 20170 20173 20176 20179 20182 20185 20188 20191 20194 20197 20200 20203 20206 20209 20212 20215 20218 20221 20224 20227 20230 20233 20236 20239 20242 20245 20248 20251 20254 20257 20260 20263 20266 20269 20272 20275 20278 20281 20284 20287 20290 20293 20296 20299 20302 20305 20308 20310 20313 20316 20319 20322 20325 20328 20331 20334 20337 20339 20342 20345 20348 20351 20354 20357 20360 20362 20365 20368 20371 20374 20377 20380 20383 20386 20389 20392 20395 20398 20401 20404 20407 20410 20413 20416 20419 20421 20423 20426 20429 20431 20434 20436 20439 20442 20445 20448 20451 20454 20457 20460 20463 20466 20469 20472 20475 20478 20481 20484 20487 20490 20493 20496 20499 20502 20505 20508 20511 20514 20517 20520 20523 20526 20529 20532 20535 20538 20541 20544 20547 20550 20553 20556 20559 20562 20565 20568 20571 20574 20577 20580 20583 20586 20589 20592 20595 20598 20601 20603 20605 20608 20611 20614 20617 20620 20623 20626 20629 20632 20635 20638 20641 20644 20647 20650 20653 20656 20659 20662 20665 20667 20670 20673 20676 20679 20682 20685 20688 20691 20694 20697 20699 20702 20705 20708 20710 20713 20716 20719 20722 20725 20728 20730 20733 20736 20739 20742 20745 20748 20751 20754 20757 20760 20763 20766 20769 20771 20774 20777 20780 20783 20786 20789 20791 20793 20796 20798 20801 20804 20806 20809 20812 20815 20817 20820 20823 20826 20828 20831 20834 20837 20840 20843 20845 20848 20850 20853 20856 20859 20862 20864 20867 20870 20873 20876 20878 20881 20883 20886 20889 20891 20893 20896 20899 20902 20905 20908 20910 20913 20916 20919 20922 20925 20927 20929 20931 20934 20936 20939 20941 20944 20947 20950 20953 20956 20958 20961 20964 20967 20970 20973 20976 20979 20982 20984 20986 20989 20992 20994 20997 21000 21003 21006 21008 21011 21014 21016 21019 21022 21024 21027 21030 21033 21036 21039 21042 21045 21048 21051 21053 21056 21059 21062 21065 21068 21071 21074 21077 21079 21082 21085 21088 21091 21094 21097 21100 21103 21106 21108 21110 21113 21116 21119 21122 21125 21128 21131 21134 21137 21140 21143 21146 21149 21152 21155 21158 21161 21164 21167 21170 21173 21176 21179 21182 21185 21188 21191 21194 21197 21200 21203 21206 21209 21212 21215 21217 21220 21223 21226 21229 21231 21234 21237 21240 21243 21246 21249 21252 21255 21258 21261 21264 21267 21270 21273 21276 21279 21281 21283 21286 21289 21292 21295 21298 21301 21304 21307 21310 21312 21315 21318 21321 21324 21326 21329 21332 21334 21337 21340 21343 21346 21349 21352 21355 21358 21361 21364 21367 21370 21373 21375 21378 21381 21384 21387 21390 21393 21396 21399 21402 21405 21408 21411 21414 21417 21420 21423 21426 21429 21432 21435 21438 21441 21444 21447 21450 21452 21455 21458 21461 21464 21467 21469 21472 21475 21478 21480 21483 21486 21489 21491 21493 21496 21499 21502 21505 21508 21511 21514 21517 21520 21523 21526 21529 21532 21535 21537 21540 21543 21546 21548 21551 21554 21557 21560 21562 21564 21567 21570 21573 21576 21579 21582 21585 21588 21591 21594 21597 21600 21603 21606 21609 21612 21615 21618 21621 21624 21627 21630 21633 21635 21638 21641 21644 21647 21650 21653 21656 21659 21662 21664 21667 21670 21673 21676 21678 21681 21683 21686 21689 21692 21695 21697 21700 21703 21706 21709 21712 21715 21718 21721 21724 21727 21730 21733 21736 21739 21742 21744 21747 21750 21752 21755 21758 21761 21764 21767 21770 21773 21776 21779 21782 21784 21786 21789 21792 21795 21798 21800 21803 21806 21809 21811 21814 21817 21820 21823 21825 21827 21830 21832 21835 21837 21840 21842 21845 21848 21850 21853 21856 21858 21861 21864 21866 21869 21872 21875 21877 21880 21883 21885 21888 21890 21893 21895 21898 21901 21903 21906 21909 21912 21915 21918 21921 21924 21927 21930 21933 21936 21939 21942 21944 21947 21950 21953 21956 21959 21962 21965 21968 21971 21974 21977 21980 21983 21986 21989 21992 21994 21996 21999 22002 22005 22008 22011 22013 22016 22019 22022 22025 22027 22030 22033 22035 22038 22041 22044 22047 22049 22052 22055 22058 22061 22064 22067 22070 22073 22076 22079 22082 22085 22088 22091 22094 22097 22100 22103 22106 22109 22112 22115 22118 22121 22124 22127 22130 22133 22136 22139 22142 22145 22148 22151 22154 22157 22160 22163 22165 22168 22171 22174 22177 22180 22183 22186 22189 22192 22195 22198 22201 22204 22206 22209 22211 22214 22217 22220 22223 22225 22228 22231 22234 22237 22240 22243 22246 22249 22252 22255 22258 22261 22264 22267 22270 22273 22276 22279 22281 22284 22286 22289 22292 22294 22297 22300 22303 22305 22308 22311 22314 22317 22320 22323 22326 22329 22332 22335 22338 22341 22344 22347 22350 22353 22356 22359 22362 22365 22368 22371 22374 22377 22380 22383 22386 22388 22391 22394 22396 22399 22402 22405 22408 22411 22414 22417 22420 22423 22426 22429 22432 22435 22438 22441 22444 22447 22450 22453 22456 22459 22462 22465 22468 22471 22474 22477 22480 22483 22486 22489 22492 22495 22498 22501 22503 22506 22508 22511 22514 22517 22520 22523 22526 22529 22532 22535 22538 22541 22544 22547 22550 22553 22556 22559 22561 22563 22566 22569 22572 22575 22578 22580 22583 22586 22589 22592 22594 22597 22600 22603 22606 22608 22611 22614 22617 22620 22623 22626 22629 22632 22635 22638 22641 22644 22647 22650 22653 22656 22659 22662 22664 22667 22670 22673 22676 22679 22682 22684 22687 22690 22692 22695 22698 22701 22704 22707 22710 22713 22716 22719 22722 22725 22728 22730 22733 22736 22738 22741 22744 22747 22750 22753 22756 22759 22762 22764 22767 22770 22773 22776 22779 22782 22784 22787 22790 22792 22795 22798 22801 22804 22807 22810 22813 22816 22819 22822 22825 22828 22831 22834 22837 22840 22843 22846 22849 22852 22855 22858 22861 22864 22867 22870 22873 22876 22879 22882 22885 22888 22891 22894 22897 22900 22902 22905 22908 22911 22913 22916 22919 22921 22924 22927 22930 22933 22936 22939 22941 22944 22947 22950 22953 22956 22958 22961 22964 22967 22970 22973 22976 22978 22981 22984 22987 22990 22992 22995 22997 23000 23003 23005 23008 23011 23014 23016 23019 23022 23025 23028 23031 23034 23037 23040 23043 23046 23049 23052 23055 23057 23060 23063 23066 23069 23072 23075 23078 23081 23084 23087 23090 23093 23096 23099 23102 23105 23108 23111 23114 23117 23120 23123 23126 23129 23131 23134 23136 23139 23141 23144 23146 23149 23152 23155 23158 23160 23163 23166 23169 23172 23174 23177 23180 23183 23186 23189 23192 23195 23198 23201 23204 23207 23210 23213 23216 23218 23221 23224 23227 23229 23232 23235 23238 23240 23243 23246 23248 23251 23254 23257 23259 23262 23265 23268 23271 23273 23276 23279 23282 23285 23287 23290 23293 23296 23299 23302 23305 23308 23311 23314 23317 23319 23322 23325 23328 23331 23334 23336 23339 23341 23344 23347 23350 23353 23356 23358 23360 23363 23366 23368 23371 23373 23376 23379 23381 23384 23387 23390 23393 23396 23399 23402 23405 23408 23411 23414 23417 23420 23422 23425 23428 23431 23434 23437 23439 23442 23445 23448 23451 23454 23457 23460 23463 23466 23469 23471 23474 23476 23479 23482 23484 23487 23490 23492 23495 23497 23500 23502 23505 23508 23511 23514 23517 23519 23521 23524 23527 23530 23533 23536 23539 23542 23545 23548 23551 23554 23556 23559 23562 23565 23568 23571 23573 23576 23579 23582 23584 23587 23589 23592 23595 23598 23601 23604 23607 23610 23613 23616 23619 23622 23625 23628 23631 23634 23636 23639 23642 23645 23648 23650 23653 23656 23659 23662 23665 23668 23671 23674 23677 23680 23683 23686 23689 23692 23695 23698 23701 23704 23707 23710 23713 23716 23719 23721 23724 23727 23729 23732 23735 23738 23741 23744 23747 23750 23752 23755 23758 23760 23763 23765 23768 23771 23774 23777 23780 23783 23786 23789 23792 23794 23797 23800 23802 23805 23808 23811 23813 23816 23819 23822 23825 23828 23831 23834 23836 23839 23842 23845 23848 23850 23852 23855 23858 23861 23864 23867 23870 23873 23876 23879 23881 23884 23887 23890 23893 23896 23899 23902 23905 23908 23911 23914 23917 23920 23923 23926 23929 23931 23934 23936 23939 23942 23945 23947 23950 23953 23956 23959 23962 23965 23968 23971 23974 23977 23980 23983 23986 23988 23991 23994 23997 24000 24003 24005 24008 24011 24014 24016 24018 24021 24024 24027 24029 24032 24035 24037 24040 24043 24046 24049 24051 24053 24056 24059 24062 24064 24067 24070 24072 24075 24078 24081 24084 24086 24089 24091 24094 24097 24100 24102 24105 24108 24111 24114 24117 24120 24123 24126 24129 24132 24135 24138 24141 24144 24147 24150 24153 24156 24159 24162 24165 24167 24170 24173 24176 24179 24182 24185 24188 24191 24194 24196 24199 24202 24205 24207 24210 24212 24215 24218 24221 24224 24227 24230 24233 24236 24239 24242 24245 24247 24250 24253 24256 24259 24262 24264 24267 24270 24273 24276 24279 24281 24284 24287 24290 24293 24296 24299 24302 24305 24308 24311 24314 24317 24320 24323 24326 24329 24331 24334 24337 24340 24343 24346 24349 24352 24355 24358 24360 24363 24366 24369 24372 24375 24378 24381 24384 24387 24390 24393 24396 24399 24402 24405 24407 24410 24413 24416 24419 24422 24425 24428 24431 24434 24437 24440 24443 24446 24449 24452 24455 24458 24461 24464 24467 24470 24473 24476 24479 24482 24485 24488 24491 24494 24496 24499 24502 24505 24508 24510 24513 24515 24517 24520 24523 24526 24529 24532 24535 24537 24540 24542 24545 24548 24551 24553 24556 24559 24561 24564 24567 24570 24573 24576 24579 24581 24584 24587 24590 24593 24596 24599 24602 24604 24607 24610 24613 24616 24618 24621 24624 24627 24630 24633 24636 24638 24641 24644 24647 24650 24653 24656 24659 24662 24665 24668 24671 24674 24676 24679 24681 24684 24687 24690 24693 24696 24699 24702 24704 24706 24709 24712 24715 24718 24721 24724 24727 24730 24732 24735 24738 24741 24743 24746 24749 24751 24754 24757 24760 24763 24766 24769 24772 24775 24778 24781 24784 24787 24790 24793 24796 24799 24802 24805 24808 24811 24814 24817 24820 24823 24826 24828 24831 24834 24836 24839 24842 24845 24848 24851 24853 24856 24859 24861 24864 24866 24869 24872 24875 24877 24880 24883 24886 24889 24891 24894 24897 24899 24901 24904 24907 24910 24913 24916 24918 24921 24924 24926 24929 24932 24935 24938 24941 24943 24946 24949 24952 24955 24958 24961 24964 24967 24970 24972 24975 24978 24981 24984 24986 24989 24992 24995 24998 25001 25004 25006 25009 25011 25014 25017 25020 25022 25025 25027 25030 25033 25035 25038 25040 25043 25046 25049 25051 25054 25057 25060 25063 25066 25069 25072 25075 25078 25081 25084 25087 25090 25092 25095 25098 25101 25104 25106 25109 25112 25115 25118 25121 25124 25126 25129 25132 25135 25138 25141 25144 25147 25149 25152 25155 25158 25161 25164 25167 25169 25172 25175 25178 25181 25184 25187 25190 25192 25195 25198 25200 25203 25206 25209 25212 25215 25218 25221 25224 25227 25229 25231 25234 25237 25240 25243 25246 25249 25252 25255 25258 25261 25264 25267 25269 25272 25275 25278 25281 25284 25287 25290 25292 25295 25298 25301 25303 25306 25308 25311 25314 25316 25319 25322 25325 25328 25331 25333 25336 25339 25342 25344 25347 25350 25353 25356 25358 25361 25364 25367 25369 25372 25375 25378 25381 25384 25387 25390 25392 25395 25398 25400 25403 25406 25409 25411 25414 25417 25420 25422 25425 25428 25431 25434 25436 25439 25442 25445 25447 25450 25453 25456 25459 25462 25465 25468 25471 25474 25476 25479 25482 25485 25488 25491 25494 25497 25500 25503 25505 25508 25511 25514 25517 25519 25522 25525 25527 25530 25533 25536 25539 25542 25545 25548 25551 25554 25557 25560 25563 25566 25569 25572 25575 25578 25581 25584 25587 25590 25593 25596 25599 25602 25605 25607 25610 25613 25616 25619 25622 25625 25628 25631 25634 25637 25640 25642 25645 25648 25651 25653 25656 25659 25662 25665 25668 25671 25673 25676 25679 25682 25685 25688 25691 25694 25697 25700 25703 25706 25709 25712 25715 25718 25721 25724 25727 25730 25733 25736 25739 25742 25745 25748 25751 25753 25756 25758 25761 25764 25766 25768 25771 25774 25777 25780 25783 25786 25789 25792 25795 25798 25801 25804 25807 25810 25813 25816 25819 25821 25824 25827 25830 25833 25836 25839 25842 25845 25848 25851 25854 25857 25860 25863 25866 25869 25872 25875 25878 25881 25884 25887 25890 25893 25896 25899 25902 25905 25908 25911 25914 25917 25920 25923 25926 25929 25932 25935 25938 25941 25944 25947 25950 25953 25956 25959 25962 25965 25968 25971 25974 25977 25980 25983 25986 25989 25992 25995 25998 26001 26004 26006 26009 26012 26014 26017 26020 26023 26026 26028 26031 26034 26037 26040 26043 26046 26049 26052 26055 26058 26060 26063 26065 26068 26071 26074 26076 26079 26082 26085 26087 26090 26092 26095 26098 26101 26103 26106 26108 26111 26113 26116 26119 26122 26124 26127 26130 26133 26136 26138 26141 26143 26146 26149 26152 26155 26158 26160 26163 26165 26167 26170 26173 26176 26179 26182 26185 26187 26190 26193 26196 26198 26201 26204 26207 26210 26213 26216 26219 26222 26225 26228 26231 26234 26237 26240 26243 26246 26249 26252 26255 26257 26260 26263 26266 26268 26270 26273 26276 26279 26282 26285 26287 26290 26293 26296 26299 26302 26305 26308 26311 26314 26317 26320 26323 26326 26329 26331 26334 26337 26339 26342 26344 26347 26350 26353 26355 26358 26360 26363 26366 26368 26371 26374 26377 26380 26383 26386 26389 26392 26395 26398 26401 26403 26406 26409 26412 26415 26418 26421 26424 26427 26430 26433 26435 26437 26440 26443 26446 26449 26452 26455 26458 26460 26463 26466 26469 26472 26475 26478 26481 26484 26487 26490 26493 26496 26499 26502 26504 26507 26510 26513 26516 26519 26522 26525 26528 26531 26534 26536 26539 26542 26545 26547 26550 26552 26554 26557 26560 26563 26566 26569 26572 26575 26578 26580 26583 26586 26589 26592 26595 26598 26601 26604 26607 26609 26612 26614 26617 26619 26622 26625 26628 26631 26634 26637 26640 26643 26645 26648 26650 26653 26656 26659 26662 26665 26668 26670 26673 26676 26678 26681 26683 26686 26689 26692 26695 26698 26701 26704 26707 26710 26713 26716 26719 26722 26725 26727 26730 26733 26736 26739 26742 26745 26748 26751 26754 26757 26759 26762 26765 26768 26771 26774 26777 26779 26782 26785 26788 26791 26794 26797 26800 26803 26806 26809 26812 26815 26818 26821 26824 26827 26830 26833 26836 26839 26842 26845 26848 26851 26854 26856 26859 26862 26865 26868 26871 26873 26876 26879 26882 26885 26888 26891 26894 26897 26900 26903 26906 26908 26911 26914 26917 26920 26922 26925 26928 26931 26934 26937 26939 26942 26945 26948 26951 26954 26956 26959 26962 26964 26967 26970 26973 26976 26979 26982 26985 26988 26991 26994 26997 27000 27003 27006 27009 27012 27015 27018 27021 27024 27027 27030 27033 27036 27039 27042 27044 27047 27050 27052 27055 27058 27061 27064 27067 27070 27073 27076 27079 27082 27085 27088 27091 27094 27097 27099 27102 27105 27108 27111 27114 27117 27120 27123 27126 27128 27131 27134 27137 27140 27143 27146 27149 27151 27154 27157 27160 27163 27166 27168 27171 27174 27177 27180 27183 27186 27188 27191 27194 27197 27200 27202 27205 27208 27211 27214 27217 27220 27223 27225 27228 27231 27233 27236 27239 27241 27244 27247 27250 27253 27255 27258 27261 27264 27267 27270 27273 27276 27279 27281 27284 27287 27289 27292 27295 27298 27301 27304 27307 27310 27313 27316 27318 27321 27324 27327 27330 27333 27335 27338 27341 27344 27347 27349 27352 27355 27358 27360 27363 27366 27369 27372 27375 27378 27381 27384 27387 27390 27393 27395 27397 27400 27403 27406 27409 27412 27415 27418 27421 27424 27427 27430 27432 27435 27438 27441 27444 27447 27449 27452 27454 27456 27459 27461 27463 27466 27469 27471 27474 27477 27480 27483 27486 27489 27491 27494 27496 27498 27501 27504 27507 27510 27513 27515 27518 27521 27524 27527 27530 27533 27536 27539 27541 27544 27547 27550 27553 27555 27558 27561 27564 27567 27570 27572 27575 27578 27580 27583 27586 27589 27592 27595 27598 27601 27603 27606 27608 27611 27614 27617 27620 27623 27626 27629 27631 27633 27636 27639 27642 27645 27648 27651 27654 27656 27659 27662 27665 27668 27671 27674 27676 27679 27682 27685 27688 27691 27694 27697 27700 27703 27706 27709 27712 27715 27718 27720 27723 27726 27728 27731 27734 27737 27740 27742 27745 27748 27751 27754 27756 27759 27762 27765 27768 27771 27774 27776 27779 27782 27785 27788 27791 27794 27797 27799 27802 27805 27808 27810 27813 27816 27819 27822 27824 27827 27830 27832 27835 27838 27841 27844 27847 27850 27853 27855 27858 27861 27864 27867 27869 27872 27874 27877 27880 27883 27886 27889 27892 27895 27898 27901 27904 27907 27910 27913 27916 27918 27921 27924 27927 27930 27933 27936 27939 27941 27944 27947 27949 27952 27955 27957 27960 27963 27966 27969 27972 27975 27978 27981 27984 27986 27989 27992 27995 27997 28000 28003 28006 28009 28012 28015 28018 28021 28024 28026 28029 28032 28035 28038 28041 28044 28047 28050 28053 28056 28059 28061 28064 28067 28070 28072 28075 28078 28081 28084 28087 28090 28093 28096 28099 28102 28105 28107 28110 28113 28116 28119 28122 28125 28128 28131 28134 28137 28139 28142 28145 28148 28151 28154 28156 28159 28162 28165 28168 28171 28174 28177 28180 28182 28185 28188 28190 28193 28196 28198 28201 28204 28207 28210 28212 28214 28217 28220 28223 28226 28228 28231 28234 28237 28240 28242 28245 28248 28250 28253 28256 28259 28262 28264 28267 28270 28272 28275 28278 28281 28284 28287 28289 28292 28295 28298 28301 28304 28307 28310 28313 28315 28318 28320 28323 28326 28329 28332 28335 28338 28341 28344 28347 28349 28351 28354 28357 28360 28363 28366 28369 28371 28374 28377 28379 28382 28385 28387 28390 28392 28395 28398 28401 28403 28406 28409 28411 28414 28417 28420 28423 28426 28429 28432 28435 28437 28439 28442 28445 28447 28449 28452 28455 28458 28461 28463 28466 28469 28472 28474 28477 28479 28482 28484 28486 28488 28491 28493 28496 28499 28502 28504 28507 28510 28513 28516 28519 28522 28525 28528 28531 28533 28536 28539 28541 28544 28547 28550 28553 28556 28559 28561 28564 28567 28570 28573 28576 28579 28581 28583 28585 28588 28591 28594 28597 28600 28603 28606 28609 28612 28615 28618 28620 28623 28626 28629 28632 28634 28637 28640 28643 28646 28649 28652 28655 28658 28660 28663 28666 28668 28671 28674 28677 28679 28682 28685 28688 28691 28694 28697 28700 28703 28706 28708 28711 28714 28717 28720 28723 28726 28729 28732 28734 28737 28740 28743 28745 28748 28751 28753 28756 28759 28762 28764 28767 28769 28772 28775 28777 28780 28782 28785 28788 28790 28793 28796 28799 28802 28805 28808 28810 28813 28816 28818 28821 28824 28827 28830 28833 28836 28839 28842 28845 28848 28851 28854 28857 28860 28863 28866 28869 28872 28875 28878 28881 28884 28887 28890 28893 28896 28899 28902 28905 28908 28911 28914 28917 28920 28923 28926 28929 28932 28935 28938 28941 28944 28947 28950 28953 28956 28959 28962 28965 28968 28971 28974 28977 28980 28983 28986 28989 28992 28995 28998 29001 29004 29007 29010 29013 29016 29019 29022 29025 29028 29031 29034 29037 29040 29043 29046 29049 29052 29055 29058 29061 29064 29067 29070 29073 29076 29079 29082 29085 29088 29091 29094 29097 29100 29103 29106 29108 29111 29114 29117 29120 29122 29125 29128 29131 29134 29137 29140 29143 29146 29149 29152 29155 29158 29160 29162 29165 29168 29171 29174 29177 29180 29183 29186 29189 29192 29195 29198 29201 29204 29207 29209 29212 29215 29218 29220 29223 29226 29229 29232 29235 29238 29241 29244 29247 29250 29252 29255 29257 29260 29263 29266 29269 29272 29275 29278 29281 29284 29287 29290 29293 29296 29299 29302 29305 29308 29311 29314 29317 29320 29323 29326 29329 29331 29334 29337 29340 29343 29345 29348 29351 29354 29357 29360 29363 29366 29369 29371 29374 29377 29380 29383 29386 29389 29392 29395 29398 29401 29404 29407 29410 29413 29416 29419 29422 29425 29428 29431 29434 29437 29440 29443 29446 29449 29452 29455 29458 29461 29464 29467 29470 29473 29476 29479 29482 29485 29488 29491 29494 29497 29500 29503 29506 29509 29512 29515 29518 29520 29523 29526 29529 29532 29535 29538 29541 29544 29547 29550 29553 29556 29559 29562 29565 29568 29571 29574 29577 29580 29583 29586 29589 29592 29595 29598 29601 29604 29607 29610 29613 29616 29618 29621 29624 29627 29630 29633 29636 29638 29641 29644 29647 29650 29653 29656 29658 29661 29664 29666 29669 29671 29674 29676 29679 29682 29685 29688 29690 29693 29696 29699 29702 29705 29707 29710 29713 29716 29718 29720 29723 29726 29729 29731 29734 29737 29740 29743 29745 29747 29750 29753 29756 29759 29762 29765 29768 29771 29774 29777 29780 29783 29786 29789 29791 29794 29797 29799 29802 29805 29807 29809 29812 29815 29818 29821 29824 29827 29830 29833 29836 29839 29841 29844 29846 29849 29852 29855 29858 29861 29864 29867 29870 29873 29876 29879 29881 29884 29887 29890 29893 29896 29899 29902 29904 29907 29910 29913 29916 29919 29922 29925 29928 29931 29934 29937 29940 29943 29946 29949 29952 29955 29958 29960 29962 29965 29968 29971 29974 29977 29980 29983 29986 29989 29992 29995 29998 30001 30004 30007 30010 30013 30015 30018 30021 30024 30027 30030 30033 30036 30039 30042 30044 30047 30050 30053 30056 30059 30062 30065 30068 30071 30074 30077 30080 30082 30085 30088 30091 30094 30096 30099 30101 30104 30107 30110 30113 30116 30119 30122 30125 30128 30130 30133 30136 30139 30142 30144 30147 30150 30153 30156 30158 30161 30163 30166 30169 30172 30175 30178 30181 30184 30187 30190 30193 30196 30199 30201 30204 30207 30210 30213 30216 30219 30222 30225 30228 30231 30234 30237 30240 30243 30246 30248 30251 30253 30256 30259 30261 30264 30267 30270 30272 30275 30277 30280 30283 30285 30288 30291 30293 30296 30298 30301 30304 30307 30310 30313 30316 30319 30321 30323 30326 30329 30332 30335 30337 30339 30342 30345 30347 30349 30352 30354 30357 30360 30362 30364 30367 30370 30372 30375 30378 30380 30383 30386 30389 30392 30395 30398 30401 30404 30406 30409 30412 30414 30417 30419 30422 30425 30428 30430 30433 30436 30439 30442 30445 30448 30451 30454 30456 30459 30462 30465 30468 30471 30474 30477 30480 30483 30486 30489 30492 30495 30498 30501 30504 30507 30510 30513 30516 30519 30522 30524 30527 30530 30533 30536 30539 30542 30545 30548 30551 30554 30557 30560 30563 30566 30569 30572 30575 30578 
</DataArray>
<DataArray type="UInt32" Name="types" format="ascii">
5 5 5 5 5 5 3 5 5 5 3 5 5 5 3 5 5 5 5 5 5 3 3 5 5 5 5 3 3 5 3 3 5 3 5 5 5 3 5 5 3 5 5 5 5 5 5 5 3 5 5 5 5 5 5 5 5 3 5 5 3 5 3 5 3 5 3 5 5 5 5 5 5 5 5 5 5 5 5 5 5 5 5 3 5 5 5 5 5 5 5 5 3 5 5 3 3 5 5 5 5 5 5 5 5 5 5 5 5 3 5 5 5 5 5 3 5 5 3 5 5 5 5 5 5 5 5 5 5 5 5 5 5 5 5 5 5 5 3 5 5 5 5 5 3 5 5 5 5 5 5 5 5 5 5 5 5 5 5 5 5 5 5 5 5 5 5 5 5 3 5 3 5 5 5 3 5 5 5 3 5 5 5 3 3 5 5 3 5 5 5 5 3 5 5 5 5 5 3 5 5 5 5 3 5 3 5 5 3 5 5 5 3 5 5 3 5 5 5 5 5 5 5 5 5 5 3 5 5 3 5 5 5 5 5 5 5 3 5 5 5 5 5 5 5 5 5 5 5 5 5 5 5 5 5 5 5 5 5 3 5 3 5 5 5 5 5 3 5 5 5 5 5 5 5 5 3 5 5 5 3 5 5 3 5 5 5 5 3 5 5 3 5 5 5 5 5 3 5 3 5 5 5 5 5 5 5 5 5 5 5 5 5 5 5 5 5 5 3 5 5 5 5 5 3 3 5 5 5 5 5 5 5 5 5 5 3 5 5 5 5 5 5 5 5 5 3 5 5 3 3 5 5 5 3 5 5 3 5 5 5 5 5 5 5 5 5 5 5 5 5 5 5 3 5 5 5 5 5 5 5 5 3 5 5 3 5 5 5 5 3 5 5 5 5 5 5 5 5 5 5 5 5 5 5 3 3 5 5 3 3 5 3 5 3 5 3 5 5 3 5 5 5 5 5 5 5 5 5 3 3 5 5 3 5 5 5 5 5 3 5 5 3 5 5 5 5 3 5 5 5 3 5 5 5 3 5 3 5 5 3 5 5 5 5 5 5 5 5 5 5 5 3 5 5 5 5 5 5 3 5 5 5 3 5 5 5 5 5 5 5 3 5 5 5 5 5 3 5 3 5 5 5 5 5 3 3 5 5 5 3 3 5 3 5 5 5 5 5 5 5 3 5 5 5 5 5 5 5 5 5 5 5 5 5 5 3 5 5 3 5 3 5 5 5 5 5 5 5 5 5 5 5 5 5 5 3 5 5 5 5 5 5 5 5 5 5 5 5 5 5 5 5 3 5 5 5 5 5 5 5 5 5 5 5 3 3 5 5 5 5 5 5 5 5 5 5 5 5 5 5 5 5 3 5 5 5 5 5 5 5 3 5 5 5 5 5 5 5 5 3 5 5 5 3 5 5 5 5 5 5 5 5 5 5 5 5 5 5 5 5 5 5 5 5 5 5 5 5 5 5 5 5 3 5 3 5 5 5 5 5 5 5 5 5 5 5 5 5 3 5 5 5 3 5 5 5 5 5 5 5 5 5 5 5 5 5 3 3 5 5 5 5 5 5 5 3 5 5 5 5 5 5 5 5 5 5 5 3 5 5 5 5 5 5 5 3 5 5 5 5 5 5 5 5 5 5 5 5 5 5 5 5 5 3 5 5 5 5 5 5 5 5 5 5 3 5 5 5 5 5 3 5 5 5 3 5 5 5 5 3 5 5 5 5 5 5 5 3 5 3 5 5 3 5 3 5 5 5 5 5 5 5 5 5 5 5 5 5 5 5 5 5 5 5 5 5 5 5 5 5 5 5 5 5 5 5 5 5 5 5 3 5 3 3 5 5 5 5 5 5 5 5 5 5 5 3 5 5 5 5 5 5 5 3 5 3 5 3 5 5 5 5 5 5 3 5 3 3 5 5 5 5 5 5 5 5 5 5 5 5 5 5 5 5 5 3 5 5 5 5 5 5 5 5 5 5 5 5 5 5 3 5 5 5 5 5 5 5 5 5 5 5 5 5 3 5 5 5 5 5 5 5 5 5 3 5 5 5 5 5 3 3 5 5 5 5 3 3 5 5 5 5 5 5 5 5 5 5 5 3 5 5 5 5 3 5 5 5 5 5 5 3 5 5 3 5 3 5 5 5 3 5 5 5 5 5 5 5 3 5 5 5 5 3 3 5 5 3 5 5 5 3 3 3 3 5 5 3 5 5 5 5 5 5 5 5 3 3 5 5 5 5 5 5 3 5 3 5 5 5 3 5 5 5 5 5 5 5 5 5 5 5 5 5 5 5 5 5 5 5 5 5 5 5 5 5 5 5 5 3 5 5 5 5 5 5 5 5 5 5 5 5 5 5 5 5 5 5 5 5 5 3 5 5 5 5 5 5 5 5 5 3 5 5 5 5 5 5 3 5 5 5 5 5 3 5 5 5 5 5 3 5 5 5 5 5 5 5 5 5 5 3 5 5 5 5 3 3 5 5 3 5 5 5 5 3 5 5 3 5 5 5 5 5 3 3 5 5 5 5 5 5 3 5 5 5 5 5 5 5 3 3 5 5 5 3 5 5 5 3 5 5 3 5 3 5 5 5 3 5 5 3 3 5 5 5 5 5 5 3 5 3 5 3 5 5 5 3 3 5 3 5 5 5 5 5 5 5 5 5 5 5 5 5 5 5 5 3 5 5 5 5 5 5 5 3 5 5 5 5 5 3 5 5 5 3 5 5 5 5 3 5 3 5 3 5 5 5 5 3 5 5 3 5 5 5 5 5 5 5 5 5 5 5 3 5 5 5 5 3 5 5 5 5 3 5 5 5 5 5 5 3 5 5 5 3 5 3 3 5 5 5 5 5 5 5 5 5 5 5 5 5 5 5 5 5 5 5 5 5 5 5 5 5 5 5 5 3 5 5 3 3 5 3 5 5 5 5 3 5 5 3 5 5 5 5 5 5 5 5 5 5 5 5 5 5 5 5 5 5 5 5 5 5 5 5 5 5 5 5 3 5 5 5 5 5 5 5 5 3 5 5 5 5 5 5 5 3 5 3 5 5 5 3 5 5 5 5 5 5 5 3 5 3 5 5 5 5 5 3 5 5 5 5 5 5 5 5 5 5 5 5 5 5 5 5 5 5 5 5 5 5 5 5 5 5 5 5 5 5 5 5 5 5 5 5 5 5 5 3 3 5 5 3 5 5 5 3 5 5 5 3 3 5 5 3 5 5 5 5 5 5 5 5 5 5 5 5 5 5 5 5 5 5 5 5 5 3 5 3 5 5 5 5 5 5 5 5 5 5 5 5 5 5 5 5 5 5 5 5 5 5 5 5 5 5 5 5 5 5 5 5 5 5 5 5 5 5 5 5 5 5 5 5 5 3 5 3 5 3 5 5 3 5 5 5 5 5 5 5 5 5 5 5 5 5 5 5 5 5 5 5 5 5 5 5 5 5 5 5 3 5 5 5 5 5 5 5 5 5 5 5 5 5 5 5 5 5 5 5 5 5 5 5 5 5 5 5 5 5 5 5 5 5 5 5 5 5 5 5 5 5 5 5 5 5 5 5 5 5 3 5 5 5 5 3 5 5 5 5 5 5 5 5 3 5 5 5 5 5 3 3 3 5 5 5 5 3 3 5 5 3 5 5 5 5 5 5 5 5 5 5 5 5 5 5 3 3 5 3 5 5 5 5 5 5 5 5 5 5 5 5 5 5 5 5 5 5 3 5 5 5 5 5 5 3 5 5 5 5 5 5 5 5 5 5 5 5 5 5 5 5 5 5 3 5 5 5 5 5 5 5 5 5 3 5 5 3 5 5 5 5 5 5 5 5 5 5 5 5 5 5 5 5 3 5 3 5 5 5 5 3 5 3 5 5 3 3 5 5 3 5 5 5 3 5 5 5 5 5 5 3 5 5 5 3 5 5 5 5 3 5 5 5 5 5 5 5 3 5 5 5 5 5 3 5 5 3 5 5 5 5 5 5 5 3 5 5 5 3 3 5 5 5 3 5 5 5 5 5 3 3 3 5 5 5 5 5 5 5 5 5 3 3 5 3 5 5 5 5 5 3 5 5 3 5 3 5 5 5 3 5 5 3 5 5 5 5 5 5 5 3 5 5 3 3 5 5 3 5 3 5 5 3 5 5 3 5 3 5 5 5 3 5 5 3 5 3 5 5 3 5 3 5 5 5 5 3 3 5 5 5 5 5 5 5 5 5 3 5 5 5 5 5 5 5 5 5 5 5 5 5 5 5 5 5 5 3 3 5 5 5 3 5 5 5 5 3 5 5 3 5 5 5 3 5 5 3 5 5 5 5 3 5 5 5 5 5 3 5 5 5 3 3 5 5 3 5 5 5 5 5 3 3 5 5 5 5 3 5 5 5 5 3 5 5 5 5 5 5 5 5 5 5 5 5 5 5 5 5 5 5 5 5 5 5 5 5 5 5 5 5 3 5 5 5 5 5 5 5 5 5 5 5 3 5 5 5 5 3 5 5 5 3 5 5 3 5 5 5 5 5 3 5 5 5 5 5 5 5 5 5 5 5 5 5 5 5 5 5 5 5 5 3 5 5 5 5 5 3 5 5 5 5 5 5 5 3 5 5 5 5 5 5 5 5 5 5 5 5 5 3 5 5 5 5 5 3 3 5 5 5 5 3 5 3 5 5 5 3 3 5 5 3 5 5 5 3 5 5 5 5 3 5 5 3 3 5 5 5 5 5 5 3 5 5 3 5 5 5 5 3 5 5 5 5 5 5 5 5 5 5 5 5 5 5 5 5 5 5 5 3 5 3 5 5 5 3 5 3 5 3 5 5 3 5 5 3 3 3 5 5 5 3 5 5 5 5 5 5 3 5 5 5 5 5 5 5 3 5 3 5 5 5 5 5 5 5 3 5 5 5 5 5 5 5 5 5 5 5 3 5 5 3 5 5 5 5 5 5 5 5 5 5 5 5 5 5 5 5 3 5 5 5 5 5 5 5 5 5 5 5 5 5 5 5 5 5 5 5 5 5 3 5 5 5 3 5 5 5 5 5 5 5 5 5 5 3 5 5 5 5 5 5 5 5 5 5 3 5 5 5 5 5 5 3 5 5 5 3 5 5 5 5 5 5 5 5 5 5 5 5 5 5 5 5 5 5 5 5 5 3 5 5 5 5 5 3 5 5 3 5 5 5 5 5 5 3 5 5 5 5 3 5 5 5 5 5 5 5 5 5 5 5 5 5 5 5 5 5 5 3 5 5 5 5 5 3 5 5 5 3 5 3 5 5 5 5 5 5 5 3 5 5 5 3 3 5 5 5 5 5 3 5 5 5 3 5 5 5 5 5 5 5 5 5 5 5 5 5 5 5 3 5 5 5 5 5 5 3 5 5 5 5 5 5 5 5 5 5 5 3 5 5 5 5 5 5 5 5 5 3 5 5 5 5 3 3 5 5 5 5 5 5 5 5 3 3 5 3 5 5 5 5 5 3 5 5 5 5 5 5 3 5 3 5 5 5 5 5 5 5 5 5 5 3 5 5 5 5 5 5 3 5 5 5 5 5 5 5 5 3 5 5 5 5 5 3 5 5 3 5 5 5 5 5 5 3 5 5 5 5 5 5 5 5 3 5 5 5 5 3 5 5 5 5 5 5 5 5 5 5 3 5 5 5 5 5 5 5 5 5 3 5 5 5 5 3 5 5 5 5 5 5 5 5 3 5 3 5 5 5 3 5 5 5 5 5 5 5 5 3 5 5 5 3 5 5 5 3 5 5 3 5 5 5 5 5 5 5 5 5 5 5 5 5 5 5 5 5 5 5 5 5 5 5 5 5 5 5 5 5 5 5 5 5 5 5 5 5 5 5 5 5 5 5 5 5 5 5 5 5 5 5 5 5 3 5 5 5 3 5 5 5 5 5 5 3 5 3 5 5 5 5 3 3 5 5 5 5 5 5 5 5 5 5 5 5 5 5 5 5 5 5 5 5 5 5 3 5 5 3 5 5 5 3 5 5 5 5 5 5 5 5 5 5 5 5 5 5 3 5 3 5 3 5 5 5 5 5 5 5 5 5 5 5 5 5 5 5 5 5 3 5 5 5 5 5 5 5 5 5 5 5 5 5 5 5 5 5 5 5 5 5 5 5 5 5 5 5 5 5 5 5 5 5 3 5 5 5 5 5 5 3 5 5 3 5 3 5 5 3 5 5 5 3 5 5 5 5 5 5 5 5 5 5 5 5 5 5 5 5 5 5 5 5 5 5 5 5 5 3 5 5 5 5 3 5 5 3 5 5 5 5 5 5 5 5 5 5 5 5 5 5 5 5 5 5 5 5 5 5 5 5 5 5 5 5 5 5 3 5 5 5 3 5 5 5 5 3 5 5 5 5 5 3 5 5 5 5 3 5 5 5 5 5 5 5 5 5 5 5 5 5 5 3 3 5 3 5 3 5 5 5 5 5 5 5 5 5 5 5 5 5 5 5 5 5 5 5 5 5 5 5 5 5 3 3 5 5 3 5 5 3 5 5 5 5 5 5 5 5 5 5 5 3 5 5 3 5 5 5 5 5 5 5 5 5 5 5 5 5 5 3 3 5 3 3 5 5 5 5 3 5 5 5 3 3 5 5 5 5 5 5 5 3 5 5 5 5 5 5 5 5 5 5 5 5 5 5 5 5 3 5 5 5 5 3 5 5 5 5 5 5 5 3 5 5 5 5 5 5 5 3 5 5 3 5 5 5 5 5 5 5 5 5 5 5 5 5 5 5 3 5 5 5 5 5 5 5 5 3 5 5 5 5 5 5 5 3 5 5 5 5 5 3 5 5 5 5 3 5 5 5 5 5 5 5 5 5 5 5 5 3 5 5 5 5 5 5 5 5 5 5 5 5 5 5 3 5 5 5 5 5 5 5 5 5 5 5 5 5 3 3 5 5 3 5 5 5 5 3 5 5 5 3 5 5 3 5 5 5 5 3 5 5 5 5 5 5 5 5 5 5 5 5 5 5 5 5 5 5 5 5 5 5 5 5 5 5 5 5 5 5 5 5 5 5 3 5 5 5 3 5 3 5 5 5 5 5 5 5 5 5 5 5 5 5 5 3 5 5 5 5 5 5 5 5 3 5 5 5 3 5 5 5 5 5 5 5 3 5 3 5 5 5 5 5 5 5 5 5 5 5 5 5 5 3 5 5 3 5 5 5 5 5 5 5 3 5 5 5 5 5 5 5 5 5 5 5 5 5 5 5 5 5 5 5 5 5 5 5 5 5 5 5 3 5 5 3 5 5 5 3 5 5 3 5 5 5 5 5 5 5 5 5 5 5 5 5 5 5 5 5 5 5 3 5 5 5 5 5 5 5 5 5 5 5 5 5 3 5 5 5 5 5 5 5 5 5 5 5 5 5 5 5 5 5 5 5 3 5 5 5 5 5 5 5 5 5 5 5 5 5 5 5 5 3 5 5 3 5 5 5 3 5 5 3 5 5 5 5 5 5 5 5 5 5 5 5 5 5 3 5 5 3 5 5 5 5 5 5 5 5 5 5 5 5 5 5 5 5 5 5 5 5 5 5 5 5 5 5 5 5 5 5 5 5 5 5 5 5 3 5 5 5 5 3 5 5 5 5 5 5 5 5 5 5 5 5 5 5 5 3 5 3 3 5 5 3 5 3 5 5 5 5 5 5 5 5 3 5 5 3 5 5 5 5 3 3 5 3 5 5 5 5 5 5 5 5 5 5 5 5 5 5 5 5 5 5 5 5 5 3 5 5 5 5 5 5 5 5 5 5 5 5 5 5 5 5 5 5 5 5 5 5 5 5 5 3 5 5 5 5 5 3 5 5 5 5 5 5 5 5 5 3 5 5 5 5 5 5 5 5 5 5 5 5 5 5 5 5 5 3 3 5 5 3 5 5 5 3 5 5 5 5 5 5 5 5 5 5 3 5 5 3 5 3 5 5 5 5 3 5 5 5 3 5 5 5 5 5 5 3 5 5 5 5 5 5 3 5 5 5 5 5 5 5 5 5 5 5 5 5 5 3 5 5 3 5 5 5 3 3 5 5 5 5 5 5 5 5 5 5 3 5 5 5 3 5 5 5 5 3 5 5 5 5 5 5 5 5 3 5 5 5 5 5 3 3 5 5 5 3 5 3 3 5 5 5 5 5 3 5 5 5 5 5 5 3 5 5 5 5 5 5 5 3 5 5 3 5 5 3 5 5 5 5 5 5 5 5 5 5 5 5 5 5 3 5 5 5 3 5 5 3 5 5 5 5 3 5 5 5 5 5 5 5 5 3 5 5 5 5 3 5 5 5 5 5 5 5 5 3 5 5 5 5 5 5 5 5 5 3 5 5 5 3 5 5 3 5 5 3 5 5 5 5 5 5 5 5 5 3 5 5 5 5 5 5 5 5 5 5 5 5 5 5 5 5 3 5 5 5 5 5 5 5 5 5 5 5 5 5 5 5 5 5 5 5 5 5 5 5 5 5 5 3 5 3 5 5 5 5 5 5 5 5 5 5 3 5 5 3 5 5 5 5 5 5 5 5 5 5 5 5 5 5 5 5 5 5 5 5 5 3 5 5 5 5 5 5 5 5 5 3 5 3 5 5 5 5 5 5 5 3 5 3 5 5 5 5 5 5 5 5 5 5 5 3 5 5 5 5 3 5 3 5 5 5 5 5 5 3 5 5 3 5 5 3 5 5 5 3 3 3 5 5 5 5 5 5 5 5 5 5 5 5 5 3 5 5 5 5 5 5 5 3 5 3 5 3 5 5 3 3 5 5 5 5 5 5 3 5 5 5 5 3 5 3 5 3 5 3 5 5 5 5 3 5 5 5 5 5 3 5 5 5 5 5 5 5 5 5 5 5 5 5 5 3 5 5 5 5 5 3 5 5 5 3 5 5 5 5 5 5 5 5 5 5 5 5 5 5 5 5 5 3 5 5 5 5 3 5 5 5 5 5 5 3 5 5 5 5 5 5 5 5 5 5 3 5 5 3 5 3 5 5 5 5 5 5 5 5 5 5 5 3 5 5 5 5 5 5 3 5 3 3 5 3 5 5 5 5 5 5 5 3 5 5 5 5 5 5 5 5 5 5 5 5 5 5 5 5 3 5 5 5 5 5 5 5 5 5 5 3 5 5 5 5 5 5 5 5 5 5 3 5 5 5 5 3 5 5 5 5 5 3 5 5 5 5 3 5 5 5 5 5 5 5 5 5 5 5 5 5 5 5 5 5 5 3 5 5 5 5 5 5 5 5 3 5 3 3 5 5 5 5 5 3 5 5 5 5 5 5 5 5 5 5 5 5 5 5 3 5 5 3 5 3 3 5 5 5 5 5 5 3 5 5 5 5 3 5 3 5 5 3 5 5 5 5 5 5 3 3 5 5 5 5 5 5 5 5 5 5 5 5 5 5 5 3 5 5 5 5 5 5 5 3 5 3 5 5 5 3 5 3 5 5 5 5 5 5 5 5 3 5 5 5 5 5 3 5 3 5 5 5 5 3 5 5 5 5 5 3 5 5 5 5 5 5 5 5 5 5 5 5 5 5 5 5 5 5 5 5 5 5 5 5 3 5 5 5 3 5 3 5 5 5 3 5 5 5 5 5 5 5 5 5 5 5 5 5 5 5 5 5 3 3 3 3 5 5 5 5 5 5 3 5 5 5 3 5 5 5 5 5 5 5 5 5 5 3 3 3 5 5 3 3 5 5 5 5 5 5 5 5 5 3 5 5 5 5 5 5 5 5 3 3 5 5 5 3 5 5 5 5 5 5 5 5 5 5 5 3 5 3 5 5 5 5 5 3 3 5 5 3 3 5 5 5 5 5 5 5 5 5 5 5 5 5 5 5 5 5 5 5 5 5 5 5 5 5 5 5 5 5 5 5 5 5 5 5 5 5 5 5 5 5 5 3 3 5 5 5 5 5 5 5 5 5 5 5 5 5 5 5 5 5 5 5 5 3 5 5 5 5 5 5 5 5 5 5 5 5 5 5 5 5 3 5 3 5 5 5 5 5 5 5 5 3 5 5 5 5 5 5 5 5 5 5 5 3 5 5 3 5 5 3 5 5 5 5 3 5 5 5 5 3 5 5 3 5 3 5 5 5 5 5 3 5 5 5 5 5 5 5 3 5 5 5 5 5 5 5 5 5 5 5 5 5 5 5 5 5 5 5 5 5 5 5 5 3 5 5 5 3 5 5 3 5 5 5 3 5 5 5 5 3 5 3 5 5 5 5 5 5 5 5 3 5 5 5 5 5 5 5 5 5 5 3 5 5 3 5 5 3 5 5 3 3 5 5 5 5 5 5 5 3 3 5 5 5 3 5 5 3 3 5 5 5 3 3 5 3 5 5 3 5 5 5 5 3 5 3 3 5 5 5 3 5 3 3 5 3 3 3 3 5 3 5 3 5 3 5 5 5 3 5 5 3 5 3 3 5 5 5 5 3 5 3 3 5 5 5 3 3 5 5 3 3 5 5 5 5 3 5 5 5 5 3 5 5 5 5 3 5 3 5 3 5 3 5 3 5 3 5 5 5 5 5 3 5 5 3 3 3 5 5 3 3 5 3 5 5 3 5 5 5 5 5 5 3 5 5 3 5 3 5 5 5 5 3 5 3 5 3 5 5 5 3 5 5 3 5 3 5 3 5 5 5 5 5 3 5 5 5 5 5 5 5 5 5 5 3 5 5 5 5 3 5 5 3 5 5 5 5 5 3 5 5 3 5 5 5 3 5 3 5 5 5 3 5 5 5 5 3 5 5 5 5 3 3 5 5 5 5 5 5 3 5 5 3 5 5 5 5 5 5 5 5 5 5 5 5 5 5 5 5 5 5 5 5 5 5 5 5 5 5 5 5 5 5 5 5 5 5 5 5 5 5 5 5 5 5 5 5 5 5 5 5 5 5 5 5 5 5 5 5 5 5 3 5 5 5 5 5 5 5 5 5 5 5 5 3 5 5 3 5 5 5 3 5 5 5 5 5 5 5 5 5 5 5 5 5 5 5 3 5 5 5 5 5 5 5 5 5 5 5 5 5 5 5 5 3 5 5 5 5 5 5 5 5 5 5 5 5 5 3 5 5 3 5 5 3 5 3 5 5 5 5 5 5 5 3 5 5 5 5 5 5 5 5 5 5 5 5 3 5 5 5 3 5 5 5 5 5 5 5 5 5 3 5 5 5 5 5 5 3 5 5 5 5 5 5 3 5 5 5 3 5 5 5 5 5 5 5 3 5 5 5 5 5 5 5 5 5 5 3 5 5 5 5 5 5 5 5 5 5 5 5 5 5 5 5 3 5 3 5 5 5 5 5 5 5 5 5 5 3 5 3 5 5 5 5 5 5 5 5 5 5 5 3 5 5 5 5 5 5 5 5 5 5 5 3 5 5 5 5 5 5 5 3 5 5 5 5 5 5 5 3 5 5 5 5 5 5 5 5 5 5 5 3 5 5 5 5 5 5 5 5 3 5 3 5 5 5 5 5 5 5 5 5 5 3 5 5 5 3 5 5 5 5 5 5 5 5 5 3 5 5 5 5 5 5 5 5 5 5 5 5 5 5 5 5 3 5 5 5 5 5 5 5 5 5 5 5 5 5 5 5 5 5 5 3 5 5 3 5 5 3 5 5 5 5 5 3 5 5 5 5 5 5 5 5 5 5 5 5 5 5 5 5 5 5 5 5 5 5 5 5 5 5 5 5 5 5 5 5 5 5 5 5 5 5 5 5 5 5 5 5 5 5 5 5 5 5 5 5 5 5 5 5 5 5 5 3 5 5 3 5 5 5 5 5 5 5 5 5 5 5 5 5 5 5 5 5 5 5 5 5 5 5 5 3 3 5 5 5 5 5 5 5 5 5 5 5 5 5 5 5 5 3 3 5 5 5 5 5 5 5 3 5 3 5 5 3 3 5 5 5 5 5 5 5 5 5 5 5 3 5 3 5 5 5 3 5 5 5 3 5 3 5 5 5 5 5 3 3 5 5 5 5 5 5 5 5 5 5 5 5 5 5 5 5 5 5 5 5 5 5 5 5 5 5 5 5 5 5 5 5 5 5 5 5 5 5 5 5 5 5 5 5 5 5 5 5 5 5 5 5 5 5 5 5 5 5 5 5 5 5 5 5 5 5 5 5 5 5 5 5 5 5 5 5 5 5 5 5 5 5 5 5 5 5 5 5 5 5 5 5 5 5 5 5 5 5 5 5 5 5 5 5 3 3 5 3 5 3 5 5 3 5 5 5 5 3 5 5 5 5 5 5 5 3 3 3 5 5 5 5 5 3 3 5 5 5 5 5 5 5 5 5 5 5 5 5 5 5 5 5 5 5 5 5 5 5 5 5 5 5 5 5 5 5 5 5 5 3 5 5 3 5 5 5 5 5 5 5 5 5 5 5 3 5 5 5 5 5 5 5 3 5 5 5 5 5 5 5 5 5 5 5 5 5 5 5 5 3 5 5 3 5 5 5 5 5 5 5 5 5 5 5 5 5 5 5 5 5 5 5 5 5 5 5 3 5 5 3 5 5 3 5 5 5 5 5 5 5 3 5 5 5 5 5 5 3 5 5 3 5 5 5 5 3 5 3 5 5 3 5 5 5 5 3 5 3 5 5 3 5 5 5 5 5 5 5 5 5 5 5 5 3 5 5 5 3 5 5 3 5 5 5 5 3 5 5 5 5 5 5 5 5 5 5 3 5 5 5 5 5 5 5 5 5 5 3 5 5 5 5 5 5 5 5 5 5 5 5 3 5 5 3 5 5 5 5 5 5 5 5 5 5 3 5 5 5 5 5 3 5 3 3 5 5 3 5 5 5 5 5 5 5 5 5 3 3 5 5 5 5 5 5 3 5 5 5 5 5 5 5 5 5 5 5 5 5 5 5 5 5 5 5 5 5 5 5 5 5 3 5 5 5 5 5 5 5 5 5 5 5 5 5 5 5 5 5 5 5 5 5 5 5 5 5 5 5 5 5 5 5 5 5 5 5 5 5 5 5 5 3 5 5 5 5 5 5 5 5 5 5 3 5 5 5 3 5 3 5 5 5 3 5 5 5 3 5 3 5 3 5 3 3 5 5 3 5 5 5 3 5 5 5 5 5 3 5 5 5 5 3 5 5 5 3 5 5 5 5 3 5 3 5 5 5 5 5 5 5 5 5 5 5 5 5 5 3 5 5 5 5 3 5 5 3 5 5 3 3 5 5 3 5 3 5 5 5 3 3 3 3 5 5 3 5 5 5 5 3 5 3 5 5 3 3 3 5 3 5 5 3 3 3 5 5 5 5 5 5 5 5 5 3 3 5 5 5 5 3 3 5 5 5 3 5 3 5 5 5 5 5 5 5 5 5 5 5 3 5 5 5 5 5 5 5 5 5 5 5 5 5 5 5 5 5 5 5 5 5 5 5 3 5 5 5 5 5 5 5 5 5 5 5 5 5 5 5 5 3 5 5 3 5 5 5 5 5 5 5 5 5 3 5 5 5 3 3 5 5 3 5 5 5 5 5 3 5 3 5 5 5 3 5 5 5 5 5 5 5 3 5 5 3 5 5 5 5 3 5 5 5 3 3 5 5 3 5 5 5 3 5 5 5 5 5 5 5 3 5 5 3 5 3 3 3 5 3 5 3 3 5 5 5 5 5 5 3 5 5 3 5 5 5 5 5 5 5 5 5 5 5 5 5 5 5 5 5 5 5 5 5 5 5 5 5 5 5 5 5 5 5 5 5 5 5 3 3 5 5 5 5 5 5 5 5 3 3 3 3 5 5 3 5 5 5 5 5 5 5 5 3 5 5 3 5 5 5 3 5 5 5 5 3 5 5 5 5 5 5 5 5 5 5 5 5 5 5 3 5 5 5 5 5 3 5 5 5 5 5 5 5 5 3 5 5 5 3 3 5 5 3 3 5 5 5 5 5 3 5 5 5 5 5 5 3 5 3 5 5 5 5 5 5 5 5 3 3 5 3 3 3 5 3 5 5 5 5 5 5 3 5 5 5 5 5 5 5 3 5 5 5 5 5 5 5 5 5 5 5 5 5 5 5 5 5 5 5 5 5 5 5 5 5 5 5 5 5 5 5 5 5 5 5 5 5 5 5 5 5 5 5 5 5 5 5 5 5 5 5 5 5 5 5 5 5 3 5 5 5 5 5 5 5 3 5 5 3 5 5 5 3 5 3 5 5 3 5 5 5 5 5 5 5 3 5 5 5 3 5 5 5 5 5 5 5 3 5 3 5 5 5 5 5 5 5 5 5 5 5 5 5 5 5 5 5 5 5 5 5 5 5 5 5 3 3 5 3 5 5 5 5 5 5 5 3 5 3 5 3 3 3 5 5 3 5 5 3 5 5 5 3 5 5 5 5 5 5 5 3 3 5 5 3 5 5 5 3 5 5 5 5 3 5 3 5 5 5 5 5 5 3 5 3 5 5 5 5 5 3 5 5 3 5 5 5 5 5 5 5 5 5 5 5 5 5 5 5 5 3 5 5 3 3 5 3 5 5 5 5 5 5 5 5 3 5 5 5 5 5 5 5 5 5 5 5 5 5 5 5 5 3 5 5 5 3 5 5 3 5 5 5 5 5 5 3 5 5 5 5 5 5 5 5 5 5 5 5 5 5 5 5 5 5 5 3 3 5 5 5 5 5 5 5 3 5 5 5 3 5 5 3 5 3 5 5 3 5 3 3 5 3 5 3 5 3 5 5 5 5 5 5 5 5 5 5 5 5 5 5 5 3 3 5 5 5 5 5 5 5 3 5 5 5 5 5 5 5 5 5 5 5 5 5 5 5 3 5 3 5 5 5 5 5 5 3 5 5 5 3 5 5 5 3 5 5 5 5 5 5 5 5 5 5 5 5 5 5 5 5 5 5 5 5 5 3 5 5 5 5 3 5 5 5 5 5 3 5 5 5 3 5 5 5 5 5 5 5 5 5 5 5 5 3 5 5 5 5 3 5 5 5 5 5 5 5 5 3 5 5 5 5 5 5 5 3 5 5 5 5 3 5 5 5 5 5 5 5 5 3 5 5 5 5 5 5 5 5 5 3 5 5 5 5 5 5 5 5 5 5 5 5 5 5 5 5 5 5 5 5 5 5 5 5 5 5 5 5 3 5 5 5 5 5 5 5 3 5 5 5 5 5 5 5 5 5 5 5 5 5 5 5 5 5 5 5 5 5 5 5 5 5 5 5 5 5 3 5 5 5 5 5 5 5 5 5 5 5 5 5 5 5 5 5 5 5 5 5 5 5 5 5 5 5 5 5 5 5 5 3 5 5 3 5 5 5 5 3 5 5 3 5 5 5 5 3 5 5 5 3 5 5 5 3 5 5 5 5 5 5 5 5 5 5 3 5 5 3 5 5 5 5 5 5 3 5 5 5 5 5 3 5 5 5 5 3 5 5 5 5 5 5 5 5 5 5 3 5 5 5 5 5 5 5 5 5 3 5 5 5 5 5 5 5 5 5 5 5 5 5 3 5 5 5 5 5 5 5 3 5 5 5 5 5 3 5 5 5 5 5 5 5 5 5 5 5 5 5 5 3 5 5 5 5 5 5 5 5 3 5 5 5 5 5 5 5 5 5 5 5 5 5 5 5 5 5 5 5 5 5 5 5 5 5 5 5 5 5 5 5 5 5 3 5 5 5 5 3 3 5 5 3 5 5 3 5 5 3 5 5 5 5 5 5 5 5 5 5 5 5 5 5 5 5 5 5 5 3 5 5 5 5 3 5 5 5 5 5 5 5 5 5 5 5 5 5 5 5 5 5 5 5 5 5 5 5 5 5 5 5 5 5 5 5 5 5 5 5 5 5 5 5 5 5 5 5 5 5 5 5 5 5 5 5 5 5 5 5 5 5 5 5 5 5 5 5 5 5 5 5 5 5 5 5 3 5 5 5 5 3 5 3 5 5 3 5 5 5 5 3 5 5 3 5 5 5 5 5 5 5 5 5 5 5 5 5 5 5 5 5 5 5 5 5 5 5 5 5 5 5 5 5 5 5 5 5 5 5 5 5 5 5 5 5 5 5 5 5 5 5 5 5 5 5 5 5 5 5 5 5 5 5 5 3 5 5 5 5 5 5 5 5 5 3 5 5 5 5 5 5 5 3 5 5 5 5 5 5 5 5 5 5 5 5 5 5 5 5 5 5 5 3 3 5 5 3 5 3 5 5 5 5 5 5 5 5 5 5 5 5 5 5 5 5 5 5 5 5 5 5 5 5 5 5 5 5 5 5 5 5 5 5 5 5 5 5 5 5 5 5 5 5 5 5 5 5 5 5 5 5 5 5 5 3 3 5 5 5 5 5 5 5 5 5 5 5 5 5 5 5 5 5 5 5 5 3 5 5 5 5 5 5 5 5 5 5 3 5 5 5 3 5 5 5 5 5 5 3 5 5 5 5 5 5 5 5 5 5 5 5 5 3 5 5 5 5 5 5 3 3 5 3 5 5 3 5 5 5 3 5 5 5 3 5 5 5 5 5 3 5 3 5 5 5 5 3 5 5 5 5 3 5 3 5 5 3 3 5 5 5 5 5 3 5 5 5 5 5 3 3 3 5 3 5 3 5 5 5 5 5 3 5 5 5 5 5 5 5 5 3 3 5 5 3 5 5 5 5 3 5 5 3 5 5 3 5 5 5 5 5 5 5 5 5 3 5 5 5 5 5 5 5 5 3 5 5 5 5 5 5 5 5 5 3 3 5 5 5 5 5 5 5 5 5 5 5 5 5 5 5 5 5 5 5 5 5 5 5 5 5 5 5 5 5 5 5 5 5 5 5 3 5 5 5 5 3 5 5 5 5 5 5 5 5 5 5 5 5 5 5 5 5 3 3 5 5 5 5 5 5 5 5 5 3 5 5 5 5 3 5 5 3 5 5 5 5 5 5 5 5 5 5 5 5 5 3 5 5 5 5 5 5 5 5 5 5 5 5 5 5 5 5 5 5 5 5 5 5 5 5 5 3 5 5 5 5 5 3 5 5 5 3 5 5 5 3 3 5 5 5 5 5 5 5 5 5 5 5 5 5 5 3 5 5 5 3 5 5 5 5 3 3 5 5 5 5 5 5 5 5 5 5 5 5 5 5 5 5 5 5 5 5 5 5 5 3 5 5 5 5 5 5 5 5 5 3 5 5 5 5 3 5 3 5 5 5 5 3 5 5 5 5 5 5 5 5 5 5 5 5 5 5 5 3 5 5 3 5 5 5 5 5 5 5 5 5 5 3 3 5 5 5 5 3 5 5 5 3 5 5 5 5 3 3 5 3 5 3 5 3 5 5 3 5 5 3 5 5 3 5 5 5 3 5 5 3 5 3 5 3 5 5 3 5 5 5 5 5 5 5 5 5 5 5 5 5 3 5 5 5 5 5 5 5 5 5 5 5 5 5 5 5 5 3 3 5 5 5 5 5 3 5 5 5 5 3 5 5 3 5 5 5 5 3 5 5 5 5 5 5 5 5 5 5 5 5 5 5 5 5 5 5 5 5 5 5 5 5 5 5 5 5 5 5 5 5 5 5 5 5 5 5 3 5 5 5 5 5 5 5 5 5 5 5 5 5 3 5 3 5 5 5 5 3 5 5 5 5 5 5 5 5 5 5 5 5 5 5 5 5 5 5 3 5 3 5 5 3 5 5 5 3 5 5 5 5 5 5 5 5 5 5 5 5 5 5 5 5 5 5 5 5 5 5 5 5 5 5 5 3 5 5 3 5 5 5 5 5 5 5 5 5 5 5 5 5 5 5 5 5 5 5 5 5 5 5 5 5 5 5 5 5 5 5 5 5 5 5 3 5 3 5 5 5 5 5 5 5 5 5 5 5 5 5 5 5 5 5 3 3 5 5 5 5 5 3 5 5 5 5 3 5 5 5 5 3 5 5 5 5 5 5 5 5 5 5 5 5 5 5 5 5 5 5 3 5 5 5 5 5 5 3 5 5 3 5 5 5 5 5 5 5 5 5 5 5 5 3 5 5 3 5 5 5 5 5 5 5 5 3 5 5 5 5 5 5 3 5 5 3 5 5 5 5 5 5 5 5 5 5 5 5 5 5 5 5 5 5 5 5 5 5 5 5 5 5 5 5 5 5 5 5 5 5 5 5 3 5 5 5 3 5 5 3 5 5 5 5 5 5 3 5 5 5 5 5 3 5 5 5 5 5 5 3 5 5 5 5 3 5 3 5 5 3 5 5 5 3 5 5 5 5 5 5 5 5 5 5 5 5 5 3 5 5 5 5 5 5 5 5 5 5 5 5 5 5 5 5 5 5 5 5 5 5 5 5 3 5 3 5 3 5 3 5 5 5 5 3 5 5 5 5 3 5 5 5 5 5 5 5 5 5 5 5 5 5 5 3 5 5 5 3 5 5 5 3 5 5 3 5 5 5 3 5 5 5 5 3 5 5 5 5 3 5 5 5 5 5 5 5 5 5 5 3 5 5 5 5 5 3 5 3 5 5 5 5 5 3 3 5 5 3 5 3 5 5 3 5 5 5 5 5 5 5 5 5 5 5 5 5 3 5 5 5 5 5 3 5 5 5 5 5 5 5 5 5 5 3 5 3 5 5 3 5 5 3 5 3 5 3 5 5 5 5 5 3 3 5 5 5 5 5 5 5 5 5 5 5 3 5 5 5 5 5 3 5 5 5 3 5 3 5 5 5 5 5 5 5 5 5 5 5 5 5 5 5 3 5 5 5 5 3 5 5 5 5 5 5 5 5 5 5 5 5 5 5 5 5 5 5 5 5 5 5 5 3 5 5 3 5 5 5 5 5 5 5 3 5 5 3 5 3 5 5 5 5 5 5 5 5 5 3 5 5 3 5 5 5 3 5 5 5 5 5 5 5 3 5 5 5 5 3 3 5 5 5 5 5 5 5 5 5 3 5 5 5 5 5 5 5 5 5 5 5 5 5 5 5 5 3 5 3 5 5 5 3 5 5 5 5 5 5 5 5 5 5 5 5 5 3 5 5 5 5 5 3 5 5 5 3 3 5 5 5 3 5 5 3 5 5 5 5 3 3 5 5 5 3 5 5 3 5 5 5 5 3 5 3 5 5 5 3 5 5 5 5 5 5 5 5 5 5 5 5 5 5 5 5 5 5 5 5 5 3 5 5 5 5 5 5 5 5 5 3 5 5 5 3 5 3 5 5 5 5 5 5 5 5 5 5 5 3 5 5 5 5 5 3 5 5 5 5 5 3 5 5 5 5 5 5 5 5 5 5 5 5 5 5 5 5 3 5 5 5 5 5 5 5 5 5 3 5 5 5 5 5 5 5 5 5 5 5 5 5 5 5 3 5 5 5 5 5 5 5 5 5 5 5 5 5 5 5 5 5 5 5 5 5 5 5 5 5 5 5 5 5 3 5 5 5 5 3 5 3 3 5 5 5 5 5 5 3 5 3 5 5 5 3 5 5 3 5 5 5 5 5 5 3 5 5 5 5 5 5 5 3 5 5 5 5 3 5 5 5 5 5 5 3 5 5 5 5 5 5 5 5 5 5 5 5 3 5 3 5 5 5 5 5 5 5 3 3 5 5 5 5 5 5 5 5 3 5 5 5 3 5 5 3 5 5 5 5 5 5 5 5 5 5 5 5 5 5 5 5 5 5 5 5 5 5 5 5 5 3 5 5 3 5 5 5 5 5 3 5 5 3 5 3 5 5 5 3 5 5 5 5 3 5 5 3 3 5 5 5 5 5 3 5 5 3 5 5 5 5 5 3 5 5 5 5 5 5 5 5 5 3 5 5 5 5 3 5 5 5 5 5 5 3 5 3 5 5 5 3 5 3 5 5 3 5 3 5 5 5 3 5 5 5 5 5 5 5 5 5 5 5 5 5 3 5 5 5 5 3 5 5 5 5 5 5 3 5 5 5 5 5 5 5 3 5 5 5 5 5 5 3 5 5 5 5 5 5 5 3 5 5 3 5 5 5 5 5 5 5 5 5 3 3 5 5 5 5 5 5 5 5 5 5 5 5 3 5 5 5 5 5 5 5 3 5 5 5 3 5 3 5 5 3 5 5 5 5 5 3 5 5 5 3 5 5 5 5 3 5 5 5 3 5 5 5 5 5 5 5 3 5 5 3 5 5 5 3 5 5 5 3 5 5 5 5 3 5 5 5 3 5 5 5 5 5 5 5 5 5 3 5 5 5 5 5 5 5 5 5 3 5 5 5 5 3 5 5 3 5 5 5 5 5 5 5 5 5 5 5 5 5 5 5 5 5 5 5 5 5 5 5 5 5 5 3 5 5 5 5 5 5 5 5 5 5 5 3 5 5 5 3 5 5 5 5 5 5 3 5 5 5 5 5 5 5 5 5 5 5 5 5 5 5 5 5 5 5 5 5 5 5 5 5 5 3 5 3 5 5 3 3 5 5 5 5 5 5 5 5 5 5 5 5 5 5 5 5 5 3 5 5 5 5 5 5 5 5 5 5 5 5 5 5 5 5 5 5 5 5 5 5 5 5 5 5 5 5 5 5 5 5 5 5 5 5 5 5 5 5 5 5 5 5 5 5 5 5 5 5 5 5 5 5 5 5 5 5 5 5 5 3 5 5 3 5 5 5 5 3 5 5 5 5 5 5 5 5 5 5 3 5 3 5 5 5 3 5 5 5 3 5 3 5 5 5 3 5 3 5 3 5 5 5 3 5 5 5 5 3 5 3 5 5 5 5 5 3 5 3 3 5 5 5 5 5 5 3 5 5 5 3 5 5 5 5 5 5 5 5 5 5 5 5 5 5 5 5 5 5 5 3 5 5 5 3 3 5 5 5 5 5 3 5 5 5 5 5 5 5 5 5 5 5 5 5 5 3 5 5 3 5 3 5 5 5 3 5 3 5 5 3 5 5 5 5 5 5 5 5 5 5 5 3 5 5 5 5 5 5 5 5 5 5 3 3 5 5 5 5 5 5 5 3 5 5 5 5 5 5 5 5 5 5 5 5 5 5 3 5 5 5 5 5 5 5 5 5 5 3 5 5 5 3 5 3 3 5 5 5 5 5 5 5 5 3 5 5 5 5 5 5 5 5 5 3 5 3 5 3 5 5 5 5 5 5 5 5 3 5 3 5 5 5 5 5 5 3 5 5 3 5 3 5 5 5 5 5 5 5 5 5 5 5 5 5 5 3 5 5 5 5 5 5 5 5 5 5 3 5 5 5 5 5 5 3 5 5 5 5 5 5 5 5 5 5 5 5 5 5 5 5 5 5 5 5 5 5 5 5 5 3 5 5 5 5 5 3 5 5 5 5 5 5 5 5 5 5 5 3 5 5 5 5 3 5 5 5 5 5 3 5 5 5 5 5 3 5 5 3 5 5 5 5 5 5 5 5 5 5 5 5 5 5 5 5 5 5 5 5 5 5 5 5 5 5 3 5 5 3 5 5 5 5 5 5 5 5 5 5 5 5 5 5 5 3 5 5 5 5 5 5 5 5 5 3 5 5 5 5 5 5 5 3 5 5 5 5 5 3 5 5 5 5 5 5 3 5 5 5 5 3 5 5 5 5 5 5 5 3 5 5 3 5 5 3 5 5 5 5 3 5 5 5 5 5 5 5 5 3 5 5 3 5 5 5 5 5 5 5 5 5 3 5 5 5 5 5 3 5 5 5 5 3 5 5 5 3 5 5 5 5 5 5 5 5 5 5 5 3 3 5 5 5 5 5 5 5 5 5 5 5 3 5 5 5 5 5 3 5 3 3 5 3 3 5 5 3 5 5 5 5 5 5 3 5 3 3 5 5 5 5 5 3 5 5 5 5 5 5 5 5 3 5 5 5 5 3 5 5 5 5 5 3 5 5 3 5 5 5 5 5 5 5 3 5 3 5 5 5 5 5 5 5 3 3 5 5 5 5 5 5 5 3 5 5 5 5 5 5 3 5 5 5 5 5 5 5 5 5 5 5 5 5 5 3 5 5 3 5 5 5 5 3 5 5 5 5 3 5 5 5 5 5 5 3 5 5 5 5 5 5 5 3 5 5 5 3 5 5 5 5 3 5 5 3 5 5 5 5 5 5 5 3 5 5 5 5 3 5 3 5 5 5 5 5 5 5 5 5 5 5 5 5 5 3 5 5 5 5 5 5 5 3 5 5 3 5 5 3 5 5 5 5 5 5 5 5 5 3 5 5 5 3 5 5 5 5 5 5 5 5 5 3 5 5 5 5 5 5 5 5 5 5 5 3 5 5 5 3 5 5 5 5 5 5 5 5 5 5 5 3 5 5 5 5 5 5 5 5 5 5 3 5 5 5 5 5 3 5 5 5 5 5 5 5 5 3 5 5 3 5 5 3 5 5 5 5 3 3 5 5 5 5 3 5 5 5 5 3 5 5 3 5 5 5 5 3 5 5 3 5 5 5 5 5 3 5 5 5 5 5 5 5 5 3 5 3 5 5 5 5 5 5 5 5 5 3 3 5 5 5 5 5 5 3 5 5 3 5 5 3 5 3 5 5 5 3 5 5 3 5 5 5 5 5 5 5 5 3 3 5 5 3 3 5 5 5 5 3 5 5 5 3 5 3 5 3 3 3 5 3 5 5 5 3 5 5 5 5 5 5 5 5 5 3 5 5 3 5 5 5 5 5 5 3 5 5 5 5 5 5 3 3 3 5 5 5 5 5 5 5 5 5 5 5 3 5 5 5 5 3 5 5 5 5 5 5 5 5 3 5 5 3 5 5 5 3 5 5 5 5 5 5 5 5 5 3 5 5 5 5 5 5 5 5 3 5 5 5 3 5 5 3 5 5 5 3 5 3 5 5 3 5 3 5 5 3 5 5 5 5 5 5 3 5 5 3 5 5 5 5 5 5 5 5 5 5 5 5 5 5 5 5 5 5 5 5 5 5 5 5 5 5 5 5 5 5 5 5 5 5 5 5 5 5 5 5 5 5 5 5 5 5 5 5 5 5 5 5 5 5 5 5 5 5 5 5 5 5 5 5 5 5 5 5 5 5 5 5 5 5 5 5 5 5 5 5 5 5 5 5 5 5 5 5 5 5 5 5 5 5 5 5 3 5 5 5 5 3 5 5 5 5 5 5 5 5 5 5 5 5 3 3 5 5 5 5 5 5 5 5 5 5 5 5 5 5 5 3 5 5 5 3 5 5 5 5 5 5 5 5 5 5 3 5 3 5 5 5 5 5 5 5 5 5 5 5 5 5 5 5 5 5 5 5 5 5 5 5 5 3 5 5 5 5 3 5 5 5 5 5 5 5 5 3 5 5 5 5 5 5 5 5 5 5 5 5 5 5 5 5 5 5 5 5 5 5 5 5 5 5 5 5 5 5 5 5 5 5 5 5 5 5 5 5 5 5 5 5 5 5 5 5 5 3 5 5 5 5 5 5 5 5 5 5 5 5 5 5 5 5 5 5 5 5 5 5 5 5 5 5 5 5 5 5 5 5 3 5 5 5 5 5 5 3 5 5 5 5 5 5 3 5 5 3 5 3 5 3 5 5 5 5 3 5 5 5 5 5 3 5 5 5 3 3 5 5 5 3 5 5 5 5 3 3 5 5 5 5 5 5 5 5 5 5 5 5 5 5 3 5 5 3 5 5 3 3 5 5 5 5 5 5 5 5 5 5 3 5 3 5 5 5 5 5 5 5 5 5 5 5 3 5 5 5 5 5 5 5 3 5 5 5 5 5 5 5 5 5 5 5 5 5 5 5 5 5 5 3 3 5 5 5 5 5 5 5 5 5 5 5 5 5 5 5 5 5 3 5 5 5 5 5 5 5 5 5 3 5 5 5 5 5 5 5 5 5 5 5 5 3 5 5 5 5 3 5 3 5 5 5 5 5 5 5 5 5 3 5 5 5 5 3 5 5 5 5 3 5 3 5 5 5 5 5 5 5 5 5 5 5 5 3 5 5 5 5 5 5 5 5 5 5 5 5 5 5 5 3 5 3 5 5 3 5 5 5 3 5 3 5 5 3 5 5 3 5 3 5 5 5 5 5 5 5 3 3 5 5 5 5 3 3 5 5 3 3 5 3 5 5 3 3 5 5 3 5 5 3 5 5 5 5 5 5 5 5 3 5 5 3 5 3 5 5 5 3 5 5 5 5 5 5 5 5 3 5 5 5 5 5 5 5 5 5 5 5 5 5 5 5 5 5 5 5 5 5 5 3 5 5 5 5 5 5 5 5 5 5 5 5 5 5 5 5 5 5 
</DataArray>
</Cells>
<PointData Scalars="" Vectors="displacement," Tensors="">
<DataArray type="Float64" Name="displacement" NumberOfComponents="3" format="ascii">
-4.0586468867950452e-07 -0.02499847126819851 0 -0.00015386100780836112 -0.024458631445939287 0 1.7632603585239624e-07 -0.022384003660144484 0 -4.0586468867950452e-07 -0.02499847126819851 0 -0.00015386100780836112 -0.024458631445939287 0 -2.2885172332755179e-07 -0.024998899923206221 0 -0.00015386100780836112 -0.024458631445939287 0 -0.00010324895843776941 -0.024553507795685589 0 -2.2885172332755179e-07 -0.024998899923206221 0 -0.00015386100780836112 -0.024458631445939287 0 -0.00010324895843776941 -0.024553507795685589 0 -3.3845554599919468e-06 -0.024198415662697474 0 -0.00010324895843776941 -0.024553507795685589 0 -9.8651784599514171e-05 -0.024592967355866691 0 -3.3845554599919468e-06 -0.024198415662697474 0 -0.00010324895843776941 -0.024553507795685589 0 -9.8651784599514171e-05 -0.024592967355866691 0 -2.2885172332755179e-07 -0.024998899923206221 0 9.8241678739037695e-06 -0.02465342524114459 0 -5.2579830107087659e-08 -0.024999885520995808 0 0.00050204346744340644 -0.024371674817431434 0 0.00064346942398975165 -0.024652296904884428 0 0.00033808319709280159 -0.024734809403638459 0 -9.8651784599514171e-05 -0.024592967355866691 0 0.0003459318364054403 -0.024294534576674666 0 -3.3845554599919468e-06 -0.024198415662697474 0 0.0001113345893876102 -0.024696221347550597 0 0.00050204346744340644 -0.024371674817431434 0 0.00033808319709280159 -0.024734809403638459 0 9.8241678739037695e-06 -0.02465342524114459 0 0.00043932499316049736 -0.024332823462133106 0 -3.3845554599919468e-06 -0.024198415662697474 0 0.00010535103530964503 -0.023433342549408428 0 0.00049557746986084162 -0.023863093563918612 0 0.0003459318364054403 -0.024294534576674666 0 -3.3845554599919468e-06 -0.024198415662697474 0 0.00049557746986084162 -0.023863093563918612 0 0.00010535103530964503 -0.023433342549408428 0 0.00073097092231512342 -0.023497004185120671 0 0.00049557746986084162 -0.023863093563918612 0 8.0436071689668958e-06 -0.023328723664592578 0 0.0004550483936878525 -0.023094795134892886 0 -0.00015386100780836112 -0.024458631445939287 0 0.00010535103530964503 -0.023433342549408428 0 1.7632603585239624e-07 -0.022384003660144484 0 -0.00015386100780836112 -0.024458631445939287 0 -3.3845554599919468e-06 -0.024198415662697474 0 0.00010535103530964503 -0.023433342549408428 0 0.00010535103530964503 -0.023433342549408428 0 1.7632603585239624e-07 -0.022384003660144484 0 6.0395160261073686e-05 -0.02245674769477338 0 1.7632603585239624e-07 -0.022384003660144484 0 4.5379963162323173e-05 -0.021156517969231285 0 6.0395160261073686e-05 -0.02245674769477338 0 1.7632603585239624e-07 -0.022384003660144484 0 4.5379963162323173e-05 -0.021156517969231285 0 6.2881606630690107e-07 -0.018953935966201398 0 4.5379963162323173e-05 -0.021156517969231285 0 0.0011665820099303226 -0.022182429852855189 0 6.0395160261073686e-05 -0.02245674769477338 0 3.446568099395579e-06 -0.020965647662335583 0 0.00072195192775296568 -0.021692833902636852 0 0.00072195192775296568 -0.021692833902636852 0 0.0004550483936878525 -0.023094795134892886 0 0.0012339139577132348 -0.023438116704350864 0 0.00073097092231512342 -0.023497004185120671 0 0.001078756167567493 -0.024061368407389466 0 4.5379963162323173e-05 -0.021156517969231285 0 -3.4746798100162763e-05 -0.020314420908643036 0 6.2881606630690107e-07 -0.018953935966201398 0 1.7370938818711492e-06 -0.018950111896387897 0 0.0006290641185562522 -0.017830673010054261 0 1.6655858331049471e-05 -0.017686724225206358 0 -3.4746798100162763e-05 -0.020314420908643036 0 6.2881606630690107e-07 -0.018953935966201398 0 0.0001126971115475671 -0.019680886607904111 0 0.00056069037440480856 -0.018680896255837205 0 0.00013169729179338203 -0.017722515628166784 0 1.4840776018487359e-07 -0.018952444636563932 0 0.00056069037440480856 -0.018680896255837205 0 0.0005173580016379273 -0.020473212129438118 0 0.0010767005821954042 -0.020376528576376562 0 0.00089702294834806569 -0.020864092785713603 0 0.00072195192775296568 -0.021692833902636852 0 0.00056069037440480856 -0.018680896255837205 0 0.00072195192775296568 -0.021692833902636852 0 0.00111536019087216 -0.021329305387002458 0 0.00060628031061342371 -0.017556632379146033 0 0.00043327449232886229 -0.017119868414970509 0 0.00076513519031501376 -0.01698255875563762 0 0.00056069037440480856 -0.018680896255837205 0 0.00111536019087216 -0.021329305387002458 0 0.00060628031061342371 -0.017556632379146033 0 0.00043327449232886229 -0.017119868414970509 0 1.6655858331049471e-05 -0.017686724225206358 0 0.0014207952321475857 -0.024047281575511288 0 0.0014477887115583834 -0.024264115219070299 0 0.0015381292254685278 -0.02423132011902375 0 0.00043327449232886229 -0.017119868414970509 0 0.00076513519031501376 -0.01698255875563762 0 0.00033264372416027822 -0.016649132526634382 0 0.00111536019087216 -0.021329305387002458 0 0.00095985290821670516 -0.020430815584642506 0 0.0012339139577132348 -0.023438116704350864 0 0.0015738255983243133 -0.023830266393966602 0 0.001078756167567493 -0.024061368407389466 0 0.0015738255983243133 -0.023830266393966602 0 0.0013355469985265511 -0.024360401794760511 0 0.001078756167567493 -0.024061368407389466 0 0.00111536019087216 -0.021329305387002458 0 0.0012551356344633626 -0.025316626267246886 0 0.0014207952321475857 -0.024047281575511288 0 0.0013355469985265511 -0.024360401794760511 0 0.0014477887115583834 -0.024264115219070299 0 0.0013355469985265511 -0.024360401794760511 0 0.0014230616760410948 -0.024375911101109766 0 0.0014477887115583834 -0.024264115219070299 0 0.001494758435753636 -0.024308588480688911 0 0.0015381292254685278 -0.02423132011902375 0 0.0015853826533761383 -0.024291529176815641 0 0.0014477887115583834 -0.024264115219070299 0 0.001494758435753636 -0.024308588480688911 0 0.0015381292254685278 -0.02423132011902375 0 0.0014230616760410948 -0.024375911101109766 0 0.001494758435753636 -0.024308588480688911 0 0.0014685992473065005 -0.024371811696632616 0 0.0014230616760410948 -0.024375911101109766 0 0.0014477887115583834 -0.024264115219070299 0 0.001494758435753636 -0.024308588480688911 0 0.00073097092231512342 -0.023497004185120671 0 0.00049557746986084162 -0.023863093563918612 0 0.001078756167567493 -0.024061368407389466 0 0.00043932499316049736 -0.024332823462133106 0 0.0010546388132420819 -0.024083275226007839 0 0.0003459318364054403 -0.024294534576674666 0 0.00049557746986084162 -0.023863093563918612 0 0.001078756167567493 -0.024061368407389466 0 0.0013355469985265511 -0.024360401794760511 0 0.001078756167567493 -0.024061368407389466 0 0.00091241603525575024 -0.02444940198148686 0 0.00050204346744340644 -0.024371674817431434 0 0.001078756167567493 -0.024061368407389466 0 0.00091241603525575024 -0.02444940198148686 0 0.00050204346744340644 -0.024371674817431434 0 0.00091241603525575024 -0.02444940198148686 0 0.00064346942398975165 -0.024652296904884428 0 0.00064346942398975165 -0.024652296904884428 0 0.0010365691730705798 -0.02480353980098856 0 0.00053035173511953293 -0.024971100991356254 0 0.00091241603525575024 -0.02444940198148686 0 0.00064346942398975165 -0.024652296904884428 0 0.0010365691730705798 -0.02480353980098856 0 0.0013355469985265511 -0.024360401794760511 0 0.00091241603525575024 -0.02444940198148686 0 0.0010365691730705798 -0.02480353980098856 0 -7.9280229027370297e-05 -0.023597141243366478 0 4.1385859758095434e-06 -0.023655288113374345 0 -9.560101730583768e-05 -0.023717496770940743 0 0.00040647612004856979 -0.024340631059577112 0 0.00015055591448035196 -0.024252806720901476 0 -7.9280229027370297e-05 -0.023597141243366478 0 -9.560101730583768e-05 -0.023717496770940743 0 -0.00022696303447131087 -0.02363556241481685 0 0.001494758435753636 -0.024308588480688911 0 0.0014685992473065005 -0.024371811696632616 0 0.0015853826533761383 -0.024291529176815641 0 0.0010365688497152332 -0.023081401715964529 0 0.00043327546360961213 -0.019953292654307651 0 0.0014230616760410948 -0.024375911101109766 0 0.0010365691730705798 -0.02480353980098856 0 0.0015809428599459997 -0.024596823218769801 0 0.00040647612004856979 -0.024340631059577112 0 0.0010365688497152332 -0.023081401715964529 0 0.0013355469985265511 -0.024360401794760511 0 0.0014230616760410948 -0.024375911101109766 0 0.0010365691730705798 -0.02480353980098856 0 0.0016977000490335362 -0.024580756121539728 0 0.0010365688497152332 -0.023081401715964529 0 -7.9280229027370297e-05 -0.023597141243366478 0 4.615535075103757e-05 -0.023561023159592052 0 4.1385859758095434e-06 -0.023655288113374345 0 0.0010365688497152332 -0.023081401715964529 0 0.00038845552394219611 -0.021731261036934159 0 4.615535075103757e-05 -0.023561023159592052 0 4.1385859758095434e-06 -0.023655288113374345 0 0.00010151247081634042 -0.023651121338792699 0 4.1385859758095434e-06 -0.023655288113374345 0 6.6963546789443681e-05 -0.023727124931673373 0 0.00010151247081634042 -0.023651121338792699 0 4.1385859758095434e-06 -0.023655288113374345 0 6.6963546789443681e-05 -0.023727124931673373 0 -5.2550244970351535e-06 -0.023738950784694582 0 4.1385859758095434e-06 -0.023655288113374345 0 -5.2550244970351535e-06 -0.023738950784694582 0 -9.560101730583768e-05 -0.023717496770940743 0 -5.2550244970351535e-06 -0.023738950784694582 0 -5.3530961707696454e-05 -0.023812708372226637 0 7.3121431357756189e-06 -0.023848857632227952 0 6.6963546789443681e-05 -0.023727124931673373 0 9.1371326950651574e-05 -0.023794981940359641 0 7.3121431357756189e-06 -0.023848857632227952 0 6.6963546789443681e-05 -0.023727124931673373 0 -5.2550244970351535e-06 -0.023738950784694582 0 7.3121431357756189e-06 -0.023848857632227952 0 -9.560101730583768e-05 -0.023717496770940743 0 -0.00021792247909988829 -0.023759799060777159 0 -0.00022696303447131087 -0.02363556241481685 0 -9.560101730583768e-05 -0.023717496770940743 0 -0.00012593847448079059 -0.023839087992532735 0 -0.00021792247909988829 -0.023759799060777159 0 -5.2550244970351535e-06 -0.023738950784694582 0 -9.560101730583768e-05 -0.023717496770940743 0 -5.3530961707696454e-05 -0.023812708372226637 0 -9.560101730583768e-05 -0.023717496770940743 0 -5.3530961707696454e-05 -0.023812708372226637 0 -0.00012593847448079059 -0.023839087992532735 0 -5.3530961707696454e-05 -0.023812708372226637 0 -0.00012593847448079059 -0.023839087992532735 0 -7.3529419030026992e-05 -0.023898773807120504 0 -0.00012593847448079059 -0.023839087992532735 0 -0.00021792247909988829 -0.023759799060777159 0 -0.0002145038468393696 -0.023915427196063665 0 -0.00021792247909988829 -0.023759799060777159 0 -0.00034965530349616097 -0.023837437436989236 0 -0.0002145038468393696 -0.023915427196063665 0 -0.00029430331771877321 -0.023726531963241721 0 -0.00021792247909988829 -0.023759799060777159 0 -0.00034965530349616097 -0.023837437436989236 0 -0.00029430331771877321 -0.023726531963241721 0 -0.00021792247909988829 -0.023759799060777159 0 -0.00022696303447131087 -0.02363556241481685 0 -0.00032041210403609149 -0.024263675074189198 0 7.1845995005662171e-06 -0.024617259306806142 0 -0.00022342712490603707 -0.024825222876854253 0 -1.9502572817982013e-05 -0.024956053991002689 0 -7.2506447383768419e-05 -0.025083057801441655 0 -0.00029430331771877321 -0.023726531963241721 0 -0.00034965530349616097 -0.023837437436989236 0 -0.00038421750719067695 -0.023680402068471124 0 -0.00022342712490603707 -0.024825222876854253 0 5.5966421738730329e-06 -0.024872986541353597 0 -1.9502572817982013e-05 -0.024956053991002689 0 5.5966421738730329e-06 -0.024872986541353597 0 7.8217661171940002e-06 -0.024956262431273083 0 -1.0850189792004771e-05 -0.024972213730087459 0 5.5966421738730329e-06 -0.024872986541353597 0 7.8217661171940002e-06 -0.024956262431273083 0 -1.9502572817982013e-05 -0.024956053991002689 0 -2.7122029692701912e-08 -0.024999922355186725 0 7.8217661171940002e-06 -0.024956262431273083 0 6.684496875856654e-08 -0.024999955539541794 0 -2.7122029692701912e-08 -0.024999922355186725 0 7.8217661171940002e-06 -0.024956262431273083 0 -1.0850189792004771e-05 -0.024972213730087459 0 7.8217661171940002e-06 -0.024956262431273083 0 6.684496875856654e-08 -0.024999955539541794 0 9.7950740771568996e-06 -0.025009284606108146 0 2.3586221426951769e-08 -0.025000002193175015 0 5.347716631440682e-06 -0.025011539154877919 0 9.7950740771568996e-06 -0.025009284606108146 0 -1.9502572817982013e-05 -0.024956053991002689 0 -7.2506447383768419e-05 -0.025083057801441655 0 7.8217661171940002e-06 -0.024956262431273083 0 9.7950740771568996e-06 -0.025009284606108146 0 -1.9502572817982013e-05 -0.024956053991002689 0 5.347716631440682e-06 -0.025011539154877919 0 7.1845995005662171e-06 -0.024617259306806142 0 0.0001459713590313155 -0.025034415446336829 0 7.1845995005662171e-06 -0.024617259306806142 0 3.4772079230042684e-05 -0.024960103707752711 0 9.3810543777322946e-05 -0.024872723922438004 0 0.0001190155955176545 -0.024992193366894993 0 3.672249522924868e-05 -0.025006826406635145 0 3.4772079230042684e-05 -0.024960103707752711 0 0.0001190155955176545 -0.024992193366894993 0 3.672249522924868e-05 -0.025006826406635145 0 3.4772079230042684e-05 -0.024960103707752711 0 3.8916498603990477e-08 -0.025000001326895296 0 3.3731692825314435e-09 -0.02500003534926248 0 3.672249522924868e-05 -0.025006826406635145 0 3.8916498603990477e-08 -0.025000001326895296 0 3.4772079230042684e-05 -0.024960103707752711 0 3.8916498603990477e-08 -0.025000001326895296 0 -1.0901772250393524e-07 -0.024999706601798889 0 3.4772079230042684e-05 -0.024960103707752711 0 -1.0901772250393524e-07 -0.024999706601798889 0 9.3810543777322946e-05 -0.024872723922438004 0 0.0001113345893876102 -0.024696221347550597 0 -1.0901772250393524e-07 -0.024999706601798889 0 9.3810543777322946e-05 -0.024872723922438004 0 9.3810543777322946e-05 -0.024872723922438004 0 0.00027173648583992148 -0.024907694342783088 0 0.00033808319709280159 -0.024734809403638459 0 0.0001113345893876102 -0.024696221347550597 0 9.3810543777322946e-05 -0.024872723922438004 0 0.00033808319709280159 -0.024734809403638459 0 0.00064346942398975165 -0.024652296904884428 0 0.00033808319709280159 -0.024734809403638459 0 0.00053035173511953293 -0.024971100991356254 0 0.00027173648583992148 -0.024907694342783088 0 0.00033808319709280159 -0.024734809403638459 0 0.00053035173511953293 -0.024971100991356254 0 0.00027173648583992148 -0.024907694342783088 0 0.00053035173511953293 -0.024971100991356254 0 0.00015917861762409379 -0.025064389985885911 0 0.00015055591448035196 -0.024252806720901476 0 7.1845995005662171e-06 -0.024617259306806142 0 -0.00029430331771877321 -0.023726531963241721 0 -0.00022696303447131087 -0.02363556241481685 0 -0.00038421750719067695 -0.023680402068471124 0 9.3810543777322946e-05 -0.024872723922438004 0 0.00027173648583992148 -0.024907694342783088 0 0.00015917861762409379 -0.025064389985885911 0 0.00018373554935486366 -0.011861859589101745 0 0.00017442762995026852 -0.011740645647919318 0 0.00011375515236663616 -0.011848830442770505 0 0.00028012194365502552 -0.01177184163548713 0 0.00018373554935486366 -0.011861859589101745 0 0.00017442762995026852 -0.011740645647919318 0 -0.0001723341703504814 -0.014720318406893234 0 -0.00018855451939469496 -0.014666053391072015 0 4.9085946608416451e-05 -0.014524397515274469 0 8.3196720912340425e-05 -0.013142640458494455 0 9.9555093649538107e-05 -0.01320068719705291 0 -0.00018855451939469496 -0.014666053391072015 0 -0.00013005307137832617 -0.014035827051680893 0 -0.00020582318615433622 -0.014718726841702504 0 -0.00018855451939469496 -0.014666053391072015 0 4.9085946608416451e-05 -0.014524397515274469 0 -0.00013005307137832617 -0.014035827051680893 0 9.9555093649538107e-05 -0.01320068719705291 0 0.00013117100783000023 -0.01271674607772624 0 4.9085946608416451e-05 -0.014524397515274469 0 -0.00013005307137832617 -0.014035827051680893 0 0.00031609400248963919 -0.013629698520834631 0 -1.216619071490806e-05 -0.01331337959724802 0 -0.00013005307137832617 -0.014035827051680893 0 0.00031609400248963919 -0.013629698520834631 0 -1.216619071490806e-05 -0.01331337959724802 0 1.2593560326524351e-07 -0.01250339613325503 0 -3.8075663648743904e-07 -0.013793312588398275 0 -1.216619071490806e-05 -0.01331337959724802 0 1.2593560326524351e-07 -0.01250339613325503 0 9.3977295664502482e-05 -0.012730046861869787 0 -1.216619071490806e-05 -0.01331337959724802 0 -3.8075663648743904e-07 -0.013793312588398275 0 -0.00013005307137832617 -0.014035827051680893 0 -3.8075663648743904e-07 -0.013793312588398275 0 -0.00013005307137832617 -0.014035827051680893 0 -0.00012520733676029289 -0.01457184948947402 0 -0.00013005307137832617 -0.014035827051680893 0 -0.00020582318615433622 -0.014718726841702504 0 -0.00012520733676029289 -0.01457184948947402 0 -0.00020582318615433622 -0.014718726841702504 0 -0.00012520733676029289 -0.01457184948947402 0 -9.582280598765485e-05 -0.015251706231329437 0 -3.8075663648743904e-07 -0.013793312588398275 0 -0.00012520733676029289 -0.01457184948947402 0 -2.3933632171270069e-07 -0.015082980648010632 0 -0.00012520733676029289 -0.01457184948947402 0 -2.3933632171270069e-07 -0.015082980648010632 0 -9.582280598765485e-05 -0.015251706231329437 0 -2.3933632171270069e-07 -0.015082980648010632 0 -9.582280598765485e-05 -0.015251706231329437 0 6.6641019393236181e-08 -0.016372381890374505 0 -0.00020582318615433622 -0.014718726841702504 0 -9.582280598765485e-05 -0.015251706231329437 0 -0.00015376628705402579 -0.014915890073420207 0 -9.582280598765485e-05 -0.015251706231329437 0 -0.00015376628705402579 -0.014915890073420207 0 6.4545981620525952e-05 -0.015886954832403044 0 -0.00018855451939469496 -0.014666053391072015 0 -0.00020582318615433622 -0.014718726841702504 0 -0.00015376628705402579 -0.014915890073420207 0 -0.00018855451939469496 -0.014666053391072015 0 -0.00015376628705402579 -0.014915890073420207 0 -0.00011568968511450089 -0.014719245924517175 0 -0.0001723341703504814 -0.014720318406893234 0 -0.00018855451939469496 -0.014666053391072015 0 -0.00011568968511450089 -0.014719245924517175 0 -0.00015376628705402579 -0.014915890073420207 0 -0.00011568968511450089 -0.014719245924517175 0 5.3835577067900262e-05 -0.014706318088670706 0 5.3835577067900262e-05 -0.014706318088670706 0 0.0002353008807009256 -0.014871214872998376 0 0.00010630227250675712 -0.014595703963912847 0 -0.00015376628705402579 -0.014915890073420207 0 5.3835577067900262e-05 -0.014706318088670706 0 0.0002353008807009256 -0.014871214872998376 0 0.00013627541553568322 -0.015743576571832237 0 7.8570221843282718e-05 -0.015653831646997678 0 8.3064943384594757e-05 -0.016619081899145613 0 -2.3965773487396473e-05 -0.01664444562480507 0 -0.00011022500847849798 -0.016537448858063061 0 -2.3965773487396473e-05 -0.01664444562480507 0 -0.00011022500847849798 -0.016537448858063061 0 -7.1249065018336535e-05 -0.016624413868402521 0 8.3064943384594757e-05 -0.016619081899145613 0 -2.3965773487396473e-05 -0.01664444562480507 0 2.1805143361305919e-05 -0.01666657159232467 0 -0.00015376628705402579 -0.014915890073420207 0 0.0002353008807009256 -0.014871214872998376 0 6.4545981620525952e-05 -0.015886954832403044 0 8.3064943384594757e-05 -0.016619081899145613 0 -0.00011022500847849798 -0.016537448858063061 0 6.4545981620525952e-05 -0.015886954832403044 0 0.00013627541553568322 -0.015743576571832237 0 8.7769949579635456e-05 -0.015872986898407073 0 -9.582280598765485e-05 -0.015251706231329437 0 6.4545981620525952e-05 -0.015886954832403044 0 6.6641019393236181e-08 -0.016372381890374505 0 6.4545981620525952e-05 -0.015886954832403044 0 6.6641019393236181e-08 -0.016372381890374505 0 -9.3912830274492365e-05 -0.016644859796459056 0 6.6641019393236181e-08 -0.016372381890374505 0 -9.3912830274492365e-05 -0.016644859796459056 0 -7.2936284884321174e-07 -0.017662390846858413 0 -0.00011022500847849798 -0.016537448858063061 0 -9.3912830274492365e-05 -0.016644859796459056 0 -8.1786686588145434e-05 -0.016747669677199203 0 -0.00011022500847849798 -0.016537448858063061 0 6.4545981620525952e-05 -0.015886954832403044 0 -9.3912830274492365e-05 -0.016644859796459056 0 -9.3912830274492365e-05 -0.016644859796459056 0 -4.8702062487705178e-05 -0.017115640966708579 0 -8.1786686588145434e-05 -0.016747669677199203 0 -4.8702062487705178e-05 -0.017115640966708579 0 9.9685802330339311e-05 -0.016925292697425563 0 -8.1786686588145434e-05 -0.016747669677199203 0 -4.8702062487705178e-05 -0.017115640966708579 0 -7.2936284884321174e-07 -0.017662390846858413 0 1.6655858331049471e-05 -0.017686724225206358 0 -9.3912830274492365e-05 -0.016644859796459056 0 -4.8702062487705178e-05 -0.017115640966708579 0 -7.2936284884321174e-07 -0.017662390846858413 0 1.7370938818711492e-06 -0.018950111896387897 0 -7.2936284884321174e-07 -0.017662390846858413 0 1.6655858331049471e-05 -0.017686724225206358 0 0.00043327449232886229 -0.017119868414970509 0 1.6655858331049471e-05 -0.017686724225206358 0 9.9685802330339311e-05 -0.016925292697425563 0 -4.8702062487705178e-05 -0.017115640966708579 0 1.6655858331049471e-05 -0.017686724225206358 0 9.9685802330339311e-05 -0.016925292697425563 0 0.00033264372416027822 -0.016649132526634382 0 9.9685802330339311e-05 -0.016925292697425563 0 4.9242088522284304e-05 -0.016672378571769862 0 0.00043327449232886229 -0.017119868414970509 0 0.00033264372416027822 -0.016649132526634382 0 9.9685802330339311e-05 -0.016925292697425563 0 9.9685802330339311e-05 -0.016925292697425563 0 -8.1786686588145434e-05 -0.016747669677199203 0 4.9242088522284304e-05 -0.016672378571769862 0 -0.00011022500847849798 -0.016537448858063061 0 -8.1786686588145434e-05 -0.016747669677199203 0 -7.1249065018336535e-05 -0.016624413868402521 0 -8.1786686588145434e-05 -0.016747669677199203 0 -7.1249065018336535e-05 -0.016624413868402521 0 4.9242088522284304e-05 -0.016672378571769862 0 -2.0256938648342795e-05 -0.016627129354412119 0 -7.1249065018336535e-05 -0.016624413868402521 0 4.9242088522284304e-05 -0.016672378571769862 0 -2.0256938648342795e-05 -0.016627129354412119 0 -7.1249065018336535e-05 -0.016624413868402521 0 -3.9276708945071961e-05 -0.016627414225553153 0 -2.3965773487396473e-05 -0.01664444562480507 0 -3.9276708945071961e-05 -0.016627414225553153 0 -2.2695571259637578e-05 -0.016639585751101048 0 -3.9276708945071961e-05 -0.016627414225553153 0 -1.6502259033998545e-05 -0.016604115670231425 0 -2.2695571259637578e-05 -0.016639585751101048 0 -2.3965773487396473e-05 -0.01664444562480507 0 -7.1249065018336535e-05 -0.016624413868402521 0 -3.9276708945071961e-05 -0.016627414225553153 0 -2.0256938648342795e-05 -0.016627129354412119 0 -3.9276708945071961e-05 -0.016627414225553153 0 -1.6502259033998545e-05 -0.016604115670231425 0 -2.0256938648342795e-05 -0.016627129354412119 0 -1.6502259033998545e-05 -0.016604115670231425 0 5.6445442355599768e-05 -0.016548789853725984 0 0.00045846445354575391 -0.018541545481395003 0 0.00043327546360961213 -0.019953292654307651 0 -2.0256938648342795e-05 -0.016627129354412119 0 4.9242088522284304e-05 -0.016672378571769862 0 5.6445442355599768e-05 -0.016548789853725984 0 0.00095985290821670516 -0.020430815584642506 0 0.00043327546360961213 -0.019953292654307651 0 0.00033264372416027822 -0.016649132526634382 0 4.9242088522284304e-05 -0.016672378571769862 0 5.6445442355599768e-05 -0.016548789853725984 0 0.0013264714293335521 -0.020696507514230647 0 0.00043406540773800159 -0.020905020561546802 0 0.00074418634670063281 -0.019858148136211434 0 -1.6502259033998545e-05 -0.016604115670231425 0 -3.5281773970041468e-05 -0.016618550496172897 0 -2.0621784248506493e-05 -0.016682891070862977 0 0.00043327546360961213 -0.019953292654307651 0 -0.00014825068190892565 -0.018444156708845916 0 -1.6502259033998545e-05 -0.016604115670231425 0 -2.2695571259637578e-05 -0.016639585751101048 0 -2.0621784248506493e-05 -0.016682891070862977 0 -0.000187974042801034 -0.020240280852045805 0 0.00074418634670063281 -0.019858148136211434 0 0.00012562344063386311 -0.019613295755680448 0 0.00043406540773800159 -0.020905020561546802 0 -0.000187974042801034 -0.020240280852045805 0 0.00074418634670063281 -0.019858148136211434 0 0.00038845552394219611 -0.021731261036934159 0 1.2547025592319376e-05 -0.020506514232566324 0 0.00074418634670063281 -0.019858148136211434 0 0.00016333753635650001 -0.019032560421751742 0 0.00012562344063386311 -0.019613295755680448 0 6.6963546789443681e-05 -0.023727124931673373 0 0.00010151247081634042 -0.023651121338792699 0 0.00016318810850432465 -0.023728877892793425 0 6.6963546789443681e-05 -0.023727124931673373 0 9.1371326950651574e-05 -0.023794981940359641 0 0.00016318810850432465 -0.023728877892793425 0 -0.00012042671294943341 -0.02401596014475273 0 1.2547025592319376e-05 -0.020506514232566324 0 1.2547025592319376e-05 -0.020506514232566324 0 -0.00027071347099601 -0.020096628168086536 0 -0.00091344849261346215 -0.015715219160305282 0 -0.0005694231472864903 -0.015480534941015239 0 -0.00029925848030167842 -0.015813246804255773 0 -0.00091344849261346215 -0.015715219160305282 0 -0.00029925848030167842 -0.015813246804255773 0 -0.00057319551431386589 -0.016194295087720668 0 1.2547025592319376e-05 -0.020506514232566324 0 -0.00028202116746479819 -0.017415615858828996 0 -0.000187974042801034 -0.020240280852045805 0 0.00012562344063386311 -0.019613295755680448 0 -0.00031845339239733019 -0.019305226706833805 0 0.00016333753635650001 -0.019032560421751742 0 0.00012562344063386311 -0.019613295755680448 0 -0.00031845339239733019 -0.019305226706833805 0 -0.000187974042801034 -0.020240280852045805 0 -0.00080141223383732184 -0.019577582995735199 0 -0.00031845339239733019 -0.019305226706833805 0 -0.00023049487418147271 -0.015271707852750836 0 -0.0002287173301606521 -0.01552556660265127 0 -0.0005694231472864903 -0.015480534941015239 0 -0.00032493513191649779 -0.016958911035708825 0 -0.00028202116746479819 -0.017415615858828996 0 -0.0002287173301606521 -0.01552556660265127 0 -0.0005694231472864903 -0.015480534941015239 0 -0.00029925848030167842 -0.015813246804255773 0 -0.00029925848030167842 -0.015813246804255773 0 6.231131755432262e-05 -0.015517731031086718 0 -1.3183729548236691e-05 -0.016036823002268923 0 6.231131755432262e-05 -0.015517731031086718 0 0.00052680228240651944 -0.015653175073765211 0 -1.3183729548236691e-05 -0.016036823002268923 0 -0.0002287173301606521 -0.01552556660265127 0 -0.00029925848030167842 -0.015813246804255773 0 6.231131755432262e-05 -0.015517731031086718 0 6.231131755432262e-05 -0.015517731031086718 0 4.9235120561510304e-05 -0.015101951095112028 0 0.00030901260157152881 -0.015293663683273619 0 -0.00032493513191649779 -0.016958911035708825 0 -0.0002845484474244217 -0.015223922264106045 0 -0.0003420195989897211 -0.015118522082216467 0 6.231131755432262e-05 -0.015517731031086718 0 -0.00019339187830146618 -0.01517269410500564 0 6.231131755432262e-05 -0.015517731031086718 0 -0.00019339187830146618 -0.01517269410500564 0 4.9235120561510304e-05 -0.015101951095112028 0 -0.00023049487418147271 -0.015271707852750836 0 -0.0002287173301606521 -0.01552556660265127 0 6.231131755432262e-05 -0.015517731031086718 0 -0.0003420195989897211 -0.015118522082216467 0 -0.00019339187830146618 -0.01517269410500564 0 -0.00018882313933994718 -0.015030649486609555 0 -9.1832298874023997e-05 -0.015449992813592861 0 -8.1434428610724556e-05 -0.015770800241373326 0 -0.00019339187830146618 -0.01517269410500564 0 -0.00018882252729398997 -0.015023412026824333 0 4.9235120561510304e-05 -0.015101951095112028 0 -0.00032493513191649779 -0.016958911035708825 0 -8.1434428610724556e-05 -0.015770800241373326 0 4.9235120561510304e-05 -0.015101951095112028 0 0.00010015564309361636 -0.01485183108856299 0 0.00030993469413830645 -0.014977810735288163 0 -0.00018882252729398997 -0.015023412026824333 0 4.9235120561510304e-05 -0.015101951095112028 0 0.00010015564309361636 -0.01485183108856299 0 -8.1434428610724556e-05 -0.015770800241373326 0 7.8570221843282718e-05 -0.015653831646997678 0 0.00010015564309361636 -0.01485183108856299 0 0.00010630227250675712 -0.014595703963912847 0 0.00018976157816663879 -0.014732360617164516 0 -4.8518627094095161e-06 -0.014916369338772177 0 0.00010015564309361636 -0.01485183108856299 0 0.00010630227250675712 -0.014595703963912847 0 1.3350091960072926e-05 -0.016700022168872987 0 3.6057739176551296e-06 -0.01668441098987937 0 2.1805143361305919e-05 -0.01666657159232467 0 -8.1434428610724556e-05 -0.015770800241373326 0 0.00021818784027590488 -0.015128318833696966 0 6.8294076376725914e-06 -0.016706168033820988 0 1.3350091960072926e-05 -0.016700022168872987 0 3.6057739176551296e-06 -0.01668441098987937 0 -2.0621784248506493e-05 -0.016682891070862977 0 6.8294076376725914e-06 -0.016706168033820988 0 3.6057739176551296e-06 -0.01668441098987937 0 -0.00014825068190892565 -0.018444156708845916 0 -0.00032493513191649779 -0.016958911035708825 0 -2.0621784248506493e-05 -0.016682891070862977 0 3.6057739176551296e-06 -0.01668441098987937 0 -7.6369214671392824e-06 -0.016660917314016244 0 3.6057739176551296e-06 -0.01668441098987937 0 -7.6369214671392824e-06 -0.016660917314016244 0 2.1805143361305919e-05 -0.01666657159232467 0 -2.2695571259637578e-05 -0.016639585751101048 0 -2.0621784248506493e-05 -0.016682891070862977 0 -7.6369214671392824e-06 -0.016660917314016244 0 -2.3965773487396473e-05 -0.01664444562480507 0 -2.2695571259637578e-05 -0.016639585751101048 0 -7.6369214671392824e-06 -0.016660917314016244 0 -2.3965773487396473e-05 -0.01664444562480507 0 -7.6369214671392824e-06 -0.016660917314016244 0 2.1805143361305919e-05 -0.01666657159232467 0 5.3835577067900262e-05 -0.014706318088670706 0 0.00010630227250675712 -0.014595703963912847 0 0.0001448836267153178 -0.014589993588815969 0 0.00010630227250675712 -0.014595703963912847 0 0.0001448836267153178 -0.014589993588815969 0 0.00018976157816663879 -0.014732360617164516 0 -0.00011568968511450089 -0.014719245924517175 0 0.0001448836267153178 -0.014589993588815969 0 -0.00012520243814268333 -0.014552635173399281 0 -0.00011568968511450089 -0.014719245924517175 0 5.3835577067900262e-05 -0.014706318088670706 0 0.0001448836267153178 -0.014589993588815969 0 -0.0001723341703504814 -0.014720318406893234 0 -0.00011568968511450089 -0.014719245924517175 0 -0.00012520243814268333 -0.014552635173399281 0 8.3196720912340425e-05 -0.013142640458494455 0 0.00017425622903637298 -0.013683434223800207 0 0.00078959786086391461 -0.014628076009188116 0 0.00087859848859842351 -0.014665178352418496 0 0.00082393301700747074 -0.014782629793581407 0 0.0008622884857926354 -0.014529676383434295 0 0.00078959786086391461 -0.014628076009188116 0 0.00087859848859842351 -0.014665178352418496 0 0.00017425622903637298 -0.013683434223800207 0 0.00018752175950029399 -0.013828132827819136 0 0.0008622884857926354 -0.014529676383434295 0 0.00087859848859842351 -0.014665178352418496 0 0.0010387399945628476 -0.014713197696526955 0 0.0010387399945628476 -0.014713197696526955 0 0.00096574746144277395 -0.014934855552233709 0 0.0012401399479824945 -0.014980028418457851 0 0.00087859848859842351 -0.014665178352418496 0 0.0010387399945628476 -0.014713197696526955 0 0.00082393301700747074 -0.014782629793581407 0 0.0010387399945628476 -0.014713197696526955 0 0.00096574746144277395 -0.014934855552233709 0 0.00082393301700747074 -0.014782629793581407 0 0.00078959786086391461 -0.014628076009188116 0 0.00082393301700747074 -0.014782629793581407 0 0.00056390395399033696 -0.01476636097577245 0 0.00096574746144277395 -0.014934855552233709 0 0.00082393301700747074 -0.014782629793581407 0 0.00075421340525498105 -0.014979536934615605 0 0.00082393301700747074 -0.014782629793581407 0 0.00056390395399033696 -0.01476636097577245 0 0.00075421340525498105 -0.014979536934615605 0 0.00030198363942260799 -0.014694136158716953 0 0.00017425622903637298 -0.013683434223800207 0 0.0001448836267153178 -0.014589993588815969 0 0.00078959786086391461 -0.014628076009188116 0 0.00056390395399033696 -0.01476636097577245 0 0.0001448836267153178 -0.014589993588815969 0 0.00085148432085434028 -0.014540780418780043 0 0.00078959786086391461 -0.014628076009188116 0 0.00052592417529097866 -0.014932333324514024 0 0.00056390395399033696 -0.01476636097577245 0 0.00075421340525498105 -0.014979536934615605 0 0.00052592417529097866 -0.014932333324514024 0 0.00056390395399033696 -0.01476636097577245 0 0.00035957479395132806 -0.014789377236178361 0 0.0001448836267153178 -0.014589993588815969 0 0.00056390395399033696 -0.01476636097577245 0 0.00035957479395132806 -0.014789377236178361 0 0.0001448836267153178 -0.014589993588815969 0 0.00018976157816663879 -0.014732360617164516 0 0.00035957479395132806 -0.014789377236178361 0 0.00010015564309361636 -0.01485183108856299 0 0.00018976157816663879 -0.014732360617164516 0 0.00030993469413830645 -0.014977810735288163 0 0.00018976157816663879 -0.014732360617164516 0 0.00035957479395132806 -0.014789377236178361 0 0.00030993469413830645 -0.014977810735288163 0 0.00052592417529097866 -0.014932333324514024 0 0.00035957479395132806 -0.014789377236178361 0 0.00030993469413830645 -0.014977810735288163 0 4.9235120561510304e-05 -0.015101951095112028 0 0.00030993469413830645 -0.014977810735288163 0 0.00030901260157152881 -0.015293663683273619 0 0.00030993469413830645 -0.014977810735288163 0 0.00058234452351250054 -0.015206269004854884 0 0.00030901260157152881 -0.015293663683273619 0 0.00052592417529097866 -0.014932333324514024 0 0.00030993469413830645 -0.014977810735288163 0 0.00058234452351250054 -0.015206269004854884 0 0.00052592417529097866 -0.014932333324514024 0 0.00058234452351250054 -0.015206269004854884 0 0.00075421340525498105 -0.014979536934615605 0 0.00058234452351250054 -0.015206269004854884 0 0.00030901260157152881 -0.015293663683273619 0 0.00052680228240651944 -0.015653175073765211 0 6.231131755432262e-05 -0.015517731031086718 0 0.00030901260157152881 -0.015293663683273619 0 0.00052680228240651944 -0.015653175073765211 0 0.00052680228240651944 -0.015653175073765211 0 0.00095656637534444352 -0.015282785791707611 0 0.0011853742901515375 -0.015895416339566381 0 0.00058234452351250054 -0.015206269004854884 0 0.00052680228240651944 -0.015653175073765211 0 0.00095656637534444352 -0.015282785791707611 0 0.00058234452351250054 -0.015206269004854884 0 0.00095656637534444352 -0.015282785791707611 0 0.00075421340525498105 -0.014979536934615605 0 0.00096574746144277395 -0.014934855552233709 0 0.00095656637534444352 -0.015282785791707611 0 0.00075421340525498105 -0.014979536934615605 0 0.00096574746144277395 -0.014934855552233709 0 0.00095656637534444352 -0.015282785791707611 0 0.0012401399479824945 -0.014980028418457851 0 0.0012401399479824945 -0.014980028418457851 0 0.0014529060734452741 -0.015302472587995702 0 0.0017450860370441194 -0.014664284069287546 0 0.0035593504541253213 -0.011657478855844613 0 0.0023362933450958357 -0.010679533057662765 0 0.00095656637534444352 -0.015282785791707611 0 0.0012401399479824945 -0.014980028418457851 0 0.0014529060734452741 -0.015302472587995702 0 0.0035593504541253213 -0.011657478855844613 0 0.0038643005290666917 -0.011527066660692895 0 0.00095656637534444352 -0.015282785791707611 0 0.0014529060734452741 -0.015302472587995702 0 0.0011853742901515375 -0.015895416339566381 0 0.0056108217140672404 -0.0078006744692772469 0 0.0057155750760231284 -0.0072304566819105113 0 0.0058268123340250045 -0.0071648319709810906 0 0.0056108217140672404 -0.0078006744692772469 0 0.0054629193951927441 -0.0072300945247668379 0 0.0052807172597786941 -0.0074739455829794027 0 0.0056108217140672404 -0.0078006744692772469 0 0.0054629193951927441 -0.0072300945247668379 0 0.0057155750760231284 -0.0072304566819105113 0 0.0054629193951927441 -0.0072300945247668379 0 0.0057155750760231284 -0.0072304566819105113 0 0.0056274093794626678 -0.0071288493465635986 0 0.0053153893779273867 -0.010146201893260699 0 0.0038643005290666917 -0.011527066660692895 0 0.0052807172597786941 -0.0074739455829794027 0 0.0051334451638715625 -0.0071742737106305927 0 0.0049697183669371219 -0.007442568467626475 0 0.0054629193951927441 -0.0072300945247668379 0 0.0052807172597786941 -0.0074739455829794027 0 0.0051334451638715625 -0.0071742737106305927 0 0.0052807172597786941 -0.0074739455829794027 0 0.0051996459875422573 -0.0078253009591256074 0 0.0049697183669371219 -0.007442568467626475 0 0.0051996459875422573 -0.0078253009591256074 0 0.0048112912065524953 -0.007792029371766423 0 0.0049697183669371219 -0.007442568467626475 0 0.0056108217140672404 -0.0078006744692772469 0 0.0051996459875422573 -0.0078253009591256074 0 0.0053437814412720898 -0.0084077005416809403 0 0.0051996459875422573 -0.0078253009591256074 0 0.0053437814412720898 -0.0084077005416809403 0 0.0047287633602372623 -0.0082660532661003004 0 0.0056108217140672404 -0.0078006744692772469 0 0.0052807172597786941 -0.0074739455829794027 0 0.0051996459875422573 -0.0078253009591256074 0 0.0015480394202044864 -0.0079511469428590834 0 0.0015008519490746152 -0.0079722064894781428 0 0.0015297849477642785 -0.0079653447082500654 0 0.0023362933450958357 -0.010679533057662765 0 0.0032639145611452493 -0.0079608217881117389 0 0.0008622884857926354 -0.014529676383434295 0 0.0010387399945628476 -0.014713197696526955 0 0.0017450860370441194 -0.014664284069287546 0 0.0010387399945628476 -0.014713197696526955 0 0.0012401399479824945 -0.014980028418457851 0 0.0017450860370441194 -0.014664284069287546 0 0.00035506073667195719 -0.011691603993264927 0 0.00024100375969170098 -0.011641601831538584 0 0.00027137644815556218 -0.011707194428906451 0 0.00017425622903637298 -0.013683434223800207 0 0.0023362933450958357 -0.010679533057662765 0 0.00028012194365502552 -0.01177184163548713 0 0.00027137644815556218 -0.011707194428906451 0 0.00017442762995026852 -0.011740645647919318 0 0.00028012194365502552 -0.01177184163548713 0 0.00035506073667195719 -0.011691603993264927 0 0.00027137644815556218 -0.011707194428906451 0 0.0023362933450958357 -0.010679533057662765 0 0.0007325120488255888 -0.0097997118991887972 0 0.00024100375969170098 -0.011641601831538584 0 0.00027137644815556218 -0.011707194428906451 0 0.00017442762995026852 -0.011740645647919318 0 0.0015480394202044864 -0.0079511469428590834 0 0.0015498535865630912 -0.0080436981258660296 0 0.0015008519490746152 -0.0079722064894781428 0 0.0051756648059759066 -0.0063857256083849068 0 0.0051521465371233127 -0.0063743407070327935 0 0.005168158826094154 -0.0064186095172608267 0 0.0051756648059759066 -0.0063857256083849068 0 0.0051521465371233127 -0.0063743407070327935 0 0.005189012668769255 -0.0063638859919558617 0 0.0054323949757398684 -0.0069985868285941805 0 0.0050848283677001685 -0.0067582781789652241 0 0.0051756648059759066 -0.0063857256083849068 0 0.005189012668769255 -0.0063638859919558617 0 0.0051981669254108596 -0.0063861006722044124 0 0.0051756648059759066 -0.0063857256083849068 0 0.005168158826094154 -0.0064186095172608267 0 0.0051981669254108596 -0.0063861006722044124 0 0.0050848283677001685 -0.0067582781789652241 0 0.0051606744502588255 -0.0057864260072562719 0 0.004956291950336855 -0.005252478361126996 0 0.0050504227994631074 -0.0052366902920476044 0 0.004953669816454816 -0.0053373135943533857 0 0.0048830191476862961 -0.0081152445790867011 0 0.0049882742892956499 -0.0078893955666680948 0 0.0051004837077664525 -0.0081790679949097032 0 0.0048830191476862961 -0.0081152445790867011 0 0.0049882742892956499 -0.0078893955666680948 0 0.0045946220009941471 -0.0079621637949452238 0 0.0055032976257715638 -0.0059321045938407575 0 0.0053163827701807609 -0.0061837855440107347 0 0.0056692749537994606 -0.0064030273127560749 0 0.0061401923403530114 -0.0077234392109825052 0 0.0059356737592792383 -0.0072847651930282569 0 0.0057735923025221377 -0.0076250000325966752 0 0.0054323949757398684 -0.0069985868285941805 0 0.0057845473220978884 -0.0068572850514016055 0 0.0059356737592792383 -0.0072847651930282569 0 0.0057160457876176164 -0.0072775822726791036 0 0.0057735923025221377 -0.0076250000325966752 0 0.0054323949757398684 -0.0069985868285941805 0 0.0051347010378885059 -0.0061876146947719623 0 0.0055032976257715638 -0.0059321045938407575 0 0.0053163827701807609 -0.0061837855440107347 0 0.0050726483497725017 -0.0059868026689218878 0 0.0053163827701807609 -0.0061837855440107347 0 0.0052525859651407405 -0.0064816563548721999 0 0.0049544191087024115 -0.0062342125395129259 0 0.0053163827701807609 -0.0061837855440107347 0 0.0050726483497725017 -0.0059868026689218878 0 0.0049544191087024115 -0.0062342125395129259 0 0.0052525859651407405 -0.0064816563548721999 0 0.0049561288051448819 -0.0065133241585791255 0 0.0049544191087024115 -0.0062342125395129259 0 0.0052525859651407405 -0.0064816563548721999 0 0.0051644008875905301 -0.0067061334165764343 0 0.0054598046077813846 -0.0067780042370098239 0 0.0052525859651407405 -0.0064816563548721999 0 0.0051644008875905301 -0.0067061334165764343 0 0.0049561288051448819 -0.0065133241585791255 0 0.0051644008875905301 -0.0067061334165764343 0 0.0049695340107669605 -0.0068458153010902993 0 0.0049561288051448819 -0.0065133241585791255 0 0.0051644008875905301 -0.0067061334165764343 0 0.0053058558944689476 -0.0069543836992571112 0 0.0049695340107669605 -0.0068458153010902993 0 0.0051644008875905301 -0.0067061334165764343 0 0.0053058558944689476 -0.0069543836992571112 0 0.0054598046077813846 -0.0067780042370098239 0 0.0054629193951927441 -0.0072300945247668379 0 0.0053058558944689476 -0.0069543836992571112 0 0.0051334451638715625 -0.0071742737106305927 0 0.0053058558944689476 -0.0069543836992571112 0 0.0051334451638715625 -0.0071742737106305927 0 0.0049695340107669605 -0.0068458153010902993 0 0.0056274093794626678 -0.0071288493465635986 0 0.0055894336049573156 -0.0070157991258966469 0 0.0057898601132919244 -0.0070777290115331465 0 0.0057155750760231284 -0.0072304566819105113 0 0.0056274093794626678 -0.0071288493465635986 0 0.0057898601132919244 -0.0070777290115331465 0 0.0054629193951927441 -0.0072300945247668379 0 0.0056274093794626678 -0.0071288493465635986 0 0.0055894336049573156 -0.0070157991258966469 0 0.0054629193951927441 -0.0072300945247668379 0 0.0053058558944689476 -0.0069543836992571112 0 0.0055894336049573156 -0.0070157991258966469 0 0.0053058558944689476 -0.0069543836992571112 0 0.0055894336049573156 -0.0070157991258966469 0 0.0054598046077813846 -0.0067780042370098239 0 0.0055894336049573156 -0.0070157991258966469 0 0.0054598046077813846 -0.0067780042370098239 0 0.0057351793723479155 -0.007017572422833308 0 0.0055894336049573156 -0.0070157991258966469 0 0.0057351793723479155 -0.007017572422833308 0 0.0057898601132919244 -0.0070777290115331465 0 0.0057845473220978884 -0.0068572850514016055 0 0.0057662216088452383 -0.0069781285567672244 0 0.0054598046077813846 -0.0067780042370098239 0 0.0056692749537994606 -0.0064030273127560749 0 0.0057351793723479155 -0.007017572422833308 0 0.0059356737592792383 -0.0072847651930282569 0 0.0057160457876176164 -0.0072775822726791036 0 0.0057351793723479155 -0.007017572422833308 0 0.0052525859651407405 -0.0064816563548721999 0 0.0054598046077813846 -0.0067780042370098239 0 0.0056692749537994606 -0.0064030273127560749 0 0.0053163827701807609 -0.0061837855440107347 0 0.0052525859651407405 -0.0064816563548721999 0 0.0056692749537994606 -0.0064030273127560749 0 0.0057160457876176164 -0.0072775822726791036 0 0.0055412396640029228 -0.0071329252948196635 0 0.0057351793723479155 -0.007017572422833308 0 0.0038643005290666917 -0.011527066660692895 0 0.0015203004429871633 -0.015278902256930229 0 0.0050296408122415086 -0.010485253601171389 0 0.0038643005290666917 -0.011527066660692895 0 0.0055412396640029228 -0.0071329252948196635 0 0.0057351793723479155 -0.007017572422833308 0 0.0057898601132919244 -0.0070777290115331465 0 0.00052680228240651944 -0.015653175073765211 0 0.0011853742901515375 -0.015895416339566381 0 0.00045986595722071643 -0.016317218499978484 0 0.0038259909441561487 -0.014717469415133367 0 0.0045450610510970931 -0.013113722215342957 0 0.0030468960471637437 -0.013984011426716137 0 0.00052680228240651944 -0.015653175073765211 0 0.00045986595722071643 -0.016317218499978484 0 -1.3183729548236691e-05 -0.016036823002268923 0 0.0030468960471637437 -0.013984011426716137 0 0.0031255903764884729 -0.014684137130517702 0 0.0025123421497449451 -0.014937348721681322 0 0.0038259909441561487 -0.014717469415133367 0 0.0030468960471637437 -0.013984011426716137 0 0.0031255903764884729 -0.014684137130517702 0 0.0038259909441561487 -0.014717469415133367 0 0.0031255903764884729 -0.014684137130517702 0 0.0029401363777629159 -0.015291917979044507 0 0.0031255903764884729 -0.014684137130517702 0 0.0029401363777629159 -0.015291917979044507 0 0.0025123421497449451 -0.014937348721681322 0 0.0038259909441561487 -0.014717469415133367 0 0.0029401363777629159 -0.015291917979044507 0 0.0030977698388492624 -0.016218253000705046 0 0.0029401363777629159 -0.015291917979044507 0 0.0027119312544361877 -0.015845513428076191 0 0.0030977698388492624 -0.016218253000705046 0 0.0050296408122415086 -0.010485253601171389 0 0.0033780145975777737 -0.012608978583719597 0 0.0029401363777629159 -0.015291917979044507 0 0.0027119312544361877 -0.015845513428076191 0 0.0023971053411418982 -0.015481046905233133 0 0.0055412396640029228 -0.0071329252948196635 0 0.0055278323572750454 -0.0075363529119754236 0 0.0050530260893382837 -0.0079675771689283505 0 0.0061401923403530114 -0.0077234392109825052 0 0.0057735923025221377 -0.0076250000325966752 0 0.0054288648122421913 -0.0078862032375222289 0 0.0057160457876176164 -0.0072775822726791036 0 0.0055412396640029228 -0.0071329252948196635 0 0.0055278323572750454 -0.0075363529119754236 0 0.0057160457876176164 -0.0072775822726791036 0 0.0055278323572750454 -0.0075363529119754236 0 0.0057735923025221377 -0.0076250000325966752 0 0.0057735923025221377 -0.0076250000325966752 0 0.0055492989716560449 -0.0077064357925538699 0 0.0054288648122421913 -0.0078862032375222289 0 0.0055278323572750454 -0.0075363529119754236 0 0.0057735923025221377 -0.0076250000325966752 0 0.0055492989716560449 -0.0077064357925538699 0 0.0055278323572750454 -0.0075363529119754236 0 0.0054070701578769224 -0.0078225548061475868 0 0.0050530260893382837 -0.0079675771689283505 0 0.0055278323572750454 -0.0075363529119754236 0 0.0055492989716560449 -0.0077064357925538699 0 0.0054070701578769224 -0.0078225548061475868 0 0.0050014456240906491 -0.0090299244758561097 0 0.0039956094815841352 -0.0095369713690363761 0 0.0038183779262989533 -0.010612613646709014 0 0.0032808436699697627 -0.010702277726878161 0 0.0040778853539736757 -0.011787207417976685 0 0.0048830191476862961 -0.0081152445790867011 0 0.0045946220009941471 -0.0079621637949452238 0 0.0046687356213984165 -0.0083198716457513443 0 0.0054323949757398684 -0.0069985868285941805 0 0.0050014456240906491 -0.0090299244758561097 0 0.0050014456240906491 -0.0090299244758561097 0 0.004990749653485383 -0.0088123228720955165 0 0.0055492989716560449 -0.0077064357925538699 0 0.0054288648122421913 -0.0078862032375222289 0 0.0054070701578769224 -0.0078225548061475868 0 0.0029128895747797903 -0.01624272624708201 0 0.0030838884853562304 -0.01621289787512278 0 0.0024771612270845849 -0.017486431345111058 0 0.0027119312544361877 -0.015845513428076191 0 0.0029128895747797903 -0.01624272624708201 0 0.002455717627064701 -0.01618253377636043 0 0.0031344246183444713 -0.012977516023168675 0 0.0033780145975777737 -0.012608978583719597 0 0.0027119312544361877 -0.015845513428076191 0 0.0029128895747797903 -0.01624272624708201 0 0.0030977698388492624 -0.016218253000705046 0 0.0054251587083109561 -0.007909295004767317 0 0.0054070701578769224 -0.0078225548061475868 0 0.0050530260893382837 -0.0079675771689283505 0 0.0050014456240906491 -0.0090299244758561097 0 0.0033780145975777737 -0.012608978583719597 0 0.0029128895747797903 -0.01624272624708201 0 0.0022964673094187172 -0.016602223820537783 0 0.0024771612270845849 -0.017486431345111058 0 0.0021008728727346338 -0.016275222207525707 0 0.001647980231962319 -0.015815247790961846 0 0.0022633754139311348 -0.015937329627008411 0 0.0021008728727346338 -0.016275222207525707 0 0.0017587343642914647 -0.016486908285655556 0 0.001647980231962319 -0.015815247790961846 0 0.0021008728727346338 -0.016275222207525707 0 0.002455717627064701 -0.01618253377636043 0 0.0022633754139311348 -0.015937329627008411 0 0.0029128895747797903 -0.01624272624708201 0 0.002455717627064701 -0.01618253377636043 0 0.0022964673094187172 -0.016602223820537783 0 0.0027119312544361877 -0.015845513428076191 0 0.002455717627064701 -0.01618253377636043 0 0.0022633754139311348 -0.015937329627008411 0 0.0021008728727346338 -0.016275222207525707 0 0.002455717627064701 -0.01618253377636043 0 0.0022964673094187172 -0.016602223820537783 0 0.0021008728727346338 -0.016275222207525707 0 0.0022964673094187172 -0.016602223820537783 0 0.0017587343642914647 -0.016486908285655556 0 0.0022964673094187172 -0.016602223820537783 0 0.0017587343642914647 -0.016486908285655556 0 0.0018768474164643004 -0.016997620896268949 0 0.0017587343642914647 -0.016486908285655556 0 0.0013348118290483957 -0.016866515488785889 0 0.0018768474164643004 -0.016997620896268949 0 0.0017587343642914647 -0.016486908285655556 0 0.0011466869049144225 -0.016349028784558784 0 0.0013348118290483957 -0.016866515488785889 0 0.0011466869049144225 -0.016349028784558784 0 0.00072490059677028315 -0.016876235041303714 0 0.0013348118290483957 -0.016866515488785889 0 0.0017587343642914647 -0.016486908285655556 0 0.0011466869049144225 -0.016349028784558784 0 0.001647980231962319 -0.015815247790961846 0 0.001647980231962319 -0.015815247790961846 0 0.001666871776707375 -0.014932363977130445 0 0.00034994087169097025 -0.015717292812406847 0 0.0011466869049144225 -0.016349028784558784 0 0.001647980231962319 -0.015815247790961846 0 0.00034994087169097025 -0.015717292812406847 0 0.00080649629104277232 -0.018163550133030712 0 0.00017165163026810283 -0.019897110876800128 0 0.001647980231962319 -0.015815247790961846 0 0.001945741300859106 -0.015303978518169028 0 0.001666871776707375 -0.014932363977130445 0 0.001945741300859106 -0.015303978518169028 0 0.0020608609553515855 -0.015635594124306589 0 0.0023971053411418982 -0.015481046905233133 0 0.001647980231962319 -0.015815247790961846 0 0.001945741300859106 -0.015303978518169028 0 0.0020608609553515855 -0.015635594124306589 0 0.001647980231962319 -0.015815247790961846 0 0.0020608609553515855 -0.015635594124306589 0 0.0022633754139311348 -0.015937329627008411 0 0.0020608609553515855 -0.015635594124306589 0 0.0022633754139311348 -0.015937329627008411 0 0.0023971053411418982 -0.015481046905233133 0 0.0027119312544361877 -0.015845513428076191 0 0.0022633754139311348 -0.015937329627008411 0 0.0023971053411418982 -0.015481046905233133 0 0.0029401363777629159 -0.015291917979044507 0 0.0023971053411418982 -0.015481046905233133 0 0.0025123421497449451 -0.014937348721681322 0 0.001945741300859106 -0.015303978518169028 0 0.0023971053411418982 -0.015481046905233133 0 0.0025123421497449451 -0.014937348721681322 0 0.0015203004429871633 -0.015278902256930229 0 0.00080649629104277232 -0.018163550133030712 0 0.0030468960471637437 -0.013984011426716137 0 0.0025123421497449451 -0.014937348721681322 0 0.0016109933421768175 -0.014853185892222348 0 0.001945741300859106 -0.015303978518169028 0 0.0025123421497449451 -0.014937348721681322 0 0.0016109933421768175 -0.014853185892222348 0 0.00082833856570048306 -0.015812175004911548 0 0.00080649629104277232 -0.018163550133030712 0 0.00045986595722071643 -0.016317218499978484 0 -1.3183729548236691e-05 -0.016036823002268923 0 -0.00021102138078237632 -0.016711900653657352 0 -0.00029925848030167842 -0.015813246804255773 0 -1.3183729548236691e-05 -0.016036823002268923 0 -0.00057319551431386589 -0.016194295087720668 0 -1.3183729548236691e-05 -0.016036823002268923 0 -0.00057319551431386589 -0.016194295087720668 0 -0.00021102138078237632 -0.016711900653657352 0 0.00025450993300961253 -0.023768018202089618 0 0.00017406678420812233 -0.023791399800682983 0 0.00014415229554019183 -0.023885538875092375 0 -0.00027071347099601 -0.020096628168086536 0 0.00080649629104277232 -0.018163550133030712 0 0.00018844653338650916 -0.023720084807564792 0 0.00025450993300961253 -0.023768018202089618 0 0.00017406678420812233 -0.023791399800682983 0 0.00018844653338650916 -0.023720084807564792 0 0.00017406678420812233 -0.023791399800682983 0 0.00010892812529763532 -0.023794661367557465 0 0.00017406678420812233 -0.023791399800682983 0 0.00010892812529763532 -0.023794661367557465 0 0.00014415229554019183 -0.023885538875092375 0 0.00012966254483487248 -0.023645740003931669 0 0.00018844653338650916 -0.023720084807564792 0 0.00010892812529763532 -0.023794661367557465 0 5.685247895638269e-05 -0.023732316280790696 0 0.00012966254483487248 -0.023645740003931669 0 0.00010892812529763532 -0.023794661367557465 0 5.685247895638269e-05 -0.023732316280790696 0 0.00010892812529763532 -0.023794661367557465 0 2.3271707102181439e-05 -0.023872932179022116 0 0.00010892812529763532 -0.023794661367557465 0 6.5649990971586807e-05 -0.023876139900331324 0 2.3271707102181439e-05 -0.023872932179022116 0 0.00010892812529763532 -0.023794661367557465 0 6.5649990971586807e-05 -0.023876139900331324 0 0.00014415229554019183 -0.023885538875092375 0 6.5649990971586807e-05 -0.023876139900331324 0 0.00014415229554019183 -0.023885538875092375 0 1.5296131334505311e-05 -0.023932457557575962 0 0.00014415229554019183 -0.023885538875092375 0 1.5296131334505311e-05 -0.023932457557575962 0 9.6017106099068434e-06 -0.023982822621819548 0 0.0011466869049144225 -0.016349028784558784 0 0.00034994087169097025 -0.015717292812406847 0 0.00072490059677028315 -0.016876235041303714 0 0.00034994087169097025 -0.015717292812406847 0 -8.7016905790811763e-05 -0.016667266048496967 0 0.00072490059677028315 -0.016876235041303714 0 -8.7016905790811763e-05 -0.016667266048496967 0 -0.00044224222716542154 -0.017587981695479201 0 -0.00098323451504470668 -0.016499050441397236 0 0.00034994087169097025 -0.015717292812406847 0 -8.7016905790811763e-05 -0.016667266048496967 0 -0.00098323451504470668 -0.016499050441397236 0 0.00017165163026810283 -0.019897110876800128 0 -5.6045525085957241e-05 -0.020850715420174259 0 -0.00017718544077197158 -0.019590079309955252 0 -5.6045525085957241e-05 -0.020850715420174259 0 -0.0003669585088284077 -0.017509017585423885 0 0.00072490059677028315 -0.016876235041303714 0 -0.00024005183675743073 -0.017762533543257287 0 -8.7016905790811763e-05 -0.016667266048496967 0 -0.00044224222716542154 -0.017587981695479201 0 0.00072490059677028315 -0.016876235041303714 0 -0.00017718544077197158 -0.019590079309955252 0 0.0004191687979596996 -0.017697424627659362 0 -0.00017718544077197158 -0.019590079309955252 0 -0.00062690893456443444 -0.020873859393272264 0 0.00072490059677028315 -0.016876235041303714 0 -0.00024005183675743073 -0.017762533543257287 0 0.001083249228994784 -0.017629697378056839 0 -0.00017718544077197158 -0.019590079309955252 0 0.00075977485327680409 -0.016423793727750872 0 0.0016901375203908589 -0.015094747833359748 0 0.0018630072084418517 -0.015389835327766804 0 0.0020201901171476556 -0.01524306519009557 0 0.0004191687979596996 -0.017697424627659362 0 0.0015631374447459324 -0.016478674216227819 0 0.0016901375203908589 -0.015094747833359748 0 0.0020201901171476556 -0.01524306519009557 0 0.00201595147646811 -0.015032334748040801 0 0.0004191687979596996 -0.017697424627659362 0 0.0010177259421646923 -0.01817297032291211 0 -0.0001173637162094895 -0.019748784046940516 0 -2.0033256758049842e-05 -0.020028679926279176 0 0.0001568565653135218 -0.020143070012603438 0 -0.0001173637162094895 -0.019748784046940516 0 -0.00029691423561480188 -0.01993169228493645 0 -0.00054384969834038552 -0.019687933498655785 0 0.0004191687979596996 -0.017697424627659362 0 -0.00062690893456443444 -0.020873859393272264 0 0.00020630911302244731 -0.019032638061601024 0 0.00042324645918016308 -0.019466564200734261 0 -0.0007660783037031064 -0.019585346572042753 0 -0.0001173637162094895 -0.019748784046940516 0 -0.00029691423561480188 -0.01993169228493645 0 -2.0033256758049842e-05 -0.020028679926279176 0 -0.00029691423561480188 -0.01993169228493645 0 -2.0033256758049842e-05 -0.020028679926279176 0 -0.00053378710765034771 -0.020319562496923741 0 -2.0033256758049842e-05 -0.020028679926279176 0 -0.0001048988778149611 -0.02060699679461429 0 -0.00053378710765034771 -0.020319562496923741 0 -2.0033256758049842e-05 -0.020028679926279176 0 -0.0001048988778149611 -0.02060699679461429 0 0.00043520030670792794 -0.020819523053244537 0 -0.0001048988778149611 -0.02060699679461429 0 -0.00038836506097596874 -0.020868019257039891 0 -0.00053378710765034771 -0.020319562496923741 0 -0.0001048988778149611 -0.02060699679461429 0 -0.00038836506097596874 -0.020868019257039891 0 5.2527720346148738e-05 -0.021018101192570329 0 -0.0001048988778149611 -0.02060699679461429 0 5.2527720346148738e-05 -0.021018101192570329 0 0.00043520030670792794 -0.020819523053244537 0 -0.00038836506097596874 -0.020868019257039891 0 5.2527720346148738e-05 -0.021018101192570329 0 -0.00027676861992010038 -0.021303692911718991 0 0.000420889424673095 -0.021028233277772736 0 0.0010807270533603928 -0.017766027338056781 0 0.0010177259421646923 -0.01817297032291211 0 0.0019220433996933451 -0.015585484067254374 0 0.00019381481461028176 -0.020180753219784468 0 0.0001568565653135218 -0.020143070012603438 0 0.00029965620934241307 -0.02019577706698927 0 5.2527720346148738e-05 -0.021018101192570329 0 0.00043520030670792794 -0.020819523053244537 0 0.00039654767641040742 -0.021266302550620404 0 -6.4643421572072211e-05 -0.019858468816452771 0 0.000420889424673095 -0.021028233277772736 0 -2.0033256758049842e-05 -0.020028679926279176 0 0.00019381481461028176 -0.020180753219784468 0 0.0001568565653135218 -0.020143070012603438 0 0.0020201901171476556 -0.01524306519009557 0 0.0021257594641530572 -0.015452540712479855 0 0.0022396041381539918 -0.015219043299097332 0 0.0018630072084418517 -0.015389835327766804 0 0.0020201901171476556 -0.01524306519009557 0 0.0021257594641530572 -0.015452540712479855 0 0.0027171321477892567 -0.010088741829288934 0 0.0026637310526287628 -0.010497000845112627 0 0.0029760477464094467 -0.010512221273948637 0 0.0027171321477892567 -0.010088741829288934 0 0.0024212761965413773 -0.010562129573146593 0 0.0026637310526287628 -0.010497000845112627 0 0.0025526053670139747 -0.012382138910723997 0 0.0019220433996933451 -0.015585484067254374 0 0.0018630072084418517 -0.015389835327766804 0 0.0021257594641530572 -0.015452540712479855 0 0.0020201635517944744 -0.015679305124342929 0 0.0027171321477892567 -0.010088741829288934 0 0.0031410673464590828 -0.010136628097216762 0 0.0029760477464094467 -0.010512221273948637 0 0.0025526053670139747 -0.012382138910723997 0 0.0026425070540364607 -0.012298029952812692 0 0.0031410673464590828 -0.010136628097216762 0 0.0029462800181293321 -0.0097287202807349194 0 0.0033721654875874594 -0.0099068892208425373 0 0.0027171321477892567 -0.010088741829288934 0 0.0031410673464590828 -0.010136628097216762 0 0.0029462800181293321 -0.0097287202807349194 0 0.0029462800181293321 -0.0097287202807349194 0 0.0031230600080755576 -0.0094105345683417347 0 0.0032463461725579456 -0.0096671877942804772 0 0.0022396041381539918 -0.015219043299097332 0 0.00201595147646811 -0.015032334748040801 0 0.0023533995741145709 -0.014972215515158004 0 0.0026425070540364607 -0.012298029952812692 0 0.0026121356155501423 -0.013651027504606407 0 0.0020201901171476556 -0.01524306519009557 0 0.0022396041381539918 -0.015219043299097332 0 0.00201595147646811 -0.015032334748040801 0 0.00072490059677028315 -0.016876235041303714 0 0.001083249228994784 -0.017629697378056839 0 0.0013348118290483957 -0.016866515488785889 0 0.001083249228994784 -0.017629697378056839 0 0.0013348118290483957 -0.016866515488785889 0 0.0018768474164643004 -0.016997620896268949 0 0.0015631374447459324 -0.016478674216227819 0 0.0026121356155501423 -0.013651027504606407 0 0.001083249228994784 -0.017629697378056839 0 0.0018768474164643004 -0.016997620896268949 0 0.0024771612270845849 -0.017486431345111058 0 0.0022964673094187172 -0.016602223820537783 0 0.0018768474164643004 -0.016997620896268949 0 0.0024771612270845849 -0.017486431345111058 0 0.0032808436699697627 -0.010702277726878161 0 0.0027207863280974583 -0.011933920051481339 0 0.0040778853539736757 -0.011787207417976685 0 0.0026121356155501423 -0.013651027504606407 0 0.0039956094815841352 -0.0095369713690363761 0 0.0031230600080755576 -0.0094105345683417347 0 0.0036000694633820684 -0.0093549710779100587 0 0.0033775349680536409 -0.0095317805024596972 0 0.0033780145975777737 -0.012608978583719597 0 0.0026121356155501423 -0.013651027504606407 0 0.0036000694633820684 -0.0093549710779100587 0 0.0035504125534025978 -0.0095694733517543394 0 0.0033775349680536409 -0.0095317805024596972 0 0.0036000694633820684 -0.0093549710779100587 0 0.0035504125534025978 -0.0095694733517543394 0 0.0036610185348771207 -0.009612942431996797 0 0.0039956094815841352 -0.0095369713690363761 0 0.003739542833977138 -0.0088485919303259893 0 0.0035504125534025978 -0.0095694733517543394 0 0.0036610185348771207 -0.009612942431996797 0 0.0034669468619604889 -0.0097170554542244953 0 0.0035504125534025978 -0.0095694733517543394 0 0.0034669468619604889 -0.0097170554542244953 0 0.0033775349680536409 -0.0095317805024596972 0 0.0034669468619604889 -0.0097170554542244953 0 0.0033775349680536409 -0.0095317805024596972 0 0.0032463461725579456 -0.0096671877942804772 0 0.0031230600080755576 -0.0094105345683417347 0 0.0033775349680536409 -0.0095317805024596972 0 0.0032463461725579456 -0.0096671877942804772 0 0.0029462800181293321 -0.0097287202807349194 0 0.0032463461725579456 -0.0096671877942804772 0 0.0033721654875874594 -0.0099068892208425373 0 0.0034669468619604889 -0.0097170554542244953 0 0.0032463461725579456 -0.0096671877942804772 0 0.0033721654875874594 -0.0099068892208425373 0 0.0031410673464590828 -0.010136628097216762 0 0.0034796773461662584 -0.010152721164792558 0 0.0033310223799738249 -0.010536160960222845 0 0.0031410673464590828 -0.010136628097216762 0 0.0033721654875874594 -0.0099068892208425373 0 0.0034796773461662584 -0.010152721164792558 0 0.0034796773461662584 -0.010152721164792558 0 0.0036179495251905018 -0.010233922849299186 0 0.0037577581647549366 -0.0099438518715641907 0 0.0036179495251905018 -0.010233922849299186 0 0.0037577581647549366 -0.0099438518715641907 0 0.0039008589579928093 -0.010184708934216524 0 0.0033721654875874594 -0.0099068892208425373 0 0.0034796773461662584 -0.010152721164792558 0 0.0037577581647549366 -0.0099438518715641907 0 0.003739542833977138 -0.0088485919303259893 0 0.0036925640069990049 -0.0095533326700347667 0 0.0034669468619604889 -0.0097170554542244953 0 0.0033721654875874594 -0.0099068892208425373 0 0.0037577581647549366 -0.0099438518715641907 0 0.0036610185348771207 -0.009612942431996797 0 0.0034669468619604889 -0.0097170554542244953 0 0.0037577581647549366 -0.0099438518715641907 0 0.0036238174619356378 -0.0091386823946949282 0 0.0039209755256035825 -0.0085444715252629613 0 0.0044359044623787256 -0.0087716552218397633 0 0.0034092765466365708 -0.0081564418251160939 0 0.0036238174619356378 -0.0091386823946949282 0 0.0039209755256035825 -0.0085444715252629613 0 0.0036238174619356378 -0.0091386823946949282 0 0.0042834853040563357 -0.009457849390216596 0 0.0044359044623787256 -0.0087716552218397633 0 0.0039209755256035825 -0.0085444715252629613 0 0.0044359044623787256 -0.0087716552218397633 0 0.0042143972071821906 -0.008112469168350225 0 0.0036925640069990049 -0.0095533326700347667 0 0.00387076013757347 -0.010131334201589712 0 0.0036238174619356378 -0.0091386823946949282 0 0.0042834853040563357 -0.009457849390216596 0 0.0039008589579928093 -0.010184708934216524 0 0.0042834853040563357 -0.009457849390216596 0 0.0045405290472917432 -0.0098764256498917822 0 0.0039008589579928093 -0.010184708934216524 0 0.0049937249156195348 -0.0096601234340581953 0 0.0047462346258110412 -0.009256937981803123 0 0.0053079567326952057 -0.0088218269182853692 0 0.0047166357332217501 -0.01054744091949838 0 0.005447455889375335 -0.0056145384048868841 0 0.0049937249156195348 -0.0096601234340581953 0 0.0045405290472917432 -0.0098764256498917822 0 0.0046657680168517152 -0.010390189327327822 0 0.0049937249156195348 -0.0096601234340581953 0 0.0045405290472917432 -0.0098764256498917822 0 0.0047462346258110412 -0.009256937981803123 0 0.0042834853040563357 -0.009457849390216596 0 0.0045405290472917432 -0.0098764256498917822 0 0.0047462346258110412 -0.009256937981803123 0 0.0044359044623787256 -0.0087716552218397633 0 0.0050126410764928207 -0.0080459857023127673 0 0.0053079567326952057 -0.0088218269182853692 0 0.0047462346258110412 -0.009256937981803123 0 0.0044359044623787256 -0.0087716552218397633 0 0.0053079567326952057 -0.0088218269182853692 0 0.0042834853040563357 -0.009457849390216596 0 0.0047462346258110412 -0.009256937981803123 0 0.0044359044623787256 -0.0087716552218397633 0 0.0050126410764928207 -0.0080459857023127673 0 0.0045397294214329737 -0.0077360242386679658 0 0.0042143972071821906 -0.008112469168350225 0 0.0050550331956408382 -0.0066968400934379673 0 0.005447455889375335 -0.0056145384048868841 0 0.0044359044623787256 -0.0087716552218397633 0 0.0050126410764928207 -0.0080459857023127673 0 0.0042143972071821906 -0.008112469168350225 0 0.0050126410764928207 -0.0080459857023127673 0 0.0045397294214329737 -0.0077360242386679658 0 0.0047098922626548651 -0.0072683682738267329 0 0.0045397294214329737 -0.0077360242386679658 0 0.0042143972071821906 -0.008112469168350225 0 0.0042901841797067103 -0.0073091089958196359 0 0.0034092765466365708 -0.0081564418251160939 0 0.0039209755256035825 -0.0085444715252629613 0 0.0042143972071821906 -0.008112469168350225 0 0.0034092765466365708 -0.0081564418251160939 0 0.0042143972071821906 -0.008112469168350225 0 0.0042901841797067103 -0.0073091089958196359 0 0.003739542833977138 -0.0088485919303259893 0 0.0046324602840434395 -0.0076217600589882119 0 0.0048830191476862961 -0.0081152445790867011 0 0.0046687356213984165 -0.0083198716457513443 0 0.0049997681973335149 -0.0082783956824722758 0 0.0039956094815841352 -0.0095369713690363761 0 0.0046324602840434395 -0.0076217600589882119 0 0.003836155067896023 -0.0084751906973969653 0 0.0039510409995331735 -0.0089955524478481409 0 0.0045690990146186076 -0.0084013007403797354 0 0.0048830191476862961 -0.0081152445790867011 0 0.0049997681973335149 -0.0082783956824722758 0 0.0051004837077664525 -0.0081790679949097032 0 0.0047357704874413662 -0.0070745690891324238 0 0.0050149133928676405 -0.0068064139911692542 0 0.0051060078480562425 -0.0070384005016709758 0 0.0049741746167832465 -0.0050810023467092909 0 0.0049974668461494664 -0.0051928437766825186 0 0.0049393340120497953 -0.0051446919714742316 0 0.0049741746167832465 -0.0050810023467092909 0 0.005026120041871824 -0.0051925590009813489 0 0.0049974668461494664 -0.0051928437766825186 0 0.0046324602840434395 -0.0076217600589882119 0 0.0050848283677001685 -0.0067582781789652241 0 0.0050848283677001685 -0.0067582781789652241 0 0.004913145348535479 -0.0064055170482774405 0 0.0050504227994631074 -0.0052366902920476044 0 0.0050315867726755496 -0.0051919970094546752 0 0.0049974668461494664 -0.0051928437766825186 0 0.004956291950336855 -0.005252478361126996 0 0.0050504227994631074 -0.0052366902920476044 0 0.0049974668461494664 -0.0051928437766825186 0 0.004956291950336855 -0.005252478361126996 0 0.0049974668461494664 -0.0051928437766825186 0 0.0049462023272048251 -0.0051961963878426384 0 0.004913145348535479 -0.0064055170482774405 0 0.0049886634037953339 -0.0062248644841542767 0 0.0050550331956408382 -0.0066968400934379673 0 0.004913145348535479 -0.0064055170482774405 0 0.0049974668461494664 -0.0051928437766825186 0 0.0049393340120497953 -0.0051446919714742316 0 0.0049462023272048251 -0.0051961963878426384 0 0.0046324602840434395 -0.0076217600589882119 0 0.004913145348535479 -0.0064055170482774405 0 0.0045397294214329737 -0.0077360242386679658 0 0.0042901841797067103 -0.0073091089958196359 0 0.0047098922626548651 -0.0072683682738267329 0 -0.00019098089822749888 -0.024115573016735822 0 -0.00022244832054078045 -0.024087030258549778 0 -0.00019962671850947656 -0.024098755483975168 0 -0.0002079570921155556 -0.024093674332685621 0 -0.00016015582616696 -0.024139021916472325 0 -0.00014161462374708559 -0.024067457932253785 0 -0.00019098089822749888 -0.024115573016735822 0 -0.0002079570921155556 -0.024093674332685621 0 -0.00016015582616696 -0.024139021916472325 0 -0.00019098089822749888 -0.024115573016735822 0 -0.00019962671850947656 -0.024098755483975168 0 -0.0002079570921155556 -0.024093674332685621 0 -0.00019098089822749888 -0.024115573016735822 0 -0.00016015582616696 -0.024139021916472325 0 -0.00017688070269181823 -0.024200542893210875 0 -0.00016015582616696 -0.024139021916472325 0 -0.00017688070269181823 -0.024200542893210875 0 -0.00016128042244414073 -0.024229913836689737 0 -0.00013339705212267233 -0.024537678192864201 0 -0.00019338222712682687 -0.024388474741073061 0 -0.00022244832054078045 -0.024087030258549778 0 -0.00017688070269181823 -0.024200542893210875 0 -0.00019902681767253809 -0.024381647925903943 0 -6.1704951618331516e-05 -0.025000220292415862 0 -3.6779237862455482e-05 -0.024784832180148292 0 -0.00019902681767253809 -0.024381647925903943 0 -0.00019098089822749888 -0.024115573016735822 0 -0.00022244832054078045 -0.024087030258549778 0 -0.00017688070269181823 -0.024200542893210875 0 -6.1704951618331516e-05 -0.025000220292415862 0 -3.6779237862455482e-05 -0.024784832180148292 0 9.1037644228355411e-06 -0.024961440076395256 0 -3.6779237862455482e-05 -0.024784832180148292 0 9.1037644228355411e-06 -0.024961440076395256 0 -1.0720960942507205e-05 -0.024927771599714151 0 2.2327372542803076e-08 -0.024999880854902713 0 9.1037644228355411e-06 -0.024961440076395256 0 -1.0720960942507205e-05 -0.024927771599714151 0 2.2327372542803076e-08 -0.024999880854902713 0 9.1037644228355411e-06 -0.024961440076395256 0 3.2997855530282225e-11 -0.025000009586192092 0 9.1037644228355411e-06 -0.024961440076395256 0 -6.1155452346580283e-06 -0.024997650990264832 0 3.2997855530282225e-11 -0.025000009586192092 0 -6.1704951618331516e-05 -0.025000220292415862 0 9.1037644228355411e-06 -0.024961440076395256 0 -6.1155452346580283e-06 -0.024997650990264832 0 -6.1704951618331516e-05 -0.025000220292415862 0 9.1137315124268051e-06 -0.024992008346034454 0 -6.1155452346580283e-06 -0.024997650990264832 0 9.1137315124268051e-06 -0.024992008346034454 0 -6.1155452346580283e-06 -0.024997650990264832 0 -1.0850189792004771e-05 -0.024972213730087459 0 -6.1155452346580283e-06 -0.024997650990264832 0 3.2997855530282225e-11 -0.025000009586192092 0 -1.0850189792004771e-05 -0.024972213730087459 0 -2.7122029692701912e-08 -0.024999922355186725 0 3.2997855530282225e-11 -0.025000009586192092 0 -1.0850189792004771e-05 -0.024972213730087459 0 5.5966421738730329e-06 -0.024872986541353597 0 9.1137315124268051e-06 -0.024992008346034454 0 -1.0850189792004771e-05 -0.024972213730087459 0 9.4785877861331203e-06 -0.024848280087253885 0 -2.1736454918680874e-05 -0.024615387852285401 0 -0.00022342712490603707 -0.024825222876854253 0 5.5966421738730329e-06 -0.024872986541353597 0 -2.5700937278050645e-05 -0.024208993554368521 0 -0.00022342712490603707 -0.024825222876854253 0 -2.5700937278050645e-05 -0.024208993554368521 0 -0.0002869848157291561 -0.024110330927084766 0 -0.00032041210403609149 -0.024263675074189198 0 -0.00027727092872096518 -0.02416408079685347 0 -0.00019962671850947656 -0.024098755483975168 0 -2.5700937278050645e-05 -0.024208993554368521 0 -0.0002869848157291561 -0.024110330927084766 0 -0.00013339705212267233 -0.024537678192864201 0 -2.1736454918680874e-05 -0.024615387852285401 0 -0.00022244832054078045 -0.024087030258549778 0 -0.00019962671850947656 -0.024098755483975168 0 -2.5700937278050645e-05 -0.024208993554368521 0 -0.0002079570921155556 -0.024093674332685621 0 -0.0002869848157291561 -0.024110330927084766 0 -0.00018372344230734518 -0.024042496009080389 0 -0.00019962671850947656 -0.024098755483975168 0 -0.0002079570921155556 -0.024093674332685621 0 -0.0002869848157291561 -0.024110330927084766 0 -0.0002869848157291561 -0.024110330927084766 0 -0.0002145038468393696 -0.023915427196063665 0 -0.00018372344230734518 -0.024042496009080389 0 -0.00034965530349616097 -0.023837437436989236 0 -0.0002869848157291561 -0.024110330927084766 0 -0.0002145038468393696 -0.023915427196063665 0 -0.00012593847448079059 -0.023839087992532735 0 -0.0002145038468393696 -0.023915427196063665 0 -0.00013583051712101022 -0.023941597399876557 0 -0.0002145038468393696 -0.023915427196063665 0 -0.00013583051712101022 -0.023941597399876557 0 -0.00018372344230734518 -0.024042496009080389 0 -0.00012593847448079059 -0.023839087992532735 0 -0.00013583051712101022 -0.023941597399876557 0 -7.3529419030026992e-05 -0.023898773807120504 0 -0.00013583051712101022 -0.023941597399876557 0 -7.3529419030026992e-05 -0.023898773807120504 0 -0.00010504611149940869 -0.0239916353312714 0 -7.3529419030026992e-05 -0.023898773807120504 0 -0.00010504611149940869 -0.0239916353312714 0 -4.184446221515809e-05 -0.023939919596640324 0 -0.00010504611149940869 -0.0239916353312714 0 -4.184446221515809e-05 -0.023939919596640324 0 -5.8464140515137484e-05 -0.024015893897141281 0 -0.00010504611149940869 -0.0239916353312714 0 -0.00018372344230734518 -0.024042496009080389 0 -0.00014161462374708559 -0.024067457932253785 0 -0.0002079570921155556 -0.024093674332685621 0 -0.00018372344230734518 -0.024042496009080389 0 -0.00014161462374708559 -0.024067457932253785 0 -0.00013583051712101022 -0.023941597399876557 0 -0.00010504611149940869 -0.0239916353312714 0 -0.00018372344230734518 -0.024042496009080389 0 -0.00012042671294943341 -0.02401596014475273 0 0.00010349064551348479 -0.023767905891349288 0 5.685247895638269e-05 -0.023732316280790696 0 7.3121431357756189e-06 -0.023848857632227952 0 2.3271707102181439e-05 -0.023872932179022116 0 -7.3529419030026992e-05 -0.023898773807120504 0 7.3121431357756189e-06 -0.023848857632227952 0 -4.184446221515809e-05 -0.023939919596640324 0 -5.3530961707696454e-05 -0.023812708372226637 0 -7.3529419030026992e-05 -0.023898773807120504 0 7.3121431357756189e-06 -0.023848857632227952 0 -4.184446221515809e-05 -0.023939919596640324 0 2.3271707102181439e-05 -0.023872932179022116 0 -2.5567169828802359e-05 -0.023955980821526737 0 7.3121431357756189e-06 -0.023848857632227952 0 -4.184446221515809e-05 -0.023939919596640324 0 2.3271707102181439e-05 -0.023872932179022116 0 6.5649990971586807e-05 -0.023876139900331324 0 2.3271707102181439e-05 -0.023872932179022116 0 1.5296131334505311e-05 -0.023932457557575962 0 2.3271707102181439e-05 -0.023872932179022116 0 1.5296131334505311e-05 -0.023932457557575962 0 -2.5567169828802359e-05 -0.023955980821526737 0 1.5296131334505311e-05 -0.023932457557575962 0 -3.1434220372422206e-05 -0.023988783590256409 0 -2.1251757126233924e-05 -0.023974503423333553 0 1.5296131334505311e-05 -0.023932457557575962 0 -2.5567169828802359e-05 -0.023955980821526737 0 -3.1434220372422206e-05 -0.023988783590256409 0 -2.5567169828802359e-05 -0.023955980821526737 0 -3.1434220372422206e-05 -0.023988783590256409 0 -5.8464140515137484e-05 -0.024015893897141281 0 -3.1434220372422206e-05 -0.023988783590256409 0 -5.8464140515137484e-05 -0.024015893897141281 0 -2.7928502573329623e-05 -0.024056681529033452 0 -4.184446221515809e-05 -0.023939919596640324 0 -2.5567169828802359e-05 -0.023955980821526737 0 -5.8464140515137484e-05 -0.024015893897141281 0 -3.1434220372422206e-05 -0.023988783590256409 0 -6.9137976096599407e-05 -0.023967914669764227 0 -2.7928502573329623e-05 -0.024056681529033452 0 -3.1434220372422206e-05 -0.023988783590256409 0 -2.1251757126233924e-05 -0.023974503423333553 0 -6.9137976096599407e-05 -0.023967914669764227 0 -6.9137976096599407e-05 -0.023967914669764227 0 -0.00017269445220185708 -0.023993099647337229 0 -0.00015248289093181257 -0.023879958851898662 0 -2.1251757126233924e-05 -0.023974503423333553 0 -6.9137976096599407e-05 -0.023967914669764227 0 9.6017106099068434e-06 -0.023982822621819548 0 -0.00064974728701827405 -0.023583902668419924 0 -5.6045525085957241e-05 -0.020850715420174259 0 1.5296131334505311e-05 -0.023932457557575962 0 -2.1251757126233924e-05 -0.023974503423333553 0 9.6017106099068434e-06 -0.023982822621819548 0 -0.00016015582616696 -0.024139021916472325 0 -0.00014161462374708559 -0.024067457932253785 0 -0.00010289680935633197 -0.024082008300326151 0 -0.00010504611149940869 -0.0239916353312714 0 -0.00014161462374708559 -0.024067457932253785 0 -5.8464140515137484e-05 -0.024015893897141281 0 -0.00014161462374708559 -0.024067457932253785 0 -5.8464140515137484e-05 -0.024015893897141281 0 -0.00010289680935633197 -0.024082008300326151 0 -5.8464140515137484e-05 -0.024015893897141281 0 -2.7928502573329623e-05 -0.024056681529033452 0 -0.00010289680935633197 -0.024082008300326151 0 -2.7928502573329623e-05 -0.024056681529033452 0 -0.00011755293593198913 -0.02415664452331746 0 -0.00010289680935633197 -0.024082008300326151 0 -0.00016015582616696 -0.024139021916472325 0 -0.00011755293593198913 -0.02415664452331746 0 -0.00016128042244414073 -0.024229913836689737 0 -0.00016015582616696 -0.024139021916472325 0 -0.00011755293593198913 -0.02415664452331746 0 -0.00010289680935633197 -0.024082008300326151 0 -0.00011755293593198913 -0.02415664452331746 0 -0.0001443860918142828 -0.024225249941280745 0 -7.592377301975709e-05 -0.024214153420920162 0 -0.00011755293593198913 -0.02415664452331746 0 -0.0001443860918142828 -0.024225249941280745 0 -0.00016128042244414073 -0.024229913836689737 0 -2.7928502573329623e-05 -0.024056681529033452 0 -0.00011755293593198913 -0.02415664452331746 0 -7.592377301975709e-05 -0.024214153420920162 0 -2.4297587065278373e-05 -0.023979178163078631 0 -3.2899228383078928e-06 -0.024203132369687345 0 -3.2899228383078928e-06 -0.024203132369687345 0 -0.00026560121633384696 -0.023106327932374576 0 4.9477812194195228e-05 -0.023850659754608195 0 -6.1590107335490036e-05 -0.023732142798048403 0 6.1416833687128998e-05 -0.02365703340047276 0 -7.592377301975709e-05 -0.024214153420920162 0 -0.00013162031847756598 -0.02423480293257969 0 -0.00011818948349632965 -0.024234960011732327 0 -0.0001443860918142828 -0.024225249941280745 0 -7.592377301975709e-05 -0.024214153420920162 0 -0.00013162031847756598 -0.02423480293257969 0 -0.00013162031847756598 -0.02423480293257969 0 -0.0001469157855947321 -0.024233239742216989 0 -0.00015599176914876098 -0.024242034846743022 0 -0.0001443860918142828 -0.024225249941280745 0 -0.00013162031847756598 -0.02423480293257969 0 -0.00015599176914876098 -0.024242034846743022 0 -0.00025549527958651372 -0.023814535807248117 0 -0.00017269445220185708 -0.023993099647337229 0 -0.00015248289093181257 -0.023879958851898662 0 -0.00025549527958651372 -0.023814535807248117 0 -0.00017013628492513748 -0.023817947625110487 0 -0.00015248289093181257 -0.023879958851898662 0 -0.00025549527958651372 -0.023814535807248117 0 -0.00017013628492513748 -0.023817947625110487 0 -0.00016859628602199686 -0.023788089706949532 0 -6.9137976096599407e-05 -0.023967914669764227 0 -0.00015248289093181257 -0.023879958851898662 0 -5.8668065507305636e-05 -0.023878300240370309 0 -0.00017013628492513748 -0.023817947625110487 0 -0.00015248289093181257 -0.023879958851898662 0 -0.00011726233991833903 -0.023819409325327699 0 -0.00015248289093181257 -0.023879958851898662 0 -5.8668065507305636e-05 -0.023878300240370309 0 -0.00011726233991833903 -0.023819409325327699 0 -6.9137976096599407e-05 -0.023967914669764227 0 -2.7928502573329623e-05 -0.024056681529033452 0 -5.8668065507305636e-05 -0.023878300240370309 0 -2.7928502573329623e-05 -0.024056681529033452 0 4.9477812194195228e-05 -0.023850659754608195 0 -5.8668065507305636e-05 -0.023878300240370309 0 -5.8668065507305636e-05 -0.023878300240370309 0 -6.1590107335490036e-05 -0.023732142798048403 0 -0.00011726233991833903 -0.023819409325327699 0 4.9477812194195228e-05 -0.023850659754608195 0 -5.8668065507305636e-05 -0.023878300240370309 0 -6.1590107335490036e-05 -0.023732142798048403 0 -0.0011183934762721819 -0.019966892067499947 0 -0.00062161541915889092 -0.01997512392548724 0 -0.00054384969834038552 -0.019687933498655785 0 -0.0006095994295941948 -0.021857580837735115 0 -0.00062690893456443444 -0.020873859393272264 0 -6.1590107335490036e-05 -0.023732142798048403 0 -0.00011726233991833903 -0.023819409325327699 0 -0.00016859628602199686 -0.023788089706949532 0 -0.0011183934762721819 -0.019966892067499947 0 -0.00062161541915889092 -0.01997512392548724 0 -0.00053378710765034771 -0.020319562496923741 0 -0.00029691423561480188 -0.01993169228493645 0 -0.00062161541915889092 -0.01997512392548724 0 -0.00053378710765034771 -0.020319562496923741 0 -0.00029691423561480188 -0.01993169228493645 0 -0.00062161541915889092 -0.01997512392548724 0 -0.00054384969834038552 -0.019687933498655785 0 -0.00017013628492513748 -0.023817947625110487 0 -0.00011726233991833903 -0.023819409325327699 0 -0.00016859628602199686 -0.023788089706949532 0 -0.0011183934762721819 -0.019966892067499947 0 -0.00053378710765034771 -0.020319562496923741 0 -0.0011296789642723053 -0.020588470395329538 0 -0.00053378710765034771 -0.020319562496923741 0 -0.0011296789642723053 -0.020588470395329538 0 -0.00075434120806087642 -0.020747195083174092 0 -0.0006095994295941948 -0.021857580837735115 0 -0.00026560121633384696 -0.023106327932374576 0 -0.0011183934762721819 -0.019966892067499947 0 -0.0011296789642723053 -0.020588470395329538 0 -0.0016934006283954681 -0.020291206834755136 0 -0.0011296789642723053 -0.020588470395329538 0 -0.00096598627466816208 -0.02121244039759242 0 -0.0017386701643464959 -0.021063432052556973 0 -0.0011296789642723053 -0.020588470395329538 0 -0.00096598627466816208 -0.02121244039759242 0 -0.00075434120806087642 -0.020747195083174092 0 -0.00038836506097596874 -0.020868019257039891 0 -0.00096598627466816208 -0.02121244039759242 0 -0.00075434120806087642 -0.020747195083174092 0 -0.00038836506097596874 -0.020868019257039891 0 -0.00096598627466816208 -0.02121244039759242 0 -0.00027676861992010038 -0.021303692911718991 0 -0.00038836506097596874 -0.020868019257039891 0 -0.00053378710765034771 -0.020319562496923741 0 -0.00075434120806087642 -0.020747195083174092 0 -0.00014611289315672233 -0.024225319043300782 0 -0.0001469157855947321 -0.024233239742216989 0 -0.00014212185618427516 -0.024219470253237417 0 -0.00013162031847756598 -0.02423480293257969 0 -0.00014611289315672233 -0.024225319043300782 0 -0.0001469157855947321 -0.024233239742216989 0 -0.00026560121633384696 -0.023106327932374576 0 -0.00099176974104571132 -0.022473212367757768 0 -0.00013162031847756598 -0.02423480293257969 0 -0.00014611289315672233 -0.024225319043300782 0 -0.00011818948349632965 -0.024234960011732327 0 -0.00014611289315672233 -0.024225319043300782 0 -0.00016627116964601721 -0.024224619513649986 0 -0.00016940059821786283 -0.024196993542729028 0 -0.0011296789642723053 -0.020588470395329538 0 -0.0016934006283954681 -0.020291206834755136 0 -0.0017386701643464959 -0.021063432052556973 0 -0.00030482522803829343 -0.024189818258101459 0 -0.00026560121633384696 -0.023106327932374576 0 -0.00014611289315672233 -0.024225319043300782 0 -0.00014551202777767901 -0.024212184940072511 0 -0.00014212185618427516 -0.024219470253237417 0 -0.00016940059821786283 -0.024196993542729028 0 -0.00014551202777767901 -0.024212184940072511 0 -0.00014890696613105252 -0.024198547587641176 0 -0.00014611289315672233 -0.024225319043300782 0 -0.00016940059821786283 -0.024196993542729028 0 -0.00014551202777767901 -0.024212184940072511 0 -0.00014551202777767901 -0.024212184940072511 0 -0.0001399069313139397 -0.024208929395549493 0 -0.00014890696613105252 -0.024198547587641176 0 -0.0001399069313139397 -0.024208929395549493 0 -0.00013058036202793767 -0.024207645803831893 0 -0.00013566637665223905 -0.024202491910844861 0 -0.0001399069313139397 -0.024208929395549493 0 -0.00013058036202793767 -0.024207645803831893 0 -0.00014212185618427516 -0.024219470253237417 0 -0.00013058036202793767 -0.024207645803831893 0 -0.00013214862429591226 -0.024213616791659905 0 -0.00014212185618427516 -0.024219470253237417 0 -0.00014551202777767901 -0.024212184940072511 0 -0.0001399069313139397 -0.024208929395549493 0 -0.00014212185618427516 -0.024219470253237417 0 -0.00012585330334466169 -0.024206329190636287 0 -0.00013058036202793767 -0.024207645803831893 0 -0.00012286322529526483 -0.024207665018260147 0 -0.00013058036202793767 -0.024207645803831893 0 -0.00013214862429591226 -0.024213616791659905 0 -0.00012286322529526483 -0.024207665018260147 0 -0.0001172703154809581 -0.024214089556596922 0 -0.00013214862429591226 -0.024213616791659905 0 -0.00012286322529526483 -0.024207665018260147 0 -0.0001172703154809581 -0.024214089556596922 0 -0.00013214862429591226 -0.024213616791659905 0 -0.0001513185308712875 -0.024232978911036474 0 -0.00013214862429591226 -0.024213616791659905 0 -0.00014212185618427516 -0.024219470253237417 0 -0.0001513185308712875 -0.024232978911036474 0 -0.0001469157855947321 -0.024233239742216989 0 -0.00014212185618427516 -0.024219470253237417 0 -0.0001513185308712875 -0.024232978911036474 0 -0.0001443860918142828 -0.024225249941280745 0 -0.00015599176914876098 -0.024242034846743022 0 -0.00017459108475724661 -0.024266218258483241 0 -0.0001469157855947321 -0.024233239742216989 0 -0.00015599176914876098 -0.024242034846743022 0 -0.0001513185308712875 -0.024232978911036474 0 -0.00015599176914876098 -0.024242034846743022 0 -0.0001513185308712875 -0.024232978911036474 0 -0.00017459108475724661 -0.024266218258483241 0 -0.0001172703154809581 -0.024214089556596922 0 -0.00015102673944263328 -0.024249625580898836 0 -4.8523820064119797e-05 -0.024228981798006186 0 -0.0001172703154809581 -0.024214089556596922 0 -0.0001513185308712875 -0.024232978911036474 0 -0.00015102673944263328 -0.024249625580898836 0 -0.0001513185308712875 -0.024232978911036474 0 -0.00015102673944263328 -0.024249625580898836 0 -0.00017459108475724661 -0.024266218258483241 0 -0.00015102673944263328 -0.024249625580898836 0 -0.00019902681767253809 -0.024381647925903943 0 -0.00017459108475724661 -0.024266218258483241 0 -0.00017688070269181823 -0.024200542893210875 0 -0.00019902681767253809 -0.024381647925903943 0 -0.00016128042244414073 -0.024229913836689737 0 -0.00015102673944263328 -0.024249625580898836 0 -0.00019902681767253809 -0.024381647925903943 0 -4.8523820064119797e-05 -0.024228981798006186 0 -0.0001443860918142828 -0.024225249941280745 0 -0.00016128042244414073 -0.024229913836689737 0 -0.00017459108475724661 -0.024266218258483241 0 -0.00019902681767253809 -0.024381647925903943 0 -0.00016128042244414073 -0.024229913836689737 0 -0.00017459108475724661 -0.024266218258483241 0 -1.0720960942507205e-05 -0.024927771599714151 0 1.457232489202905e-05 -0.024980813057052648 0 -3.7260113538399616e-08 -0.024999950392153882 0 2.2327372542803076e-08 -0.024999880854902713 0 -1.0720960942507205e-05 -0.024927771599714151 0 -3.7260113538399616e-08 -0.024999950392153882 0 -3.6779237862455482e-05 -0.024784832180148292 0 -0.00019902681767253809 -0.024381647925903943 0 -4.8523820064119797e-05 -0.024228981798006186 0 -4.238270095107583e-05 -0.024783047936149567 0 -2.2328697442403896e-05 -0.024627004388548087 0 -3.6779237862455482e-05 -0.024784832180148292 0 -1.0720960942507205e-05 -0.024927771599714151 0 1.457232489202905e-05 -0.024980813057052648 0 -2.2328697442403896e-05 -0.024627004388548087 0 -5.0836054509637017e-05 -0.024571210154583023 0 1.457232489202905e-05 -0.024980813057052648 0 4.2803044794546925e-06 -0.024994204091263711 0 4.1352267437817986e-06 -0.024999706166186016 0 1.457232489202905e-05 -0.024980813057052648 0 4.2803044794546925e-06 -0.024994204091263711 0 -3.7260113538399616e-08 -0.024999950392153882 0 4.2803044794546925e-06 -0.024994204091263711 0 -3.7260113538399616e-08 -0.024999950392153882 0 1.2966760275081724e-08 -0.025000008545740447 0 4.2803044794546925e-06 -0.024994204091263711 0 1.2966760275081724e-08 -0.025000008545740447 0 4.1352267437817986e-06 -0.024999706166186016 0 -0.0001172703154809581 -0.024214089556596922 0 -4.8523820064119797e-05 -0.024228981798006186 0 -0.00011263581288640169 -0.024208856638632568 0 -0.0001172703154809581 -0.024214089556596922 0 -0.00011263581288640169 -0.024208856638632568 0 -0.00012286322529526483 -0.024207665018260147 0 -0.00011263581288640169 -0.024208856638632568 0 -0.00012286322529526483 -0.024207665018260147 0 -0.00012583827518533296 -0.024206868935661711 0 -0.00012286322529526483 -0.024207665018260147 0 -0.00012583827518533296 -0.024206868935661711 0 -0.00012589930791844487 -0.024206434876468022 0 -0.00012585330334466169 -0.024206329190636287 0 -0.00012286322529526483 -0.024207665018260147 0 -0.00012589930791844487 -0.024206434876468022 0 1.2966760275081724e-08 -0.025000008545740447 0 4.1352267437817986e-06 -0.024999706166186016 0 7.71515886386049e-07 -0.024999680977962149 0 1.2966760275081724e-08 -0.025000008545740447 0 7.71515886386049e-07 -0.024999680977962149 0 -2.7530529892950283e-09 -0.02499999445308557 0 4.1352267437817986e-06 -0.024999706166186016 0 7.71515886386049e-07 -0.024999680977962149 0 -6.7082814358176596e-07 -0.024998615630296133 0 -0.00011263581288640169 -0.024208856638632568 0 -0.00012583827518533296 -0.024206868935661711 0 -0.00013979171599873958 -0.024206875721099794 0 -5.0836054509637017e-05 -0.024571210154583023 0 -5.0583215505173555e-05 -0.024757173627333907 0 7.71515886386049e-07 -0.024999680977962149 0 -2.7530529892950283e-09 -0.02499999445308557 0 1.417481798328116e-07 -0.02499927968042135 0 7.71515886386049e-07 -0.024999680977962149 0 1.417481798328116e-07 -0.02499927968042135 0 -6.7082814358176596e-07 -0.024998615630296133 0 -2.7530529892950283e-09 -0.02499999445308557 0 1.417481798328116e-07 -0.02499927968042135 0 5.9330897866320331e-08 -0.024999407614865535 0 3.8996805874958354e-06 -0.024908083550544344 0 -5.0583215505173555e-05 -0.024757173627333907 0 -0.00013979171599873958 -0.024206875721099794 0 -0.00013313037354496356 -0.02420737660437048 0 -0.00013926723009333647 -0.024214303067188331 0 -0.00012583827518533296 -0.024206868935661711 0 -0.00013979171599873958 -0.024206875721099794 0 -0.00013313037354496356 -0.02420737660437048 0 -0.00012583827518533296 -0.024206868935661711 0 -0.00012589930791844487 -0.024206434876468022 0 -0.00013313037354496356 -0.02420737660437048 0 -0.00013313037354496356 -0.02420737660437048 0 -0.00012644954454213444 -0.024207175032781851 0 -0.00013123321963842571 -0.024209297367165775 0 -0.00012585330334466169 -0.024206329190636287 0 -0.00012589930791844487 -0.024206434876468022 0 -0.00012644954454213444 -0.024207175032781851 0 -0.00012589930791844487 -0.024206434876468022 0 -0.00013313037354496356 -0.02420737660437048 0 -0.00012644954454213444 -0.024207175032781851 0 -0.00012644954454213444 -0.024207175032781851 0 -0.00013123321963842571 -0.024209297367165775 0 -0.00012456914013046739 -0.02421133848533872 0 -0.00013123321963842571 -0.024209297367165775 0 -0.00012456914013046739 -0.02421133848533872 0 -0.00013926723009333647 -0.024214303067188331 0 -0.00013313037354496356 -0.02420737660437048 0 -0.00013123321963842571 -0.024209297367165775 0 -0.00013926723009333647 -0.024214303067188331 0 -0.00013926723009333647 -0.024214303067188331 0 -0.00011588321153499197 -0.024221205952901739 0 -0.00017104359791245995 -0.02424666413197454 0 -0.00013979171599873958 -0.024206875721099794 0 -0.00013926723009333647 -0.024214303067188331 0 -0.00017104359791245995 -0.02424666413197454 0 -0.00012456914013046739 -0.02421133848533872 0 -0.00013926723009333647 -0.024214303067188331 0 -0.00011588321153499197 -0.024221205952901739 0 -2.7530529892950283e-09 -0.02499999445308557 0 5.9330897866320331e-08 -0.024999407614865535 0 1.0945261554823951e-09 -0.025000001477486957 0 -5.0583215505173555e-05 -0.024757173627333907 0 -4.3872566777335158e-08 -0.025000362461910744 0 -5.0583215505173555e-05 -0.024757173627333907 0 -9.9149563649478283e-05 -0.024597153960189883 0 -6.1342601069282539e-06 -0.025002863957984275 0 -9.9986885042992748e-06 -0.025002071295774243 0 -1.4745005630474433e-08 -0.025000028000448458 0 -0.00013566637665223905 -0.024202491910844861 0 -0.00012443986261058231 -0.024204530722040547 0 -0.00014545339174420289 -0.024187251214645631 0 -0.00013058036202793767 -0.024207645803831893 0 -0.00013566637665223905 -0.024202491910844861 0 -0.00012443986261058231 -0.024204530722040547 0 -0.0001399069313139397 -0.024208929395549493 0 -0.00013566637665223905 -0.024202491910844861 0 -0.00014890696613105252 -0.024198547587641176 0 -0.00012585330334466169 -0.024206329190636287 0 -0.00013058036202793767 -0.024207645803831893 0 -0.00012443986261058231 -0.024204530722040547 0 -0.00012585330334466169 -0.024206329190636287 0 -0.00012644954454213444 -0.024207175032781851 0 -0.00012443986261058231 -0.024204530722040547 0 -0.00012644954454213444 -0.024207175032781851 0 -0.00012456914013046739 -0.02421133848533872 0 -0.00012443986261058231 -0.024204530722040547 0 -0.00016250464196565197 -0.024188173812880586 0 8.4551503290713098e-05 -0.024319152023922697 0 -0.00011588321153499197 -0.024221205952901739 0 -0.00012443986261058231 -0.024204530722040547 0 -0.00013514026351153235 -0.024176443994058824 0 -0.00012456914013046739 -0.02421133848533872 0 -0.00011588321153499197 -0.024221205952901739 0 -0.00012443986261058231 -0.024204530722040547 0 -0.00012443986261058231 -0.024204530722040547 0 -0.00013514026351153235 -0.024176443994058824 0 -0.00014545339174420289 -0.024187251214645631 0 9.1839888912476016e-05 -0.024270803173251126 0 -5.4479987589476396e-05 -0.024326797203978522 0 9.5910580792186176e-05 -0.024466379858420737 0 -0.00011588321153499197 -0.024221205952901739 0 9.1839888912476016e-05 -0.024270803173251126 0 -5.4479987589476396e-05 -0.024326797203978522 0 -5.4479987589476396e-05 -0.024326797203978522 0 9.5910580792186176e-05 -0.024466379858420737 0 -0.00013635852715706119 -0.024430551096398585 0 9.5910580792186176e-05 -0.024466379858420737 0 -0.00013635852715706119 -0.024430551096398585 0 -3.4683899522010223e-05 -0.024719573305285091 0 -2.7507737333427264e-06 -0.024986808057078407 0 -1.4745005630474433e-08 -0.025000028000448458 0 2.4748067555884846e-08 -0.024999895097023762 0 -9.9986885042992748e-06 -0.025002071295774243 0 -2.7507737333427264e-06 -0.024986808057078407 0 -1.4745005630474433e-08 -0.025000028000448458 0 -0.00011588321153499197 -0.024221205952901739 0 -0.00017104359791245995 -0.02424666413197454 0 -5.4479987589476396e-05 -0.024326797203978522 0 -9.9986885042992748e-06 -0.025002071295774243 0 -2.7507737333427264e-06 -0.024986808057078407 0 -3.7943626724194052e-05 -0.024957344419858491 0 -9.9149563649478283e-05 -0.024597153960189883 0 -7.6477272925577693e-05 -0.024701038694453163 0 -0.00017104359791245995 -0.02424666413197454 0 -5.4479987589476396e-05 -0.024326797203978522 0 -0.00013635852715706119 -0.024430551096398585 0 -2.7507737333427264e-06 -0.024986808057078407 0 -3.7943626724194052e-05 -0.024957344419858491 0 -4.1847783549759009e-07 -0.024906487286961699 0 -2.7507737333427264e-06 -0.024986808057078407 0 2.4748067555884846e-08 -0.024999895097023762 0 -4.1847783549759009e-07 -0.024906487286961699 0 2.4748067555884846e-08 -0.024999895097023762 0 -3.6119648585987421e-09 -0.024999843841596918 0 -4.1847783549759009e-07 -0.024906487286961699 0 -3.6119648585987421e-09 -0.024999843841596918 0 -4.1847783549759009e-07 -0.024906487286961699 0 -1.2846062395461878e-05 -0.024864303679690291 0 -4.1847783549759009e-07 -0.024906487286961699 0 -3.4683899522010223e-05 -0.024719573305285091 0 -1.2846062395461878e-05 -0.024864303679690291 0 -3.7943626724194052e-05 -0.024957344419858491 0 -4.1847783549759009e-07 -0.024906487286961699 0 -3.4683899522010223e-05 -0.024719573305285091 0 -7.6477272925577693e-05 -0.024701038694453163 0 -4.1582216994363405e-05 -0.024725245789394237 0 9.5910580792186176e-05 -0.024466379858420737 0 -3.4683899522010223e-05 -0.024719573305285091 0 0.00010520816727865173 -0.024603243977678036 0 -3.4683899522010223e-05 -0.024719573305285091 0 2.4058498251767396e-05 -0.024730907249152119 0 0.00010520816727865173 -0.024603243977678036 0 -3.4683899522010223e-05 -0.024719573305285091 0 2.4058498251767396e-05 -0.024730907249152119 0 -1.2846062395461878e-05 -0.024864303679690291 0 2.4058498251767396e-05 -0.024730907249152119 0 1.7969323781253643e-05 -0.024816130194673731 0 -1.2846062395461878e-05 -0.024864303679690291 0 2.4058498251767396e-05 -0.024730907249152119 0 1.7969323781253643e-05 -0.024816130194673731 0 0.00011288277315752465 -0.024702880359841924 0 2.4058498251767396e-05 -0.024730907249152119 0 0.00011288277315752465 -0.024702880359841924 0 0.00010520816727865173 -0.024603243977678036 0 1.7969323781253643e-05 -0.024816130194673731 0 6.4715244567841733e-05 -0.024807914129011541 0 0.00011288277315752465 -0.024702880359841924 0 6.4715244567841733e-05 -0.024807914129011541 0 0.00011288277315752465 -0.024702880359841924 0 0.00012640248924406362 -0.02479568232048867 0 1.7969323781253643e-05 -0.024816130194673731 0 6.4715244567841733e-05 -0.024807914129011541 0 2.2907805843941248e-05 -0.024867678992521316 0 1.7969323781253643e-05 -0.024816130194673731 0 2.2907805843941248e-05 -0.024867678992521316 0 -4.8403185703895465e-06 -0.024924515957103183 0 -4.8403185703895465e-06 -0.024924515957103183 0 -2.0057198412608187e-08 -0.024999877055866825 0 -9.6677126067347345e-09 -0.024999940681121702 0 -3.6119648585987421e-09 -0.024999843841596918 0 -2.0057198412608187e-08 -0.024999877055866825 0 -1.2846062395461878e-05 -0.024864303679690291 0 -4.8403185703895465e-06 -0.024924515957103183 0 -2.0057198412608187e-08 -0.024999877055866825 0 -1.2846062395461878e-05 -0.024864303679690291 0 1.7969323781253643e-05 -0.024816130194673731 0 -4.8403185703895465e-06 -0.024924515957103183 0 -1.2846062395461878e-05 -0.024864303679690291 0 0.00057131840397077862 -0.024641532545544881 0 0.00038677301173747544 -0.024634702068542121 0 0.00037211837249716967 -0.02445290285221614 0 0.00038677301173747544 -0.024634702068542121 0 0.00025064547854531787 -0.024617831268509468 0 0.00037211837249716967 -0.02445290285221614 0 0.00057131840397077862 -0.024641532545544881 0 0.00037211837249716967 -0.02445290285221614 0 0.00066212838824468922 -0.024224611294842335 0 0.00061460324306135774 -0.024457187480987526 0 0.00037886800387913283 -0.02467250687531462 0 0.00057131840397077862 -0.024641532545544881 0 0.00038677301173747544 -0.024634702068542121 0 0.00036000711919128008 -0.024692192448396228 0 0.00038677301173747544 -0.024634702068542121 0 0.00024190268507684335 -0.024725747372651256 0 0.00025064547854531787 -0.024617831268509468 0 0.00038677301173747544 -0.024634702068542121 0 0.00024190268507684335 -0.024725747372651256 0 0.00036000711919128008 -0.024692192448396228 0 0.00024190268507684335 -0.024725747372651256 0 0.00011288277315752465 -0.024702880359841924 0 0.00012640248924406362 -0.02479568232048867 0 0.00024190268507684335 -0.024725747372651256 0 0.00011288277315752465 -0.024702880359841924 0 0.00025064547854531787 -0.024617831268509468 0 0.00011288277315752465 -0.024702880359841924 0 0.00010520816727865173 -0.024603243977678036 0 0.0001920974707564351 -0.02454223228665834 0 0.00011288277315752465 -0.024702880359841924 0 0.00025064547854531787 -0.024617831268509468 0 0.0001920974707564351 -0.02454223228665834 0 0.00025064547854531787 -0.024617831268509468 0 0.0001920974707564351 -0.02454223228665834 0 0.00037211837249716967 -0.02445290285221614 0 0.00023897360985068334 -0.024343579893440701 0 0.0001920974707564351 -0.02454223228665834 0 0.00037211837249716967 -0.02445290285221614 0 0.00023897360985068334 -0.024343579893440701 0 0.00010520816727865173 -0.024603243977678036 0 0.0001920974707564351 -0.02454223228665834 0 0.00024439798151809508 -0.024430801232516165 0 0.00011601152786598988 -0.024569369078169392 0 9.5910580792186176e-05 -0.024466379858420737 0 0.00010520816727865173 -0.024603243977678036 0 0.0001504455603079189 -0.024469265804202677 0 0.00023019435412649858 -0.024514770702575062 0 0.00010520816727865173 -0.024603243977678036 0 0.0001504455603079189 -0.024469265804202677 0 0.00023019435412649858 -0.024514770702575062 0 0.00021038516442472939 -0.024346098806965207 0 0.0005291161952868565 -0.024350489735328568 0 0.00023019435412649858 -0.024514770702575062 0 0.0001504455603079189 -0.024469265804202677 0 0.00021038516442472939 -0.024346098806965207 0 0.00021038516442472939 -0.024346098806965207 0 0.0005291161952868565 -0.024350489735328568 0 0.00039770398621306576 -0.024105617779796244 0 0.00024439798151809508 -0.024430801232516165 0 0.00049524328377055006 -0.024228634266796136 0 0.00023897360985068334 -0.024343579893440701 0 0.00045517159836079725 -0.024114206471395169 0 0.00037211837249716967 -0.02445290285221614 0 0.00045517159836079725 -0.024114206471395169 0 0.00037211837249716967 -0.02445290285221614 0 0.00066212838824468922 -0.024224611294842335 0 0.00045517159836079725 -0.024114206471395169 0 0.00066212838824468922 -0.024224611294842335 0 0.00076310332661008837 -0.023879151856275857 0 0.00049524328377055006 -0.024228634266796136 0 0.00079899049618881591 -0.023989500831518823 0 0.0005291161952868565 -0.024350489735328568 0 0.00064093390331300935 -0.023908857588845832 0 0.00084359912472691868 -0.024107904604983077 0 0.0005291161952868565 -0.024350489735328568 0 0.00039770398621306576 -0.024105617779796244 0 0.00064093390331300935 -0.023908857588845832 0 -0.00080142255766023926 -0.022886509263990464 0 -0.0017994922222951317 -0.022646280797640847 0 -0.0010934057924377838 -0.02204095271868085 0 0.00039770398621306576 -0.024105617779796244 0 0.00064093390331300935 -0.023908857588845832 0 0.00018469734725742222 -0.023836350016420611 0 -0.00017812301106288821 -0.023328951895303936 0 -0.00039760594894065006 -0.023652045314431342 0 -0.00080142255766023926 -0.022886509263990464 0 -0.00038466788659801494 -0.022271476212118852 0 -0.00010132518228671752 -0.022665952760383683 0 -0.00080142255766023926 -0.022886509263990464 0 -0.0010934057924377838 -0.02204095271868085 0 -0.00038466788659801494 -0.022271476212118852 0 0.0001504455603079189 -0.024469265804202677 0 0.00021038516442472939 -0.024346098806965207 0 0.00017282215612334092 -0.024369901339597381 0 9.5910580792186176e-05 -0.024466379858420737 0 0.0001504455603079189 -0.024469265804202677 0 0.00017282215612334092 -0.024369901339597381 0 9.1839888912476016e-05 -0.024270803173251126 0 9.5910580792186176e-05 -0.024466379858420737 0 0.00017282215612334092 -0.024369901339597381 0 0.00021038516442472939 -0.024346098806965207 0 0.00039770398621306576 -0.024105617779796244 0 0.00018469734725742222 -0.023836350016420611 0 0.00021038516442472939 -0.024346098806965207 0 0.00017282215612334092 -0.024369901339597381 0 0.00021074264610974048 -0.02432365205954206 0 0.00032917863361527815 -0.02450122772086586 0 -0.00039760594894065006 -0.023652045314431342 0 9.1839888912476016e-05 -0.024270803173251126 0 0.00017282215612334092 -0.024369901339597381 0 0.00021074264610974048 -0.02432365205954206 0 8.4551503290713098e-05 -0.024319152023922697 0 -0.00039760594894065006 -0.023652045314431342 0 -0.00013514026351153235 -0.024176443994058824 0 -0.00017316444617005613 -0.024151390489835823 0 -0.00014545339174420289 -0.024187251214645631 0 -0.0017994922222951317 -0.022646280797640847 0 -0.0017765424213070887 -0.021855807525550736 0 -0.0010934057924377838 -0.02204095271868085 0 -0.00039760594894065006 -0.023652045314431342 0 -0.0010098208095369473 -0.023000227316269269 0 -0.00017316444617005613 -0.024151390489835823 0 -0.00014545339174420289 -0.024187251214645631 0 -0.00017249952939972412 -0.024177251051825329 0 -0.00099176974104571132 -0.022473212367757768 0 -0.0010098208095369473 -0.023000227316269269 0 -0.0017386701643464959 -0.021063432052556973 0 -0.0017765424213070887 -0.021855807525550736 0 -0.0013945231665554393 -0.021542107957221817 0 -0.00016940059821786283 -0.024196993542729028 0 -0.00017249952939972412 -0.024177251051825329 0 -0.00014890696613105252 -0.024198547587641176 0 -0.00014545339174420289 -0.024187251214645631 0 -0.00017249952939972412 -0.024177251051825329 0 -0.00014890696613105252 -0.024198547587641176 0 -0.00013566637665223905 -0.024202491910844861 0 -0.00014545339174420289 -0.024187251214645631 0 -0.00014890696613105252 -0.024198547587641176 0 -0.0010934057924377838 -0.02204095271868085 0 -0.00046719829654263045 -0.021742081042488346 0 -0.00038466788659801494 -0.022271476212118852 0 -0.00096598627466816208 -0.02121244039759242 0 -0.0010934057924377838 -0.02204095271868085 0 -0.0013945231665554393 -0.021542107957221817 0 -0.00096598627466816208 -0.02121244039759242 0 -0.0017386701643464959 -0.021063432052556973 0 -0.0013945231665554393 -0.021542107957221817 0 -0.0017765424213070887 -0.021855807525550736 0 -0.0010934057924377838 -0.02204095271868085 0 -0.0013945231665554393 -0.021542107957221817 0 -0.00096598627466816208 -0.02121244039759242 0 -0.00046719829654263045 -0.021742081042488346 0 -0.00027676861992010038 -0.021303692911718991 0 -0.00096598627466816208 -0.02121244039759242 0 -0.0010934057924377838 -0.02204095271868085 0 -0.00046719829654263045 -0.021742081042488346 0 5.2527720346148738e-05 -0.021018101192570329 0 -0.00027676861992010038 -0.021303692911718991 0 0.00017548333007244319 -0.021379639639113497 0 -0.00027676861992010038 -0.021303692911718991 0 0.00017548333007244319 -0.021379639639113497 0 -5.0318796685657463e-05 -0.021604167424828485 0 -5.0318796685657463e-05 -0.021604167424828485 0 1.3160344304435578e-05 -0.021951507473961827 0 0.00021193887122507472 -0.021665160133093515 0 0.00017548333007244319 -0.021379639639113497 0 -5.0318796685657463e-05 -0.021604167424828485 0 0.00021193887122507472 -0.021665160133093515 0 -0.00046719829654263045 -0.021742081042488346 0 -5.0318796685657463e-05 -0.021604167424828485 0 1.3160344304435578e-05 -0.021951507473961827 0 -0.00046719829654263045 -0.021742081042488346 0 -0.00027676861992010038 -0.021303692911718991 0 -5.0318796685657463e-05 -0.021604167424828485 0 -0.00046719829654263045 -0.021742081042488346 0 1.3160344304435578e-05 -0.021951507473961827 0 -0.00038466788659801494 -0.022271476212118852 0 1.3160344304435578e-05 -0.021951507473961827 0 0.00014305282242664516 -0.022294487098258403 0 0.00036292678795131055 -0.021911727078277182 0 1.3160344304435578e-05 -0.021951507473961827 0 0.00014305282242664516 -0.022294487098258403 0 -0.00038466788659801494 -0.022271476212118852 0 0.00014305282242664516 -0.022294487098258403 0 0.00070651063571830204 -0.022214567588152035 0 0.00036292678795131055 -0.021911727078277182 0 1.3160344304435578e-05 -0.021951507473961827 0 0.00036292678795131055 -0.021911727078277182 0 0.00021193887122507472 -0.021665160133093515 0 0.00070651063571830204 -0.022214567588152035 0 0.00056549019095654971 -0.021801937103615724 0 0.00077113778033667253 -0.021657811705759932 0 0.00070651063571830204 -0.022214567588152035 0 0.00036292678795131055 -0.021911727078277182 0 0.00056549019095654971 -0.021801937103615724 0 0.00043520030670792794 -0.020819523053244537 0 0.00039654767641040742 -0.021266302550620404 0 0.00082482541187969848 -0.021535716906764889 0 0.00036292678795131055 -0.021911727078277182 0 0.00056549019095654971 -0.021801937103615724 0 0.00048674017152864404 -0.02157600693910049 0 0.00019381481461028176 -0.020180753219784468 0 0.00029965620934241307 -0.02019577706698927 0 0.00030036792891571595 -0.020200219712549525 0 0.00048674017152864404 -0.02157600693910049 0 0.00077113778033667253 -0.021657811705759932 0 0.00082482541187969848 -0.021535716906764889 0 0.00056549019095654971 -0.021801937103615724 0 0.00048674017152864404 -0.02157600693910049 0 0.00077113778033667253 -0.021657811705759932 0 0.00036292678795131055 -0.021911727078277182 0 0.00048674017152864404 -0.02157600693910049 0 0.00021193887122507472 -0.021665160133093515 0 0.00017548333007244319 -0.021379639639113497 0 0.00048674017152864404 -0.02157600693910049 0 0.00021193887122507472 -0.021665160133093515 0 0.00017548333007244319 -0.021379639639113497 0 0.00048674017152864404 -0.02157600693910049 0 0.00039654767641040742 -0.021266302550620404 0 5.2527720346148738e-05 -0.021018101192570329 0 0.00017548333007244319 -0.021379639639113497 0 0.00039654767641040742 -0.021266302550620404 0 0.00048674017152864404 -0.02157600693910049 0 0.00039654767641040742 -0.021266302550620404 0 0.00082482541187969848 -0.021535716906764889 0 0.0024212761965413773 -0.010562129573146593 0 0.0026637310526287628 -0.010497000845112627 0 0.0024592496208839139 -0.010665158133969344 0 0.0026637310526287628 -0.010497000845112627 0 0.0027229251854606002 -0.010745711158371701 0 0.0024592496208839139 -0.010665158133969344 0 0.00063834910583872913 -0.019134183478931401 0 0.0010807270533603928 -0.017766027338056781 0 0.0024166989285601477 -0.010604630958199301 0 0.002387151900161753 -0.010647157102328733 0 0.0024592496208839139 -0.010665158133969344 0 0.0019220433996933451 -0.015585484067254374 0 0.0010807270533603928 -0.017766027338056781 0 0.0019220433996933451 -0.015585484067254374 0 0.0014197551148962548 -0.013670184463202293 0 0.0031410673464590828 -0.010136628097216762 0 0.0029760477464094467 -0.010512221273948637 0 0.0033310223799738249 -0.010536160960222845 0 0.0026637310526287628 -0.010497000845112627 0 0.0027229251854606002 -0.010745711158371701 0 0.0029760477464094467 -0.010512221273948637 0 0.0027229251854606002 -0.010745711158371701 0 0.0029760477464094467 -0.010512221273948637 0 0.0029611661972514694 -0.010898097221609181 0 0.0029760477464094467 -0.010512221273948637 0 0.0029611661972514694 -0.010898097221609181 0 0.0032709146642956577 -0.010795532153971244 0 0.0029760477464094467 -0.010512221273948637 0 0.0033310223799738249 -0.010536160960222845 0 0.0032709146642956577 -0.010795532153971244 0 0.0029611661972514694 -0.010898097221609181 0 0.0032709146642956577 -0.010795532153971244 0 0.0033660024874135708 -0.011073559526718109 0 0.0027229251854606002 -0.010745711158371701 0 0.0029611661972514694 -0.010898097221609181 0 0.0025331691556175896 -0.011235191631690952 0 0.0029611661972514694 -0.010898097221609181 0 0.0025331691556175896 -0.011235191631690952 0 0.0031845956041630197 -0.011336543501124226 0 0.0029611661972514694 -0.010898097221609181 0 0.0031845956041630197 -0.011336543501124226 0 0.0033660024874135708 -0.011073559526718109 0 0.00070651063571830204 -0.022214567588152035 0 0.00077113778033667253 -0.021657811705759932 0 0.0012426599213897153 -0.022311325624847941 0 0.0027229251854606002 -0.010745711158371701 0 0.0024592496208839139 -0.010665158133969344 0 0.0025331691556175896 -0.011235191631690952 0 0.0010807270533603928 -0.017766027338056781 0 0.0018339446737233556 -0.016475505678716348 0 0.002387151900161753 -0.010647157102328733 0 0.0024592496208839139 -0.010665158133969344 0 0.0025331691556175896 -0.011235191631690952 0 0.00077113778033667253 -0.021657811705759932 0 0.00083385712575176482 -0.02151699750468351 0 0.0012426599213897153 -0.022311325624847941 0 0.00070651063571830204 -0.022214567588152035 0 0.0012426599213897153 -0.022311325624847941 0 0.00086627188757825379 -0.022848617425039488 0 0.0012426599213897153 -0.022311325624847941 0 0.0012218549162062952 -0.023051115068283435 0 0.00086627188757825379 -0.022848617425039488 0 0.0031845956041630197 -0.011336543501124226 0 0.0034800783254299332 -0.012532084946177481 0 0.0029114466050590092 -0.012410988025453285 0 0.0025331691556175896 -0.011235191631690952 0 0.0031845956041630197 -0.011336543501124226 0 0.0029114466050590092 -0.012410988025453285 0 0.0012426599213897153 -0.022311325624847941 0 0.0012218549162062952 -0.023051115068283435 0 0.0015627095519497153 -0.023178772760265372 0 0.0018339446737233556 -0.016475505678716348 0 0.0023025277736257949 -0.01813090830352981 0 0.0031845956041630197 -0.011336543501124226 0 0.0032412864225065505 -0.012365497317179208 0 0.003505685717150099 -0.011829207533828413 0 0.0032370879903981767 -0.011670028764357387 0 0.0032803664211662961 -0.011865745678380795 0 0.0034800783254299332 -0.012532084946177481 0 0.0029114466050590092 -0.012410988025453285 0 0.0036615819856472363 -0.014094820901971818 0 0.0023025277736257949 -0.01813090830352981 0 0.0031433255166653617 -0.017087822147295692 0 0.0015627095519497153 -0.023178772760265372 0 0.0012849284369039001 -0.023514055553063243 0 0.0016380949257155093 -0.023651586934498002 0 0.0012218549162062952 -0.023051115068283435 0 0.0015627095519497153 -0.023178772760265372 0 0.0012849284369039001 -0.023514055553063243 0 0.0012218549162062952 -0.023051115068283435 0 0.00086627188757825379 -0.022848617425039488 0 0.0012849284369039001 -0.023514055553063243 0 0.00086627188757825379 -0.022848617425039488 0 0.0012849284369039001 -0.023514055553063243 0 0.00068043870341123411 -0.023059924414337234 0 0.0012849284369039001 -0.023514055553063243 0 0.0010863852415936971 -0.023740850550463394 0 0.0011843012039418235 -0.023699271340135667 0 0.0012849284369039001 -0.023514055553063243 0 0.0010863852415936971 -0.023740850550463394 0 0.00099578665494585235 -0.02381215144616592 0 0.0012571444379347637 -0.023529789428476611 0 0.00064792763067850266 -0.023500784941615609 0 0.0012849284369039001 -0.023514055553063243 0 0.00068043870341123411 -0.023059924414337234 0 0.00020200518069298176 -0.023171410217855626 0 0.001058476567013279 -0.023786956052308218 0 0.00079899049618881591 -0.023989500831518823 0 -0.00017812301106288821 -0.023328951895303936 0 0.00064792763067850266 -0.023500784941615609 0 0.00064093390331300935 -0.023908857588845832 0 0.00099578665494585235 -0.02381215144616592 0 0.00084359912472691868 -0.024107904604983077 0 0.0010863852415936971 -0.023740850550463394 0 0.00099578665494585235 -0.02381215144616592 0 0.00084359912472691868 -0.024107904604983077 0 -0.00080142255766023926 -0.022886509263990464 0 0.00020200518069298176 -0.023171410217855626 0 -0.00010132518228671752 -0.022665952760383683 0 0.00020200518069298176 -0.023171410217855626 0 -0.00010132518228671752 -0.022665952760383683 0 0.00037803234686149118 -0.02271961631296595 0 0.00014305282242664516 -0.022294487098258403 0 -0.00038466788659801494 -0.022271476212118852 0 -0.00010132518228671752 -0.022665952760383683 0 0.00014305282242664516 -0.022294487098258403 0 -0.00010132518228671752 -0.022665952760383683 0 0.00037803234686149118 -0.02271961631296595 0 0.00014305282242664516 -0.022294487098258403 0 0.00070651063571830204 -0.022214567588152035 0 0.00037803234686149118 -0.02271961631296595 0 0.00070651063571830204 -0.022214567588152035 0 0.00086627188757825379 -0.022848617425039488 0 0.00037803234686149118 -0.02271961631296595 0 0.00086627188757825379 -0.022848617425039488 0 0.00068043870341123411 -0.023059924414337234 0 0.00037803234686149118 -0.02271961631296595 0 0.00068043870341123411 -0.023059924414337234 0 0.00020200518069298176 -0.023171410217855626 0 0.00037803234686149118 -0.02271961631296595 0 0.0044042953696017354 -0.010669580726735002 0 0.004345350468330799 -0.010901520913243978 0 0.0046664173111802083 -0.010820598707635036 0 0.0044042953696017354 -0.010669580726735002 0 0.004163370913602177 -0.010800417368319791 0 0.004345350468330799 -0.010901520913243978 0 0.0044042953696017354 -0.010669580726735002 0 0.0046763125748485327 -0.010510458568123071 0 0.0046664173111802083 -0.010820598707635036 0 0.0044042953696017354 -0.010669580726735002 0 0.0044025429704299748 -0.010382989340011407 0 0.0046763125748485327 -0.010510458568123071 0 0.0049937249156195348 -0.0096601234340581953 0 0.0046657680168517152 -0.010390189327327822 0 0.0053048135630191957 -0.0099686396186923591 0 0.0044042953696017354 -0.010669580726735002 0 0.0044025429704299748 -0.010382989340011407 0 0.0041732114831834997 -0.010606585684292836 0 0.0044025429704299748 -0.010382989340011407 0 0.0041732114831834997 -0.010606585684292836 0 0.0039279316643420076 -0.01047765262708102 0 0.0046257263779297024 -0.010876928359914745 0 0.0037955050465073321 -0.010407105640899389 0 0.0046657680168517152 -0.010390189327327822 0 0.0039008589579928093 -0.010184708934216524 0 0.0036925168980545746 -0.010424252247629157 0 0.0045405290472917432 -0.0098764256498917822 0 0.0046657680168517152 -0.010390189327327822 0 0.0039008589579928093 -0.010184708934216524 0 0.0041732114831834997 -0.010606585684292836 0 0.0039586369241049885 -0.010715312895172236 0 0.0039279316643420076 -0.01047765262708102 0 0.0041732114831834997 -0.010606585684292836 0 0.004163370913602177 -0.010800417368319791 0 0.0039586369241049885 -0.010715312895172236 0 0.0044042953696017354 -0.010669580726735002 0 0.0041732114831834997 -0.010606585684292836 0 0.004163370913602177 -0.010800417368319791 0 0.004163370913602177 -0.010800417368319791 0 0.003954066922099232 -0.010923904966400633 0 0.0039586369241049885 -0.010715312895172236 0 0.003954066922099232 -0.010923904966400633 0 0.0037753221364070916 -0.010844353882667444 0 0.0039586369241049885 -0.010715312895172236 0 0.003954066922099232 -0.010923904966400633 0 0.0037753221364070916 -0.010844353882667444 0 0.0037337095512319828 -0.011031759372792114 0 0.0037753221364070916 -0.010844353882667444 0 0.0036139585132249621 -0.010910649294790358 0 0.0037337095512319828 -0.011031759372792114 0 0.0037753221364070916 -0.010844353882667444 0 0.0037945999528743151 -0.010660588339516767 0 0.0036042075739301871 -0.010761096641009913 0 0.0037753221364070916 -0.010844353882667444 0 0.0036042075739301871 -0.010761096641009913 0 0.0036139585132249621 -0.010910649294790358 0 0.0037753221364070916 -0.010844353882667444 0 0.0037945999528743151 -0.010660588339516767 0 0.0039586369241049885 -0.010715312895172236 0 0.0036179495251905018 -0.010233922849299186 0 0.0036925168980545746 -0.010424252247629157 0 0.0033310223799738249 -0.010536160960222845 0 0.0037945999528743151 -0.010660588339516767 0 0.0039279316643420076 -0.01047765262708102 0 0.0033310223799738249 -0.010536160960222845 0 0.0037955050465073321 -0.010407105640899389 0 0.0033605938076796404 -0.010530053035795862 0 0.0037945999528743151 -0.010660588339516767 0 0.0039586369241049885 -0.010715312895172236 0 0.0039279316643420076 -0.01047765262708102 0 0.0036179495251905018 -0.010233922849299186 0 0.0039008589579928093 -0.010184708934216524 0 0.0036925168980545746 -0.010424252247629157 0 0.0034796773461662584 -0.010152721164792558 0 0.0036179495251905018 -0.010233922849299186 0 0.0033310223799738249 -0.010536160960222845 0 0.0037945999528743151 -0.010660588339516767 0 0.0033310223799738249 -0.010536160960222845 0 0.0036042075739301871 -0.010761096641009913 0 0.0033310223799738249 -0.010536160960222845 0 0.0032709146642956577 -0.010795532153971244 0 0.0034722046973318342 -0.010800264163049959 0 0.0032709146642956577 -0.010795532153971244 0 0.0034722046973318342 -0.010800264163049959 0 0.0034707300745298497 -0.010952901473348755 0 0.0033310223799738249 -0.010536160960222845 0 0.0036042075739301871 -0.010761096641009913 0 0.0034722046973318342 -0.010800264163049959 0 0.0036042075739301871 -0.010761096641009913 0 0.0034722046973318342 -0.010800264163049959 0 0.0036139585132249621 -0.010910649294790358 0 0.0034722046973318342 -0.010800264163049959 0 0.0036139585132249621 -0.010910649294790358 0 0.0034707300745298497 -0.010952901473348755 0 0.0036139585132249621 -0.010910649294790358 0 0.0034707300745298497 -0.010952901473348755 0 0.0035650789895380871 -0.011036088928366999 0 0.0036139585132249621 -0.010910649294790358 0 0.0035650789895380871 -0.011036088928366999 0 0.0037337095512319828 -0.011031759372792114 0 0.0033660024874135708 -0.011073559526718109 0 0.0034707300745298497 -0.010952901473348755 0 0.0035650789895380871 -0.011036088928366999 0 0.0032709146642956577 -0.010795532153971244 0 0.0033660024874135708 -0.011073559526718109 0 0.0034707300745298497 -0.010952901473348755 0 0.0034333099308537763 -0.011106065323716642 0 0.0038031635858562099 -0.01150461875370656 0 0.0031845956041630197 -0.011336543501124226 0 0.0035125091502970708 -0.011526683288474756 0 0.003505685717150099 -0.011829207533828413 0 0.0033660024874135708 -0.011073559526718109 0 0.0035125091502970708 -0.011526683288474756 0 0.0040608434909347379 -0.011873732140741394 0 0.0031845956041630197 -0.011336543501124226 0 0.0033660024874135708 -0.011073559526718109 0 0.0035125091502970708 -0.011526683288474756 0 0.0035650789895380871 -0.011036088928366999 0 0.0036187298352684566 -0.011153567917615877 0 0.0037337095512319828 -0.011031759372792114 0 0.0033660024874135708 -0.011073559526718109 0 0.0035650789895380871 -0.011036088928366999 0 0.0036187298352684566 -0.011153567917615877 0 0.0040608434909347379 -0.011873732140741394 0 0.0036526937054959983 -0.01218280034761232 0 0.0040342580569113513 -0.012335027205683092 0 0.0032412864225065505 -0.012365497317179208 0 0.003505685717150099 -0.011829207533828413 0 0.0036526937054959983 -0.01218280034761232 0 0.0035125091502970708 -0.011526683288474756 0 0.0040608434909347379 -0.011873732140741394 0 0.003505685717150099 -0.011829207533828413 0 0.0040608434909347379 -0.011873732140741394 0 0.003505685717150099 -0.011829207533828413 0 0.0036526937054959983 -0.01218280034761232 0 0.0032803664211662961 -0.011865745678380795 0 0.0031433255166653617 -0.017087822147295692 0 0.0032412864225065505 -0.012365497317179208 0 0.0036526937054959983 -0.01218280034761232 0 0.0037414510392737876 -0.012810214510427079 0 0.0032412864225065505 -0.012365497317179208 0 0.0037414510392737876 -0.012810214510427079 0 0.0033646190578748209 -0.0136069286066266 0 0.0037414510392737876 -0.012810214510427079 0 0.0042042185566493273 -0.013016501698559462 0 0.0039161761428769962 -0.01358090400077341 0 0.0037414510392737876 -0.012810214510427079 0 0.0042042185566493273 -0.013016501698559462 0 0.0040342580569113513 -0.012335027205683092 0 0.0036526937054959983 -0.01218280034761232 0 0.0037414510392737876 -0.012810214510427079 0 0.0040342580569113513 -0.012335027205683092 0 0.0038031635858562099 -0.01150461875370656 0 0.0049212837497126863 -0.011634876573386693 0 0.0043416611559408654 -0.012279724442102551 0 0.0049212837497126863 -0.011634876573386693 0 0.0040608434909347379 -0.011873732140741394 0 0.0040342580569113513 -0.012335027205683092 0 0.0047219924747306232 -0.012701268012991547 0 0.0036187298352684566 -0.011153567917615877 0 0.0038351646767141698 -0.011360256374451129 0 0.0038119048260333503 -0.011187990088926453 0 0.0042042185566493273 -0.013016501698559462 0 0.0048364651707157409 -0.012743155278568372 0 0.0044859396532720879 -0.013648710018449594 0 0.0042042185566493273 -0.013016501698559462 0 0.0040342580569113513 -0.012335027205683092 0 0.0048364651707157409 -0.012743155278568372 0 0.0049212837497126863 -0.011634876573386693 0 0.0040500368877121407 -0.0055506796708358411 0 0.0049212837497126863 -0.011634876573386693 0 0.0037238014138109002 -0.0083777269515409175 0 0.0038351646767141698 -0.011360256374451129 0 0.0038119048260333503 -0.011187990088926453 0 0.0040246581256663779 -0.011223252549270455 0 0.0039267349075786159 -0.011096077705750891 0 0.0038119048260333503 -0.011187990088926453 0 0.0040246581256663779 -0.011223252549270455 0 0.0039267349075786159 -0.011096077705750891 0 0.0038119048260333503 -0.011187990088926453 0 0.0037337095512319828 -0.011031759372792114 0 0.0036187298352684566 -0.011153567917615877 0 0.0038119048260333503 -0.011187990088926453 0 0.0037337095512319828 -0.011031759372792114 0 0.003954066922099232 -0.010923904966400633 0 0.0039267349075786159 -0.011096077705750891 0 0.0037337095512319828 -0.011031759372792114 0 0.0041543676993447175 -0.011035708022426515 0 0.0040246581256663779 -0.011223252549270455 0 0.0043512574007478237 -0.011172956622239789 0 0.004163370913602177 -0.010800417368319791 0 0.003954066922099232 -0.010923904966400633 0 0.0041543676993447175 -0.011035708022426515 0 0.003954066922099232 -0.010923904966400633 0 0.0039267349075786159 -0.011096077705750891 0 0.0041543676993447175 -0.011035708022426515 0 0.004163370913602177 -0.010800417368319791 0 0.0041543676993447175 -0.011035708022426515 0 0.004345350468330799 -0.010901520913243978 0 0.0039267349075786159 -0.011096077705750891 0 0.0041543676993447175 -0.011035708022426515 0 0.0040246581256663779 -0.011223252549270455 0 0.0040246581256663779 -0.011223252549270455 0 0.0043512574007478237 -0.011172956622239789 0 0.0040754540400882522 -0.011461243111741563 0 0.0038248882067528976 -0.0060159298484215567 0 0.0040500368877121407 -0.0055506796708358411 0 0.0034049812868170437 -0.00073654194522181516 0 0.0034080328106224716 -0.00072498942979257793 0 0.0033906675907590458 -0.00076779360255013697 0 0.0038351646767141698 -0.011360256374451129 0 0.0040246581256663779 -0.011223252549270455 0 0.0040754540400882522 -0.011461243111741563 0 0.0034049812868170437 -0.00073654194522181516 0 0.0034080328106224716 -0.00072498942979257793 0 0.0034198646211946022 -0.00069768393065850647 0 0.0043512574007478237 -0.011172956622239789 0 0.004345350468330799 -0.010901520913243978 0 0.0046664173111802083 -0.010820598707635036 0 0.0038248882067528976 -0.0060159298484215567 0 0.0040338667832140037 -0.0059846266325464534 0 0.0034080328106224716 -0.00072498942979257793 0 0.0034198646211946022 -0.00069768393065850647 0 0.0034437796562470221 -0.00071131933304262134 0 0.0041543676993447175 -0.011035708022426515 0 0.0043512574007478237 -0.011172956622239789 0 0.004345350468330799 -0.010901520913243978 0 0.0049408293181350598 -0.0016775520406780015 0 0.0047653910209136978 -0.0021679653595351074 0 0.0054754622969897093 -0.0024297960187841506 0 0.0049408293181350598 -0.0016775520406780015 0 0.0047653910209136978 -0.0021679653595351074 0 0.0045205502050289052 -0.0015818355786719094 0 0.0034049812868170437 -0.00073654194522181516 0 0.0034083538774167237 -0.00074747003940191497 0 0.0034198646211946022 -0.00069768393065850647 0 0.0034049812868170437 -0.00073654194522181516 0 0.0034083538774167237 -0.00074747003940191497 0 0.0033906675907590458 -0.00076779360255013697 0 0.003948682769028055 -0.0010347421607730261 0 0.0040500368877121407 -0.0055506796708358411 0 0.0047653910209136978 -0.0021679653595351074 0 0.0053532040081544184 -0.0025744749371463035 0 0.0054754622969897093 -0.0024297960187841506 0 0.0056390499399308356 -0.0098542079233913411 0 0.0029071475805677858 -0.0083386054512463847 0 0.0037172607494454133 -0.0073702491548636954 0 0.0040500368877121407 -0.0055506796708358411 0 0.0037238014138109002 -0.0083777269515409175 0 0.0029225991168403778 -0.0096073286142241889 0 0.0029127947503889522 -0.0095812273648500437 0 0.0029086027326058936 -0.0096239292407563105 0 0.0039569054470299982 -0.0047952643461869737 0 0.0037238014138109002 -0.0083777269515409175 0 0.0029086027326058936 -0.0096239292407563105 0 0.0028806544343378117 -0.0096307063048778375 0 0.0028980340429763029 -0.009661878241283825 0 0.0029127947503889522 -0.0095812273648500437 0 0.0029086027326058936 -0.0096239292407563105 0 0.0028806544343378117 -0.0096307063048778375 0 0.0046491773593259822 -0.014628338329803287 0 0.0044859396532720879 -0.013648710018449594 0 0.0040091362192648233 -0.01454142473535522 0 0.0037238014138109002 -0.0083777269515409175 0 0.0038780712991551471 -0.012032498044927616 0 0.005494215362572788 -0.013559623748388195 0 0.0046491773593259822 -0.014628338329803287 0 0.0044859396532720879 -0.013648710018449594 0 0.0048364651707157409 -0.012743155278568372 0 0.005494215362572788 -0.013559623748388195 0 0.0044859396532720879 -0.013648710018449594 0 0.0044859396532720879 -0.013648710018449594 0 0.0039161761428769962 -0.01358090400077341 0 0.0040091362192648233 -0.01454142473535522 0 0.0039161761428769962 -0.01358090400077341 0 0.003574677248159287 -0.01403835424912033 0 0.0040091362192648233 -0.01454142473535522 0 0.0042042185566493273 -0.013016501698559462 0 0.0044859396532720879 -0.013648710018449594 0 0.0039161761428769962 -0.01358090400077341 0 0.0037414510392737876 -0.012810214510427079 0 0.0039161761428769962 -0.01358090400077341 0 0.0033646190578748209 -0.0136069286066266 0 0.0039161761428769962 -0.01358090400077341 0 0.0033646190578748209 -0.0136069286066266 0 0.003574677248159287 -0.01403835424912033 0 0.0031433255166653617 -0.017087822147295692 0 0.0026790369087815141 -0.014825583938802601 0 0.0033528179969126129 -0.013616726695634462 0 0.003574677248159287 -0.01403835424912033 0 0.0036390889507881435 -0.015672039139168498 0 0.0046491773593259822 -0.014628338329803287 0 0.0040091362192648233 -0.01454142473535522 0 0.0037685644004723795 -0.015706397656059381 0 0.003574677248159287 -0.01403835424912033 0 0.0040091362192648233 -0.01454142473535522 0 0.0036390889507881435 -0.015672039139168498 0 0.0040091362192648233 -0.01454142473535522 0 0.0036390889507881435 -0.015672039139168498 0 0.0037685644004723795 -0.015706397656059381 0 0.0031433255166653617 -0.017087822147295692 0 0.0024377758619417477 -0.018871682435910014 0 0.0038780712991551471 -0.012032498044927616 0 0.0027511918673342167 -0.016096525227496685 0 0.0016005372643595015 -0.023983039572733664 0 0.0015723198828884581 -0.024021829829659204 0 0.0016251490479072164 -0.024203592426794988 0 0.0029186634123574738 -0.012801327731906238 0 0.0028895022437712054 -0.012648277048922314 0 0.0028406304167114282 -0.012709223339145651 0 0.0024377758619417477 -0.018871682435910014 0 0.0019486240774696615 -0.022739642415235885 0 0.0015909131399360892 -0.02396711830927277 0 0.0015723198828884581 -0.024021829829659204 0 0.0014897772257031578 -0.024035708766362324 0 0.0015909131399360892 -0.02396711830927277 0 0.0015950686337933236 -0.023989757254778882 0 0.0015723198828884581 -0.024021829829659204 0 0.0014200556978307191 -0.017090062935940911 0 0.0013950830173618497 -0.016934730952931683 0 0.0012954907729925082 -0.017054337747478405 0 0.0024377758619417477 -0.018871682435910014 0 0.0021183637905788743 -0.018200360767455816 0 0.0024377758619417477 -0.018871682435910014 0 0.0027511918673342167 -0.016096525227496685 0 0.0021183637905788743 -0.018200360767455816 0 0.0027511918673342167 -0.016096525227496685 0 0.0021183637905788743 -0.018200360767455816 0 0.0013008081810890484 -0.01973614529944093 0 0.0029186634123574738 -0.012801327731906238 0 0.0029053920893637058 -0.012815403827230129 0 0.0028406304167114282 -0.012709223339145651 0 0.0015723198828884581 -0.024021829829659204 0 0.0015225273205816945 -0.024158878429564122 0 0.0014897772257031578 -0.024035708766362324 0 0.0021183637905788743 -0.018200360767455816 0 0.0022759986454666992 -0.018496707870753457 0 0.0015723198828884581 -0.024021829829659204 0 0.0015225273205816945 -0.024158878429564122 0 0.0016251490479072164 -0.024203592426794988 0 0.0028895022437712054 -0.012648277048922314 0 0.0028406304167114282 -0.012709223339145651 0 0.0028118543777277947 -0.012571191106631997 0 0.0015225273205816945 -0.024158878429564122 0 0.0016251490479072164 -0.024203592426794988 0 0.0015457673560302235 -0.024329398661050973 0 0.002754620585465562 -0.01270520045259998 0 0.0028406304167114282 -0.012709223339145651 0 0.0027337609245564748 -0.012601528377778027 0 0.0028406304167114282 -0.012709223339145651 0 0.0027337609245564748 -0.012601528377778027 0 0.0028118543777277947 -0.012571191106631997 0 0.0027337609245564748 -0.012601528377778027 0 0.002725144382664945 -0.012524057278059606 0 0.0028118543777277947 -0.012571191106631997 0 0.0028806544343378117 -0.0096307063048778375 0 0.0028454834225134455 -0.0097030969314858065 0 0.0028980340429763029 -0.009661878241283825 0 0.0029053920893637058 -0.012815403827230129 0 0.002754620585465562 -0.01270520045259998 0 0.0028406304167114282 -0.012709223339145651 0 0.0027511918673342167 -0.016096525227496685 0 0.0026609968179898162 -0.010817701862079974 0 0.0026609968179898162 -0.010817701862079974 0 0.0028992499549631971 -0.011367968119481545 0 0.0029086027326058936 -0.0096239292407563105 0 0.0028980340429763029 -0.009661878241283825 0 0.0029200544164644732 -0.0096194396562667012 0 0.0029225991168403778 -0.0096073286142241889 0 0.0029086027326058936 -0.0096239292407563105 0 0.0029200544164644732 -0.0096194396562667012 0 0.0027337609245564748 -0.012601528377778027 0 0.0026617414391518959 -0.012517423184024231 0 0.0026407288245948505 -0.012585723115247761 0 0.002754620585465562 -0.01270520045259998 0 0.0027337609245564748 -0.012601528377778027 0 0.0026407288245948505 -0.012585723115247761 0 0.0027337609245564748 -0.012601528377778027 0 0.0026617414391518959 -0.012517423184024231 0 0.002725144382664945 -0.012524057278059606 0 0.0026407288245948505 -0.012585723115247761 0 0.0025951784913171593 -0.01247439194927517 0 0.0025665124345478859 -0.012462365624868202 0 0.0028992499549631971 -0.011367968119481545 0 0.0029477118195754353 -0.0076926098844532567 0 0.0026617414391518959 -0.012517423184024231 0 0.0026407288245948505 -0.012585723115247761 0 0.0025951784913171593 -0.01247439194927517 0 0.0039569054470299982 -0.0047952643461869737 0 0.0029477118195754353 -0.0076926098844532567 0 0.0029225991168403778 -0.0096073286142241889 0 0.0029200544164644732 -0.0096194396562667012 0 0.0029127011031786923 -0.0095892000687197616 0 0.00098501857096263985 -0.023938856494978296 0 0.001223136221045743 -0.023837823078874505 0 0.00092609690077224971 -0.024340620100472252 0 0.001223136221045743 -0.023837823078874505 0 0.001215262278490146 -0.024026335758049792 0 0.00096113883283892657 -0.023996864432468418 0 0.0012063125344134228 -0.023868292964724352 0 0.00093824944142989876 -0.024164102678050393 0 0.00066212838824468922 -0.024224611294842335 0 0.00098501857096263985 -0.023938856494978296 0 0.00092609690077224971 -0.024340620100472252 0 0.00066212838824468922 -0.024224611294842335 0 0.00076310332661008837 -0.023879151856275857 0 0.00098501857096263985 -0.023938856494978296 0 0.0010863852415936971 -0.023740850550463394 0 0.00076310332661008837 -0.023879151856275857 0 0.00098501857096263985 -0.023938856494978296 0 0.00098501857096263985 -0.023938856494978296 0 0.001223136221045743 -0.023837823078874505 0 0.0011843012039418235 -0.023699271340135667 0 0.0010863852415936971 -0.023740850550463394 0 0.00098501857096263985 -0.023938856494978296 0 0.0011843012039418235 -0.023699271340135667 0 0.0012849284369039001 -0.023514055553063243 0 0.001223136221045743 -0.023837823078874505 0 0.0011843012039418235 -0.023699271340135667 0 0.0012849284369039001 -0.023514055553063243 0 0.001223136221045743 -0.023837823078874505 0 0.0014274848247601019 -0.023829801023976058 0 0.0012849284369039001 -0.023514055553063243 0 0.0016380949257155093 -0.023651586934498002 0 0.0014274848247601019 -0.023829801023976058 0 0.0016380949257155093 -0.023651586934498002 0 0.0016124481507427369 -0.023989299915719478 0 0.0014274848247601019 -0.023829801023976058 0 0.0016124481507427369 -0.023989299915719478 0 0.0014274848247601019 -0.023829801023976058 0 0.0014707489461272033 -0.023973602479132758 0 0.0014274848247601019 -0.023829801023976058 0 0.0014707489461272033 -0.023973602479132758 0 0.001357432558021131 -0.024039184496458522 0 0.001223136221045743 -0.023837823078874505 0 0.0014274848247601019 -0.023829801023976058 0 0.001215262278490146 -0.024026335758049792 0 0.0014274848247601019 -0.023829801023976058 0 0.001215262278490146 -0.024026335758049792 0 0.001357432558021131 -0.024039184496458522 0 0.001215262278490146 -0.024026335758049792 0 0.001357432558021131 -0.024039184496458522 0 0.0012995532506094394 -0.024234875797102744 0 0.001357432558021131 -0.024039184496458522 0 0.00142320826734583 -0.024139440115751684 0 0.0012995532506094394 -0.024234875797102744 0 0.0014707489461272033 -0.023973602479132758 0 0.001357432558021131 -0.024039184496458522 0 0.0014897772257031578 -0.024035708766362324 0 0.0015909131399360892 -0.02396711830927277 0 0.0014707489461272033 -0.023973602479132758 0 0.0014897772257031578 -0.024035708766362324 0 0.001357432558021131 -0.024039184496458522 0 0.0014897772257031578 -0.024035708766362324 0 0.00142320826734583 -0.024139440115751684 0 0.0015225273205816945 -0.024158878429564122 0 0.0014897772257031578 -0.024035708766362324 0 0.00142320826734583 -0.024139440115751684 0 0.0015225273205816945 -0.024158878429564122 0 0.00142320826734583 -0.024139440115751684 0 0.0014241807956909393 -0.024277472204937405 0 0.00142320826734583 -0.024139440115751684 0 0.0014241807956909393 -0.024277472204937405 0 0.0012995532506094394 -0.024234875797102744 0 0.0014241807956909393 -0.024277472204937405 0 0.0012995532506094394 -0.024234875797102744 0 0.0013399102350889237 -0.024356724850872133 0 0.0015225273205816945 -0.024158878429564122 0 0.0014241807956909393 -0.024277472204937405 0 0.0015457673560302235 -0.024329398661050973 0 0.0012995532506094394 -0.024234875797102744 0 0.0010398082628146701 -0.024290089493678252 0 0.0012254028386778117 -0.024457000373053959 0 0.001215262278490146 -0.024026335758049792 0 0.0012995532506094394 -0.024234875797102744 0 0.0010398082628146701 -0.024290089493678252 0 0.001215262278490146 -0.024026335758049792 0 0.0010398082628146701 -0.024290089493678252 0 0.00096113883283892657 -0.023996864432468418 0 0.00064918842945608341 -0.024274347552358508 0 0.0010398082628146701 -0.024290089493678252 0 0.00096113883283892657 -0.023996864432468418 0 0.00057131840397077862 -0.024641532545544881 0 0.00066212838824468922 -0.024224611294842335 0 0.00092609690077224971 -0.024340620100472252 0 0.00061460324306135774 -0.024457187480987526 0 0.00093824944142989876 -0.024164102678050393 0 0.00064918842945608341 -0.024274347552358508 0 0.0010398082628146701 -0.024290089493678252 0 0.00084942007800133026 -0.024500753135030907 0 0.00084942007800133026 -0.024500753135030907 0 0.0008361270753789883 -0.024718695690386365 0 0.00063330139296897839 -0.024650962216434494 0 0.00084942007800133026 -0.024500753135030907 0 0.0008361270753789883 -0.024718695690386365 0 0.0010260889286195407 -0.024577114124192594 0 0.0008361270753789883 -0.024718695690386365 0 0.0007991712114739745 -0.024839254666234566 0 0.00087364797742638524 -0.024805170420120867 0 0.0008361270753789883 -0.024718695690386365 0 0.0010056824165822918 -0.024763461475595612 0 0.00087364797742638524 -0.024805170420120867 0 0.0008361270753789883 -0.024718695690386365 0 0.0007991712114739745 -0.024839254666234566 0 0.00065058921031763725 -0.024845952994900691 0 0.0010056824165822918 -0.024763461475595612 0 0.0010260889286195407 -0.024577114124192594 0 0.0011790822551542199 -0.024707789547077398 0 0.0008361270753789883 -0.024718695690386365 0 0.0010056824165822918 -0.024763461475595612 0 0.0010260889286195407 -0.024577114124192594 0 0.0010398082628146701 -0.024290089493678252 0 0.0010260889286195407 -0.024577114124192594 0 0.0012254028386778117 -0.024457000373053959 0 0.0010398082628146701 -0.024290089493678252 0 0.00084942007800133026 -0.024500753135030907 0 0.0010260889286195407 -0.024577114124192594 0 0.0012995532506094394 -0.024234875797102744 0 0.0012254028386778117 -0.024457000373053959 0 0.0013399102350889237 -0.024356724850872133 0 0.0012254028386778117 -0.024457000373053959 0 0.0014208621421591425 -0.024433186922709505 0 0.001328081438519198 -0.02464565418449436 0 0.0012254028386778117 -0.024457000373053959 0 0.0013399102350889237 -0.024356724850872133 0 0.0014208621421591425 -0.024433186922709505 0 0.0014241807956909393 -0.024277472204937405 0 0.0014208621421591425 -0.024433186922709505 0 0.0015457673560302235 -0.024329398661050973 0 0.0014241807956909393 -0.024277472204937405 0 0.0013399102350889237 -0.024356724850872133 0 0.0014208621421591425 -0.024433186922709505 0 0.0014208621421591425 -0.024433186922709505 0 0.0015541836069071745 -0.024423524784256436 0 0.001526479815692207 -0.024496869087156314 0 0.0014208621421591425 -0.024433186922709505 0 0.0015457673560302235 -0.024329398661050973 0 0.0015541836069071745 -0.024423524784256436 0 0.0014208621421591425 -0.024433186922709505 0 0.001328081438519198 -0.02464565418449436 0 0.001526479815692207 -0.024496869087156314 0 0.0012254028386778117 -0.024457000373053959 0 0.001328081438519198 -0.02464565418449436 0 0.0011790822551542199 -0.024707789547077398 0 0.0010260889286195407 -0.024577114124192594 0 0.0012254028386778117 -0.024457000373053959 0 0.0011790822551542199 -0.024707789547077398 0 0.0011606771393735823 -0.021243257367557836 0 0.0012446860663452579 -0.021207100994572049 0 0.0013514081356230685 -0.021269419313802222 0 0.0013615666787585054 -0.023147504696482274 0 0.0012099374903624636 -0.022995345561788477 0 0.0011790822551542199 -0.024707789547077398 0 0.0013779218105788823 -0.024786588468057199 0 0.0011176178584675603 -0.024863088332345684 0 0.001328081438519198 -0.02464565418449436 0 0.0011790822551542199 -0.024707789547077398 0 0.0013779218105788823 -0.024786588468057199 0 0.001328081438519198 -0.02464565418449436 0 0.0013779218105788823 -0.024786588468057199 0 0.0014728096887112201 -0.02470122895921114 0 0.0011606771393735823 -0.021243257367557836 0 0.0011692439557007377 -0.021110894505002607 0 0.0012446860663452579 -0.021207100994572049 0 0.0011606771393735823 -0.021243257367557836 0 0.0011692439557007377 -0.021110894505002607 0 0.0011045722004005172 -0.02115814895328889 0 0.0011692439557007377 -0.021110894505002607 0 0.0012446860663452579 -0.021207100994572049 0 0.001235520508147006 -0.021177904892043763 0 0.0012446860663452579 -0.021207100994572049 0 0.001257429303940851 -0.021264995469138015 0 0.0013514081356230685 -0.021269419313802222 0 0.0012446860663452579 -0.021207100994572049 0 0.001235520508147006 -0.021177904892043763 0 0.001257429303940851 -0.021264995469138015 0 0.001235520508147006 -0.021177904892043763 0 0.001257429303940851 -0.021264995469138015 0 0.001293668075284503 -0.02118594522553054 0 0.0011621169663993171 -0.021384836652265336 0 0.0012020689090208301 -0.021825781278510068 0 0.00084996537246523178 -0.02180563726137328 0 0.0011251526599817142 -0.021333735587537584 0 0.0011723080049094935 -0.022523239686306103 0 0.001257429303940851 -0.021264995469138015 0 0.0011251526599817142 -0.021333735587537584 0 0.001293668075284503 -0.02118594522553054 0 0.00042491586965181328 -0.022129410674369809 0 0.00084996537246523178 -0.02180563726137328 0 0.0011723080049094935 -0.022523239686306103 0 0.00042491586965181328 -0.022129410674369809 0 0.00084996537246523178 -0.02180563726137328 0 0.00070141562697305869 -0.021332113128523303 0 0.00084996537246523178 -0.02180563726137328 0 0.00070141562697305869 -0.021332113128523303 0 0.0011251526599817142 -0.021333735587537584 0 0.00085279416867289405 -0.024899948374625076 0 0.00080324456852365236 -0.024932347208844945 0 0.0011176178584675603 -0.024863088332345684 0 0.00060241823745881527 -0.023958147794613981 0 0.00068772822695802158 -0.023709565503677626 0 0.00079646208610774588 -0.024937916878621867 0 0.0007991712114739745 -0.024839254666234566 0 0.00065058921031763725 -0.024845952994900691 0 0.00085279416867289405 -0.024899948374625076 0 0.00079646208610774588 -0.024937916878621867 0 0.0007991712114739745 -0.024839254666234566 0 0.0010056824165822918 -0.024763461475595612 0 0.00085279416867289405 -0.024899948374625076 0 0.00087364797742638524 -0.024805170420120867 0 0.00085279416867289405 -0.024899948374625076 0 0.0007991712114739745 -0.024839254666234566 0 0.00087364797742638524 -0.024805170420120867 0 0.0010056824165822918 -0.024763461475595612 0 0.00085279416867289405 -0.024899948374625076 0 0.0011176178584675603 -0.024863088332345684 0 0.00068772822695802158 -0.023709565503677626 0 0.0012099374903624636 -0.022995345561788477 0 0.00070141562697305869 -0.021332113128523303 0 0.0013514081356230685 -0.021269419313802222 0 0.0011251526599817142 -0.021333735587537584 0 0.0010056824165822918 -0.024763461475595612 0 0.0011790822551542199 -0.024707789547077398 0 0.0011176178584675603 -0.024863088332345684 0 0.001257429303940851 -0.021264995469138015 0 0.0013514081356230685 -0.021269419313802222 0 0.0011251526599817142 -0.021333735587537584 0 0.0024735812195545025 -0.012474762285018903 0 0.002494226296367575 -0.012456921891361609 0 0.0025083158138608235 -0.012423215212002589 0 0.0026168369097336144 -0.012419487897186547 0 0.0026668918311086903 -0.012401980587085094 0 0.0025621090555923631 -0.012376883514158714 0 0.0026867379443101086 -0.012113624168012656 0 0.0025120190401710964 -0.012433202197851139 0 0.0024735812195545025 -0.012474762285018903 0 0.0024797392549899479 -0.012476579136359954 0 0.002494226296367575 -0.012456921891361609 0 0.0026168369097336144 -0.012419487897186547 0 0.0026695031343686227 -0.012463410358987315 0 0.0026668918311086903 -0.012401980587085094 0 0.0026168369097336144 -0.012419487897186547 0 0.0026137902695219655 -0.012451368160269189 0 0.0025832820540742235 -0.012408782812520263 0 0.0025951784913171593 -0.01247439194927517 0 0.0026137902695219655 -0.012451368160269189 0 0.0025682800222842409 -0.012414062643955358 0 0.0026617414391518959 -0.012517423184024231 0 0.0026137902695219655 -0.012451368160269189 0 0.0026695031343686227 -0.012463410358987315 0 0.0026617414391518959 -0.012517423184024231 0 0.0025951784913171593 -0.01247439194927517 0 0.0026137902695219655 -0.012451368160269189 0 0.0026168369097336144 -0.012419487897186547 0 0.0026137902695219655 -0.012451368160269189 0 0.0026695031343686227 -0.012463410358987315 0 0.0026617414391518959 -0.012517423184024231 0 0.0026695031343686227 -0.012463410358987315 0 0.002725144382664945 -0.012524057278059606 0 0.0026695031343686227 -0.012463410358987315 0 0.002725144382664945 -0.012524057278059606 0 0.0027535374908704844 -0.012486006741439919 0 0.0024735812195545025 -0.012474762285018903 0 0.0024532244236421278 -0.012520269282255945 0 0.0024705329558111239 -0.012493095435578198 0 0.0026867379443101086 -0.012113624168012656 0 0.0021681419916522232 -0.015766885995334049 0 0.0026695031343686227 -0.012463410358987315 0 0.0026668918311086903 -0.012401980587085094 0 0.0027535374908704844 -0.012486006741439919 0 0.0024735812195545025 -0.012474762285018903 0 0.0024705329558111239 -0.012493095435578198 0 0.0024797392549899479 -0.012476579136359954 0 0.0028053750880637908 -0.012440083646088826 0 0.0027535374908704844 -0.012486006741439919 0 0.0028583792304841594 -0.012524123309785237 0 0.0026668918311086903 -0.012401980587085094 0 0.0028053750880637908 -0.012440083646088826 0 0.0027535374908704844 -0.012486006741439919 0 0.0021681419916522232 -0.015766885995334049 0 0.0017109422224195294 -0.021356401540238656 0 0.0021681419916522232 -0.015766885995334049 0 0.0020100730542477259 -0.018310108720421981 0 0.0027535374908704844 -0.012486006741439919 0 0.0028118543777277947 -0.012571191106631997 0 0.0028583792304841594 -0.012524123309785237 0 0.002725144382664945 -0.012524057278059606 0 0.0027535374908704844 -0.012486006741439919 0 0.0028118543777277947 -0.012571191106631997 0 0.0022759986454666992 -0.018496707870753457 0 0.0020100730542477259 -0.018310108720421981 0 0.0016251490479072164 -0.024203592426794988 0 0.0016511593288919102 -0.024417866331401149 0 0.0015457673560302235 -0.024329398661050973 0 0.0028895022437712054 -0.012648277048922314 0 0.0028118543777277947 -0.012571191106631997 0 0.0028583792304841594 -0.012524123309785237 0 0.0016511593288919102 -0.024417866331401149 0 0.0015541836069071745 -0.024423524784256436 0 0.001526479815692207 -0.024496869087156314 0 0.0016511593288919102 -0.024417866331401149 0 0.0015457673560302235 -0.024329398661050973 0 0.0015541836069071745 -0.024423524784256436 0 0.001269982121665106 -0.025475304593570346 0 0.0017109422224195294 -0.021356401540238656 0 0.001328081438519198 -0.02464565418449436 0 0.001539650487421349 -0.024597508953569814 0 0.0014728096887112201 -0.02470122895921114 0 0.001328081438519198 -0.02464565418449436 0 0.001526479815692207 -0.024496869087156314 0 0.0016760185897608342 -0.02456881320746963 0 0.0020100730542477259 -0.018310108720421981 0 0.0017109422224195294 -0.021356401540238656 0 0.0022961327766586135 -0.018073323313334191 0 0.0024783786104078222 -0.018362359937469982 0 0.0024313384438846004 -0.018072075597761358 0 0.0016511593288919102 -0.024417866331401149 0 0.001526479815692207 -0.024496869087156314 0 0.0016760185897608342 -0.02456881320746963 0 0.0011606771393735823 -0.021243257367557836 0 0.0010624570210432437 -0.021165933213928324 0 0.0010256568080220236 -0.021170331994469927 0 0.0013779218105788823 -0.024786588468057199 0 0.0014728096887112201 -0.02470122895921114 0 0.0015568659780685337 -0.024738441192473044 0 0.001539650487421349 -0.024597508953569814 0 0.0014728096887112201 -0.02470122895921114 0 0.0015568659780685337 -0.024738441192473044 0 0.0013615666787585054 -0.023147504696482274 0 0.00088895226587407269 -0.0217591473498112 0 0.0012873979781742669 -0.021013134571945976 0 0.00088094934912060071 -0.021453874239245479 0 0.0011692439557007377 -0.021110894505002607 0 0.0012244304032825095 -0.020977088543793578 0 0.0011863326026265309 -0.021037394464904189 0 0.0011606771393735823 -0.021243257367557836 0 0.0011045722004005172 -0.02115814895328889 0 0.0010624570210432437 -0.021165933213928324 0 0.0011692439557007377 -0.021110894505002607 0 0.0011045722004005172 -0.02115814895328889 0 0.0010332017855027914 -0.021123625066303758 0 0.0010332017855027914 -0.021123625066303758 0 0.0010624570210432437 -0.021165933213928324 0 0.0010337369801773589 -0.021149901577698808 0 0.0011045722004005172 -0.02115814895328889 0 0.0010332017855027914 -0.021123625066303758 0 0.0010624570210432437 -0.021165933213928324 0 0.0010624570210432437 -0.021165933213928324 0 0.0010337369801773589 -0.021149901577698808 0 0.0010256568080220236 -0.021170331994469927 0 0.00088094934912060071 -0.021453874239245479 0 0.0017185171658700225 -0.01700195653490089 0 0.0010337369801773589 -0.021149901577698808 0 0.0010158519331529637 -0.021144160290307849 0 0.0010256568080220236 -0.021170331994469927 0 0.0012244304032825095 -0.020977088543793578 0 0.0012050330841898492 -0.020964777237342146 0 0.0011608259050910543 -0.021159935145295492 0 0.0010332017855027914 -0.021123625066303758 0 0.0010003019263211197 -0.021129324059398772 0 0.00096242588271689073 -0.021093479485719924 0 0.0010158519331529637 -0.021144160290307849 0 0.0010003019263211197 -0.021129324059398772 0 0.0010256568080220236 -0.021170331994469927 0 0.0010332017855027914 -0.021123625066303758 0 0.0010158519331529637 -0.021144160290307849 0 0.0010003019263211197 -0.021129324059398772 0 0.0010332017855027914 -0.021123625066303758 0 0.0010337369801773589 -0.021149901577698808 0 0.0010158519331529637 -0.021144160290307849 0 0.0012244304032825095 -0.020977088543793578 0 0.0012050330841898492 -0.020964777237342146 0 0.0012046969223762738 -0.020985754827881269 0 0.0021681419916522232 -0.015766885995334049 0 0.0016447244932204941 -0.016593414414350447 0 0.0017109422224195294 -0.021356401540238656 0 0.00088895226587407269 -0.0217591473498112 0 0.0010003019263211197 -0.021129324059398772 0 0.0010256568080220236 -0.021170331994469927 0 0.00097493312908775176 -0.021121754406375121 0 0.0013636845371715965 -0.019030378329786185 0 0.0013918394789604353 -0.018820973302311611 0 0.001221494195894398 -0.018794562670918946 0 0.0013636845371715965 -0.019030378329786185 0 0.0014264711292147137 -0.019033969647318776 0 0.0013918394789604353 -0.018820973302311611 0 0.00088895226587407269 -0.0217591473498112 0 0.0016447244932204941 -0.016593414414350447 0 0.0024532244236421278 -0.012520269282255945 0 0.0024705329558111239 -0.012493095435578198 0 0.0024625828612510662 -0.012519574425884463 0 0.0024705329558111239 -0.012493095435578198 0 0.0024810714760865578 -0.012480591282464707 0 0.0024797392549899479 -0.012476579136359954 0 0.0024705329558111239 -0.012493095435578198 0 0.0024776555493552389 -0.012499140065370317 0 0.0024810714760865578 -0.012480591282464707 0 0.0016447244932204941 -0.016593414414350447 0 0.0024077609207088326 -0.013667486699193612 0 0.0024705329558111239 -0.012493095435578198 0 0.0024625828612510662 -0.012519574425884463 0 0.0024776555493552389 -0.012499140065370317 0 0.0010003019263211197 -0.021129324059398772 0 0.00097493312908775176 -0.021121754406375121 0 0.00096242588271689073 -0.021093479485719924 0 0.0017185171658700225 -0.01700195653490089 0 0.0013983735708894298 -0.016440596065385688 0 0.0011608259050910543 -0.021159935145295492 0 0.0010496205933828219 -0.020839203207547539 0 0.00040138588423618799 -0.020060942981535525 0 0.0016447244932204941 -0.016593414414350447 0 0.0017185171658700225 -0.01700195653490089 0 0.0011608259050910543 -0.021159935145295492 0 0.0010496205933828219 -0.020839203207547539 0 0.001158241297269438 -0.020897307866880301 0 0.0012050330841898492 -0.020964777237342146 0 0.0011608259050910543 -0.021159935145295492 0 0.001158241297269438 -0.020897307866880301 0 0.0017675060107156964 -0.01470374225703679 0 0.0018904106124979078 -0.014895651950661946 0 0.0022137833892773144 -0.014697816141609926 0 0.0017185171658700225 -0.01700195653490089 0 0.0025510146688947429 -0.012386793529355343 0 0.0018904106124979078 -0.014895651950661946 0 0.0022137833892773144 -0.014697816141609926 0 0.0026593652498892641 -0.014688126142038928 0 0.0022832260710698654 -0.012279676887463967 0 0.0023015984479802243 -0.012280979681460075 0 0.0023266254922661607 -0.012214336249725448 0 0.0024077609207088326 -0.013667486699193612 0 0.0025510146688947429 -0.012386793529355343 0 0.0024832850352097501 -0.012469600244026569 0 0.0025507885212217515 -0.012419870024568947 0 0.0024810714760865578 -0.012480591282464707 0 0.002494226296367575 -0.012456921891361609 0 0.002513688951401521 -0.012453410393451141 0 0.0024810714760865578 -0.012480591282464707 0 0.0025639308109646807 -0.012403438476306877 0 0.0025330215778223116 -0.012474570378706598 0 0.0024776555493552389 -0.012499140065370317 0 0.0024810714760865578 -0.012480591282464707 0 0.0025330215778223116 -0.012474570378706598 0 0.0024810714760865578 -0.012480591282464707 0 0.0024797392549899479 -0.012476579136359954 0 0.002494226296367575 -0.012456921891361609 0 0.0023164778627899085 -0.012299742430583054 0 0.0023015984479802243 -0.012280979681460075 0 0.0023351934745051476 -0.012253138979005858 0 -0.00049427347252196344 -0.018557254898480223 0 0.00040138588423618799 -0.020060942981535525 0 -1.2036312588683084e-05 -0.018410853708037619 0 0.0012768702072277094 -0.013387693904791173 0 0.0013983735708894298 -0.016440596065385688 0 0.00040138588423618799 -0.020060942981535525 0 0.0013566647238140183 -0.019791568562588728 0 -1.2036312588683084e-05 -0.018410853708037619 0 0.0012768702072277094 -0.013387693904791173 0 0.00092395623575581751 -0.014993241666897134 0 0.0023015984479802243 -0.012280979681460075 0 0.0023351934745051476 -0.012253138979005858 0 0.0023266254922661607 -0.012214336249725448 0 0.0011027792960431914 -0.020791489122809856 0 0.0013466111533717903 -0.020377186949652133 0 0.0010496205933828219 -0.020839203207547539 0 0.00040138588423618799 -0.020060942981535525 0 0.0013566647238140183 -0.019791568562588728 0 0.0010496205933828219 -0.020839203207547539 0 0.001158241297269438 -0.020897307866880301 0 0.0011949888533699399 -0.020908255401410433 0 0.001158241297269438 -0.020897307866880301 0 0.0011949888533699399 -0.020908255401410433 0 0.0011965479211324408 -0.020926538288408545 0 0.0013466111533717903 -0.020377186949652133 0 0.001376407058754842 -0.020728717356008033 0 0.0013466111533717903 -0.020377186949652133 0 0.00092395623575581751 -0.014993241666897134 0 0.0014312187693396247 -0.018794981539005055 0 0.0016976035877239155 -0.017478404107999394 0 0.0004419749493587324 -0.017874228067126848 0 0.0013466111533717903 -0.020377186949652133 0 0.0013373752995579496 -0.018505431773488169 0 0.0012449178659686394 -0.020961750376464142 0 0.0012056233340593267 -0.021003681571532606 0 0.0012783953097810516 -0.021084483750550696 0 0.0012056233340593267 -0.021003681571532606 0 0.0011695537116714618 -0.021028849942430615 0 0.0012118363109823041 -0.02104821309203625 0 0.0012056233340593267 -0.021003681571532606 0 0.0011983001794089159 -0.020973744420231939 0 0.0011776786970069469 -0.021024481116155697 0 0.0012449178659686394 -0.020961750376464142 0 0.0012056233340593267 -0.021003681571532606 0 0.0011983001794089159 -0.020973744420231939 0 0.0012449178659686394 -0.020961750376464142 0 0.0011983001794089159 -0.020973744420231939 0 0.0011965479211324408 -0.020926538288408545 0 0.0011983001794089159 -0.020973744420231939 0 0.0011965479211324408 -0.020926538288408545 0 0.0012046969223762738 -0.020985754827881269 0 0.0012050330841898492 -0.020964777237342146 0 0.0011965479211324408 -0.020926538288408545 0 0.0012046969223762738 -0.020985754827881269 0 0.0012050330841898492 -0.020964777237342146 0 0.001158241297269438 -0.020897307866880301 0 0.0011965479211324408 -0.020926538288408545 0 0.0011983001794089159 -0.020973744420231939 0 0.0012046969223762738 -0.020985754827881269 0 0.0011776786970069469 -0.021024481116155697 0 0.0012046969223762738 -0.020985754827881269 0 0.0011776786970069469 -0.021024481116155697 0 0.0011863326026265309 -0.021037394464904189 0 0.0012244304032825095 -0.020977088543793578 0 0.0012046969223762738 -0.020985754827881269 0 0.0011863326026265309 -0.021037394464904189 0 0.0011776786970069469 -0.021024481116155697 0 0.0011863326026265309 -0.021037394464904189 0 0.001173126687065521 -0.021069136831919931 0 0.0011776786970069469 -0.021024481116155697 0 0.001173126687065521 -0.021069136831919931 0 0.0011661926319977824 -0.021055927878947864 0 0.0011776786970069469 -0.021024481116155697 0 0.0011695537116714618 -0.021028849942430615 0 0.0011661926319977824 -0.021055927878947864 0 0.0012056233340593267 -0.021003681571532606 0 0.0011776786970069469 -0.021024481116155697 0 0.0011695537116714618 -0.021028849942430615 0 0.0011695537116714618 -0.021028849942430615 0 0.0011353827819436412 -0.021042473362983864 0 0.0011661926319977824 -0.021055927878947864 0 0.0011194257592970535 -0.021038229294140419 0 0.00088156185050502047 -0.021088397878639739 0 0.0011353827819436412 -0.021042473362983864 0 0.0011661926319977824 -0.021055927878947864 0 0.0011808618544385653 -0.021039224236282038 0 0.0011353827819436412 -0.021042473362983864 0 0.0010418835117698786 -0.021230811776227983 0 0.00061827948527764522 -0.021108325569460247 0 0.0011695537116714618 -0.021028849942430615 0 0.0011353827819436412 -0.021042473362983864 0 0.0012118363109823041 -0.02104821309203625 0 0.0011353827819436412 -0.021042473362983864 0 0.0010418835117698786 -0.021230811776227983 0 0.0012616108615622044 -0.021132267973949747 0 0.00087604134972835005 -0.021457422653635212 0 0.0012136615286112919 -0.021405714882174288 0 0.00093297951997799514 -0.021911053540313637 0 0.0010418835117698786 -0.021230811776227983 0 0.00087604134972835005 -0.021457422653635212 0 0.00061827948527764522 -0.021108325569460247 0 0.0010418835117698786 -0.021230811776227983 0 0.00087604134972835005 -0.021457422653635212 0 0.0012136615286112919 -0.021405714882174288 0 0.0013373752995579496 -0.018505431773488169 0 0.00032691991399098685 -0.018283535168606108 0 0.00041168101426624227 -0.015065336822586985 0 0.00039983924220774917 -0.01471625110553375 0 0.00023929662244161592 -0.015483811219988135 0 0.0012136615286112919 -0.021405714882174288 0 0.00145789053931487 -0.021057906249135557 0 0.0013785730375548944 -0.021626178068312393 0 0.0010418835117698786 -0.021230811776227983 0 0.0012136615286112919 -0.021405714882174288 0 0.0012616108615622044 -0.021132267973949747 0 0.00041168101426624227 -0.015065336822586985 0 0.00052304512550893547 -0.015341875314364315 0 0.00023929662244161592 -0.015483811219988135 0 0.0012056233340593267 -0.021003681571532606 0 0.0012783953097810516 -0.021084483750550696 0 0.0012118363109823041 -0.02104821309203625 0 0.0013373752995579496 -0.018505431773488169 0 0.00090805636556471714 -0.020071628823290076 0 0.0012136615286112919 -0.021405714882174288 0 0.00145789053931487 -0.021057906249135557 0 0.0012616108615622044 -0.021132267973949747 0 0.0011353827819436412 -0.021042473362983864 0 0.0012616108615622044 -0.021132267973949747 0 0.0012118363109823041 -0.02104821309203625 0 0.0012783953097810516 -0.021084483750550696 0 0.0012616108615622044 -0.021132267973949747 0 0.0012118363109823041 -0.02104821309203625 0 0.0013373752995579496 -0.018505431773488169 0 0.00092395623575581751 -0.014993241666897134 0 0.00039983924220774917 -0.01471625110553375 0 0.00068925221147883239 -0.014914164072536644 0 0.0011100364956492254 -0.014453619719668869 0 0.00041168101426624227 -0.015065336822586985 0 0.00039983924220774917 -0.01471625110553375 0 0.00068925221147883239 -0.014914164072536644 0 1.3518146768299089e-05 -0.010959053633474623 0 0.00037979112508322544 -0.010746459427889642 0 0.00034979440885026756 -0.011098846650241983 0 0.00051489400743083514 -0.015303268460829722 0 0.00068925221147883239 -0.014914164072536644 0 0.00099974571530410373 -0.01503363166936878 0 0.00096144335387964963 -0.014330901588111599 0 0.00045435445024569931 -0.013074347214045835 0 0.00041168101426624227 -0.015065336822586985 0 0.00051489400743083514 -0.015303268460829722 0 0.00068925221147883239 -0.014914164072536644 0 0.00076872136338320947 -0.015066756949999947 0 0.00096144335387964963 -0.014330901588111599 0 0.00037979112508322544 -0.010746459427889642 0 0.00034979440885026756 -0.011098846650241983 0 0.00062351392972189183 -0.01101018096297879 0 0.00045435445024569931 -0.013074347214045835 0 0.0010647178269313682 -0.0091021513297408103 0 0.00037979112508322544 -0.010746459427889642 0 0.00075680632278591752 -0.010532670750421198 0 0.00062351392972189183 -0.01101018096297879 0 0.00099974571530410373 -0.01503363166936878 0 0.0011100364956492254 -0.014453619719668869 0 0.0014755386845312015 -0.014760205905736715 0 0.00068925221147883239 -0.014914164072536644 0 0.00099974571530410373 -0.01503363166936878 0 0.0011100364956492254 -0.014453619719668869 0 0.0011524142211707113 -0.0096124891047866205 0 0.00090446222354722628 -0.0096940664096694454 0 0.0012997852503186243 -0.0098211497525153447 0 0.00092395623575581751 -0.014993241666897134 0 0.0010647178269313682 -0.0091021513297408103 0 0.0012794113576932848 -0.021092702493996366 0 0.001293668075284503 -0.02118594522553054 0 0.0012099735136109522 -0.021097298065491106 0 0.0012794113576932848 -0.021092702493996366 0 0.0012099735136109522 -0.021097298065491106 0 0.001232352591190056 -0.02107203146137545 0 0.0012030134438325867 -0.022467863854655781 0 0.0012020689090208301 -0.021825781278510068 0 0.00097400004532412785 -0.023647021243603222 0 0.00034764340957346517 -0.023750811422938879 0 0.00020944510283937419 -0.023117011480315457 0 0.00097400004532412785 -0.023647021243603222 0 0.0011723080049094935 -0.022523239686306103 0 0.00020944510283937419 -0.023117011480315457 0 0.00042491586965181328 -0.022129410674369809 0 0.0011723080049094935 -0.022523239686306103 0 0.00020944510283937419 -0.023117011480315457 0 0.001235520508147006 -0.021177904892043763 0 0.001293668075284503 -0.02118594522553054 0 0.0012099735136109522 -0.021097298065491106 0 0.0011692439557007377 -0.021110894505002607 0 0.001235520508147006 -0.021177904892043763 0 0.0012099735136109522 -0.021097298065491106 0 0.0011692439557007377 -0.021110894505002607 0 0.001173126687065521 -0.021069136831919931 0 0.0012099735136109522 -0.021097298065491106 0 0.0011692439557007377 -0.021110894505002607 0 0.0011863326026265309 -0.021037394464904189 0 0.001173126687065521 -0.021069136831919931 0 0.001173126687065521 -0.021069136831919931 0 0.0011661926319977824 -0.021055927878947864 0 0.0012099735136109522 -0.021097298065491106 0 0.0011661926319977824 -0.021055927878947864 0 0.0012099735136109522 -0.021097298065491106 0 0.0011808618544385653 -0.021039224236282038 0 0.0012099735136109522 -0.021097298065491106 0 0.0011808618544385653 -0.021039224236282038 0 0.001232352591190056 -0.02107203146137545 0 0.00122958014025766 -0.021047482923324177 0 0.0011808618544385653 -0.021039224236282038 0 0.001232352591190056 -0.02107203146137545 0 0.00073228737480044467 -0.021050222143673768 0 0.00088156185050502047 -0.021088397878639739 0 0.00087604134972835005 -0.021457422653635212 0 0.00061827948527764522 -0.021108325569460247 0 0.00046330730137444486 -0.021627561779859122 0 7.9744509284931245e-05 -0.021237264302172824 0 -0.00011499370781871202 -0.021641238357616919 0 0.00046330730137444486 -0.021627561779859122 0 7.9744509284931245e-05 -0.021237264302172824 0 0.00061827948527764522 -0.021108325569460247 0 0.00046330730137444486 -0.021627561779859122 0 7.9744509284931245e-05 -0.021237264302172824 0 -0.00011499370781871202 -0.021641238357616919 0 -0.00047802053749372835 -0.021379559735551425 0 0.00073228737480044467 -0.021050222143673768 0 0.0001524022409431992 -0.022259877148272544 0 0.00122958014025766 -0.021047482923324177 0 0.0012515815306119885 -0.021065815479119884 0 0.001232352591190056 -0.02107203146137545 0 0.00122958014025766 -0.021047482923324177 0 0.0012515815306119885 -0.021065815479119884 0 0.0012617382374185454 -0.021053810269984964 0 0.0012794113576932848 -0.021092702493996366 0 0.0012515815306119885 -0.021065815479119884 0 0.001232352591190056 -0.02107203146137545 0 0.00097400004532412785 -0.023647021243603222 0 0.00054313314384933891 -0.02411729906291598 0 0.00076589274278318609 -0.024562875428529338 0 0.0012030134438325867 -0.022467863854655781 0 0.0001524022409431992 -0.022259877148272544 0 0.0012794113576932848 -0.021092702493996366 0 0.0012515815306119885 -0.021065815479119884 0 0.0012617382374185454 -0.021053810269984964 0 0.00097400004532412785 -0.023647021243603222 0 0.00054313314384933891 -0.02411729906291598 0 0.00034764340957346517 -0.023750811422938879 0 0.00054313314384933891 -0.02411729906291598 0 0.00041103684875492316 -0.024321151734227102 0 0.00051687381679398482 -0.024422134288233067 0 0.00051687381679398482 -0.024422134288233067 0 0.00040484014528021414 -0.024590059076967555 0 0.00031605400233560092 -0.024449837962622852 0 0.0003650689823514508 -0.024651547814090596 0 0.00040484014528021414 -0.024590059076967555 0 0.00076589274278318609 -0.024562875428529338 0 0.00054313314384933891 -0.02411729906291598 0 0.00051687381679398482 -0.024422134288233067 0 0.00076589274278318609 -0.024562875428529338 0 0.0001524022409431992 -0.022259877148272544 0 -0.00052991710123216011 -0.021810928990969775 0 0.00041103684875492316 -0.024321151734227102 0 0.00051687381679398482 -0.024422134288233067 0 0.00031605400233560092 -0.024449837962622852 0 -0.00011499370781871202 -0.021641238357616919 0 -0.00047802053749372835 -0.021379559735551425 0 -0.00054559717725283295 -0.021806060798225203 0 -0.00070167030673141549 -0.021763079090860497 0 -0.00053117244199252917 -0.021722569764500186 0 -0.0005743338365613663 -0.021994476940183541 0 -0.00010921429016883105 -0.02370362289213853 0 0.0001524022409431992 -0.022259877148272544 0 0.00051687381679398482 -0.024422134288233067 0 0.00040484014528021414 -0.024590059076967555 0 0.00076589274278318609 -0.024562875428529338 0 -0.00010921429016883105 -0.02370362289213853 0 -0.0001165618906769304 -0.023774630644023978 0 -0.00010921429016883105 -0.02370362289213853 0 -0.00034749173174405403 -0.024785256014073737 0 0.000348621555957124 -0.024646013693170037 0 0.00011076304797861076 -0.024507629936572718 0 -0.00036414727639249992 -0.024628274403369677 0 0.00011076304797861076 -0.024507629936572718 0 -0.00036414727639249992 -0.024628274403369677 0 -7.4109673934754335e-05 -0.024382251921743696 0 0.00011076304797861076 -0.024507629936572718 0 0.00018518210046501455 -0.024352056021376304 0 -7.4109673934754335e-05 -0.024382251921743696 0 0.00031605400233560092 -0.024449837962622852 0 0.00011076304797861076 -0.024507629936572718 0 0.00018518210046501455 -0.024352056021376304 0 0.00041103684875492316 -0.024321151734227102 0 0.00031605400233560092 -0.024449837962622852 0 0.00018518210046501455 -0.024352056021376304 0 0.00031605400233560092 -0.024449837962622852 0 0.00029226742382629087 -0.024548631138641048 0 0.00011076304797861076 -0.024507629936572718 0 0.000348621555957124 -0.024646013693170037 0 0.00029226742382629087 -0.024548631138641048 0 0.00011076304797861076 -0.024507629936572718 0 0.00040484014528021414 -0.024590059076967555 0 0.00031605400233560092 -0.024449837962622852 0 0.00029226742382629087 -0.024548631138641048 0 0.000348621555957124 -0.024646013693170037 0 0.00040484014528021414 -0.024590059076967555 0 0.00029226742382629087 -0.024548631138641048 0 -0.00036414727639249992 -0.024628274403369677 0 -0.00039204500661244078 -0.024425724537949865 0 -7.4109673934754335e-05 -0.024382251921743696 0 -0.00036414727639249992 -0.024628274403369677 0 -0.00039204500661244078 -0.024425724537949865 0 -0.0004181107151505279 -0.024567267021891239 0 -0.00039204500661244078 -0.024425724537949865 0 -0.0001736043150732469 -0.024117080902486203 0 -0.00052752436034021418 -0.023884779916055403 0 -0.00039204500661244078 -0.024425724537949865 0 -0.0001736043150732469 -0.024117080902486203 0 -7.4109673934754335e-05 -0.024382251921743696 0 -0.0001736043150732469 -0.024117080902486203 0 -0.00052752436034021418 -0.023884779916055403 0 -0.00012547254715306448 -0.023754110679811896 0 0.00054313314384933891 -0.02411729906291598 0 0.00041103684875492316 -0.024321151734227102 0 0.0001769885497466674 -0.024081221009524641 0 0.00041103684875492316 -0.024321151734227102 0 0.00018518210046501455 -0.024352056021376304 0 0.0001769885497466674 -0.024081221009524641 0 0.00018518210046501455 -0.024352056021376304 0 -7.4109673934754335e-05 -0.024382251921743696 0 0.0001769885497466674 -0.024081221009524641 0 -0.0001736043150732469 -0.024117080902486203 0 -7.4109673934754335e-05 -0.024382251921743696 0 0.0001769885497466674 -0.024081221009524641 0 -0.0001736043150732469 -0.024117080902486203 0 0.0001769885497466674 -0.024081221009524641 0 -0.00012547254715306448 -0.023754110679811896 0 0.0001769885497466674 -0.024081221009524641 0 0.00034764340957346517 -0.023750811422938879 0 -0.00012547254715306448 -0.023754110679811896 0 0.00054313314384933891 -0.02411729906291598 0 0.0001769885497466674 -0.024081221009524641 0 0.00034764340957346517 -0.023750811422938879 0 0.00034764340957346517 -0.023750811422938879 0 0.00020944510283937419 -0.023117011480315457 0 -0.00012547254715306448 -0.023754110679811896 0 0.00020944510283937419 -0.023117011480315457 0 -0.00012547254715306448 -0.023754110679811896 0 -0.00022098706255458466 -0.023271268888959192 0 -0.00012547254715306448 -0.023754110679811896 0 -0.00070158797987136356 -0.023412568979580543 0 -0.00022098706255458466 -0.023271268888959192 0 -0.00052752436034021418 -0.023884779916055403 0 -0.00012547254715306448 -0.023754110679811896 0 -0.00070158797987136356 -0.023412568979580543 0 -0.00033090736484698175 -0.022866805977737263 0 -0.0009851235031676747 -0.023055170809464755 0 -0.0008678843142591573 -0.022555556230044699 0 -0.00070158797987136356 -0.023412568979580543 0 -0.00033090736484698175 -0.022866805977737263 0 -0.0009851235031676747 -0.023055170809464755 0 -0.00070158797987136356 -0.023412568979580543 0 -0.00022098706255458466 -0.023271268888959192 0 -0.00033090736484698175 -0.022866805977737263 0 -0.00058246149011763218 -0.022640321003423006 0 -0.00042843042402953473 -0.023508376741857521 0 0.00042491586965181328 -0.022129410674369809 0 0.00020944510283937419 -0.023117011480315457 0 -0.00052666220200151741 -0.02262863521397427 0 0.00020944510283937419 -0.023117011480315457 0 -0.00022098706255458466 -0.023271268888959192 0 -0.00033090736484698175 -0.022866805977737263 0 0.00020124506088666836 -0.023122325260806428 0 -0.00058246149011763218 -0.022640321003423006 0 -0.0008567509984644064 -0.023917282524562412 0 -0.00056392499144110547 -0.024363735830455424 0 -0.0014897434308027585 -0.022855636555153637 0 -0.0009851235031676747 -0.023055170809464755 0 -0.0008678843142591573 -0.022555556230044699 0 -0.0008567509984644064 -0.023917282524562412 0 -0.00042843042402953473 -0.023508376741857521 0 -0.0014897434308027585 -0.022855636555153637 0 -0.0009851235031676747 -0.023055170809464755 0 -0.0013056289160267038 -0.023703227548795659 0 -0.00052752436034021418 -0.023884779916055403 0 -0.00070158797987136356 -0.023412568979580543 0 -0.0013056289160267038 -0.023703227548795659 0 -0.00070158797987136356 -0.023412568979580543 0 -0.0009851235031676747 -0.023055170809464755 0 -0.0013056289160267038 -0.023703227548795659 0 -0.00041583654973305367 -0.024699632153561919 0 -0.00035464860842392197 -0.024702567771243335 0 -0.00030982997866405986 -0.024865036532855694 0 -0.00099095285554283517 -0.024115022193296153 0 -0.00056392499144110547 -0.024363735830455424 0 -0.0014897434308027585 -0.022855636555153637 0 -0.0013056289160267038 -0.023703227548795659 0 -0.0020789671716493021 -0.023142255276184725 0 -0.00041583654973305367 -0.024699632153561919 0 -0.00035464860842392197 -0.024702567771243335 0 -0.0003850372538109554 -0.024621776183526612 0 -0.00034429538202812777 -0.02447246474725023 0 -0.00099095285554283517 -0.024115022193296153 0 -0.00041583654973305367 -0.024699632153561919 0 -0.0004181107151505279 -0.024567267021891239 0 -0.0003850372538109554 -0.024621776183526612 0 -0.00039204500661244078 -0.024425724537949865 0 -0.00052752436034021418 -0.023884779916055403 0 -0.0013056289160267038 -0.023703227548795659 0 -0.00039204500661244078 -0.024425724537949865 0 -0.00041583654973305367 -0.024699632153561919 0 -0.0004181107151505279 -0.024567267021891239 0 -0.0004181107151505279 -0.024567267021891239 0 -0.0003850372538109554 -0.024621776183526612 0 -0.00039530656646848567 -0.024584452452724351 0 -0.00035464860842392197 -0.024702567771243335 0 -0.0003850372538109554 -0.024621776183526612 0 -0.00031445683318436066 -0.024666994678663144 0 -0.0003850372538109554 -0.024621776183526612 0 -0.00031445683318436066 -0.024666994678663144 0 -0.00036680131714616668 -0.024593546604616122 0 -0.0003850372538109554 -0.024621776183526612 0 -0.00039530656646848567 -0.024584452452724351 0 -0.00036680131714616668 -0.024593546604616122 0 -0.00031445683318436066 -0.024666994678663144 0 -0.00022278366980675436 -0.024709943424826915 0 -0.00025458465626924422 -0.024622168944537396 0 -0.00031445683318436066 -0.024666994678663144 0 -0.00022278366980675436 -0.024709943424826915 0 -0.00023925575998277174 -0.024769944274948549 0 -0.00022278366980675436 -0.024709943424826915 0 -0.00017071786802958443 -0.024659114053615934 0 -0.00025458465626924422 -0.024622168944537396 0 -0.00023925575998277174 -0.024769944274948549 0 -0.00028696345344765518 -0.024771622546224354 0 -0.00020391607779681099 -0.024872368256784419 0 -0.00023925575998277174 -0.024769944274948549 0 -0.00015999775127135859 -0.024820021002294256 0 -0.00020391607779681099 -0.024872368256784419 0 -0.00022278366980675436 -0.024709943424826915 0 -0.00023925575998277174 -0.024769944274948549 0 -0.00015999775127135859 -0.024820021002294256 0 -0.00035464860842392197 -0.024702567771243335 0 -0.00031445683318436066 -0.024666994678663144 0 -0.00028696345344765518 -0.024771622546224354 0 -0.00031445683318436066 -0.024666994678663144 0 -0.00023925575998277174 -0.024769944274948549 0 -0.00028696345344765518 -0.024771622546224354 0 -8.4409011116449205e-09 -0.025000032461396961 0 1.0510939383422053e-06 -0.024999049321322006 0 1.8227087146733179e-06 -0.024992022793789769 0 -7.8352149049971355e-06 -0.024688730715242295 0 -0.00010428045976320446 -0.024691460088932034 0 -0.00010334403114473462 -0.024620093025347123 0 -7.8352149049971355e-06 -0.024688730715242295 0 -7.907738151812276e-05 -0.024752600647846384 0 -0.00010428045976320446 -0.024691460088932034 0 -7.8352149049971355e-06 -0.024688730715242295 0 -7.907738151812276e-05 -0.024752600647846384 0 -4.3017254462528697e-05 -0.024842313060597823 0 -7.907738151812276e-05 -0.024752600647846384 0 -0.00014093898991509522 -0.024738229496897014 0 -8.4838261110540636e-05 -0.024837071378174157 0 -7.907738151812276e-05 -0.024752600647846384 0 -0.00010428045976320446 -0.024691460088932034 0 -0.00014093898991509522 -0.024738229496897014 0 -0.00022278366980675436 -0.024709943424826915 0 -0.00017071786802958443 -0.024659114053615934 0 -0.00014093898991509522 -0.024738229496897014 0 -0.00010428045976320446 -0.024691460088932034 0 -0.00017071786802958443 -0.024659114053615934 0 -0.00014093898991509522 -0.024738229496897014 0 -0.00022278366980675436 -0.024709943424826915 0 -0.00014093898991509522 -0.024738229496897014 0 -0.00015999775127135859 -0.024820021002294256 0 -0.00015999775127135859 -0.024820021002294256 0 -8.4838261110540636e-05 -0.024837071378174157 0 -4.9700670838862713e-05 -0.024943030921756714 0 -0.00014093898991509522 -0.024738229496897014 0 -0.00015999775127135859 -0.024820021002294256 0 -8.4838261110540636e-05 -0.024837071378174157 0 -8.4409011116449205e-09 -0.025000032461396961 0 1.8227087146733179e-06 -0.024992022793789769 0 3.6010879381427838e-08 -0.024999821201714355 0 -7.8352149049971355e-06 -0.024688730715242295 0 -4.3017254462528697e-05 -0.024842313060597823 0 1.8227087146733179e-06 -0.024992022793789769 0 -9.827339996904221e-06 -0.024848727591845355 0 5.9708887880745866e-06 -0.024975153192866362 0 -7.907738151812276e-05 -0.024752600647846384 0 -8.4838261110540636e-05 -0.024837071378174157 0 -4.3017254462528697e-05 -0.024842313060597823 0 -8.4838261110540636e-05 -0.024837071378174157 0 -4.3017254462528697e-05 -0.024842313060597823 0 -3.0229163833877801e-05 -0.024928261051470797 0 -8.4838261110540636e-05 -0.024837071378174157 0 -4.9700670838862713e-05 -0.024943030921756714 0 -3.0229163833877801e-05 -0.024928261051470797 0 -3.0229163833877801e-05 -0.024928261051470797 0 1.8227087146733179e-06 -0.024992022793789769 0 3.6010879381427838e-08 -0.024999821201714355 0 -4.9700670838862713e-05 -0.024943030921756714 0 -3.0229163833877801e-05 -0.024928261051470797 0 3.6010879381427838e-08 -0.024999821201714355 0 -4.3017254462528697e-05 -0.024842313060597823 0 -3.0229163833877801e-05 -0.024928261051470797 0 1.8227087146733179e-06 -0.024992022793789769 0 3.6010879381427838e-08 -0.024999821201714355 0 -2.8333484895076814e-05 -0.024980071809851127 0 -3.2445594970097121e-08 -0.025000014957827915 0 -4.9700670838862713e-05 -0.024943030921756714 0 3.6010879381427838e-08 -0.024999821201714355 0 -2.8333484895076814e-05 -0.024980071809851127 0 -6.2405772568409037e-05 -0.024927014671795575 0 -6.7748194003744319e-05 -0.024955779157656201 0 -4.9700670838862713e-05 -0.024943030921756714 0 -2.8333484895076814e-05 -0.024980071809851127 0 -3.7656747603208588e-05 -0.0249682632004979 0 -0.00015999775127135859 -0.024820021002294256 0 -4.9700670838862713e-05 -0.024943030921756714 0 -0.00020391607779681099 -0.024872368256784419 0 -2.8333484895076814e-05 -0.024980071809851127 0 -3.7656747603208588e-05 -0.0249682632004979 0 -2.9328038403234254e-05 -0.024972732744633762 0 -2.8333484895076814e-05 -0.024980071809851127 0 -2.9328038403234254e-05 -0.024972732744633762 0 -1.6314356965230006e-05 -0.024991200249017995 0 -2.8333484895076814e-05 -0.024980071809851127 0 -3.2445594970097121e-08 -0.025000014957827915 0 -1.6314356965230006e-05 -0.024991200249017995 0 -0.00035464860842392197 -0.024702567771243335 0 -0.00028696345344765518 -0.024771622546224354 0 -0.00030982997866405986 -0.024865036532855694 0 -0.00028696345344765518 -0.024771622546224354 0 -0.00020391607779681099 -0.024872368256784419 0 -0.00030982997866405986 -0.024865036532855694 0 -6.7748194003744319e-05 -0.024955779157656201 0 -0.00056392499144110547 -0.024363735830455424 0 -3.7656747603208588e-05 -0.0249682632004979 0 -2.9328038403234254e-05 -0.024972732744633762 0 -4.4191034172793234e-05 -0.024965643840110071 0 0.00020006025063619022 -0.02515774918546276 0 -0.00056392499144110547 -0.024363735830455424 0 -6.0923986515296515e-05 -0.024930513369217925 0 -3.4418355147708606e-05 -0.024936613936588477 0 -2.8720867074390141e-05 -0.024955755118121689 0 -2.9328038403234254e-05 -0.024972732744633762 0 -3.4418355147708606e-05 -0.024936613936588477 0 -2.8720867074390141e-05 -0.024955755118121689 0 -2.8720867074390141e-05 -0.024955755118121689 0 -2.4035154359895918e-05 -0.024983262199205325 0 -5.9871097436502385e-05 -0.024965161619487381 0 -2.6343978943065559e-05 -0.024959524035576216 0 -6.5896082707100721e-06 -0.024982108152825731 0 -2.8720867074390141e-05 -0.024955755118121689 0 -3.4330426375391652e-06 -0.024970704453882369 0 1.2458517887225065e-05 -0.024974238878971548 0 -2.9328038403234254e-05 -0.024972732744633762 0 -2.8720867074390141e-05 -0.024955755118121689 0 -2.3880295754848463e-05 -0.024992017526716918 0 1.2107011788717756e-05 -0.024977505240833146 0 1.2458517887225065e-05 -0.024974238878971548 0 9.8086023362753564e-06 -0.024964684908027571 0 -3.4330426375391652e-06 -0.024970704453882369 0 1.2107011788717756e-05 -0.024977505240833146 0 1.2458517887225065e-05 -0.024974238878971548 0 1.2107011788717756e-05 -0.024977505240833146 0 4.8785730137221741e-05 -0.024960400152425517 0 2.5419921167994824e-05 -0.024950528103391361 0 1.2107011788717756e-05 -0.024977505240833146 0 2.5419921167994824e-05 -0.024950528103391361 0 9.8086023362753564e-06 -0.024964684908027571 0 -2.8720867074390141e-05 -0.024955755118121689 0 -3.4330426375391652e-06 -0.024970704453882369 0 -2.4035154359895918e-05 -0.024983262199205325 0 1.4891096858801641e-05 -0.024914407635403934 0 6.7706288373041299e-05 -0.024674197848699068 0 1.2107011788717756e-05 -0.024977505240833146 0 4.8785730137221741e-05 -0.024960400152425517 0 9.1182034039421776e-05 -0.024986629161220793 0 0.00012908095880054087 -0.024856844418455929 0 6.7706288373041299e-05 -0.024674197848699068 0 -3.4330426375391652e-06 -0.024970704453882369 0 1.2107011788717756e-05 -0.024977505240833146 0 -2.4035154359895918e-05 -0.024983262199205325 0 -3.2445594970097121e-08 -0.025000014957827915 0 -1.6314356965230006e-05 -0.024991200249017995 0 4.1809003529209088e-09 -0.025000000438868637 0 -2.9328038403234254e-05 -0.024972732744633762 0 -1.6314356965230006e-05 -0.024991200249017995 0 -2.3880295754848463e-05 -0.024992017526716918 0 1.2458517887225065e-05 -0.024974238878971548 0 1.3446153277901808e-06 -0.024973986777904467 0 9.8086023362753564e-06 -0.024964684908027571 0 -1.6314356965230006e-05 -0.024991200249017995 0 -2.3880295754848463e-05 -0.024992017526716918 0 4.1809003529209088e-09 -0.025000000438868637 0 -6.5896082707100721e-06 -0.024982108152825731 0 -5.1961335276313945e-09 -0.024999993478942602 0 1.2458517887225065e-05 -0.024974238878971548 0 -6.2728969184453811e-09 -0.02499995496451686 0 1.3446153277901808e-06 -0.024973986777904467 0 1.3446153277901808e-06 -0.024973986777904467 0 1.9250206271696016e-07 -0.02495448907189186 0 -9.6677126067347345e-09 -0.024999940681121702 0 -6.2728969184453811e-09 -0.02499995496451686 0 1.3446153277901808e-06 -0.024973986777904467 0 -9.6677126067347345e-09 -0.024999940681121702 0 1.3446153277901808e-06 -0.024973986777904467 0 5.8981391193278861e-06 -0.02494923332071667 0 1.9250206271696016e-07 -0.02495448907189186 0 1.3446153277901808e-06 -0.024973986777904467 0 5.8981391193278861e-06 -0.02494923332071667 0 9.8086023362753564e-06 -0.024964684908027571 0 2.2907805843941248e-05 -0.024867678992521316 0 -4.8403185703895465e-06 -0.024924515957103183 0 9.1991156430708973e-06 -0.024919140042348346 0 -4.8403185703895465e-06 -0.024924515957103183 0 9.1991156430708973e-06 -0.024919140042348346 0 1.9250206271696016e-07 -0.02495448907189186 0 5.8981391193278861e-06 -0.02494923332071667 0 9.1991156430708973e-06 -0.024919140042348346 0 1.9250206271696016e-07 -0.02495448907189186 0 -4.8403185703895465e-06 -0.024924515957103183 0 1.9250206271696016e-07 -0.02495448907189186 0 -9.6677126067347345e-09 -0.024999940681121702 0 5.3305808898107424e-05 -0.024918642632464828 0 0.00011542271377094062 -0.024895664436116037 0 5.111775631168247e-05 -0.024873719329837472 0 4.8785730137221741e-05 -0.024960400152425517 0 8.8213742261722671e-05 -0.024981025649264278 0 0.00011542271377094062 -0.024895664436116037 0 4.8785730137221741e-05 -0.024960400152425517 0 5.3305808898107424e-05 -0.024918642632464828 0 0.00011542271377094062 -0.024895664436116037 0 5.3305808898107424e-05 -0.024918642632464828 0 2.5419921167994824e-05 -0.024950528103391361 0 2.1861306387419107e-05 -0.024931998885900281 0 4.8785730137221741e-05 -0.024960400152425517 0 5.3305808898107424e-05 -0.024918642632464828 0 2.5419921167994824e-05 -0.024950528103391361 0 5.8981391193278861e-06 -0.02494923332071667 0 9.8086023362753564e-06 -0.024964684908027571 0 2.1861306387419107e-05 -0.024931998885900281 0 2.5419921167994824e-05 -0.024950528103391361 0 9.8086023362753564e-06 -0.024964684908027571 0 2.1861306387419107e-05 -0.024931998885900281 0 5.8981391193278861e-06 -0.02494923332071667 0 9.1991156430708973e-06 -0.024919140042348346 0 2.1861306387419107e-05 -0.024931998885900281 0 5.3305808898107424e-05 -0.024918642632464828 0 2.1861306387419107e-05 -0.024931998885900281 0 5.111775631168247e-05 -0.024873719329837472 0 2.2907805843941248e-05 -0.024867678992521316 0 9.1991156430708973e-06 -0.024919140042348346 0 5.111775631168247e-05 -0.024873719329837472 0 9.1991156430708973e-06 -0.024919140042348346 0 2.1861306387419107e-05 -0.024931998885900281 0 5.111775631168247e-05 -0.024873719329837472 0 6.4715244567841733e-05 -0.024807914129011541 0 2.2907805843941248e-05 -0.024867678992521316 0 5.111775631168247e-05 -0.024873719329837472 0 6.4715244567841733e-05 -0.024807914129011541 0 5.111775631168247e-05 -0.024873719329837472 0 0.00012640248924406362 -0.02479568232048867 0 0.00011542271377094062 -0.024895664436116037 0 5.111775631168247e-05 -0.024873719329837472 0 0.00012640248924406362 -0.02479568232048867 0 0.00011542271377094062 -0.024895664436116037 0 0.00012640248924406362 -0.02479568232048867 0 0.0002472063963288464 -0.024820709913098177 0 0.00024190268507684335 -0.024725747372651256 0 0.00012640248924406362 -0.02479568232048867 0 0.0002472063963288464 -0.024820709913098177 0 0.00011542271377094062 -0.024895664436116037 0 0.0002472063963288464 -0.024820709913098177 0 0.00024112621035905275 -0.024973294066943628 0 0.0002472063963288464 -0.024820709913098177 0 0.00041489273385157899 -0.024828923738618426 0 0.00024112621035905275 -0.024973294066943628 0 0.0002472063963288464 -0.024820709913098177 0 0.00036000711919128008 -0.024692192448396228 0 0.00041489273385157899 -0.024828923738618426 0 0.00024190268507684335 -0.024725747372651256 0 0.0002472063963288464 -0.024820709913098177 0 0.00036000711919128008 -0.024692192448396228 0 0.00036000711919128008 -0.024692192448396228 0 0.00063330139296897839 -0.024650962216434494 0 0.00041489273385157899 -0.024828923738618426 0 0.00064918842945608341 -0.024274347552358508 0 0.00084942007800133026 -0.024500753135030907 0 0.00063330139296897839 -0.024650962216434494 0 0.00064918842945608341 -0.024274347552358508 0 0.00036000711919128008 -0.024692192448396228 0 0.00063330139296897839 -0.024650962216434494 0 0.00063330139296897839 -0.024650962216434494 0 0.00065058921031763725 -0.024845952994900691 0 0.00041489273385157899 -0.024828923738618426 0 0.0008361270753789883 -0.024718695690386365 0 0.00063330139296897839 -0.024650962216434494 0 0.00065058921031763725 -0.024845952994900691 0 0.00065058921031763725 -0.024845952994900691 0 0.00041489273385157899 -0.024828923738618426 0 0.00047701253636536376 -0.02497041239605672 0 0.00025644262170813827 -0.024056001072753665 0 0.00027342101618446185 -0.024087564629270915 0 0.00021740840729934151 -0.024083265856147465 0 0.00041489273385157899 -0.024828923738618426 0 0.00047701253636536376 -0.02497041239605672 0 0.00024112621035905275 -0.024973294066943628 0 0.00079646208610774588 -0.024937916878621867 0 0.00065058921031763725 -0.024845952994900691 0 0.00047701253636536376 -0.02497041239605672 0 0.00035453170576805473 -0.024047485430312422 0 0.00025644262170813827 -0.024056001072753665 0 0.00027342101618446185 -0.024087564629270915 0 0.00068772822695802158 -0.023709565503677626 0 0.00034522430565311636 -0.02459452988560247 0 0.00068772822695802158 -0.023709565503677626 0 1.4503373293567246e-05 -0.022802084039795487 0 0.00042491586965181328 -0.022129410674369809 0 0.00070141562697305869 -0.021332113128523303 0 -0.00029185075046881764 -0.021742120505411702 0 0.00042491586965181328 -0.022129410674369809 0 -0.00052666220200151741 -0.02262863521397427 0 -0.00029185075046881764 -0.021742120505411702 0 1.4503373293567246e-05 -0.022802084039795487 0 -0.00042843042402953473 -0.023508376741857521 0 -0.00052666220200151741 -0.02262863521397427 0 -0.00029185075046881764 -0.021742120505411702 0 -0.0012344706364041348 -0.022185249269888688 0 0.00027342101618446185 -0.024087564629270915 0 0.00021740840729934151 -0.024083265856147465 0 0.00021135056000149763 -0.024112320638234909 0 -6.0923986515296515e-05 -0.024930513369217925 0 -0.0001004963394696933 -0.02493360568448558 0 -5.9871097436502385e-05 -0.024965161619487381 0 -0.00042843042402953473 -0.023508376741857521 0 0.00018151264693755273 -0.024636300524423213 0 0.00021740840729934151 -0.024083265856147465 0 0.00021135056000149763 -0.024112320638234909 0 0.00017380146098127796 -0.024091535448942582 0 -6.0923986515296515e-05 -0.024930513369217925 0 -2.8720867074390141e-05 -0.024955755118121689 0 -5.9871097436502385e-05 -0.024965161619487381 0 8.8213742261722671e-05 -0.024981025649264278 0 0.00011542271377094062 -0.024895664436116037 0 0.00024112621035905275 -0.024973294066943628 0 6.7706288373041299e-05 -0.024674197848699068 0 0.00018151264693755273 -0.024636300524423213 0 6.7706288373041299e-05 -0.024674197848699068 0 0.00022971321521319076 -0.024498753791710001 0 0.00014273898575817702 -0.02408172667058146 0 0.00017380146098127796 -0.024091535448942582 0 0.0001889062460033631 -0.024069992209538236 0 0.00021740840729934151 -0.024083265856147465 0 0.00017380146098127796 -0.024091535448942582 0 0.0001889062460033631 -0.024069992209538236 0 0.00034522430565311636 -0.02459452988560247 0 0.00022971321521319076 -0.024498753791710001 0 0.00025644262170813827 -0.024056001072753665 0 0.00021740840729934151 -0.024083265856147465 0 0.0001889062460033631 -0.024069992209538236 0 0.0034131503630977882 0.0097263275188046051 0 0.0031799759261276275 0.009372601695079575 0 0.0032940717860433181 0.009908074864023524 0 0.0034131503630977882 0.0097263275188046051 0 0.0036258989418755548 0.0093597589140873207 0 0.0031799759261276275 0.009372601695079575 0 0.0036258989418755548 0.0093597589140873207 0 0.0036335046749584265 0.010160853054827652 0 0.0045792660624754842 0.0095711022087688249 0 0.0034131503630977882 0.0097263275188046051 0 0.0036258989418755548 0.0093597589140873207 0 0.0036335046749584265 0.010160853054827652 0 0.0036258989418755548 0.0093597589140873207 0 0.0039298584763993692 0.0088837780757385857 0 0.0034078043603891924 0.0087292633363164982 0 0.0039298584763993692 0.0088837780757385857 0 0.0034078043603891924 0.0087292633363164982 0 0.0036914203390977824 0.0083136089685732703 0 0.0034078043603891924 0.0087292633363164982 0 0.0031950008449709 0.0087831952478637145 0 0.0033254345498916547 0.0090589574021021739 0 0.0036258989418755548 0.0093597589140873207 0 0.0034078043603891924 0.0087292633363164982 0 0.0033254345498916547 0.0090589574021021739 0 0.0036258989418755548 0.0093597589140873207 0 0.0033254345498916547 0.0090589574021021739 0 0.0031799759261276275 0.009372601695079575 0 0.0031799759261276275 0.009372601695079575 0 0.0030502621954914119 0.00894210774773831 0 0.0023874532011461786 0.0090792258512498569 0 0.0033254345498916547 0.0090589574021021739 0 0.0031799759261276275 0.009372601695079575 0 0.0030502621954914119 0.00894210774773831 0 0.0031950008449709 0.0087831952478637145 0 0.0030502621954914119 0.00894210774773831 0 0.0030100134403045877 0.0084276100327567612 0 0.0031950008449709 0.0087831952478637145 0 0.0033254345498916547 0.0090589574021021739 0 0.0030502621954914119 0.00894210774773831 0 0.0023874532011461786 0.0090792258512498569 0 0.0018298944184826304 0.0085343098352939958 0 0.0018114911399546108 0.0095967760898678697 0 0.0031799759261276275 0.009372601695079575 0 0.0023874532011461786 0.0090792258512498569 0 0.0018114911399546108 0.0095967760898678697 0 0.0030502621954914119 0.00894210774773831 0 0.0025621358082388002 0.0085484262414370887 0 0.0023874532011461786 0.0090792258512498569 0 0.0025621358082388002 0.0085484262414370887 0 0.0023874532011461786 0.0090792258512498569 0 0.0018298944184826304 0.0085343098352939958 0 0.0018298944184826304 0.0085343098352939958 0 0.0018114911399546108 0.0095967760898678697 0 0.00095265845736739146 0.0089783040001022961 0 0.0018298944184826304 0.0085343098352939958 0 0.0011312985756774673 0.0082826170822662363 0 0.00095265845736739146 0.0089783040001022961 0 0.0018114911399546108 0.0095967760898678697 0 0.00050966215571479981 0.0098914670557230071 0 0.00095265845736739146 0.0089783040001022961 0 0.0022824709938233396 0.0098854699431540401 0 0.002318409089924403 0.0074047649372464578 0 0.0031228636612365313 0.0096799502868769576 0 0.0031876493825686806 0.0098882693122767356 0 0.0029325920549211973 0.0097505425466521967 0 0.0032539268189125579 0.0093327189301929195 0 0.0022824709938233396 0.0098854699431540401 0 0.0031799759261276275 0.009372601695079575 0 0.0031228636612365313 0.0096799502868769576 0 0.0032940717860433181 0.009908074864023524 0 0.0031228636612365313 0.0096799502868769576 0 0.0032940717860433181 0.009908074864023524 0 0.0031876493825686806 0.0098882693122767356 0 0.0032940717860433181 0.009908074864023524 0 0.0031876493825686806 0.0098882693122767356 0 0.003366463713200834 0.010056336952128904 0 0.0031876493825686806 0.0098882693122767356 0 0.0031831061211406268 0.01003293288605399 0 0.0029325920549211973 0.0097505425466521967 0 0.0031831061211406268 0.01003293288605399 0 0.003366463713200834 0.010056336952128904 0 0.0035539990824932648 0.010009757494911245 0 0.0031876493825686806 0.0098882693122767356 0 0.0031831061211406268 0.01003293288605399 0 0.003366463713200834 0.010056336952128904 0 0.0032940717860433181 0.009908074864023524 0 0.003366463713200834 0.010056336952128904 0 0.0035107869669308025 0.010182767334860576 0 0.0032940717860433181 0.009908074864023524 0 0.0035107869669308025 0.010182767334860576 0 0.0036335046749584265 0.010160853054827652 0 0.0034131503630977882 0.0097263275188046051 0 0.0032940717860433181 0.009908074864023524 0 0.0036335046749584265 0.010160853054827652 0 0.0035107869669308025 0.010182767334860576 0 0.0036335046749584265 0.010160853054827652 0 0.0035788537136073892 0.010289386580116562 0 0.0036335046749584265 0.010160853054827652 0 0.0035788537136073892 0.010289386580116562 0 0.0035461853980181361 0.010505619603193666 0 0.0035788537136073892 0.010289386580116562 0 0.0035461853980181361 0.010505619603193666 0 0.0034763180895617083 0.010369068137638876 0 0.0033995180844766091 0.010608621801043759 0 0.0032515262928496306 0.010632135888812101 0 0.0034763180895617083 0.010369068137638876 0 0.0035461853980181361 0.010505619603193666 0 0.0033995180844766091 0.010608621801043759 0 0.0034763180895617083 0.010369068137638876 0 0.0033995180844766091 0.010608621801043759 0 0.0033882460402958597 0.010834188176100958 0 0.0032647319336540784 0.010806042649255622 0 0.0035461853980181361 0.010505619603193666 0 0.0033995180844766091 0.010608621801043759 0 0.0033882460402958597 0.010834188176100958 0 0.0035461853980181361 0.010505619603193666 0 0.0033882460402958597 0.010834188176100958 0 0.0035344946745609271 0.010964358949984033 0 0.0033882460402958597 0.010834188176100958 0 0.0032725568604103699 0.01116613133085289 0 0.0035344946745609271 0.010964358949984033 0 0.0036335046749584265 0.010160853054827652 0 0.0035461853980181361 0.010505619603193666 0 0.0035344946745609271 0.010964358949984033 0 0.002865022545233179 0.011008832575052214 0 0.0030260395507049893 0.010705694753670971 0 0.002742753233663367 0.010854665578144389 0 0.002865022545233179 0.011008832575052214 0 0.0030868618257168987 0.010913089151929071 0 0.0030260395507049893 0.010705694753670971 0 0.002865022545233179 0.011008832575052214 0 0.0030868618257168987 0.010913089151929071 0 0.0029238134363302882 0.011225999252016824 0 0.0030868618257168987 0.010913089151929071 0 0.0032515262928496306 0.010632135888812101 0 0.0030260395507049893 0.010705694753670971 0 0.0033995180844766091 0.010608621801043759 0 0.0032515262928496306 0.010632135888812101 0 0.0032647319336540784 0.010806042649255622 0 0.0030868618257168987 0.010913089151929071 0 0.0032515262928496306 0.010632135888812101 0 0.0032647319336540784 0.010806042649255622 0 0.0033882460402958597 0.010834188176100958 0 0.0032647319336540784 0.010806042649255622 0 0.0031682351334299981 0.011071953889817649 0 0.0033882460402958597 0.010834188176100958 0 0.0031682351334299981 0.011071953889817649 0 0.0032725568604103699 0.01116613133085289 0 0.0031682351334299981 0.011071953889817649 0 0.0030548707219100065 0.011380997596682801 0 0.0032725568604103699 0.01116613133085289 0 0.0030868618257168987 0.010913089151929071 0 0.0031682351334299981 0.011071953889817649 0 0.0029238134363302882 0.011225999252016824 0 0.0030868618257168987 0.010913089151929071 0 0.0032647319336540784 0.010806042649255622 0 0.0031682351334299981 0.011071953889817649 0 0.0031682351334299981 0.011071953889817649 0 0.0029238134363302882 0.011225999252016824 0 0.0030548707219100065 0.011380997596682801 0 0.0029238134363302882 0.011225999252016824 0 0.0028412351390480527 0.011514900538817683 0 0.0026873885353405724 0.011434431159289089 0 0.0029238134363302882 0.011225999252016824 0 0.0026873885353405724 0.011434431159289089 0 0.0027571354893715268 0.011239557092475436 0 0.002865022545233179 0.011008832575052214 0 0.0029238134363302882 0.011225999252016824 0 0.0027571354893715268 0.011239557092475436 0 0.0027888165538464352 0.011745846643900833 0 0.0028412351390480527 0.011514900538817683 0 0.0029559646755714861 0.011649873951166968 0 0.0028412351390480527 0.011514900538817683 0 0.0030548707219100065 0.011380997596682801 0 0.0029559646755714861 0.011649873951166968 0 0.0029238134363302882 0.011225999252016824 0 0.0028412351390480527 0.011514900538817683 0 0.0030548707219100065 0.011380997596682801 0 0.0030548707219100065 0.011380997596682801 0 0.0029559646755714861 0.011649873951166968 0 0.0031563798411739763 0.011638801130930626 0 0.0030548707219100065 0.011380997596682801 0 0.0032725568604103699 0.01116613133085289 0 0.0031563798411739763 0.011638801130930626 0 0.0051362635614848407 0.0087431889807963251 0 0.0054347921710771957 0.0090064244297383533 0 0.0048880315628897957 0.0089876167304753975 0 0.0051362635614848407 0.0087431889807963251 0 0.0054106006565914633 0.0088666478142384632 0 0.005177774118283864 0.0083135202343737578 0 0.0051362635614848407 0.0087431889807963251 0 0.0054106006565914633 0.0088666478142384632 0 0.0054347921710771957 0.0090064244297383533 0 0.0029559646755714861 0.011649873951166968 0 0.0031563798411739763 0.011638801130930626 0 0.0026353272213814304 0.012139246063380278 0 0.0027888165538464352 0.011745846643900833 0 0.0029559646755714861 0.011649873951166968 0 0.0026353272213814304 0.012139246063380278 0 0.0054347921710771957 0.0090064244297383533 0 0.0054622129901375199 0.0088807780643835859 0 0.0054432898003780117 0.008881721190873694 0 0.0054648518696967015 0.0088426855332390877 0 0.0057653107297599574 0.0086955691733110463 0 0.0054106006565914633 0.0088666478142384632 0 0.0054347921710771957 0.0090064244297383533 0 0.0054622129901375199 0.0088807780643835859 0 0.0042847245456201595 0.010324979939117509 0 0.0039369714051939097 0.010544061293471317 0 0.0036258989418755548 0.0093597589140873207 0 0.0039298584763993692 0.0088837780757385857 0 0.0045792660624754842 0.0095711022087688249 0 0.0036307305695957256 0.01020926045651791 0 0.0040089935871073772 0.010271349907057239 0 0.0054347921710771957 0.0090064244297383533 0 0.0045792660624754842 0.0095711022087688249 0 0.0048880315628897957 0.0089876167304753975 0 0.0032725568604103699 0.01116613133085289 0 0.0031563798411739763 0.011638801130930626 0 0.0035344946745609271 0.010964358949984033 0 0.0042847245456201595 0.010324979939117509 0 0.0040089935871073772 0.010271349907057239 0 0.0048880315628897957 0.0089876167304753975 0 0.0043059472693783626 0.008591595246136766 0 0.004711251789575455 0.008356737040877537 0 0.0045792660624754842 0.0095711022087688249 0 0.0048880315628897957 0.0089876167304753975 0 0.0043059472693783626 0.008591595246136766 0 0.0051362635614848407 0.0087431889807963251 0 0.0048880315628897957 0.0089876167304753975 0 0.004711251789575455 0.008356737040877537 0 0.0039298584763993692 0.0088837780757385857 0 0.0045792660624754842 0.0095711022087688249 0 0.0043059472693783626 0.008591595246136766 0 0.0041777154501560013 0.0081293430871508376 0 0.0043059472693783626 0.008591595246136766 0 0.0036914203390977824 0.0083136089685732703 0 0.0039298584763993692 0.0088837780757385857 0 0.0043059472693783626 0.008591595246136766 0 0.0036914203390977824 0.0083136089685732703 0 0.0041777154501560013 0.0081293430871508376 0 0.0039662292790720744 0.0077368407894404167 0 0.0036914203390977824 0.0083136089685732703 0 0.0041777154501560013 0.0081293430871508376 0 0.004711251789575455 0.008356737040877537 0 0.0044690472991948341 0.0077933920430785023 0 0.0041777154501560013 0.0081293430871508376 0 0.0043059472693783626 0.008591595246136766 0 0.004711251789575455 0.008356737040877537 0 0.0051362635614848407 0.0087431889807963251 0 0.004711251789575455 0.008356737040877537 0 0.005177774118283864 0.0083135202343737578 0 0.004711251789575455 0.008356737040877537 0 0.004922501491958939 0.0079615525249305021 0 0.005177774118283864 0.0083135202343737578 0 0.004711251789575455 0.008356737040877537 0 0.004922501491958939 0.0079615525249305021 0 0.0044690472991948341 0.0077933920430785023 0 0.0048424626814412572 0.0074197954530207076 0 0.0042301951431111384 0.0073350453668711776 0 0.0044690472991948341 0.0077933920430785023 0 0.004922501491958939 0.0079615525249305021 0 0.0048424626814412572 0.0074197954530207076 0 0.0044690472991948341 0.0077933920430785023 0 0.0042301951431111384 0.0073350453668711776 0 0.0039662292790720744 0.0077368407894404167 0 0.0036404334326890931 0.0071579778266465579 0 0.0042301951431111384 0.0073350453668711776 0 0.0039662292790720744 0.0077368407894404167 0 0.0044690472991948341 0.0077933920430785023 0 0.0041777154501560013 0.0081293430871508376 0 0.0039662292790720744 0.0077368407894404167 0 0.0044690472991948341 0.0077933920430785023 0 0.0054106006565914633 0.0088666478142384632 0 0.0061512750333731327 0.0084521322408880623 0 0.0056249263749408463 0.0083630371431083345 0 0.0061755255974603592 0.0079033587205618733 0 0.0061512750333731327 0.0084521322408880623 0 0.0056249263749408463 0.0083630371431083345 0 0.0061755255974603592 0.0079033587205618733 0 0.0056249263749408463 0.0083630371431083345 0 0.005461517452969915 0.0077387252681221479 0 0.0056249263749408463 0.0083630371431083345 0 0.005177774118283864 0.0083135202343737578 0 0.005461517452969915 0.0077387252681221479 0 0.0054106006565914633 0.0088666478142384632 0 0.0056249263749408463 0.0083630371431083345 0 0.005177774118283864 0.0083135202343737578 0 0.004922501491958939 0.0079615525249305021 0 0.005177774118283864 0.0083135202343737578 0 0.005461517452969915 0.0077387252681221479 0 0.004922501491958939 0.0079615525249305021 0 0.0048424626814412572 0.0074197954530207076 0 0.005461517452969915 0.0077387252681221479 0 0.0048424626814412572 0.0074197954530207076 0 0.005461517452969915 0.0077387252681221479 0 0.0053732645140857549 0.0071627174448418802 0 0.005461517452969915 0.0077387252681221479 0 0.0057254335750045781 0.0074242076083982679 0 0.0053732645140857549 0.0071627174448418802 0 0.005878979195950311 0.0076936822189265872 0 0.005461517452969915 0.0077387252681221479 0 0.0057254335750045781 0.0074242076083982679 0 0.006059301735802357 0.0078257164365070214 0 0.0055133092997224709 0.0077290935805107005 0 0.0057254335750045781 0.0074242076083982679 0 0.005810542509227681 0.0070138825669749452 0 0.0060767870022249938 0.0073534276403653398 0 0.005878979195950311 0.0076936822189265872 0 0.0057254335750045781 0.0074242076083982679 0 0.0060767870022249938 0.0073534276403653398 0 0.005810542509227681 0.0070138825669749452 0 0.0053732645140857549 0.0071627174448418802 0 0.0055661092653607382 0.0065366035661583201 0 0.005810542509227681 0.0070138825669749452 0 0.0055661092653607382 0.0065366035661583201 0 0.0060114832432550738 0.0064710453156126601 0 0.0057254335750045781 0.0074242076083982679 0 0.005810542509227681 0.0070138825669749452 0 0.0053732645140857549 0.0071627174448418802 0 0.0048424626814412572 0.0074197954530207076 0 0.0053732645140857549 0.0071627174448418802 0 0.0050157814917749233 0.0066950106942573707 0 0.0053732645140857549 0.0071627174448418802 0 0.0050157814917749233 0.0066950106942573707 0 0.0055661092653607382 0.0065366035661583201 0 0.0050157814917749233 0.0066950106942573707 0 0.0053161888018498889 0.0060002196548529048 0 0.0048411591433571701 0.0060440525916970363 0 0.0050157814917749233 0.0066950106942573707 0 0.0055661092653607382 0.0065366035661583201 0 0.0053161888018498889 0.0060002196548529048 0 0.0055661092653607382 0.0065366035661583201 0 0.0058879501421423737 0.0059479911981113916 0 0.0053161888018498889 0.0060002196548529048 0 0.0055661092653607382 0.0065366035661583201 0 0.0060114832432550738 0.0064710453156126601 0 0.0058879501421423737 0.0059479911981113916 0 0.0042301951431111384 0.0073350453668711776 0 0.0040037685203797085 0.0066896745410158949 0 0.0045275115774555588 0.0069058105713830928 0 0.0042301951431111384 0.0073350453668711776 0 0.0040037685203797085 0.0066896745410158949 0 0.0036404334326890931 0.0071579778266465579 0 0.0048424626814412572 0.0074197954530207076 0 0.0050157814917749233 0.0066950106942573707 0 0.0045275115774555588 0.0069058105713830928 0 0.0048424626814412572 0.0074197954530207076 0 0.0042301951431111384 0.0073350453668711776 0 0.0045275115774555588 0.0069058105713830928 0 0.0050157814917749233 0.0066950106942573707 0 0.0045131990483913151 0.006434689566084062 0 0.0048411591433571701 0.0060440525916970363 0 0.0045131990483913151 0.006434689566084062 0 0.0048411591433571701 0.0060440525916970363 0 0.0041377345610104756 0.0059352065355166772 0 0.0050157814917749233 0.0066950106942573707 0 0.0045275115774555588 0.0069058105713830928 0 0.0045131990483913151 0.006434689566084062 0 0.0040037685203797085 0.0066896745410158949 0 0.0045131990483913151 0.006434689566084062 0 0.0041377345610104756 0.0059352065355166772 0 0.0040037685203797085 0.0066896745410158949 0 0.0036183645375020643 0.006348196010302073 0 0.0041377345610104756 0.0059352065355166772 0 0.0040037685203797085 0.0066896745410158949 0 0.0045275115774555588 0.0069058105713830928 0 0.0045131990483913151 0.006434689566084062 0 0.0036183645375020643 0.006348196010302073 0 0.0030925413109129701 0.0062779208575135395 0 0.0034255048586946365 0.0058336981140155956 0 0.0036183645375020643 0.006348196010302073 0 0.0036392320706355361 0.0067229009250909045 0 0.0032876446867229773 0.006698718220336998 0 0.0036183645375020643 0.006348196010302073 0 0.0030925413109129701 0.0062779208575135395 0 0.0032876446867229773 0.006698718220336998 0 0.0040037685203797085 0.0066896745410158949 0 0.0036183645375020643 0.006348196010302073 0 0.0036392320706355361 0.0067229009250909045 0 0.0026488454413997908 0.0063547611498865255 0 0.0030925413109129701 0.0062779208575135395 0 0.0027053786837048649 0.0057465720387754483 0 0.0030925413109129701 0.0062779208575135395 0 0.0028513379475788724 0.0066811524602934796 0 0.0032876446867229773 0.006698718220336998 0 0.0026488454413997908 0.0063547611498865255 0 0.0030925413109129701 0.0062779208575135395 0 0.0028513379475788724 0.0066811524602934796 0 0.0026488454413997908 0.0063547611498865255 0 0.0028513379475788724 0.0066811524602934796 0 0.0024400281238968389 0.0066864586497777361 0 0.0028513379475788724 0.0066811524602934796 0 0.0030660306235732052 0.0069853881265059519 0 0.0026859898344196273 0.0070466674874528389 0 0.0028513379475788724 0.0066811524602934796 0 0.0026859898344196273 0.0070466674874528389 0 0.0024400281238968389 0.0066864586497777361 0 0.0028513379475788724 0.0066811524602934796 0 0.0030660306235732052 0.0069853881265059519 0 0.0032876446867229773 0.006698718220336998 0 0.0030660306235732052 0.0069853881265059519 0 0.0026859898344196273 0.0070466674874528389 0 0.0031641413865908731 0.0073449484105883719 0 0.0026859898344196273 0.0070466674874528389 0 0.0031641413865908731 0.0073449484105883719 0 0.0027082202921400404 0.0074076531351264753 0 0.0040037685203797085 0.0066896745410158949 0 0.0036392320706355361 0.0067229009250909045 0 0.0036404334326890931 0.0071579778266465579 0 0.0036392320706355361 0.0067229009250909045 0 0.0032876446867229773 0.006698718220336998 0 0.0036404334326890931 0.0071579778266465579 0 0.0030660306235732052 0.0069853881265059519 0 0.0032876446867229773 0.006698718220336998 0 0.0036404334326890931 0.0071579778266465579 0 0.0030660306235732052 0.0069853881265059519 0 0.0036404334326890931 0.0071579778266465579 0 0.0031641413865908731 0.0073449484105883719 0 0.0039662292790720744 0.0077368407894404167 0 0.0036404334326890931 0.0071579778266465579 0 0.0035785922374886917 0.0077163414345690897 0 0.0039662292790720744 0.0077368407894404167 0 0.0035785922374886917 0.0077163414345690897 0 0.0036914203390977824 0.0083136089685732703 0 0.0035785922374886917 0.0077163414345690897 0 0.0032471422541221397 0.0078397933127157642 0 0.0036914203390977824 0.0083136089685732703 0 0.0036404334326890931 0.0071579778266465579 0 0.0035785922374886917 0.0077163414345690897 0 0.0031641413865908731 0.0073449484105883719 0 0.0035785922374886917 0.0077163414345690897 0 0.0031641413865908731 0.0073449484105883719 0 0.0032471422541221397 0.0078397933127157642 0 0.0031641413865908731 0.0073449484105883719 0 0.0029519246297931975 0.0076016403117555439 0 0.0032471422541221397 0.0078397933127157642 0 0.0031641413865908731 0.0073449484105883719 0 0.0027082202921400404 0.0074076531351264753 0 0.0029519246297931975 0.0076016403117555439 0 0.0027082202921400404 0.0074076531351264753 0 0.0029519246297931975 0.0076016403117555439 0 0.0026749203015898749 0.0076605316406052398 0 0.0028896894663445784 0.0078409498602456471 0 0.0031359681642737437 0.0082518313548555957 0 0.0025648961863895254 0.007870336935044733 0 0.0026749203015898749 0.0076605316406052398 0 0.0028896894663445784 0.0078409498602456471 0 0.0025783154470392544 0.0078644372206912554 0 0.0029519246297931975 0.0076016403117555439 0 0.0026749203015898749 0.0076605316406052398 0 0.0028896894663445784 0.0078409498602456471 0 0.0027740619823641475 0.0069415260702055939 0 0.0030480596402281289 0.006443222237199113 0 0.0029519246297931975 0.0076016403117555439 0 0.0028896894663445784 0.0078409498602456471 0 0.0032471422541221397 0.0078397933127157642 0 0.0028896894663445784 0.0078409498602456471 0 0.0032471422541221397 0.0078397933127157642 0 0.0031359681642737437 0.0082518313548555957 0 0.0032471422541221397 0.0078397933127157642 0 0.0031359681642737437 0.0082518313548555957 0 0.0036914203390977824 0.0083136089685732703 0 0.0030502621954914119 0.00894210774773831 0 0.0030100134403045877 0.0084276100327567612 0 0.0025297358942041911 0.0079285916704123303 0 0.0033047221783914847 0.0080952923194520798 0 0.0030480596402281289 0.006443222237199113 0 0.0031359681642737437 0.0082518313548555957 0 0.0030100134403045877 0.0084276100327567612 0 0.0027372464242866978 0.0079100180909416739 0 0.0034078043603891924 0.0087292633363164982 0 0.0031950008449709 0.0087831952478637145 0 0.0030100134403045877 0.0084276100327567612 0 0.0034078043603891924 0.0087292633363164982 0 0.0031359681642737437 0.0082518313548555957 0 0.0030100134403045877 0.0084276100327567612 0 0.0034078043603891924 0.0087292633363164982 0 0.0031359681642737437 0.0082518313548555957 0 0.0036914203390977824 0.0083136089685732703 0 0.0018298944184826304 0.0085343098352939958 0 0.0021233347055005648 0.007955518652665132 0 0.0012511864723655345 0.0074328422155724187 0 0.0018298944184826304 0.0085343098352939958 0 0.0011312985756774673 0.0082826170822662363 0 0.0012511864723655345 0.0074328422155724187 0 0.0025621358082388002 0.0085484262414370887 0 0.0021233347055005648 0.007955518652665132 0 0.00251190964100554 0.0073213589185375577 0 0.0021233347055005648 0.007955518652665132 0 0.00251190964100554 0.0073213589185375577 0 0.0012511864723655345 0.0074328422155724187 0 0.0030389308737547851 0.0097313255905852863 0 0.0029402460624647305 0.0054228212857597409 0 0.0030502621954914119 0.00894210774773831 0 0.0025621358082388002 0.0085484262414370887 0 0.00251190964100554 0.0073213589185375577 0 0.0025621358082388002 0.0085484262414370887 0 0.0018298944184826304 0.0085343098352939958 0 0.0021233347055005648 0.007955518652665132 0 0.0030100134403045877 0.0084276100327567612 0 0.0027372464242866978 0.0079100180909416739 0 0.0025297358942041911 0.0079285916704123303 0 0.0024534709363785035 -0.0001688395878837161 0 0.0023454229611454707 -0.00045309621118140987 0 0.0015503200870835342 -0.00011668427165898416 0 0.0026749203015898749 0.0076605316406052398 0 0.0025783154470392544 0.0078644372206912554 0 0.0022548762935789661 0.0075981074942775544 0 0.0030480596402281289 0.006443222237199113 0 0.0029402460624647305 0.0054228212857597409 0 0.0030480596402281289 0.006443222237199113 0 0.0024608616636559964 0.0029809299530736263 0 0.0029402460624647305 0.0054228212857597409 0 0.0024608616636559964 0.0029809299530736263 0 0.0034842768609889682 0.0052652184046508566 0 0.002688041939960644 0.0053360199313002539 0 0.0022859882822030136 0.0043071525956766849 0 0.0027082202921400404 0.0074076531351264753 0 0.0026749203015898749 0.0076605316406052398 0 0.0022548762935789661 0.0075981074942775544 0 0.0027082202921400404 0.0074076531351264753 0 0.0022548762935789661 0.0075981074942775544 0 0.0024731385433501411 0.00726731523911132 0 0.0023454229611454707 -0.00045309621118140987 0 0.0015503200870835342 -0.00011668427165898416 0 0.0011674210674608389 -0.00077515735632480631 0 0.0029402460624647305 0.0054228212857597409 0 0.0013137291280018396 0.003652196769689595 0 0.0024608616636559964 0.0029809299530736263 0 0.0014769999733627527 -0.0012598480007078436 0 0.0023454229611454707 -0.00045309621118140987 0 0.0013463697369918697 -0.0012124795412388032 0 0.0011674210674608389 -0.00077515735632480631 0 0.0030950189968936073 0.00078778955913265045 0 0.0017651216637495555 -0.00035892545199787024 0 0.0024949739880753123 -0.00076842756109242656 0 0.0024608616636559964 0.0029809299530736263 0 0.0014955346228748181 0.0042817752984615643 0 0.0022548762935789661 0.0075981074942775544 0 0.0022436983722189988 0.007019089005814493 0 0.0018216082253562672 0.0065709299747536941 0 0.0022548762935789661 0.0075981074942775544 0 0.0024731385433501411 0.00726731523911132 0 0.0022436983722189988 0.007019089005814493 0 0.0026859898344196273 0.0070466674874528389 0 0.0024731385433501411 0.00726731523911132 0 0.0022436983722189988 0.007019089005814493 0 0.0026859898344196273 0.0070466674874528389 0 0.0027082202921400404 0.0074076531351264753 0 0.0024731385433501411 0.00726731523911132 0 0.0022436983722189988 0.007019089005814493 0 0.0020129954213009165 0.0066868134812961425 0 0.0018216082253562672 0.0065709299747536941 0 0.0022436983722189988 0.007019089005814493 0 0.0020129954213009165 0.0066868134812961425 0 0.0024400281238968389 0.0066864586497777361 0 0.0026859898344196273 0.0070466674874528389 0 0.0022436983722189988 0.007019089005814493 0 0.0024400281238968389 0.0066864586497777361 0 0.0021993107338592281 0.0063324064387786779 0 0.001818744954548694 0.0065886007421184683 0 0.0019941511215214426 0.0058540060056226544 0 0.0026488454413997908 0.0063547611498865255 0 0.0024400281238968389 0.0066864586497777361 0 0.0021993107338592281 0.0063324064387786779 0 0.0020129954213009165 0.0066868134812961425 0 0.0024400281238968389 0.0066864586497777361 0 0.0021993107338592281 0.0063324064387786779 0 0.0020129954213009165 0.0066868134812961425 0 0.0021993107338592281 0.0063324064387786779 0 0.001818744954548694 0.0065886007421184683 0 0.0026488454413997908 0.0063547611498865255 0 0.0021993107338592281 0.0063324064387786779 0 0.0027053786837048649 0.0057465720387754483 0 0.0017651216637495555 -0.00035892545199787024 0 0.0024949739880753123 -0.00076842756109242656 0 0.0014504746153524198 -0.0014016225239637952 0 0.00071254928098651252 0.0047421388711473859 0 0.00043908565808824392 0.0045949892354387482 0 0.00055198203511486459 0.0043686386222764684 0 0.0014955346228748181 0.0042817752984615643 0 0.00081872053730181133 0.0013672357720963179 0 0.0021553811500396574 0.005166019328539319 0 0.0014955346228748181 0.0042817752984615643 0 0.0013463697369918697 -0.0012124795412388032 0 0.00079496673956607237 -0.0012877963847134101 0 0.00076497488511650144 -0.0014303489139109397 0 0.0014769999733627527 -0.0012598480007078436 0 0.0008875780026452746 -0.0012217418795510177 0 0.0017651216637495555 -0.00035892545199787024 0 0.0014504746153524198 -0.0014016225239637952 0 0.00076497488511650144 -0.0014303489139109397 0 0.0013463697369918697 -0.0012124795412388032 0 0.001081273690690222 -0.00099879691184288281 0 0.00092017889596143505 -0.0011460698840875263 0 0.0013463697369918697 -0.0012124795412388032 0 0.00092017889596143505 -0.0011460698840875263 0 0.00079496673956607237 -0.0012877963847134101 0 0.001081273690690222 -0.00099879691184288281 0 0.0011674210674608389 -0.00077515735632480631 0 0.00092954512372150715 -0.00088067588148282828 0 0.001081273690690222 -0.00099879691184288281 0 0.00092017889596143505 -0.0011460698840875263 0 0.00092954512372150715 -0.00088067588148282828 0 0.0013463697369918697 -0.0012124795412388032 0 0.001081273690690222 -0.00099879691184288281 0 0.0011674210674608389 -0.00077515735632480631 0 0.00074606442679492661 -0.0010542932851004229 0 0.00057541674970218708 -0.0012772834972813365 0 0.0005795097738024083 -0.00093968730214600833 0 0.00074606442679492661 -0.0010542932851004229 0 0.00073051606539714317 -0.00082966519775756677 0 0.0005795097738024083 -0.00093968730214600833 0 0.00074606442679492661 -0.0010542932851004229 0 0.00092017889596143505 -0.0011460698840875263 0 0.00092954512372150715 -0.00088067588148282828 0 0.00074606442679492661 -0.0010542932851004229 0 0.00092954512372150715 -0.00088067588148282828 0 0.00073051606539714317 -0.00082966519775756677 0 0.00092017889596143505 -0.0011460698840875263 0 0.00070100992253399857 -0.0012259727728191772 0 0.00079496673956607237 -0.0012877963847134101 0 0.00074606442679492661 -0.0010542932851004229 0 0.00092017889596143505 -0.0011460698840875263 0 0.00070100992253399857 -0.0012259727728191772 0 0.00070100992253399857 -0.0012259727728191772 0 0.00060935607995227866 -0.0012698722824776426 0 0.00079496673956607237 -0.0012877963847134101 0 0.00074606442679492661 -0.0010542932851004229 0 0.00070100992253399857 -0.0012259727728191772 0 0.00057541674970218708 -0.0012772834972813365 0 0.00070100992253399857 -0.0012259727728191772 0 0.00057541674970218708 -0.0012772834972813365 0 0.00060935607995227866 -0.0012698722824776426 0 0.00079496673956607237 -0.0012877963847134101 0 0.00076497488511650144 -0.0014303489139109397 0 0.00062889491511586423 -0.001398957804335157 0 0.00060935607995227866 -0.0012698722824776426 0 0.00079496673956607237 -0.0012877963847134101 0 0.00062889491511586423 -0.001398957804335157 0 0.00076497488511650144 -0.0014303489139109397 0 0.00062889491511586423 -0.001398957804335157 0 0.00050496149320939971 -0.0014906550347761334 0 0.0006542871805367658 -0.0012766806919670447 0 0.00048221304349452769 -0.0012782840456450428 0 0.00060935607995227866 -0.0012698722824776426 0 0.00050496149320939971 -0.0014906550347761334 0 0.00030871011518837665 -0.0014157199512802733 0 0.00060935607995227866 -0.0012698722824776426 0 0.0009268173576414009 -0.0012215513324192744 0 0.00074284505348710353 -0.001339537200514724 0 0.00050496149320939971 -0.0014906550347761334 0 0.00030871011518837665 -0.0014157199512802733 0 0.00039945459132630112 -0.001651199580312382 0 0.0009268173576414009 -0.0012215513324192744 0 0.00090009932698137027 -0.0014082771191291639 0 0.00074284505348710353 -0.001339537200514724 0 0.00060935607995227866 -0.0012698722824776426 0 0.00062889491511586423 -0.001398957804335157 0 0.00050496149320939971 -0.0014906550347761334 0 0.0009268173576414009 -0.0012215513324192744 0 0.001358575805457929 -0.0011085821088184383 0 0.001248428983843455 -0.0013903620106088218 0 0.00048221304349452769 -0.0012782840456450428 0 0.0017712342252961416 -0.0025792783338225381 0 0.00030871011518837665 -0.0014157199512802733 0 5.5603454814854394e-05 -0.0015356167913883479 0 0.00021882632847770232 -0.0016858193917022642 0 0.0009268173576414009 -0.0012215513324192744 0 0.0010538647413672385 -0.0014568732395383508 0 0.001248428983843455 -0.0013903620106088218 0 0.0010538647413672385 -0.0014568732395383508 0 0.001248428983843455 -0.0013903620106088218 0 0.0012625861444377875 -0.0016058482670401168 0 0.0009268173576414009 -0.0012215513324192744 0 0.0010538647413672385 -0.0014568732395383508 0 0.00090009932698137027 -0.0014082771191291639 0 0.0010538647413672385 -0.0014568732395383508 0 0.00090009932698137027 -0.0014082771191291639 0 0.00096465549980116814 -0.0015645925016960006 0 0.0010538647413672385 -0.0014568732395383508 0 0.00096465549980116814 -0.0015645925016960006 0 0.0011140489374757004 -0.0016659021501431788 0 0.00096465549980116814 -0.0015645925016960006 0 0.00086049284246060044 -0.0017049754439687178 0 0.0010040778140022499 -0.0017371310809499412 0 0.00096465549980116814 -0.0015645925016960006 0 0.0011140489374757004 -0.0016659021501431788 0 0.0010040778140022499 -0.0017371310809499412 0 0.0011140489374757004 -0.0016659021501431788 0 0.0012377988734909725 -0.0017794700217881032 0 0.0012625861444377875 -0.0016058482670401168 0 0.0010538647413672385 -0.0014568732395383508 0 0.0011140489374757004 -0.0016659021501431788 0 0.0012625861444377875 -0.0016058482670401168 0 0.00057541674970218708 -0.0012772834972813365 0 0.00071371660635727915 -0.001410541439298159 0 0.00074284505348710353 -0.001339537200514724 0 0.00057541674970218708 -0.0012772834972813365 0 0.00060935607995227866 -0.0012698722824776426 0 0.00074284505348710353 -0.001339537200514724 0 0.00090009932698137027 -0.0014082771191291639 0 0.00074284505348710353 -0.001339537200514724 0 0.00081713648514965319 -0.001484393881034624 0 0.00090009932698137027 -0.0014082771191291639 0 0.00096465549980116814 -0.0015645925016960006 0 0.00081713648514965319 -0.001484393881034624 0 0.00071371660635727915 -0.001410541439298159 0 0.00074284505348710353 -0.001339537200514724 0 0.00081713648514965319 -0.001484393881034624 0 0.00071371660635727915 -0.001410541439298159 0 0.00081713648514965319 -0.001484393881034624 0 0.00071847839701302157 -0.0015498287787106047 0 0.00096465549980116814 -0.0015645925016960006 0 0.00081713648514965319 -0.001484393881034624 0 0.00086049284246060044 -0.0017049754439687178 0 0.00081713648514965319 -0.001484393881034624 0 0.00071847839701302157 -0.0015498287787106047 0 0.00086049284246060044 -0.0017049754439687178 0 0.00056906022614176138 -0.0013337656694687196 0 0.00045712797747166176 -0.0011979008953556559 0 0.00057541674970218708 -0.0012772834972813365 0 0.00071847839701302157 -0.0015498287787106047 0 0.00066115893372798741 -0.0018292183091603528 0 0.00057541674970218708 -0.0012772834972813365 0 0.00032827068099332838 -0.00077448085858936228 0 0.0005795097738024083 -0.00093968730214600833 0 0.00057541674970218708 -0.0012772834972813365 0 0.00071371660635727915 -0.001410541439298159 0 0.00071847839701302157 -0.0015498287787106047 0 0.00032827068099332838 -0.00077448085858936228 0 0.0005795097738024083 -0.00093968730214600833 0 0.00053654749785589709 -0.00075404595510696439 0 0.00032827068099332838 -0.00077448085858936228 0 0.00040037236554571606 -0.00061769417284210989 0 0.00053654749785589709 -0.00075404595510696439 0 0.00066115893372798741 -0.0018292183091603528 0 0.00086049284246060044 -0.0017049754439687178 0 0.00085919936820035123 -0.0019562338215654523 0 0.00071847839701302157 -0.0015498287787106047 0 0.00066115893372798741 -0.0018292183091603528 0 0.00086049284246060044 -0.0017049754439687178 0 0.00066115893372798741 -0.0018292183091603528 0 0.00085919936820035123 -0.0019562338215654523 0 0.00083606706915159874 -0.002228623654841568 0 0.00032827068099332838 -0.00077448085858936228 0 0.00040037236554571606 -0.00061769417284210989 0 0.00017753335768771523 -0.00041801665892110247 0 0.00045712797747166176 -0.0011979008953556559 0 0.00068748166971688057 -0.002055941890257507 0 0.00040037236554571606 -0.00061769417284210989 0 0.00053654749785589709 -0.00075404595510696439 0 0.00062236096119411223 -0.00061782075182930806 0 0.00040037236554571606 -0.00061769417284210989 0 0.00051656119258125391 -0.00042139159019397395 0 0.00062236096119411223 -0.00061782075182930806 0 0.0002236457504138841 -0.00041013526574409557 0 0.00035523682578298533 0.0002806677201478615 0 0.0012377988734909725 -0.0017794700217881032 0 0.0011014434753598276 -0.0018308170571422072 0 0.0011872486847762159 -0.0019383648776989107 0 0.0011140489374757004 -0.0016659021501431788 0 0.0012377988734909725 -0.0017794700217881032 0 0.0011014434753598276 -0.0018308170571422072 0 0.00086049284246060044 -0.0017049754439687178 0 0.00085919936820035123 -0.0019562338215654523 0 0.00097383224114038327 -0.0018886840241519262 0 0.0011014434753598276 -0.0018308170571422072 0 0.00097383224114038327 -0.0018886840241519262 0 0.0010702263322237453 -0.0019971406407687394 0 0.0011014434753598276 -0.0018308170571422072 0 0.0010040778140022499 -0.0017371310809499412 0 0.00097383224114038327 -0.0018886840241519262 0 0.0011140489374757004 -0.0016659021501431788 0 0.0011014434753598276 -0.0018308170571422072 0 0.0010040778140022499 -0.0017371310809499412 0 0.00086049284246060044 -0.0017049754439687178 0 0.0010040778140022499 -0.0017371310809499412 0 0.00097383224114038327 -0.0018886840241519262 0 0.00085919936820035123 -0.0019562338215654523 0 0.00096951057209642062 -0.0020831117476644485 0 0.00083606706915159874 -0.002228623654841568 0 0.00085919936820035123 -0.0019562338215654523 0 0.00097383224114038327 -0.0018886840241519262 0 0.00096951057209642062 -0.0020831117476644485 0 0.00096951057209642062 -0.0020831117476644485 0 0.0010702263322237453 -0.0019971406407687394 0 0.0011255359322946226 -0.0021939687012434129 0 0.00097383224114038327 -0.0018886840241519262 0 0.00096951057209642062 -0.0020831117476644485 0 0.0010702263322237453 -0.0019971406407687394 0 0.0010702263322237453 -0.0019971406407687394 0 0.0011872486847762159 -0.0019383648776989107 0 0.0011255359322946226 -0.0021939687012434129 0 0.0011872486847762159 -0.0019383648776989107 0 0.0011255359322946226 -0.0021939687012434129 0 0.0013404590137053836 -0.0018870603716064208 0 0.0011014434753598276 -0.0018308170571422072 0 0.0010702263322237453 -0.0019971406407687394 0 0.0011872486847762159 -0.0019383648776989107 0 0.0015553326499388909 -0.0049494650040449338 0 0.0019114079328106529 -0.0059200941570591338 0 0.0010549554337165705 -0.0063644031437243001 0 0.0015553326499388909 -0.0049494650040449338 0 0.00031646508788994498 -0.0048114617811114745 0 0.0010549554337165705 -0.0063644031437243001 0 0.00068748166971688057 -0.002055941890257507 0 0.001819838118069132 -0.0039714574164022012 0 0.0012219956503849926 -0.0022881118229185842 0 0.0011255359322946226 -0.0021939687012434129 0 0.00083606706915159874 -0.002228623654841568 0 0.0012882638997286369 -0.0037153612227015169 0 0.00068748166971688057 -0.002055941890257507 0 0.00096951057209642062 -0.0020831117476644485 0 0.0011255359322946226 -0.0021939687012434129 0 0.00083606706915159874 -0.002228623654841568 0 0.0017124853072090426 0.0002354400323447856 0 0.001228346988583838 -0.00073462141360085829 0 0.0025550009087256828 -0.0015198987031733668 0 0.00049573883890866336 0.00036079444618035211 0 0.0017124853072090426 0.0002354400323447856 0 0.001228346988583838 -0.00073462141360085829 0 0.00040037236554571606 -0.00061769417284210989 0 0.00049708797426792622 -0.00044494409419431371 0 0.00017753335768771523 -0.00041801665892110247 0 0.00035523682578298533 0.0002806677201478615 0 0.00068748166971688057 -0.002055941890257507 0 0.00049573883890866336 0.00036079444618035211 0 0.001228346988583838 -0.00073462141360085829 0 4.0178641714489985e-06 -0.00050380363246115239 0 0.00035523682578298533 0.0002806677201478615 0 0.00076312727754915255 0.0034893777663666014 0 0.00051656119258125391 -0.00042139159019397395 0 0.000880122598424471 -0.00046289981911752296 0 0.00062236096119411223 -0.00061782075182930806 0 0.00034345032914655612 0.001823367396634706 0 0.00047863845917215709 0.00206835309271977 0 0.00069138049566647359 0.0017952183607812331 0 0.00035523682578298533 0.0002806677201478615 0 0.00029541210323592615 0.0021111175782296408 0 0.00076312727754915255 0.0034893777663666014 0 0.00029541210323592615 0.0021111175782296408 0 -0.00046938595513504138 0.0081415619654804285 0 3.5622048493960297e-05 0.0075124890843822857 0 0.00038645140396583138 0.0082649736496470168 0 0.0012511864723655345 0.0074328422155724187 0 3.5622048493960297e-05 0.0075124890843822857 0 0.00038645140396583138 0.0082649736496470168 0 0.0013137291280018396 0.003652196769689595 0 0.00029541210323592615 0.0021111175782296408 0 0.0011312985756774673 0.0082826170822662363 0 0.0012511864723655345 0.0074328422155724187 0 0.00038645140396583138 0.0082649736496470168 0 0.0015503200870835342 -0.00011668427165898416 0 0.00055692176162316898 -2.508606434838089e-06 0 0.0011674210674608389 -0.00077515735632480631 0 0.000880122598424471 -0.00046289981911752296 0 0.0011674210674608389 -0.00077515735632480631 0 0.00092954512372150715 -0.00088067588148282828 0 0.00029541210323592615 0.0021111175782296408 0 0.0015334450337510992 -0.0014056038016220457 0 0.000880122598424471 -0.00046289981911752296 0 0.00092954512372150715 -0.00088067588148282828 0 0.00073051606539714317 -0.00082966519775756677 0 0.00073051606539714317 -0.00082966519775756677 0 0.00053654749785589709 -0.00075404595510696439 0 0.00062236096119411223 -0.00061782075182930806 0 0.00073051606539714317 -0.00082966519775756677 0 0.0005795097738024083 -0.00093968730214600833 0 0.00053654749785589709 -0.00075404595510696439 0 0.000880122598424471 -0.00046289981911752296 0 0.00073051606539714317 -0.00082966519775756677 0 0.00062236096119411223 -0.00061782075182930806 0 0.00090446222354722628 -0.0096940664096694454 0 0.0012997852503186243 -0.0098211497525153447 0 0.0014187964273809095 -0.010138904770688047 0 0.0011332714609289854 -0.0095650542360771855 0 0.0012997852503186243 -0.0098211497525153447 0 0.0017334599389387372 -0.0096175060644308925 0 0.0012768702072277094 -0.013387693904791173 0 0.00046932643613668579 -0.010722534034290796 0 0.0012997852503186243 -0.0098211497525153447 0 0.0017334599389387372 -0.0096175060644308925 0 0.0014187964273809095 -0.010138904770688047 0 0.00075680632278591752 -0.010532670750421198 0 0.00087426199350846569 -0.010961827026175038 0 0.00062351392972189183 -0.01101018096297879 0 0.00075680632278591752 -0.010532670750421198 0 0.0010566551533489766 -0.010790524375000932 0 0.00087426199350846569 -0.010961827026175038 0 0.0010647178269313682 -0.0091021513297408103 0 0.0010339056949423455 -0.0068308667817334329 0 0.000605526715906155 -0.002595253030887128 0 0.0015107967208757163 -0.0034208374250693989 0 0.0020852224985318736 -0.0028221183783043243 0 0.0015107967208757163 -0.0034208374250693989 0 0.0024931720380632814 -0.0034594976255515109 0 0.0024145628105512033 -0.0042379541996370703 0 0.0015107967208757163 -0.0034208374250693989 0 0.0020852224985318736 -0.0028221183783043243 0 0.0024931720380632814 -0.0034594976255515109 0 0.000605526715906155 -0.002595253030887128 0 0.0019902073439482856 -0.0018697080985317198 0 0.0019275029791004088 -0.0019763565084034598 0 0.0010647178269313682 -0.0091021513297408103 0 0.0023156951089228698 -0.0056507739249565658 0 0.000605526715906155 -0.002595253030887128 0 0.0020852224985318736 -0.0028221183783043243 0 0.0019275029791004088 -0.0019763565084034598 0 0.0017334599389387372 -0.0096175060644308925 0 0.0014187964273809095 -0.010138904770688047 0 0.0023332694164573354 -0.0096562636771789379 0 0.0019902073439482856 -0.0018697080985317198 0 0.0019275029791004088 -0.0019763565084034598 0 0.001803795620954744 -0.0017483056624254627 0 0.0016847225632993174 -0.0018516427058662855 0 0.0015115419359197559 -0.0015988071375384115 0 0.0015058959247747433 -0.0021325944085943639 0 0.0019902073439482856 -0.0018697080985317198 0 0.0016847225632993174 -0.0018516427058662855 0 0.001803795620954744 -0.0017483056624254627 0 0.0016847225632993174 -0.0018516427058662855 0 0.001803795620954744 -0.0017483056624254627 0 0.0015115419359197559 -0.0015988071375384115 0 0.001803795620954744 -0.0017483056624254627 0 0.0017178902374997067 -0.0014494354759264502 0 0.0015115419359197559 -0.0015988071375384115 0 0.0019309263418628849 -0.0019409617459749135 0 0.0023739872778781057 -0.0022056769531378527 0 0.0020852224985318736 -0.0028221183783043243 0 0.0019275029791004088 -0.0019763565084034598 0 0.0028940305908528165 -0.0028733076823865946 0 0.0019275029791004088 -0.0019763565084034598 0 0.001803795620954744 -0.0017483056624254627 0 0.0017178902374997067 -0.0014494354759264502 0 0.0020852224985318736 -0.0028221183783043243 0 0.0024931720380632814 -0.0034594976255515109 0 0.0028940305908528165 -0.0028733076823865946 0 0.0024931720380632814 -0.0034594976255515109 0 0.0028940305908528165 -0.0028733076823865946 0 0.0038292055425175799 -0.0037010075147005813 0 0.0024931720380632814 -0.0034594976255515109 0 0.0038292055425175799 -0.0037010075147005813 0 0.0024145628105512033 -0.0042379541996370703 0 0.0023739872778781057 -0.0022056769531378527 0 0.0017712342252961416 -0.0025792783338225381 0 0.0017178902374997067 -0.0014494354759264502 0 0.0014375839827711749 -0.0013689256659750678 0 0.001358575805457929 -0.0011085821088184383 0 0.0014375839827711749 -0.0013689256659750678 0 0.001358575805457929 -0.0011085821088184383 0 0.001248428983843455 -0.0013903620106088218 0 0.0015114318098793447 -0.0010359391318021777 0 0.0015105209539367595 -0.0037364179910163516 0 0.001248428983843455 -0.0013903620106088218 0 0.0015115419359197559 -0.0015988071375384115 0 0.0012625861444377875 -0.0016058482670401168 0 0.0015115419359197559 -0.0015988071375384115 0 0.00138298288020664 -0.0017500751836145557 0 0.0015320463902328638 -0.001924989373875616 0 0.0017178902374997067 -0.0014494354759264502 0 0.0014375839827711749 -0.0013689256659750678 0 0.0015115419359197559 -0.0015988071375384115 0 0.0014375839827711749 -0.0013689256659750678 0 0.001248428983843455 -0.0013903620106088218 0 0.0015115419359197559 -0.0015988071375384115 0 0.0015115419359197559 -0.0015988071375384115 0 0.00138298288020664 -0.0017500751836145557 0 0.0012625861444377875 -0.0016058482670401168 0 0.0012377988734909725 -0.0017794700217881032 0 0.00138298288020664 -0.0017500751836145557 0 0.0012625861444377875 -0.0016058482670401168 0 0.0011255359322946226 -0.0021939687012434129 0 0.0013404590137053836 -0.0018870603716064208 0 0.0015320463902328638 -0.001924989373875616 0 0.0013290266979793899 -0.0018605712706283896 0 0.0015105209539367595 -0.0037364179910163516 0 0.0012377988734909725 -0.0017794700217881032 0 0.0011872486847762159 -0.0019383648776989107 0 0.0013404590137053836 -0.0018870603716064208 0 0.0012377988734909725 -0.0017794700217881032 0 0.00138298288020664 -0.0017500751836145557 0 0.0013404590137053836 -0.0018870603716064208 0 0.00138298288020664 -0.0017500751836145557 0 0.0013404590137053836 -0.0018870603716064208 0 0.0015320463902328638 -0.001924989373875616 0 0.0015105209539367595 -0.0037364179910163516 0 0.0021108509668293679 -0.0082290175913492126 0 0.0012882638997286369 -0.0037153612227015169 0 0.002414325124276515 -0.0079358022355397618 0 0.0012219956503849926 -0.0022881118229185842 0 0.0011255359322946226 -0.0021939687012434129 0 0.0015485239977928336 -0.0020827914015075252 0 0.0015553326499388909 -0.0049494650040449338 0 0.0027847229082865461 -0.0050907351081786976 0 0.0019114079328106529 -0.0059200941570591338 0 0.0012219956503849926 -0.0022881118229185842 0 0.0015485239977928336 -0.0020827914015075252 0 0.0015483802438322146 -0.002271959409372519 0 0.002414325124276515 -0.0079358022355397618 0 0.0021108509668293679 -0.0082290175913492126 0 0.0012219956503849926 -0.0022881118229185842 0 0.0015513917354316742 -0.0023800158185541863 0 0.0015483802438322146 -0.002271959409372519 0 0.0024340814350583702 -0.012176907039348569 0 0.002414616367799965 -0.01217993847830832 0 0.0023755425549750438 -0.012247096061828276 0 0.0024280167423650178 -0.012168054966501947 0 0.002414616367799965 -0.01217993847830832 0 0.0024289195497912666 -0.012136161729744507 0 0.002414616367799965 -0.01217993847830832 0 0.0023752144016020152 -0.012206660283280525 0 0.0024004969424199418 -0.012172678616998178 0 0.0024340090460504334 -0.012163715468102002 0 0.0024340814350583702 -0.012176907039348569 0 0.002414616367799965 -0.01217993847830832 0 0.002414325124276515 -0.0079358022355397618 0 0.0026135646838817595 -0.0097835554443330298 0 0.0021108509668293679 -0.0082290175913492126 0 0.0025244840873191415 -0.010635749448985618 0 0.0023156951089228698 -0.0056507739249565658 0 0.0015105209539367595 -0.0037364179910163516 0 0.0019902073439482856 -0.0018697080985317198 0 0.0016847225632993174 -0.0018516427058662855 0 0.0015058959247747433 -0.0021325944085943639 0 0.0032493477208377043 -0.0091559749022818403 0 0.0032457883417272974 -0.0087440262673476737 0 0.0021844471694989235 -0.0091483144374287853 0 0.0023332694164573354 -0.0096562636771789379 0 0.0032493477208377043 -0.0091559749022818403 0 0.0021844471694989235 -0.0091483144374287853 0 0.0017334599389387372 -0.0096175060644308925 0 0.0023332694164573354 -0.0096562636771789379 0 0.0021844471694989235 -0.0091483144374287853 0 0.0023755425549750438 -0.012247096061828276 0 0.0023752144016020152 -0.012206660283280525 0 0.0023351934745051476 -0.012253138979005858 0 0.002414616367799965 -0.01217993847830832 0 0.0023755425549750438 -0.012247096061828276 0 0.0023752144016020152 -0.012206660283280525 0 0.0023752144016020152 -0.012206660283280525 0 0.0023351934745051476 -0.012253138979005858 0 0.0023266254922661607 -0.012214336249725448 0 0.0023164778627899085 -0.012299742430583054 0 0.0023755425549750438 -0.012247096061828276 0 0.0023351934745051476 -0.012253138979005858 0 0.0011332714609289854 -0.0095650542360771855 0 0.0017334599389387372 -0.0096175060644308925 0 0.0021844471694989235 -0.0091483144374287853 0 0.0012768702072277094 -0.013387693904791173 0 0.0025244840873191415 -0.010635749448985618 0 0.0025510146688947429 -0.012386793529355343 0 0.0025746625250206733 -0.011936199969820017 0 0.0025639308109646807 -0.012403438476306877 0 0.0025330215778223116 -0.012474570378706598 0 0.0026617826312008773 -0.012401637708223862 0 0.0025510146688947429 -0.012386793529355343 0 0.0023742913105155423 -0.011769256768226122 0 0.0023752144016020152 -0.012206660283280525 0 0.0023266254922661607 -0.012214336249725448 0 0.0023796127672368436 -0.012168745495897023 0 0.0023752144016020152 -0.012206660283280525 0 0.0023796127672368436 -0.012168745495897023 0 0.0024004969424199418 -0.012172678616998178 0 0.0023874324114659101 -0.011231016287756844 0 0.0024977023260760473 -0.011197230852911093 0 0.00249751568644873 -0.011167591668605086 0 0.002513688951401521 -0.012453410393451141 0 0.0025666709286658413 -0.012412996364588955 0 0.0025389763955090132 -0.0124149443447802 0 0.0025639308109646807 -0.012403438476306877 0 0.0026617826312008773 -0.012401637708223862 0 0.0026827328972571832 -0.012331313363597681 0 0.0025507885212217515 -0.012419870024568947 0 0.0025926093409824142 -0.01251446760723542 0 0.00249751568644873 -0.011167591668605086 0 0.0026187148991087803 -0.011179580331850123 0 0.0026185753988382486 -0.011117669205580697 0 0.0026617826312008773 -0.012401637708223862 0 0.0026827328972571832 -0.012331313363597681 0 0.0028289714630739533 -0.012324118540965372 0 0.0025926093409824142 -0.01251446760723542 0 0.0026187047674677182 -0.0097734545592188145 0 0.0026827328972571832 -0.012331313363597681 0 0.0028289714630739533 -0.012324118540965372 0 0.0028289199765522254 -0.012267079049031463 0 0.0025746625250206733 -0.011936199969820017 0 0.0024967169881952461 -0.0096324900268915121 0 0.0023796127672368436 -0.012168745495897023 0 0.0024004969424199418 -0.012172678616998178 0 0.0024289195497912666 -0.012136161729744507 0 0.002414616367799965 -0.01217993847830832 0 0.0024004969424199418 -0.012172678616998178 0 0.0024289195497912666 -0.012136161729744507 0 0.0024977023260760473 -0.011197230852911093 0 0.00249751568644873 -0.011167591668605086 0 0.0026187148991087803 -0.011179580331850123 0 0.0023742913105155423 -0.011769256768226122 0 0.0026786397109850781 -0.010039036840394247 0 0.0027847229082865461 -0.0050907351081786976 0 0.0027922399704297897 -0.0067855214630285106 0 0.0024137924859810897 -0.0063682403712206426 0 0.0027847229082865461 -0.0050907351081786976 0 0.0024137924859810897 -0.0063682403712206426 0 0.0019114079328106529 -0.0059200941570591338 0 0.002414325124276515 -0.0079358022355397618 0 0.0026786397109850781 -0.010039036840394247 0 0.0027922399704297897 -0.0067855214630285106 0 0.0023683098031334329 -0.0067661395503507355 0 0.002395777947358786 -0.0071324860986915744 0 0.0027922399704297897 -0.0067855214630285106 0 0.0023683098031334329 -0.0067661395503507355 0 0.0024137924859810897 -0.0063682403712206426 0 0.0024137924859810897 -0.0063682403712206426 0 0.0019114079328106529 -0.0059200941570591338 0 0.0019214812042413283 -0.0067810774194959214 0 0.0023683098031334329 -0.0067661395503507355 0 0.0024137924859810897 -0.0063682403712206426 0 0.0019214812042413283 -0.0067810774194959214 0 0.0023683098031334329 -0.0067661395503507355 0 0.0019214812042413283 -0.0067810774194959214 0 0.002395777947358786 -0.0071324860986915744 0 0.0019214812042413283 -0.0067810774194959214 0 0.002395777947358786 -0.0071324860986915744 0 0.0017914949432568899 -0.0078913740469641509 0 0.002395777947358786 -0.0071324860986915744 0 0.0027965609892143567 -0.0077043385212645903 0 0.0017914949432568899 -0.0078913740469641509 0 0.0026786397109850781 -0.010039036840394247 0 0.0024967169881952461 -0.0096324900268915121 0 0.0027922399704297897 -0.0067855214630285106 0 0.002395777947358786 -0.0071324860986915744 0 0.0027965609892143567 -0.0077043385212645903 0 0.0024439715029495944 -0.0078408969152418909 0 0.002834131673751821 -0.0074720144139212167 0 0.0024430863484908947 -0.0075423691714955306 0 0.0024967169881952461 -0.0096324900268915121 0 0.0026187047674677182 -0.0097734545592188145 0 0.0024967169881952461 -0.0096324900268915121 0 0.0028387675976274287 -0.0056660799426896565 0 0.0024439715029495944 -0.0078408969152418909 0 0.0029561146454692186 -0.0077261606818628216 0 0.002834131673751821 -0.0074720144139212167 0 0.0033931402500036482 -0.0032816661716437256 0 0.0036716242565092011 -0.0038618158079593953 0 0.0028969327150222901 -0.0033740156382746239 0 0.0028387675976274287 -0.0056660799426896565 0 0.0033381972139301234 -0.004963837505565066 0 0.0051049920343256092 0.00045664271965661799 0 0.0054857365028190578 -0.00036313339126952364 0 0.0044017455032697118 0.00022882173655775639 0 0.0033381972139301234 -0.004963837505565066 0 0.0038493338150050217 -0.0037663869257299537 0 0.0031055358804366485 -0.0071066656786811302 0 0.0029966161081899424 -0.0070367798916401558 0 0.0030167046506330924 -0.0069223159043143535 0 0.0029183805397243806 -0.0071460446951885446 0 0.0029966161081899424 -0.0070367798916401558 0 0.0029195486693875759 -0.0069009326601230823 0 0.0033381972139301234 -0.004963837505565066 0 0.0026187047674677182 -0.0097734545592188145 0 0.0031055358804366485 -0.0071066656786811302 0 0.0029183805397243806 -0.0071460446951885446 0 0.0029966161081899424 -0.0070367798916401558 0 0.0026235405146570654 -0.012369985036820562 0 0.0026203773196729627 -0.012336215993474722 0 0.0026106440040310408 -0.012359052738361685 0 0.0026187047674677182 -0.0097734545592188145 0 0.0032118774084926778 -0.0089098623020739485 0 0.0029966161081899424 -0.0070367798916401558 0 0.0029195486693875759 -0.0069009326601230823 0 0.0030167046506330924 -0.0069223159043143535 0 0.0032118774084926778 -0.0089098623020739485 0 0.0038493338150050217 -0.0037663869257299537 0 0.0042215870894432104 -0.00071302056614377344 0 0.0044295152974122079 -0.00093394064508683927 0 0.0040379480699555236 -0.00078627990071313588 0 0.0038048490783737753 -0.00070930777476450424 0 0.003691728639326246 -0.00069714273974147314 0 0.0037424635026319757 -0.00077031547580729248 0 0.0043082343729379958 -0.00053426382042151522 0 0.0042215870894432104 -0.00071302056614377344 0 0.0039695952350964035 -0.00058982559336288778 0 0.0040175594243171747 -0.0022661370701249108 0 0.0038266529923786877 -0.00068092918622857481 0 0.0038503988299443577 -0.0039477305152330619 0 0.00385210372087649 -0.0049495098321751842 0 0.0033091536045124835 -0.0037990087352407689 0 0.0042215870894432104 -0.00071302056614377344 0 0.0044295152974122079 -0.00093394064508683927 0 0.0044296853512804128 -0.00077582368844414449 0 0.0040175594243171747 -0.0022661370701249108 0 0.0039622951194750759 -0.0058257377519379729 0 0.0043082343729379958 -0.00053426382042151522 0 0.0042215870894432104 -0.00071302056614377344 0 0.0044296853512804128 -0.00077582368844414449 0 0.0038493338150050217 -0.0037663869257299537 0 0.0039622951194750759 -0.0058257377519379729 0 0.0024238144345217834 -0.01218333662692898 0 0.0024172401573904576 -0.012249417724768171 0 0.0024451668600935354 -0.012262826137210081 0 0.0043140225427877894 -0.0058297023552601546 0 0.0041233000888526447 -0.0057754996265942356 0 0.0043196243803951487 -0.0061761602960252503 0 0.0032118774084926778 -0.0089098623020739485 0 0.0039622951194750759 -0.0058257377519379729 0 0.0024238144345217834 -0.01218333662692898 0 0.0024958737937523972 -0.012311777956545408 0 0.002551153367495655 -0.01235339186320125 0 0.0032118774084926778 -0.0089098623020739485 0 0.0023818885520859555 -0.013293523073717445 0 0.0024433600734887059 -0.01229469139788073 0 0.0024958737937523972 -0.012311777956545408 0 0.0025245588860186171 -0.012374240568918803 0 0.0024238144345217834 -0.01218333662692898 0 0.0024451668600935354 -0.012262826137210081 0 0.0024958737937523972 -0.012311777956545408 0 0.0024451668600935354 -0.012262826137210081 0 0.0024433600734887059 -0.01229469139788073 0 0.0024958737937523972 -0.012311777956545408 0 0.0024172401573904576 -0.012249417724768171 0 0.0024451668600935354 -0.012262826137210081 0 0.0024433600734887059 -0.01229469139788073 0 0.0039622951194750759 -0.0058257377519379729 0 0.0040840757171897524 -0.0043564086917270073 0 0.0040175594243171747 -0.0022661370701249108 0 0.0040840757171897524 -0.0043564086917270073 0 0.0026203773196729627 -0.012336215993474722 0 0.0025918866917921464 -0.012358463532946553 0 0.002551153367495655 -0.01235339186320125 0 0.0025666709286658413 -0.012412996364588955 0 0.0026235405146570654 -0.012369985036820562 0 0.0025929623883897074 -0.012374107430054052 0 0.0025918866917921464 -0.012358463532946553 0 0.0025929623883897074 -0.012374107430054052 0 0.002570210799896402 -0.012369276018617242 0 0.0026203773196729627 -0.012336215993474722 0 0.0025918866917921464 -0.012358463532946553 0 0.0026106440040310408 -0.012359052738361685 0 0.0025918866917921464 -0.012358463532946553 0 0.0026106440040310408 -0.012359052738361685 0 0.0025929623883897074 -0.012374107430054052 0 0.0026235405146570654 -0.012369985036820562 0 0.0026106440040310408 -0.012359052738361685 0 0.0025929623883897074 -0.012374107430054052 0 0.0025666709286658413 -0.012412996364588955 0 0.0025929623883897074 -0.012374107430054052 0 0.002570210799896402 -0.012369276018617242 0 0.0025389763955090132 -0.0124149443447802 0 0.002570210799896402 -0.012369276018617242 0 0.0025083158138608235 -0.012423215212002589 0 0.0025918866917921464 -0.012358463532946553 0 0.002570210799896402 -0.012369276018617242 0 0.002551153367495655 -0.01235339186320125 0 0.0025812940532138999 -0.012368508525492681 0 0.0025120190401710964 -0.012433202197851139 0 0.002570210799896402 -0.012369276018617242 0 0.0025562282040078868 -0.012374222336505465 0 0.0025621090555923631 -0.012376883514158714 0 0.0025666709286658413 -0.012412996364588955 0 0.0025389763955090132 -0.0124149443447802 0 0.002570210799896402 -0.012369276018617242 0 0.002570210799896402 -0.012369276018617242 0 0.002551153367495655 -0.01235339186320125 0 0.0025562282040078868 -0.012374222336505465 0 0.0024958737937523972 -0.012311777956545408 0 0.002551153367495655 -0.01235339186320125 0 0.0025245588860186171 -0.012374240568918803 0 0.002551153367495655 -0.01235339186320125 0 0.0025526757283642026 -0.012404624957915779 0 0.0025245588860186171 -0.012374240568918803 0 0.002551153367495655 -0.01235339186320125 0 0.0025562282040078868 -0.012374222336505465 0 0.0025682800222842409 -0.012414062643955358 0 0.002551153367495655 -0.01235339186320125 0 0.0025682800222842409 -0.012414062643955358 0 0.0025526757283642026 -0.012404624957915779 0 0.0025682800222842409 -0.012414062643955358 0 0.0025526757283642026 -0.012404624957915779 0 0.0025654175288840533 -0.012431969203340613 0 0.0025562282040078868 -0.012374222336505465 0 0.0025682800222842409 -0.012414062643955358 0 0.0025832820540742235 -0.012408782812520263 0 0.0026137902695219655 -0.012451368160269189 0 0.0025682800222842409 -0.012414062643955358 0 0.0025832820540742235 -0.012408782812520263 0 0.0026168369097336144 -0.012419487897186547 0 0.0025832820540742235 -0.012408782812520263 0 0.0025621090555923631 -0.012376883514158714 0 0.0025562282040078868 -0.012374222336505465 0 0.0025832820540742235 -0.012408782812520263 0 0.0025621090555923631 -0.012376883514158714 0 0.002513688951401521 -0.012453410393451141 0 0.0025389763955090132 -0.0124149443447802 0 0.0025083158138608235 -0.012423215212002589 0 0.002494226296367575 -0.012456921891361609 0 0.002513688951401521 -0.012453410393451141 0 0.0025083158138608235 -0.012423215212002589 0 0.0011539782382773611 0.0010203526286459259 0 0.0022995314069439283 0.0012852209332026934 0 0.0033099050778820911 0.00033159807401795605 0 0.0016695571271451682 0.0017929921508020427 0 0.0011149915874170196 0.0013537771747905028 0 0.0011974189128766376 0.002354396215274212 0 0.0016695571271451682 0.0017929921508020427 0 0.0011539782382773611 0.0010203526286459259 0 0.0022995314069439283 0.0012852209332026934 0 0.0016695571271451682 0.0017929921508020427 0 0.0011149915874170196 0.0013537771747905028 0 0.0011539782382773611 0.0010203526286459259 0 0.0020725498940426211 0.0024544094920548147 0 0.0021442413324725476 0.0034231046863791668 0 0.0021442413324725476 0.0034231046863791668 0 0.002318409089924403 0.0074047649372464578 0 0.00050966215571479981 0.0098914670557230071 0 0.00095265845736739146 0.0089783040001022961 0 1.6890578792216438e-05 0.0090285325949276268 0 0.0011149915874170196 0.0013537771747905028 0 0.0011564615153568745 0.0010578139756457646 0 0.00057080404418330876 0.0012154512281493681 0 0.0011149915874170196 0.0013537771747905028 0 0.00057080404418330876 0.0012154512281493681 0 0.0011974189128766376 0.002354396215274212 0 0.002318409089924403 0.0074047649372464578 0 0.0005816029186111474 0.0056197411580091988 0 0.00038645140396583138 0.0082649736496470168 0 0.00095265845736739146 0.0089783040001022961 0 1.6890578792216438e-05 0.0090285325949276268 0 0.0011312985756774673 0.0082826170822662363 0 0.00038645140396583138 0.0082649736496470168 0 0.00095265845736739146 0.0089783040001022961 0 0.0018566458078765275 0.0035386403774128783 0 0.0016695571271451682 0.0017929921508020427 0 0.0011974189128766376 0.002354396215274212 0 0.0018566458078765275 0.0035386403774128783 0 0.0016695571271451682 0.0017929921508020427 0 0.0030776215254796303 0.0020005321540570182 0 0.00076312727754915255 0.0034893777663666014 0 0.0005816029186111474 0.0056197411580091988 0 -0.00046938595513504138 0.0081415619654804285 0 0.00038645140396583138 0.0082649736496470168 0 1.6890578792216438e-05 0.0090285325949276268 0 0.001228346988583838 -0.00073462141360085829 0 0.0025550009087256828 -0.0015198987031733668 0 0.0013773528530114244 -0.0022532437354151787 0 0.00076312727754915255 0.0034893777663666014 0 0.0023278554062600722 -0.000511309311321795 0 0.001228346988583838 -0.00073462141360085829 0 4.0178641714489985e-06 -0.00050380363246115239 0 0.0013773528530114244 -0.0022532437354151787 0 0.0019114079328106529 -0.0059200941570591338 0 0.0019214812042413283 -0.0067810774194959214 0 0.0010549554337165705 -0.0063644031437243001 0 0.0025550009087256828 -0.0015198987031733668 0 0.0025280473767422111 -0.0027784627081978083 0 0.0013773528530114244 -0.0022532437354151787 0 0.0028387675976274287 -0.0056660799426896565 0 0.001819838118069132 -0.0039714574164022012 0 0.0019214812042413283 -0.0067810774194959214 0 0.0017914949432568899 -0.0078913740469641509 0 0.0010549554337165705 -0.0063644031437243001 0 0.0030776215254796303 0.0020005321540570182 0 0.0033099050778820911 0.00033159807401795605 0 0.0042957687475023874 0.00038131117077010808 0 0.0023278554062600722 -0.000511309311321795 0 0.0038680401402231891 -0.0013685324539993006 0 0.0025280473767422111 -0.0027784627081978083 0 0.0013773528530114244 -0.0022532437354151787 0 0.0027560196273992616 -0.0039957015300426521 0 0.0033951865739206325 -0.0032819184265741046 0 0.0025550009087256828 -0.0015198987031733668 0 0.0025280473767422111 -0.0027784627081978083 0 0.0033951865739206325 -0.0032819184265741046 0 0.0025280473767422111 -0.0027784627081978083 0 0.0028969327150222901 -0.0033740156382746239 0 0.0025280473767422111 -0.0027784627081978083 0 0.0028969327150222901 -0.0033740156382746239 0 0.0027560196273992616 -0.0039957015300426521 0 0.0028387675976274287 -0.0056660799426896565 0 0.003173187844488912 -0.0050149909227242464 0 0.0016695571271451682 0.0017929921508020427 0 0.0030776215254796303 0.0020005321540570182 0 0.0022995314069439283 0.0012852209332026934 0 0.0030776215254796303 0.0020005321540570182 0 0.0022995314069439283 0.0012852209332026934 0 0.0033099050778820911 0.00033159807401795605 0 0.0037650292475359909 -0.00036137542394284398 0 0.0039695952350964035 -0.00058982559336288778 0 0.0036807001859621349 -0.00061295608287489326 0 0.0037650292475359909 -0.00036137542394284398 0 0.0036807001859621349 -0.00061295608287489326 0 0.0035772387021705174 -0.00046657181803294828 0 0.0054857365028190578 -0.00036313339126952364 0 0.0033099050778820911 0.00033159807401795605 0 0.0044017455032697118 0.00022882173655775639 0 0.0038493338150050217 -0.0037663869257299537 0 0.003783997671067435 -4.2746935123095322e-06 0 0.0043082343729379958 -0.00053426382042151522 0 0.0037650292475359909 -0.00036137542394284398 0 0.0039695952350964035 -0.00058982559336288778 0 0.0051049920343256092 0.00045664271965661799 0 0.0042943662530063676 0.00036183543938667182 0 0.0044017455032697118 0.00022882173655775639 0 0.0036716242565092011 -0.0038618158079593953 0 0.0028969327150222901 -0.0033740156382746239 0 0.0027560196273992616 -0.0039957015300426521 0 0.0033381972139301234 -0.004963837505565066 0 0.0038680401402231891 -0.0013685324539993006 0 0.0038680401402231891 -0.0013685324539993006 0 0.0038167730520551838 -0.0012022432334770276 0 0.0033099050778820911 0.00033159807401795605 0 0.0042957687475023874 0.00038131117077010808 0 0.0044017455032697118 0.00022882173655775639 0 0.003691728639326246 -0.00069714273974147314 0 0.0036807001859621349 -0.00061295608287489326 0 0.0036860240962161592 -0.00073747007709214967 0 0.0038266529923786877 -0.00068092918622857481 0 0.0037113157217385233 -0.00064734882818464354 0 0.0039695952350964035 -0.00058982559336288778 0 0.0040379480699555236 -0.00078627990071313588 0 0.0036807001859621349 -0.00061295608287489326 0 0.0042215870894432104 -0.00071302056614377344 0 0.0039695952350964035 -0.00058982559336288778 0 0.0040379480699555236 -0.00078627990071313588 0 0.0036807001859621349 -0.00061295608287489326 0 0.0035147892485269663 -0.00061754518553780609 0 0.0036250369981315708 -0.00068587134341293189 0 0.0036807001859621349 -0.00061295608287489326 0 0.0035147892485269663 -0.00061754518553780609 0 0.0035772387021705174 -0.00046657181803294828 0 0.0035885436150775007 0.0095418395625361547 0 0.0036442651587050485 0.0098087501904321733 0 0.0036696734233761063 0.0097014795345904889 0 0.0021442413324725476 0.0034231046863791668 0 0.0037546452966864992 0.004878787714312635 0 0.0021442413324725476 0.0034231046863791668 0 0.003783997671067435 -4.2746935123095322e-06 0 0.0033812128573092247 -0.00023827875281299193 0 0.0035147892485269663 -0.00061754518553780609 0 0.0035772387021705174 -0.00046657181803294828 0 0.0033812128573092247 -0.00023827875281299193 0 0.0037650292475359909 -0.00036137542394284398 0 0.0035772387021705174 -0.00046657181803294828 0 0.0037313939185907165 0.0098164653433182748 0 0.0036751229592278294 0.0095243660278307041 0 0.0036696734233761063 0.0097014795345904889 0 0.0035885436150775007 0.0095418395625361547 0 0.0036751229592278294 0.0095243660278307041 0 0.0036696734233761063 0.0097014795345904889 0 0.0037086890443337075 0.01042893667738358 0 0.002318409089924403 0.0074047649372464578 0 0.0037313939185907165 0.0098164653433182748 0 0.0036442651587050485 0.0098087501904321733 0 0.0036924539469086136 0.0098915367231639222 0 0.0037313939185907165 0.0098164653433182748 0 0.0036442651587050485 0.0098087501904321733 0 0.0036696734233761063 0.0097014795345904889 0 0.0038210701202366837 0.0098109315494089959 0 0.0037858424139926993 0.0097110136301654954 0 0.0036704497981217259 0.0098433642836437667 0 0.0036924539469086136 0.0098915367231639222 0 0.0038210701202366837 0.0098109315494089959 0 0.0036704497981217259 0.0098433642836437667 0 0.0037546452966864992 0.004878787714312635 0 0.0037379388903988342 0.0043951326228360427 0 0.0036442651587050485 0.0098087501904321733 0 0.0036924539469086136 0.0098915367231639222 0 0.0038210701202366837 0.0098109315494089959 0 0.0035147892485269663 -0.00061754518553780609 0 0.0036709201999836991 -0.00071810896418710837 0 0.0036250369981315708 -0.00068587134341293189 0 0.0036807001859621349 -0.00061295608287489326 0 0.0036693304509629108 -0.00073610140973804207 0 0.0036860240962161592 -0.00073747007709214967 0 0.0036807001859621349 -0.00061295608287489326 0 0.0036250369981315708 -0.00068587134341293189 0 0.0036693304509629108 -0.00073610140973804207 0 0.0036709201999836991 -0.00071810896418710837 0 0.0036250369981315708 -0.00068587134341293189 0 0.0036693304509629108 -0.00073610140973804207 0 0.0036860240962161592 -0.00073747007709214967 0 0.0036951931162619205 -0.00081686525881900676 0 0.0037060310067920971 -0.00077234469661138826 0 0.003691728639326246 -0.00069714273974147314 0 0.0036860240962161592 -0.00073747007709214967 0 0.0037060310067920971 -0.00077234469661138826 0 0.0036693304509629108 -0.00073610140973804207 0 0.0036860240962161592 -0.00073747007709214967 0 0.0036867384600294383 -0.00078598205828681012 0 0.0036867384600294383 -0.00078598205828681012 0 0.0036951931162619205 -0.00081686525881900676 0 0.0036942626632556026 -0.00082977736703133541 0 0.0036860240962161592 -0.00073747007709214967 0 0.0036867384600294383 -0.00078598205828681012 0 0.0036951931162619205 -0.00081686525881900676 0 0.0036693304509629108 -0.00073610140973804207 0 0.0036867384600294383 -0.00078598205828681012 0 0.0036938108425714684 -0.00076138803799171719 0 0.0036867384600294383 -0.00078598205828681012 0 0.0036942626632556026 -0.00082977736703133541 0 0.0036938108425714684 -0.00076138803799171719 0 0.0036942626632556026 -0.00082977736703133541 0 0.0036938108425714684 -0.00076138803799171719 0 0.0036878443192592046 -0.00079171642488303341 0 0.0036709201999836991 -0.00071810896418710837 0 0.0036693304509629108 -0.00073610140973804207 0 0.0036938108425714684 -0.00076138803799171719 0 0.0036709201999836991 -0.00071810896418710837 0 0.0036938108425714684 -0.00076138803799171719 0 0.0037466457263807679 -0.00064995548848174238 0 0.0036938108425714684 -0.00076138803799171719 0 0.0036948607797819941 -0.00073362998219033435 0 0.0037466457263807679 -0.00064995548848174238 0 0.0036948607797819941 -0.00073362998219033435 0 0.0036878443192592046 -0.00079171642488303341 0 0.0036588711823520989 -0.00074226370391649351 0 0.0036938108425714684 -0.00076138803799171719 0 0.0036948607797819941 -0.00073362998219033435 0 0.0036878443192592046 -0.00079171642488303341 0 0.0036948607797819941 -0.00073362998219033435 0 0.0037059830091711681 -0.00067189949645590796 0 0.0036588711823520989 -0.00074226370391649351 0 0.0036948607797819941 -0.00073362998219033435 0 0.0037059830091711681 -0.00067189949645590796 0 0.0037466457263807679 -0.00064995548848174238 0 0.0037059830091711681 -0.00067189949645590796 0 0.0037466457263807679 -0.00064995548848174238 0 0.0037143561994012167 -0.00060809744578006655 0 0.0040071489810751199 0.0095361276292380524 0 0.0037918930776863606 0.0095555155113570978 0 0.0037858424139926993 0.0097110136301654954 0 0.0040071489810751199 0.0095361276292380524 0 0.0037918930776863606 0.0095555155113570978 0 0.0038939943299897287 0.0093815980256408762 0 0.0037918930776863606 0.0095555155113570978 0 0.0037544324267464683 0.0093889812578607512 0 0.0038939943299897287 0.0093815980256408762 0 0.0037918930776863606 0.0095555155113570978 0 0.0037544324267464683 0.0093889812578607512 0 0.003649450366468061 0.0095371332436069954 0 0.0037918930776863606 0.0095555155113570978 0 0.003649450366468061 0.0095371332436069954 0 0.0036762812898138036 0.0097130824509132629 0 0.0037858424139926993 0.0097110136301654954 0 0.0036762812898138036 0.0097130824509132629 0 0.0036704497981217259 0.0098433642836437667 0 0.0037918930776863606 0.0095555155113570978 0 0.0037858424139926993 0.0097110136301654954 0 0.0036762812898138036 0.0097130824509132629 0 0.0037379388903988342 0.0043951326228360427 0 0.0037949081905657941 0.0048435163413346532 0 0.0038210701202366837 0.0098109315494089959 0 0.0040071489810751199 0.0095361276292380524 0 0.0037858424139926993 0.0097110136301654954 0 0.0045205502050289052 -0.0015818355786719094 0 0.0044652227146334501 -0.0010998316426401493 0 0.004185161565046891 -0.0012987053080929453 0 0.0045205502050289052 -0.0015818355786719094 0 0.004185161565046891 -0.0012987053080929453 0 0.004276995944606482 -0.0017697008151394281 0 0.0049408293181350598 -0.0016775520406780015 0 0.0045205502050289052 -0.0015818355786719094 0 0.0044652227146334501 -0.0010998316426401493 0 0.0025951784913171593 -0.01247439194927517 0 0.0025665124345478859 -0.012462365624868202 0 0.0025730722172483391 -0.012456717720748679 0 0.0025951784913171593 -0.01247439194927517 0 0.0025730722172483391 -0.012456717720748679 0 0.0025654175288840533 -0.012431969203340613 0 0.0025951784913171593 -0.01247439194927517 0 0.0025682800222842409 -0.012414062643955358 0 0.0025654175288840533 -0.012431969203340613 0 0.0025665124345478859 -0.012462365624868202 0 0.0025730722172483391 -0.012456717720748679 0 0.0025654175288840533 -0.012431969203340613 0 0.0025665124345478859 -0.012462365624868202 0 0.0025526757283642026 -0.012404624957915779 0 0.0025654175288840533 -0.012431969203340613 0 0.0044652227146334501 -0.0010998316426401493 0 0.0040597917506956247 -0.00099423873919594202 0 0.004185161565046891 -0.0012987053080929453 0 0.0025665124345478859 -0.012462365624868202 0 0.0025526757283642026 -0.012404624957915779 0 0.0025245588860186171 -0.012374240568918803 0 0.0029477118195754353 -0.0076926098844532567 0 0.0032835442158091832 -0.0067437441148112832 0 0.0040597917506956247 -0.00099423873919594202 0 0.004185161565046891 -0.0012987053080929453 0 0.0039076006409964415 -0.0011021059213275879 0 0.004185161565046891 -0.0012987053080929453 0 0.0039043502431771655 -0.0013817187591870319 0 0.004276995944606482 -0.0017697008151394281 0 0.004185161565046891 -0.0012987053080929453 0 0.0039043502431771655 -0.0013817187591870319 0 0.0039076006409964415 -0.0011021059213275879 0 0.0039043502431771655 -0.0013817187591870319 0 0.0036913262695491104 -0.00090378679929623625 0 0.0037715078636059202 -0.0010220181425561298 0 0.0037303989529270214 -0.0010907497144861573 0 0.0037023824978202101 -0.00095238512261445812 0 0.0039043502431771655 -0.0013817187591870319 0 0.0039076006409964415 -0.0011021059213275879 0 0.0037715078636059202 -0.0010220181425561298 0 0.0040597917506956247 -0.00099423873919594202 0 0.0039076006409964415 -0.0011021059213275879 0 0.0038297220671768741 -0.00099589313542023435 0 0.0038090375923935339 -0.00096340635004321163 0 0.0040597917506956247 -0.00099423873919594202 0 0.0038297220671768741 -0.00099589313542023435 0 0.0040840757171897524 -0.0043564086917270073 0 0.0032835442158091832 -0.0067437441148112832 0 0.0038266205249528414 -0.0010003946398875836 0 0.0038297220671768741 -0.00099589313542023435 0 0.0038216907769862579 -0.0010245958074903603 0 0.0038266205249528414 -0.0010003946398875836 0 0.0038283818255074892 -0.0010001035169976539 0 0.0038297220671768741 -0.00099589313542023435 0 0.0040840757171897524 -0.0043564086917270073 0 0.0036857151265234892 -0.0031786456490614239 0 0.0039076006409964415 -0.0011021059213275879 0 0.0038297220671768741 -0.00099589313542023435 0 0.0038216907769862579 -0.0010245958074903603 0 0.0039076006409964415 -0.0011021059213275879 0 0.0038216907769862579 -0.0010245958074903603 0 0.0037715078636059202 -0.0010220181425561298 0 0.0037388664328749637 -0.00085494134325282093 0 0.0036913262695491104 -0.00090378679929623625 0 0.0037715078636059202 -0.0010220181425561298 0 0.0038266205249528414 -0.0010003946398875836 0 0.0038216907769862579 -0.0010245958074903603 0 0.0037715078636059202 -0.0010220181425561298 0 0.0038048490783737753 -0.00070930777476450424 0 0.0037388664328749637 -0.00085494134325282093 0 0.0037715078636059202 -0.0010220181425561298 0 0.0040175594243171747 -0.0022661370701249108 0 0.0037633597662039588 -0.00048450881576617919 0 0.0038048490783737753 -0.00070930777476450424 0 0.0037388664328749637 -0.00085494134325282093 0 0.0037424635026319757 -0.00077031547580729248 0 0.003691728639326246 -0.00069714273974147314 0 0.0037424635026319757 -0.00077031547580729248 0 0.0037060310067920971 -0.00077234469661138826 0 0.0037424635026319757 -0.00077031547580729248 0 0.0037060310067920971 -0.00077234469661138826 0 0.0037127132405364439 -0.00083808685888608209 0 0.0037388664328749637 -0.00085494134325282093 0 0.0037424635026319757 -0.00077031547580729248 0 0.0037127132405364439 -0.00083808685888608209 0 0.0036951931162619205 -0.00081686525881900676 0 0.0037060310067920971 -0.00077234469661138826 0 0.0037127132405364439 -0.00083808685888608209 0 0.0037388664328749637 -0.00085494134325282093 0 0.0037127132405364439 -0.00083808685888608209 0 0.0036913262695491104 -0.00090378679929623625 0 0.0036951931162619205 -0.00081686525881900676 0 0.0037127132405364439 -0.00083808685888608209 0 0.0036913262695491104 -0.00090378679929623625 0 0.003546537435153054 -0.00082561886670618899 0 0.0036913262695491104 -0.00090378679929623625 0 0.0036358794076477075 -0.00079829159951486908 0 0.0036951931162619205 -0.00081686525881900676 0 0.0036942626632556026 -0.00082977736703133541 0 0.0036913262695491104 -0.00090378679929623625 0 0.0036942626632556026 -0.00082977736703133541 0 0.0036913262695491104 -0.00090378679929623625 0 0.0036878443192592046 -0.00079171642488303341 0 0.0036913262695491104 -0.00090378679929623625 0 0.0036878443192592046 -0.00079171642488303341 0 0.0036358794076477075 -0.00079829159951486908 0 0.0036878443192592046 -0.00079171642488303341 0 0.0036358794076477075 -0.00079829159951486908 0 0.0036588711823520989 -0.00074226370391649351 0 0.0036358794076477075 -0.00079829159951486908 0 0.0036588711823520989 -0.00074226370391649351 0 0.0035803715620206338 -0.00075780766993589646 0 0.0036588711823520989 -0.00074226370391649351 0 0.0036356363428439735 -0.00070226003323776011 0 0.0035803715620206338 -0.00075780766993589646 0 0.0037059830091711681 -0.00067189949645590796 0 0.0036356363428439735 -0.00070226003323776011 0 0.0037039175846112445 -0.00064674754377204045 0 0.0037059830091711681 -0.00067189949645590796 0 0.0036588711823520989 -0.00074226370391649351 0 0.0036356363428439735 -0.00070226003323776011 0 0.0036356363428439735 -0.00070226003323776011 0 0.0035122069541603193 -0.00070713735776482876 0 0.0035637558118833384 -0.00064527023595503078 0 0.0036356363428439735 -0.00070226003323776011 0 0.0035122069541603193 -0.00070713735776482876 0 0.0035803715620206338 -0.00075780766993589646 0 0.003546537435153054 -0.00082561886670618899 0 0.0036358794076477075 -0.00079829159951486908 0 0.0035803715620206338 -0.00075780766993589646 0 0.003546537435153054 -0.00082561886670618899 0 0.0035803715620206338 -0.00075780766993589646 0 0.0034501173929640289 -0.00077528050268438559 0 0.0037303989529270214 -0.0010907497144861573 0 0.0039210210782416677 -0.0013314461474370405 0 0.0035122069541603193 -0.00070713735776482876 0 0.0035803715620206338 -0.00075780766993589646 0 0.0034501173929640289 -0.00077528050268438559 0 0.0035122069541603193 -0.00070713735776482876 0 0.0034379008151527351 -0.00070051264229601458 0 0.0034501173929640289 -0.00077528050268438559 0 0.0035122069541603193 -0.00070713735776482876 0 0.0034379008151527351 -0.00070051264229601458 0 0.0034662057581290573 -0.00065550675621165442 0 0.0034083538774167237 -0.00074747003940191497 0 0.0034379008151527351 -0.00070051264229601458 0 0.0034198646211946022 -0.00069768393065850647 0 0.0034083538774167237 -0.00074747003940191497 0 0.0034379008151527351 -0.00070051264229601458 0 0.0034501173929640289 -0.00077528050268438559 0 0.003948682769028055 -0.0010347421607730261 0 0.0039210210782416677 -0.0013314461474370405 0 0.0047653910209136978 -0.0021679653595351074 0 0.0045205502050289052 -0.0015818355786719094 0 0.004276995944606482 -0.0017697008151394281 0 0.0034294259607885198 -0.00064251874581152649 0 0.003400694951606453 -0.00069693362023118938 0 0.0034437796562470221 -0.00071131933304262134 0 0.0034198646211946022 -0.00069768393065850647 0 0.0034294259607885198 -0.00064251874581152649 0 0.0034437796562470221 -0.00071131933304262134 0 0.0034379008151527351 -0.00070051264229601458 0 0.0034198646211946022 -0.00069768393065850647 0 0.0034294259607885198 -0.00064251874581152649 0 0.0034379008151527351 -0.00070051264229601458 0 0.0034662057581290573 -0.00065550675621165442 0 0.0034294259607885198 -0.00064251874581152649 0 0.0034662057581290573 -0.00065550675621165442 0 0.0034207363908822243 -0.00057238533609594135 0 0.0034294259607885198 -0.00064251874581152649 0 0.0034207363908822243 -0.00057238533609594135 0 0.0034294259607885198 -0.00064251874581152649 0 0.003400694951606453 -0.00069693362023118938 0 0.0034648366990926529 -0.00072336016723822461 0 0.0031412652651740263 1.4870514285629969e-06 0 0.0034207363908822243 -0.00057238533609594135 0 0.0035209702827254867 -0.00029194197287551571 0 0.0032832562764206178 -0.00026079490844430205 0 0.0034207363908822243 -0.00057238533609594135 0 0.00363282624963492 -0.0004921244938643841 0 0.0035209702827254867 -0.00029194197287551571 0 0.00363282624963492 -0.0004921244938643841 0 0.0037370195519343397 -0.00026379578259036647 0 0.0035209702827254867 -0.00029194197287551571 0 0.0034207363908822243 -0.00057238533609594135 0 0.0035637558118833384 -0.00064527023595503078 0 0.00363282624963492 -0.0004921244938643841 0 0.0034662057581290573 -0.00065550675621165442 0 0.0034207363908822243 -0.00057238533609594135 0 0.0035637558118833384 -0.00064527023595503078 0 0.0035122069541603193 -0.00070713735776482876 0 0.0034662057581290573 -0.00065550675621165442 0 0.0035637558118833384 -0.00064527023595503078 0 0.0037039175846112445 -0.00064674754377204045 0 0.00363282624963492 -0.0004921244938643841 0 0.0038610421731029203 -0.00041619486408574544 0 0.0036356363428439735 -0.00070226003323776011 0 0.0035637558118833384 -0.00064527023595503078 0 0.0037039175846112445 -0.00064674754377204045 0 0.0035637558118833384 -0.00064527023595503078 0 0.0037039175846112445 -0.00064674754377204045 0 0.00363282624963492 -0.0004921244938643841 0 0.00363282624963492 -0.0004921244938643841 0 0.0037370195519343397 -0.00026379578259036647 0 0.0038610421731029203 -0.00041619486408574544 0 0.0037370195519343397 -0.00026379578259036647 0 0.0036185955398111468 -5.9654049311691017e-05 0 0.003949504813168617 1.6598790525027593e-05 0 0.0037780107971020467 0.00018444897803238753 0 0.0036185955398111468 -5.9654049311691017e-05 0 0.003949504813168617 1.6598790525027593e-05 0 0.0037780107971020467 0.00018444897803238753 0 0.0034648824260796822 9.7647079473071646e-05 0 0.0036185955398111468 -5.9654049311691017e-05 0 0.0042004774989685533 0.00024316005501489308 0 0.0042459085027018416 0.00048343881667539136 0 0.0034648824260796822 9.7647079473071646e-05 0 0.0036185955398111468 -5.9654049311691017e-05 0 0.0033838008695995059 -9.1401389739005515e-05 0 0.0036185955398111468 -5.9654049311691017e-05 0 0.0035209702827254867 -0.00029194197287551571 0 0.0033838008695995059 -9.1401389739005515e-05 0 0.0037370195519343397 -0.00026379578259036647 0 0.0036185955398111468 -5.9654049311691017e-05 0 0.0035209702827254867 -0.00029194197287551571 0 0.0035209702827254867 -0.00029194197287551571 0 0.0032832562764206178 -0.00026079490844430205 0 0.0033838008695995059 -9.1401389739005515e-05 0 0.0032832562764206178 -0.00026079490844430205 0 0.0033838008695995059 -9.1401389739005515e-05 0 0.0032129616221549546 -4.5283514179192286e-05 0 0.0031412652651740263 1.4870514285629969e-06 0 0.0035152869949017043 -0.0037323378664197568 0 0.0042459085027018416 0.00048343881667539136 0 0.0049384467075429296 -0.0052369758049778713 0 0.005125980966168734 0.00033169998128002682 0 0.0057965120045059219 0.00035822014089178042 0 0.0054554852525726854 -4.5074111594140107e-05 0 0.0034648824260796822 9.7647079473071646e-05 0 0.0033838008695995059 -9.1401389739005515e-05 0 0.0032373165233828983 -1.8386253466424102e-05 0 0.0034648824260796822 9.7647079473071646e-05 0 0.0032373165233828983 -1.8386253466424102e-05 0 0.0031844819822148436 2.3251748240445841e-05 0 0.0032373165233828983 -1.8386253466424102e-05 0 0.0032152193371689274 -5.0584219065217452e-05 0 0.0031844819822148436 2.3251748240445841e-05 0 0.0035152869949017043 -0.0037323378664197568 0 0.0049384467075429296 -0.0052369758049778713 0 0.0033838008695995059 -9.1401389739005515e-05 0 0.0032373165233828983 -1.8386253466424102e-05 0 0.0032129616221549546 -4.5283514179192286e-05 0 0.003779368037344839 -0.0031510606336153228 0 0.0035152869949017043 -0.0037323378664197568 0 0.0044025429704299748 -0.010382989340011407 0 0.0049271237904503365 -0.010275964374483144 0 0.0046763125748485327 -0.010510458568123071 0 0.0046657680168517152 -0.010390189327327822 0 0.0059285434253864818 -0.010298015231835437 0 0.0053048135630191957 -0.0099686396186923591 0 0.0049830066877556327 -0.010411870672856639 0 0.0049271237904503365 -0.010275964374483144 0 0.0046763125748485327 -0.010510458568123071 0 0.0046257263779297024 -0.010876928359914745 0 0.0049384467075429296 -0.0052369758049778713 0 0.0035152869949017043 -0.0037323378664197568 0 0.0040338667832140037 -0.0059846266325464534 0 0.0049830066877556327 -0.010411870672856639 0 0.0046763125748485327 -0.010510458568123071 0 0.0046664173111802083 -0.010820598707635036 0 0.003400694951606453 -0.00069693362023118938 0 0.0034155683437459197 -0.00078840351053085795 0 0.0034437796562470221 -0.00071131933304262134 0 0.0039906339394880077 0.0054345866355062847 0 0.0043536504699649564 0.0025927697672008128 0 0.00405385016069865 0.0012927131594906412 0 0.0037813441089350392 0.001253569250490329 0 0.0039050131803244465 0.0014838942646804771 0 0.0038602964672582204 0.0090876545295928614 0 0.0038438859523422181 0.0092430092862352629 0 0.0041009705771040215 0.0091358558478363706 0 0.0038602964672582204 0.0090876545295928614 0 0.0036344207775330433 0.0090002316449409436 0 0.0037005254659127958 0.0092237586660969505 0 0.0039906339394880077 0.0054345866355062847 0 0.0041847433563784739 0.0044175611973853854 0 0.0038602964672582204 0.0090876545295928614 0 0.0038438859523422181 0.0092430092862352629 0 0.0037005254659127958 0.0092237586660969505 0 0.0038438859523422181 0.0092430092862352629 0 0.0037544324267464683 0.0093889812578607512 0 0.0037005254659127958 0.0092237586660969505 0 0.0038438859523422181 0.0092430092862352629 0 0.0037544324267464683 0.0093889812578607512 0 0.0038939943299897287 0.0093815980256408762 0 0.0040071489810751199 0.0095361276292380524 0 0.0038939943299897287 0.0093815980256408762 0 0.0041009705771040215 0.0091358558478363706 0 0.0037949081905657941 0.0048435163413346532 0 0.0043536504699649564 0.0025927697672008128 0 0.0038438859523422181 0.0092430092862352629 0 0.0038939943299897287 0.0093815980256408762 0 0.0041009705771040215 0.0091358558478363706 0 0.0037466457263807679 -0.00064995548848174238 0 0.0037143561994012167 -0.00060809744578006655 0 0.0037645891563924854 -0.00055274818859750528 0 0.0036883176527991025 -0.00075304397822321977 0 0.0043536504699649564 0.0025927697672008128 0 0.0038105147525175805 -0.00060524556960398304 0 0.0036883176527991025 -0.00075304397822321977 0 0.0037039175846112445 -0.00064674754377204045 0 0.0040685083762192886 -0.00056838294404463964 0 0.0038610421731029203 -0.00041619486408574544 0 0.0037059830091711681 -0.00067189949645590796 0 0.0037039175846112445 -0.00064674754377204045 0 0.0037143561994012167 -0.00060809744578006655 0 0.0037370195519343397 -0.00026379578259036647 0 0.0038610421731029203 -0.00041619486408574544 0 0.0040554463149949944 -0.00021674014246673263 0 0.0040685083762192886 -0.00056838294404463964 0 0.0038610421731029203 -0.00041619486408574544 0 0.0040554463149949944 -0.00021674014246673263 0 0.0040685083762192886 -0.00056838294404463964 0 0.0040554463149949944 -0.00021674014246673263 0 0.0044090378234155538 -0.00043635223207805863 0 0.0040554463149949944 -0.00021674014246673263 0 0.0044090378234155538 -0.00043635223207805863 0 0.0043366814382501846 9.5704745667213784e-05 0 0.0043536504699649564 0.0025927697672008128 0 0.0040642213991432313 0.00033283222685635328 0 0.0040554463149949944 -0.00021674014246673263 0 0.0043366814382501846 9.5704745667213784e-05 0 0.003949504813168617 1.6598790525027593e-05 0 0.0037370195519343397 -0.00026379578259036647 0 0.0040554463149949944 -0.00021674014246673263 0 0.003949504813168617 1.6598790525027593e-05 0 0.0042004774989685533 0.00024316005501489308 0 0.0041530231548662566 0.00028096175688867433 0 0.0037780107971020467 0.00018444897803238753 0 0.003949504813168617 1.6598790525027593e-05 0 0.0041461118719802311 0.00028764913995913609 0 0.0043366814382501846 9.5704745667213784e-05 0 0.003949504813168617 1.6598790525027593e-05 0 0.0041461118719802311 0.00028764913995913609 0 0.0038143158438431815 0.001675352588131141 0 0.0035943737853224729 0.0013379387267004389 0 0.0040751351384779224 0.00040640702326703545 0 0.0043366814382501846 9.5704745667213784e-05 0 0.0041461118719802311 0.00028764913995913609 0 0.0040751351384779224 0.00040640702326703545 0 0.0040642213991432313 0.00033283222685635328 0 0.0040755866591540455 0.00064656567968310937 0 0.0035943737853224729 0.0013379387267004389 0 0.0039821178582171053 0.0016582688581730832 0 0.0041698868138409818 0.0020517574897544705 0 0.0037801127635126129 0.0015501782320081941 0 0.0039050131803244465 0.0014838942646804771 0 0.0039821178582171053 0.0016582688581730832 0 0.0035943737853224729 0.0013379387267004389 0 0.0037801127635126129 0.0015501782320081941 0 0.0039821178582171053 0.0016582688581730832 0 0.0038143158438431815 0.001675352588131141 0 0.0035943737853224729 0.0013379387267004389 0 0.0037801127635126129 0.0015501782320081941 0 0.0037813441089350392 0.001253569250490329 0 0.0038143158438431815 0.001675352588131141 0 0.0039050131803244465 0.0014838942646804771 0 0.0038143158438431815 0.001675352588131141 0 0.0037801127635126129 0.0015501782320081941 0 0.0039050131803244465 0.0014838942646804771 0 0.00405385016069865 0.0012927131594906412 0 0.0042281355700049313 0.0014347507695837585 0 0.0043586719001492526 0.001368076101303973 0 0.0039050131803244465 0.0014838942646804771 0 0.0042281355700049313 0.0014347507695837585 0 0.0039821178582171053 0.0016582688581730832 0 0.00405385016069865 0.0012927131594906412 0 0.0039050131803244465 0.0014838942646804771 0 0.0042281355700049313 0.0014347507695837585 0 0.0042281355700049313 0.0014347507695837585 0 0.0043103192386481637 0.0017093197926250326 0 0.0039821178582171053 0.0016582688581730832 0 0.0043103192386481637 0.0017093197926250326 0 0.0039821178582171053 0.0016582688581730832 0 0.0041698868138409818 0.0020517574897544705 0 0.0043103192386481637 0.0017093197926250326 0 0.0045313730299072113 0.0020306434498889281 0 0.0041698868138409818 0.0020517574897544705 0 0.0045313730299072113 0.0020306434498889281 0 0.0047332832117660123 0.001630475506027158 0 0.0049011799424887549 0.0022218179290709938 0 0.0043103192386481637 0.0017093197926250326 0 0.0045313730299072113 0.0020306434498889281 0 0.0047332832117660123 0.001630475506027158 0 0.00546553694828483 0.0018607309582367192 0 0.0047332832117660123 0.001630475506027158 0 0.0049011799424887549 0.0022218179290709938 0 0.00546553694828483 0.0018607309582367192 0 0.0049011799424887549 0.0022218179290709938 0 0.0054563240241542743 0.0024070062262399384 0 0.00546553694828483 0.0018607309582367192 0 0.0052930403684149979 0.0013283907123065872 0 0.0059023125345687381 0.0015672495416255555 0 0.00546553694828483 0.0018607309582367192 0 0.0052930403684149979 0.0013283907123065872 0 0.0047332832117660123 0.001630475506027158 0 0.004430395597643323 0.0058438754825534218 0 0.0040933871487059247 0.0057219301849822969 0 0.0043879001211984039 0.0062331728800158843 0 0.0048207498086618355 0.0035794170022516729 0 0.0041847433563784739 0.0044175611973853854 0 0.0052930403684149979 0.0013283907123065872 0 0.0046628197846510459 0.0011234933107861509 0 0.0047332832117660123 0.001630475506027158 0 0.0049440425046474133 0.0015466711830936937 0 0.0041847433563784739 0.0044175611973853854 0 0.0042281355700049313 0.0014347507695837585 0 0.0046628197846510459 0.0011234933107861509 0 0.0047332832117660123 0.001630475506027158 0 0.0042281355700049313 0.0014347507695837585 0 0.0043103192386481637 0.0017093197926250326 0 0.0047332832117660123 0.001630475506027158 0 0.0036203338247233004 0.0050070524564253304 0 0.0036794429341450293 0.0052813618387600172 0 0.0033393347702683593 0.0052322636902403996 0 0.0047331466991989007 0.0040853259249058593 0 0.0040265459949567197 0.004629279481968479 0 0.0036203338247233004 0.0050070524564253304 0 0.0039998306846168357 0.0051560944849347728 0 0.0038079122220841736 0.0045722168588572688 0 0.0045223053541904382 0.0064771684179963625 0 0.0047331466991989007 0.0040853259249058593 0 0.0036203338247233004 0.0050070524564253304 0 0.0036794429341450293 0.0052813618387600172 0 0.0039998306846168357 0.0051560944849347728 0 0.0047331466991989007 0.0040853259249058593 0 0.0050893510754275876 0.003144662449995951 0 0.00546553694828483 0.0018607309582367192 0 0.0061136324886442734 0.0019234577560253549 0 0.0054563240241542743 0.0024070062262399384 0 0.00546553694828483 0.0018607309582367192 0 0.0061136324886442734 0.0019234577560253549 0 0.0059023125345687381 0.0015672495416255555 0 0.0047331466991989007 0.0040853259249058593 0 0.0048226294009932839 0.0054946949382622731 0 0.0045716589129448492 0.0055269014750488265 0 0.0046604890373900705 0.0054608854445815933 0 0.0047334716821042788 0.0055817951118152546 0 0.0047137776427998036 0.0083378374940378391 0 0.0044616815138519882 0.0084943415525625104 0 0.0046097465371088293 0.0087422053151979921 0 0.0048226294009932839 0.0054946949382622731 0 0.0039958226335931489 0.0088603277673422673 0 0.0048207498086618355 0.0035794170022516729 0 0.0048226294009932839 0.0054946949382622731 0 0.0045223053541904382 0.0064771684179963625 0 0.0046000080973507924 0.0082352692961657741 0 0.0044616815138519882 0.0084943415525625104 0 0.0043822153578106492 0.0087085102138867616 0 0.0040652003285884539 0.0085282440277293509 0 0.0044322469612096986 0.0082406060582367463 0 0.0044616815138519882 0.0084943415525625104 0 0.0040652003285884539 0.0085282440277293509 0 0.0044322469612096986 0.0082406060582367463 0 0.0047137776427998036 0.0083378374940378391 0 0.0044616815138519882 0.0084943415525625104 0 0.0045223053541904382 0.0064771684179963625 0 0.0048226294009932839 0.0054946949382622731 0 0.0044084018308181497 0.0089281324542485503 0 0.0046097465371088293 0.0087422053151979921 0 0.0045887129104382569 0.0091594938843718981 0 0.0043822153578106492 0.0087085102138867616 0 0.0044084018308181497 0.0089281324542485503 0 0.0041170431813595384 0.0088649352251995578 0 0.0044616815138519882 0.0084943415525625104 0 0.0043822153578106492 0.0087085102138867616 0 0.0046097465371088293 0.0087422053151979921 0 0.0043822153578106492 0.0087085102138867616 0 0.0044084018308181497 0.0089281324542485503 0 0.0046097465371088293 0.0087422053151979921 0 0.0047137776427998036 0.0083378374940378391 0 0.0046097465371088293 0.0087422053151979921 0 0.0050193293602401228 0.0088567355268875485 0 0.0046097465371088293 0.0087422053151979921 0 0.0045887129104382569 0.0091594938843718981 0 0.0050193293602401228 0.0088567355268875485 0 0.0043279375805972235 0.0093983954465223559 0 0.0039958226335931489 0.0088603277673422673 0 0.00398036027105179 0.0095714974063317148 0 0.0037631290202416851 0.0096862802238879796 0 0.0038022939376216843 0.0095642667258403515 0 0.00398036027105179 0.0095714974063317148 0 0.0038022939376216843 0.0095642667258403515 0 0.0037580215430479198 0.0094493571355841986 0 0.0045887129104382569 0.0091594938843718981 0 0.0040937913650928347 0.0094622301838197028 0 0.0042062265849110462 0.009131596608931045 0 0.0044084018308181497 0.0089281324542485503 0 0.0045887129104382569 0.0091594938843718981 0 0.0042062265849110462 0.009131596608931045 0 0.0044084018308181497 0.0089281324542485503 0 0.0042062265849110462 0.009131596608931045 0 0.0041170431813595384 0.0088649352251995578 0 0.0036344207775330433 0.0090002316449409436 0 0.0037005254659127958 0.0092237586660969505 0 0.0034089518991973523 0.0091731739168259413 0 0.004430395597643323 0.0058438754825534218 0 0.0047688623398519708 0.0059599480206132685 0 0.0043879001211984039 0.0062331728800158843 0 0.0041847433563784739 0.0044175611973853854 0 0.0039958226335931489 0.0088603277673422673 0 0.0037631290202416851 0.0096862802238879796 0 0.0038022939376216843 0.0095642667258403515 0 0.0036608322244410618 0.0095031433732193221 0 0.0039958226335931489 0.0088603277673422673 0 0.003573621756352481 0.0096856098157811089 0 0.0034089518991973523 0.0091731739168259413 0 0.0036744875021640826 0.0094023956571407004 0 0.0036608322244410618 0.0095031433732193221 0 0.0037005254659127958 0.0092237586660969505 0 0.0034089518991973523 0.0091731739168259413 0 0.0036744875021640826 0.0094023956571407004 0 0.0037544324267464683 0.0093889812578607512 0 0.0037005254659127958 0.0092237586660969505 0 0.0036744875021640826 0.0094023956571407004 0 0.0037544324267464683 0.0093889812578607512 0 0.0036744875021640826 0.0094023956571407004 0 0.003649450366468061 0.0095371332436069954 0 0.003649450366468061 0.0095371332436069954 0 0.0036608322244410618 0.0095031433732193221 0 0.0037580215430479198 0.0094493571355841986 0 0.003649450366468061 0.0095371332436069954 0 0.0035968940979978696 0.0097425003902817109 0 0.0035520071704535643 0.0097939537083031724 0 0.0036744875021640826 0.0094023956571407004 0 0.003649450366468061 0.0095371332436069954 0 0.0036608322244410618 0.0095031433732193221 0 0.0036679653127757225 0.009554102554261177 0 0.0036716697633012436 0.0096169178389710272 0 0.003649450366468061 0.0095371332436069954 0 0.0035968940979978696 0.0097425003902817109 0 0.0036762812898138036 0.0097130824509132629 0 0.0036762812898138036 0.0097130824509132629 0 0.003607233057848038 0.0098165010646183385 0 0.0036704497981217259 0.0098433642836437667 0 0.003607233057848038 0.0098165010646183385 0 0.0036704497981217259 0.0098433642836437667 0 0.0035592108687595944 0.0099383189034764046 0 0.0035968940979978696 0.0097425003902817109 0 0.0036762812898138036 0.0097130824509132629 0 0.003607233057848038 0.0098165010646183385 0 0.0035610528488067054 0.0098478552192042684 0 0.0035512385668556028 0.0099561387187830173 0 0.0035592108687595944 0.0099383189034764046 0 0.003607233057848038 0.0098165010646183385 0 0.0035610528488067054 0.0098478552192042684 0 0.0035592108687595944 0.0099383189034764046 0 0.0035968940979978696 0.0097425003902817109 0 0.003607233057848038 0.0098165010646183385 0 0.0035610528488067054 0.0098478552192042684 0 0.0035610528488067054 0.0098478552192042684 0 0.0035520071704535643 0.0097939537083031724 0 0.0035507791765593418 0.0098893607793112386 0 0.0038022939376216843 0.0095642667258403515 0 0.0036608322244410618 0.0095031433732193221 0 0.0037580215430479198 0.0094493571355841986 0 0.0035968940979978696 0.0097425003902817109 0 0.0035610528488067054 0.0098478552192042684 0 0.0035520071704535643 0.0097939537083031724 0 0.00398036027105179 0.0095714974063317148 0 0.0037580215430479198 0.0094493571355841986 0 0.0040375415069734072 0.0094378317124342859 0 0.0036716697633012436 0.0096169178389710272 0 0.0037937555641800631 0.0096729130049751297 0 0.0035520071704535643 0.0097939537083031724 0 0.0035514011756290816 0.0099144019475894216 0 0.0035507791765593418 0.0098893607793112386 0 0.00398036027105179 0.0095714974063317148 0 0.0040375415069734072 0.0094378317124342859 0 0.0040937913650928347 0.0094622301838197028 0 0.0043279375805972235 0.0093983954465223559 0 0.0040949934216347192 0.0094553247494191424 0 0.0035514011756290816 0.0099144019475894216 0 0.0035502895483847433 0.0099555723689457396 0 0.0035421159618917175 0.0099550547532091041 0 0.0035502895483847433 0.0099555723689457396 0 0.0035430745376992044 0.010010447300686492 0 0.0035421159618917175 0.0099550547532091041 0 0.0035514011756290816 0.0099144019475894216 0 0.0035502895483847433 0.0099555723689457396 0 0.0035507791765593418 0.0098893607793112386 0 0.0035502895483847433 0.0099555723689457396 0 0.0035430745376992044 0.010010447300686492 0 0.0035525581219449337 0.010046655620851989 0 0.0035610528488067054 0.0098478552192042684 0 0.0035507791765593418 0.0098893607793112386 0 0.0035512385668556028 0.0099561387187830173 0 0.0035502895483847433 0.0099555723689457396 0 0.0035507791765593418 0.0098893607793112386 0 0.0035512385668556028 0.0099561387187830173 0 0.0035502895483847433 0.0099555723689457396 0 0.0035512385668556028 0.0099561387187830173 0 0.0035525581219449337 0.010046655620851989 0 0.0035512385668556028 0.0099561387187830173 0 0.0035427638126819183 0.010090446464088189 0 0.0035525581219449337 0.010046655620851989 0 0.0035512385668556028 0.0099561387187830173 0 0.0035427638126819183 0.010090446464088189 0 0.0035592108687595944 0.0099383189034764046 0 0.0035430745376992044 0.010010447300686492 0 0.0035525581219449337 0.010046655620851989 0 0.0035274360191014202 0.010130436101741134 0 0.0035525581219449337 0.010046655620851989 0 0.0035551097855445152 0.010183454634203653 0 0.0035274360191014202 0.010130436101741134 0 0.0035427638126819183 0.010090446464088189 0 0.0035525581219449337 0.010046655620851989 0 0.0035551097855445152 0.010183454634203653 0 0.0035788537136073892 0.010289386580116562 0 0.0035427638126819183 0.010090446464088189 0 0.0035551097855445152 0.010183454634203653 0 0.0035107869669308025 0.010182767334860576 0 0.0035788537136073892 0.010289386580116562 0 0.0035427638126819183 0.010090446464088189 0 0.0035107869669308025 0.010182767334860576 0 0.0035427638126819183 0.010090446464088189 0 0.0035539990824932648 0.010009757494911245 0 0.003366463713200834 0.010056336952128904 0 0.0035107869669308025 0.010182767334860576 0 0.0035539990824932648 0.010009757494911245 0 0.0037086890443337075 0.01042893667738358 0 0.0034144101839861472 0.0097595751186874604 0 0.0037313939185907165 0.0098164653433182748 0 0.0036924539469086136 0.0098915367231639222 0 0.0035539990824932648 0.010009757494911245 0 0.0036924539469086136 0.0098915367231639222 0 0.0035539990824932648 0.010009757494911245 0 0.0036704497981217259 0.0098433642836437667 0 0.0035539990824932648 0.010009757494911245 0 0.0036704497981217259 0.0098433642836437667 0 0.0035592108687595944 0.0099383189034764046 0 0.0035427638126819183 0.010090446464088189 0 0.0035539990824932648 0.010009757494911245 0 0.0035592108687595944 0.0099383189034764046 0 0.0032339259352784089 0.010399598856970322 0 0.0034155983745909513 0.010138240926544672 0 0.0031546519131555426 0.010098148849989252 0 0.0032339259352784089 0.010399598856970322 0 0.0029311485743046843 0.010482825108456903 0 0.0031546519131555426 0.010098148849989252 0 0.0029311485743046843 0.010482825108456903 0 0.0031546519131555426 0.010098148849989252 0 0.0028167126838499435 0.010183312057715875 0 0.0032339259352784089 0.010399598856970322 0 0.0029311485743046843 0.010482825108456903 0 0.0030260395507049893 0.010705694753670971 0 0.0029311485743046843 0.010482825108456903 0 0.0030260395507049893 0.010705694753670971 0 0.002742753233663367 0.010854665578144389 0 0.0032515262928496306 0.010632135888812101 0 0.0032339259352784089 0.010399598856970322 0 0.0030260395507049893 0.010705694753670971 0 0.0032515262928496306 0.010632135888812101 0 0.0032339259352784089 0.010399598856970322 0 0.0034763180895617083 0.010369068137638876 0 0.0035551097855445152 0.010183454634203653 0 0.0034763180895617083 0.010369068137638876 0 0.0035274360191014202 0.010130436101741134 0 0.0035788537136073892 0.010289386580116562 0 0.0035551097855445152 0.010183454634203653 0 0.0034763180895617083 0.010369068137638876 0 0.0032339259352784089 0.010399598856970322 0 0.0034763180895617083 0.010369068137638876 0 0.0034155983745909513 0.010138240926544672 0 0.0035274360191014202 0.010130436101741134 0 0.0034155983745909513 0.010138240926544672 0 0.0035175443066724627 0.010002677965880773 0 0.0034763180895617083 0.010369068137638876 0 0.0035274360191014202 0.010130436101741134 0 0.0034155983745909513 0.010138240926544672 0 0.0034155983745909513 0.010138240926544672 0 0.0035175443066724627 0.010002677965880773 0 0.0034239894281211437 0.009732767850686861 0 0.0035175443066724627 0.010002677965880773 0 0.0035206615551243913 0.0099034903430772845 0 0.0034239894281211437 0.009732767850686861 0 0.0035430745376992044 0.010010447300686492 0 0.0035274360191014202 0.010130436101741134 0 0.0035175443066724627 0.010002677965880773 0 0.0035430745376992044 0.010010447300686492 0 0.0035175443066724627 0.010002677965880773 0 0.0035421159618917175 0.0099550547532091041 0 0.0035175443066724627 0.010002677965880773 0 0.0035421159618917175 0.0099550547532091041 0 0.0035206615551243913 0.0099034903430772845 0 0.0037937555641800631 0.0096729130049751297 0 0.0037680184121510062 0.0097034677864513783 0 0.0040375415069734072 0.0094378317124342859 0 0.0040743857512054579 0.0095039003324782437 0 0.0040937913650928347 0.0094622301838197028 0 0.0035514011756290816 0.0099144019475894216 0 0.0035421159618917175 0.0099550547532091041 0 0.0035206615551243913 0.0099034903430772845 0 0.0040743857512054579 0.0095039003324782437 0 0.0040217649834512308 0.0093280910940045474 0 0.0040937913650928347 0.0094622301838197028 0 0.0037680184121510062 0.0097034677864513783 0 0.003432605704982676 0.0097321364587042158 0 0.0040743857512054579 0.0095039003324782437 0 0.0037545706432890406 0.0093910006242816108 0 0.0034239894281211437 0.009732767850686861 0 0.0040743857512054579 0.0095039003324782437 0 0.0040217649834512308 0.0093280910940045474 0 0.0037545706432890406 0.0093910006242816108 0 0.0037545706432890406 0.0093910006242816108 0 0.0034239894281211437 0.009732767850686861 0 0.0033890367818556612 0.0089560438737658205 0 0.0034239894281211437 0.009732767850686861 0 0.0028994601309389949 0.0095879131572518192 0 0.0033890367818556612 0.0089560438737658205 0 0.0034155983745909513 0.010138240926544672 0 0.0034239894281211437 0.009732767850686861 0 0.0031546519131555426 0.010098148849989252 0 0.0034239894281211437 0.009732767850686861 0 0.0031546519131555426 0.010098148849989252 0 0.0028994601309389949 0.0095879131572518192 0 0.0031546519131555426 0.010098148849989252 0 0.0028167126838499435 0.010183312057715875 0 0.0028994601309389949 0.0095879131572518192 0 0.0028994601309389949 0.0095879131572518192 0 0.0033890367818556612 0.0089560438737658205 0 0.0028557623832068781 0.008578700118651035 0 0.0037545706432890406 0.0093910006242816108 0 0.0033890367818556612 0.0089560438737658205 0 0.0036970551827169868 0.0090465608967085671 0 0.0033890367818556612 0.0089560438737658205 0 0.0036970551827169868 0.0090465608967085671 0 0.0037260830956076067 0.0087933819958825876 0 0.0034356006976917399 0.0089354241883878582 0 0.0039714952465048125 0.0085712071757023511 0 0.0033890367818556612 0.0089560438737658205 0 0.0042381741679158704 0.0083651783300577633 0 0.0033635469344891265 0.0079685447508403544 0 0.0033890367818556612 0.0089560438737658205 0 0.0028557623832068781 0.008578700118651035 0 0.0033635469344891265 0.0079685447508403544 0 0.0028557623832068781 0.008578700118651035 0 0.0033635469344891265 0.0079685447508403544 0 0.0027393400219480417 0.0076009636416147228 0 0.0040217649834512308 0.0093280910940045474 0 0.0040937913650928347 0.0094622301838197028 0 0.0042062265849110462 0.009131596608931045 0 0.0040217649834512308 0.0093280910940045474 0 0.0042062265849110462 0.009131596608931045 0 0.0039185412246236263 0.0090807702956892371 0 0.0042062265849110462 0.009131596608931045 0 0.0039185412246236263 0.0090807702956892371 0 0.0041170431813595384 0.0088649352251995578 0 0.0040217649834512308 0.0093280910940045474 0 0.0037545706432890406 0.0093910006242816108 0 0.0039185412246236263 0.0090807702956892371 0 0.0037545706432890406 0.0093910006242816108 0 0.0039185412246236263 0.0090807702956892371 0 0.0036970551827169868 0.0090465608967085671 0 0.0039185412246236263 0.0090807702956892371 0 0.0036970551827169868 0.0090465608967085671 0 0.0037260830956076067 0.0087933819958825876 0 0.0039185412246236263 0.0090807702956892371 0 0.0037260830956076067 0.0087933819958825876 0 0.0041170431813595384 0.0088649352251995578 0 0.0039714952465048125 0.0085712071757023511 0 0.0046000080973507924 0.0082352692961657741 0 0.0043822153578106492 0.0087085102138867616 0 0.0041170431813595384 0.0088649352251995578 0 0.0040652003285884539 0.0085282440277293509 0 0.0037260830956076067 0.0087933819958825876 0 0.0041170431813595384 0.0088649352251995578 0 0.0040652003285884539 0.0085282440277293509 0 0.0059085062713744004 0.0071563214457363794 0 0.0050822664747698443 0.0077573783421826525 0 0.0051141884297210265 0.0072559434483576331 0 0.0050822664747698443 0.0077573783421826525 0 0.0051141884297210265 0.0072559434483576331 0 0.0046161517211867915 0.007357475082686373 0 0.0042381741679158704 0.0083651783300577633 0 0.0046161517211867915 0.007357475082686373 0 0.0039528116814524462 0.0073158489464034372 0 0.0042381741679158704 0.0083651783300577633 0 0.0050822664747698443 0.0077573783421826525 0 0.0046161517211867915 0.007357475082686373 0 0.0041092426876716756 0.0060596373884167836 0 0.0035996131855861361 0.0061832179455544693 0 0.0046161517211867915 0.007357475082686373 0 0.0048388674611356732 0.0067528918806860176 0 0.0039528116814524462 0.0073158489464034372 0 0.0048388674611356732 0.0067528918806860176 0 0.0039528116814524462 0.0073158489464034372 0 0.0036165024809045256 0.0062689778647255605 0 0.0036794429341450293 0.0052813618387600172 0 0.0033506739451500769 0.0053468645213070867 0 0.0033393347702683593 0.0052322636902403996 0 0.0045223053541904382 0.0064771684179963625 0 0.0041092426876716756 0.0060596373884167836 0 0.0059085062713744004 0.0071563214457363794 0 0.0051141884297210265 0.0072559434483576331 0 0.0048388674611356732 0.0067528918806860176 0 0.0051141884297210265 0.0072559434483576331 0 0.0046161517211867915 0.007357475082686373 0 0.0048388674611356732 0.0067528918806860176 0 0.0033506739451500769 0.0053468645213070867 0 0.0033393347702683593 0.0052322636902403996 0 0.0035247289371786294 0.0057969554992940335 0 0.0033635469344891265 0.0079685447508403544 0 0.0031493525678052367 0.0069697467128958801 0 0.0027393400219480417 0.0076009636416147228 0 0.0033635469344891265 0.0079685447508403544 0 0.0039528116814524462 0.0073158489464034372 0 0.0031493525678052367 0.0069697467128958801 0 0.0042381741679158704 0.0083651783300577633 0 0.0033635469344891265 0.0079685447508403544 0 0.0039528116814524462 0.0073158489464034372 0 0.0039528116814524462 0.0073158489464034372 0 0.0031493525678052367 0.0069697467128958801 0 0.0036165024809045256 0.0062689778647255605 0 0.0031493525678052367 0.0069697467128958801 0 0.0026593614819236896 0.0066704760364062676 0 0.0027393400219480417 0.0076009636416147228 0 0.0031493525678052367 0.0069697467128958801 0 0.0031217442623166455 0.0060925815690631427 0 0.0026593614819236896 0.0066704760364062676 0 0.0031493525678052367 0.0069697467128958801 0 0.0031217442623166455 0.0060925815690631427 0 0.0036165024809045256 0.0062689778647255605 0 0.0031217442623166455 0.0060925815690631427 0 0.0036165024809045256 0.0062689778647255605 0 0.0035423275971928651 0.0059073412989001806 0 0.0031217442623166455 0.0060925815690631427 0 0.0032928801513733316 0.0056302614098208354 0 0.0035423275971928651 0.0059073412989001806 0 0.0031217442623166455 0.0060925815690631427 0 0.0027543419650314527 0.0056649175106888014 0 0.0032928801513733316 0.0056302614098208354 0 0.0031217442623166455 0.0060925815690631427 0 0.0027543419650314527 0.0056649175106888014 0 0.0024097697304706553 0.0061761217008831802 0 0.0027543419650314527 0.0056649175106888014 0 0.0030679038297514076 0.0053048891870685249 0 0.0032928801513733316 0.0056302614098208354 0 0.0027543419650314527 0.0056649175106888014 0 0.0030679038297514076 0.0053048891870685249 0 0.0026811128681304124 0.0051538471958050749 0 0.0032928801513733316 0.0056302614098208354 0 0.0033506537354738865 0.0053211247465752773 0 0.0036895459895340279 0.005508189955188824 0 0.0030679038297514076 0.0053048891870685249 0 0.0032928801513733316 0.0056302614098208354 0 0.0033506537354738865 0.0053211247465752773 0 0.0032158258076009517 0.0050312735024981682 0 0.0030644984090759126 0.0047500122375891797 0 0.0035626628526495962 0.004799635686305476 0 0.0030679038297514076 0.0053048891870685249 0 0.0033506537354738865 0.0053211247465752773 0 0.0032158258076009517 0.0050312735024981682 0 0.0033506537354738865 0.0053211247465752773 0 0.0032158258076009517 0.0050312735024981682 0 0.0034804767601420081 0.0051213229305830934 0 0.0032166242813257179 0.0047421473951830065 0 0.0011708419896585239 0.0006791355148145278 0 0.0032158258076009517 0.0050312735024981682 0 0.0034804767601420081 0.0051213229305830934 0 0.0035736961945465962 0.0048499421554227574 0 0.0032158258076009517 0.0050312735024981682 0 0.0029209897356311169 0.0049766390099327384 0 0.0030644984090759126 0.0047500122375891797 0 0.0029209897356311169 0.0049766390099327384 0 0.0026811128681304124 0.0051538471958050749 0 0.0025605625691004011 0.0046399316573627536 0 0.0030679038297514076 0.0053048891870685249 0 0.0029209897356311169 0.0049766390099327384 0 0.0026811128681304124 0.0051538471958050749 0 0.0030679038297514076 0.0053048891870685249 0 0.0032158258076009517 0.0050312735024981682 0 0.0029209897356311169 0.0049766390099327384 0 0.0025459780633211287 0.0009377824458499382 0 0.0011708419896585239 0.0006791355148145278 0 0.0033581020141431779 0.0023707908128444725 0 0.0026087722681776174 0.0030585604783881825 0 0.0023172663590355102 0.0021562656812466894 0 0.0034804767601420081 0.0051213229305830934 0 0.0036895459895340279 0.005508189955188824 0 0.0035736961945465962 0.0048499421554227574 0 0.0034141784041749165 0.0049112387133734914 0 0.0011708419896585239 0.0006791355148145278 0 0.0033506537354738865 0.0053211247465752773 0 0.0034804767601420081 0.0051213229305830934 0 0.0036895459895340279 0.005508189955188824 0 0.0033581020141431779 0.0023707908128444725 0 0.0026087722681776174 0.0030585604783881825 0 0.0034146084132225954 0.0030430746486574283 0 0.0026087722681776174 0.0030585604783881825 0 0.0033488783510759834 0.0036052509862355203 0 0.0034146084132225954 0.0030430746486574283 0 0.0033488783510759834 0.0036052509862355203 0 0.0028439776251766853 0.0039371246005893944 0 0.003492173253745851 0.0043865431048804547 0 0.0026087722681776174 0.0030585604783881825 0 0.0033488783510759834 0.0036052509862355203 0 0.0028439776251766853 0.0039371246005893944 0 0.0032928801513733316 0.0056302614098208354 0 0.0036895459895340279 0.005508189955188824 0 0.0035423275971928651 0.0059073412989001806 0 0.0034141784041749165 0.0049112387133734914 0 0.0031626446614139796 0.0047558912603874737 0 0.0036895459895340279 0.005508189955188824 0 0.00354843592124343 0.0058971135400225586 0 0.0035423275971928651 0.0059073412989001806 0 0.0033506739451500769 0.0053468645213070867 0 0.0036165024809045256 0.0062689778647255605 0 0.0035247289371786294 0.0057969554992940335 0 0.00354843592124343 0.0058971135400225586 0 0.0035423275971928651 0.0059073412989001806 0 0.0035247289371786294 0.0057969554992940335 0 0.0036165024809045256 0.0062689778647255605 0 0.0035423275971928651 0.0059073412989001806 0 0.0035247289371786294 0.0057969554992940335 0 0.0033385626938617083 0.0052705688277297777 0 0.0031626446614139796 0.0047558912603874737 0 0.0033393347702683593 0.0052322636902403996 0 0.0028439776251766853 0.0039371246005893944 0 0.003492173253745851 0.0043865431048804547 0 0.0033393347702683593 0.0052322636902403996 0 0.00354843592124343 0.0058971135400225586 0 0.0035247289371786294 0.0057969554992940335 0 0.0036203338247233004 0.0050070524564253304 0 0.0033393347702683593 0.0052322636902403996 0 0.003492173253745851 0.0043865431048804547 0 0.0036203338247233004 0.0050070524564253304 0 0.003492173253745851 0.0043865431048804547 0 0.0038079122220841736 0.0045722168588572688 0 0.0040339848425525416 0.0048591417174113109 0 0.0038079122220841736 0.0045722168588572688 0 0.0041802399957913093 0.0039451099805294298 0 0.003492173253745851 0.0043865431048804547 0 0.0038079122220841736 0.0045722168588572688 0 0.0037581078071541913 0.0039873793174313244 0 0.0038079122220841736 0.0045722168588572688 0 0.0041802399957913093 0.0039451099805294298 0 0.0037581078071541913 0.0039873793174313244 0 0.0040339848425525416 0.0048591417174113109 0 0.0041802399957913093 0.0039451099805294298 0 0.0046215970213158908 0.0041005228128438587 0 0.0041802399957913093 0.0039451099805294298 0 0.0046368271533710863 0.003498678316610881 0 0.0043552161634387767 0.0032665582668157563 0 0.0041802399957913093 0.0039451099805294298 0 0.0038742618240841516 0.0034454782817851621 0 0.0043552161634387767 0.0032665582668157563 0 0.0033488783510759834 0.0036052509862355203 0 0.003492173253745851 0.0043865431048804547 0 0.0037581078071541913 0.0039873793174313244 0 0.0033488783510759834 0.0036052509862355203 0 0.0038742618240841516 0.0034454782817851621 0 0.0037581078071541913 0.0039873793174313244 0 0.0041802399957913093 0.0039451099805294298 0 0.0038742618240841516 0.0034454782817851621 0 0.0037581078071541913 0.0039873793174313244 0 0.0045059830538760276 0.0024965551876254561 0 0.0049011799424887549 0.0022218179290709938 0 0.0046959671685091351 0.0031061457845998073 0 0.0045059830538760276 0.0024965551876254561 0 0.0046959671685091351 0.0031061457845998073 0 0.0042301759290001954 0.002946745900975383 0 0.0045313730299072113 0.0020306434498889281 0 0.0045059830538760276 0.0024965551876254561 0 0.0049011799424887549 0.0022218179290709938 0 0.0046215970213158908 0.0041005228128438587 0 0.0046368271533710863 0.003498678316610881 0 0.0046959671685091351 0.0031061457845998073 0 0.0049011799424887549 0.0022218179290709938 0 0.0054563240241542743 0.0024070062262399384 0 0.0046959671685091351 0.0031061457845998073 0 0.0050893510754275876 0.003144662449995951 0 0.0046619905249225164 0.0032266130161334237 0 0.0041802399957913093 0.0039451099805294298 0 0.0046215970213158908 0.0041005228128438587 0 0.0046368271533710863 0.003498678316610881 0 0.0046368271533710863 0.003498678316610881 0 0.0048133706472665294 0.0033164392123519637 0 0.0043552161634387767 0.0032665582668157563 0 0.0046368271533710863 0.003498678316610881 0 0.0046959671685091351 0.0031061457845998073 0 0.0048133706472665294 0.0033164392123519637 0 0.0046959671685091351 0.0031061457845998073 0 0.0048133706472665294 0.0033164392123519637 0 0.0042301759290001954 0.002946745900975383 0 0.0018801767982284496 -0.00044476965195985982 0 0.0026254374790137328 0.00027562044580261772 0 0.0025381710652817024 -0.00040448720146355908 0 0.0035670187108302249 0.0017072213889220743 0 0.0034049789695620039 0.0015292508555358499 0 0.0018801767982284496 -0.00044476965195985982 0 0.0020254421137777946 -0.00095974769156816303 0 0.0025381710652817024 -0.00040448720146355908 0 0.0018801767982284496 -0.00044476965195985982 0 0.0020254421137777946 -0.00095974769156816303 0 0.0011509019199743332 -0.0010912073908575398 0 0.0048133706472665294 0.0033164392123519637 0 0.0043552161634387767 0.0032665582668157563 0 0.0042810613041164682 0.0026095069277459752 0 0.0035670187108302249 0.0017072213889220743 0 0.0017683205434612995 -0.00062266246270912542 0 5.5028128071684445e-05 -0.0040351068089010842 0 -0.00042936864510453919 -0.0038175509367486763 0 -0.00024104978265104295 -0.004260204474852051 0 0.00081083526280528425 -0.0025711431923364152 0 0.0017683205434612995 -0.00062266246270912542 0 5.5028128071684445e-05 -0.0040351068089010842 0 0.00026547232981259937 -0.0036973239373924789 0 -0.00042936864510453919 -0.0038175509367486763 0 5.5028128071684445e-05 -0.0040351068089010842 0 0.00026547232981259937 -0.0036973239373924789 0 0.000512722268149964 -0.0040141005001704698 0 0.0033488783510759834 0.0036052509862355203 0 0.0038742618240841516 0.0034454782817851621 0 0.0034146084132225954 0.0030430746486574283 0 0.0038742618240841516 0.0034454782817851621 0 0.0038698654712802857 0.0029462304550260028 0 0.0034146084132225954 0.0030430746486574283 0 0.0038742618240841516 0.0034454782817851621 0 0.0038698654712802857 0.0029462304550260028 0 0.0043552161634387767 0.0032665582668157563 0 0.0038698654712802857 0.0029462304550260028 0 0.0043552161634387767 0.0032665582668157563 0 0.0042810613041164682 0.0026095069277459752 0 -0.00042936864510453919 -0.0038175509367486763 0 -0.00080564067994362337 -0.0041409278274899212 0 -0.00024104978265104295 -0.004260204474852051 0 0.0017683205434612995 -0.00062266246270912542 0 0.0001476255660577614 -0.0026921445433409244 0 0.0033581020141431779 0.0023707908128444725 0 0.0038698654712802857 0.0029462304550260028 0 0.0042810613041164682 0.0026095069277459752 0 0.0011034154715911313 -0.00089029169866418182 0 0.0016017940651210298 -0.00080843601599522841 0 0.0013490319834817952 -0.0010299610394879078 0 0.0033581020141431779 0.0023707908128444725 0 0.0038698654712802857 0.0029462304550260028 0 0.0034146084132225954 0.0030430746486574283 0 0.0025459780633211287 0.0009377824458499382 0 0.0017683205434612995 -0.00062266246270912542 0 0.0001476255660577614 -0.0026921445433409244 0 -0.00046378181824395157 -0.0039042107727440415 0 -0.00080564067994362337 -0.0041409278274899212 0 -0.00077579295324148399 -0.0046849897869852821 0 -0.0011811638442772126 -0.0044663490540357851 0 0.0011034154715911313 -0.00089029169866418182 0 0.0013490319834817952 -0.0010299610394879078 0 0.0010956689209962076 -0.001247945919393979 0 -0.00080564067994362337 -0.0041409278274899212 0 -0.00044905336026520231 -0.0045663007004550877 0 -0.00024104978265104295 -0.004260204474852051 0 -0.00080564067994362337 -0.0041409278274899212 0 -0.00044905336026520231 -0.0045663007004550877 0 -0.00077579295324148399 -0.0046849897869852821 0 -0.00044905336026520231 -0.0045663007004550877 0 -0.00035312023930458223 -0.0049302451144211347 0 -0.00077579295324148399 -0.0046849897869852821 0 -0.00038761036074369976 -0.004909342358906949 0 -0.00080264863795870007 -0.0046691882122308747 0 -0.00035312023930458223 -0.0049302451144211347 0 -0.00076575666687058363 -0.004743583203189748 0 -0.00074225088399771332 -0.0051185486131455123 0 -0.0010888817935496048 -0.0048335586541666392 0 -0.00076575666687058363 -0.004743583203189748 0 -0.00074225088399771332 -0.0051185486131455123 0 -0.0010888817935496048 -0.0048335586541666392 0 -0.0011492374666719981 -0.0052162413510247387 0 -0.00074225088399771332 -0.0051185486131455123 0 -0.00080264863795870007 -0.0046691882122308747 0 -0.00046378181824395157 -0.0039042107727440415 0 -0.0010888817935496048 -0.0048335586541666392 0 -0.00076575666687058363 -0.004743583203189748 0 -0.0011669959068390059 -0.0045100527391394073 0 5.5028128071684445e-05 -0.0040351068089010842 0 0.000512722268149964 -0.0040141005001704698 0 0.00026111553212442376 -0.0043780480118406498 0 0.00026111553212442376 -0.0043780480118406498 0 0.00045525606342296259 -0.0046571435597305274 0 0.00066572418613233223 -0.0043817086871899679 0 0.000512722268149964 -0.0040141005001704698 0 0.00026111553212442376 -0.0043780480118406498 0 0.00066572418613233223 -0.0043817086871899679 0 0.00026111553212442376 -0.0043780480118406498 0 -0.00024104978265104295 -0.004260204474852051 0 2.444640942508764e-05 -0.004709611240019799 0 5.5028128071684445e-05 -0.0040351068089010842 0 0.00026111553212442376 -0.0043780480118406498 0 -0.00024104978265104295 -0.004260204474852051 0 -0.00044905336026520231 -0.0045663007004550877 0 -0.00024104978265104295 -0.004260204474852051 0 2.444640942508764e-05 -0.004709611240019799 0 -1.2133523537713059e-05 -0.0050099243616851018 0 2.444640942508764e-05 -0.004709611240019799 0 0.00043787787911700519 -0.00506604786360473 0 -0.00044905336026520231 -0.0045663007004550877 0 -0.00035312023930458223 -0.0049302451144211347 0 2.444640942508764e-05 -0.004709611240019799 0 -0.00035312023930458223 -0.0049302451144211347 0 -1.2133523537713059e-05 -0.0050099243616851018 0 2.444640942508764e-05 -0.004709611240019799 0 2.444640942508764e-05 -0.004709611240019799 0 0.00045525606342296259 -0.0046571435597305274 0 0.00043787787911700519 -0.00506604786360473 0 0.00026111553212442376 -0.0043780480118406498 0 2.444640942508764e-05 -0.004709611240019799 0 0.00045525606342296259 -0.0046571435597305274 0 -0.00018001210746294171 -0.0058536050529767849 0 -0.00032820162902239491 -0.0062351118162509624 0 -7.8861586893492236e-05 -0.0061005157668807056 0 -0.00018001210746294171 -0.0058536050529767849 0 -0.00053742775412432477 -0.0058809427360005124 0 -0.00032820162902239491 -0.0062351118162509624 0 -1.2133523537713059e-05 -0.0050099243616851018 0 0.00043787787911700519 -0.00506604786360473 0 -0.00017639940162114619 -0.0053275705564238829 0 0.00013166468480049255 -0.0054615307081094348 0 -0.00038414666069268918 -0.0056043820224756175 0 -0.00035312023930458223 -0.0049302451144211347 0 -1.2133523537713059e-05 -0.0050099243616851018 0 -0.00017639940162114619 -0.0053275705564238829 0 -0.00053742775412432477 -0.0058809427360005124 0 -0.00032820162902239491 -0.0062351118162509624 0 -0.00063812951668565279 -0.0061868741517675883 0 -0.00032820162902239491 -0.0062351118162509624 0 -7.8861586893492236e-05 -0.0061005157668807056 0 1.0326318689300217e-05 -0.0063425105184507198 0 -0.00032820162902239491 -0.0062351118162509624 0 1.0326318689300217e-05 -0.0063425105184507198 0 -0.00012653074581418872 -0.0065645432370281219 0 -0.0011492374666719981 -0.0052162413510247387 0 -0.00091774334312375028 -0.0057091046429583485 0 -0.0012859362799108665 -0.0056578045912432781 0 -0.0011492374666719981 -0.0052162413510247387 0 -0.00074225088399771332 -0.0051185486131455123 0 -0.00091774334312375028 -0.0057091046429583485 0 -0.00038414666069268918 -0.0056043820224756175 0 -0.00090198943246552082 -0.0057169390388722144 0 -0.00017639940162114619 -0.0053275705564238829 0 -0.00074225088399771332 -0.0051185486131455123 0 -0.00091774334312375028 -0.0057091046429583485 0 -0.00035312023930458223 -0.0049302451144211347 0 -0.00017639940162114619 -0.0053275705564238829 0 -0.00074225088399771332 -0.0051185486131455123 0 -0.00053742775412432477 -0.0058809427360005124 0 -0.00063812951668565279 -0.0061868741517675883 0 -0.00091774334312375028 -0.0057091046429583485 0 -0.00063812951668565279 -0.0061868741517675883 0 -0.00091774334312375028 -0.0057091046429583485 0 -0.0010612762357129441 -0.0061089890529248689 0 -0.00091774334312375028 -0.0057091046429583485 0 -0.0012859362799108665 -0.0056578045912432781 0 -0.0010612762357129441 -0.0061089890529248689 0 -0.00151418185135962 -0.0059868405060515663 0 -0.0012859362799108665 -0.0056578045912432781 0 -0.0010612762357129441 -0.0061089890529248689 0 -0.00151418185135962 -0.0059868405060515663 0 -0.0015918167998896589 -0.0056053477466061243 0 -0.0012859362799108665 -0.0056578045912432781 0 -0.0011492374666719981 -0.0052162413510247387 0 -0.0012859362799108665 -0.0056578045912432781 0 -0.0014721300694278744 -0.0052247744322879291 0 -0.0015918167998896589 -0.0056053477466061243 0 -0.0012859362799108665 -0.0056578045912432781 0 -0.0014721300694278744 -0.0052247744322879291 0 -0.0011492374666719981 -0.0052162413510247387 0 -0.0014721300694278744 -0.0052247744322879291 0 -0.0013491395727793826 -0.0049068920191934397 0 -0.001791915762828012 -0.0052609136173297341 0 -0.001917804131165445 -0.0056598992546646586 0 -0.0020790033815391764 -0.0050302228457784212 0 -0.0015029051526475037 -0.0050678107649543107 0 -0.0018948408468090624 -0.0032618190103600622 0 -0.001791915762828012 -0.0052609136173297341 0 -0.0021436942647201996 -0.0049744104535026428 0 -0.0018160783678969842 -0.0048744153187695637 0 -0.0014721300694278744 -0.0052247744322879291 0 -0.001791915762828012 -0.0052609136173297341 0 -0.0015991441713924038 -0.0048964785514555515 0 -0.0015918167998896589 -0.0056053477466061243 0 -0.001791915762828012 -0.0052609136173297341 0 -0.001917804131165445 -0.0056598992546646586 0 -0.0015918167998896589 -0.0056053477466061243 0 -0.0014721300694278744 -0.0052247744322879291 0 -0.001791915762828012 -0.0052609136173297341 0 -0.00151418185135962 -0.0059868405060515663 0 -0.001917804131165445 -0.0056598992546646586 0 -0.0020562354630488571 -0.0063006208733304798 0 -0.00151418185135962 -0.0059868405060515663 0 -0.0015918167998896589 -0.0056053477466061243 0 -0.001917804131165445 -0.0056598992546646586 0 -0.001917804131165445 -0.0056598992546646586 0 -0.0024592690339934643 -0.0057568931399184153 0 -0.0020562354630488571 -0.0063006208733304798 0 0.0033870787751327965 0.0060358233553215925 0 0.0030585363927424438 0.0054155471721775992 0 0.0026855006707834886 0.0060337855941865895 0 0.0033870787751327965 0.0060358233553215925 0 0.0028823707277550164 0.0066800058115979825 0 0.0026855006707834886 0.0060337855941865895 0 0.0010293276496128815 0.0010121662525220125 0 0.0014552765195123627 0.004390214560453712 0 0.00040369854251644981 0.0012536914944289736 0 0.00027627059864742662 0.0014223308216399664 0 0.00038824899868479111 0.0014869117337734984 0 0.00027627059864742662 0.0014223308216399664 0 0.00038824899868479111 0.0014869117337734984 0 0.00014680686730916958 0.0016114140156520604 0 0.00040369854251644981 0.0012536914944289736 0 0.00038824899868479111 0.0014869117337734984 0 0.00053371898734824882 0.0014922199144411592 0 -0.001917804131165445 -0.0056598992546646586 0 -0.0024592690339934643 -0.0057568931399184153 0 -0.0020790033815391764 -0.0050302228457784212 0 0.0010293276496128815 0.0010121662525220125 0 -0.0018948408468090624 -0.0032618190103600622 0 -0.0018948408468090624 -0.0032618190103600622 0 -0.00085929869400975763 -0.0014989691084156098 0 0.00038824899868479111 0.0014869117337734984 0 0.00053371898734824882 0.0014922199144411592 0 0.00038554339694155495 0.001648638005307646 0 -0.0019641595706053564 -0.0046692069842465119 0 -0.0020014003530419251 -0.0045170284480838211 0 -0.0021597456381151053 -0.0044553383253175764 0 -0.0020014003530419251 -0.0045170284480838211 0 -0.0021597456381151053 -0.0044553383253175764 0 -0.0020444985813606307 -0.0044024034986681424 0 -0.0020014003530419251 -0.0045170284480838211 0 -0.001921884957446321 -0.0044172126454882733 0 -0.0019080481806576185 -0.0046024847080717683 0 -0.0019641595706053564 -0.0046692069842465119 0 -0.0020014003530419251 -0.0045170284480838211 0 -0.0019080481806576185 -0.0046024847080717683 0 0.00038554339694155495 0.001648638005307646 0 0.00022087733789062042 0.00181669603112284 0 0.00014680686730916958 0.0016114140156520604 0 0.00038824899868479111 0.0014869117337734984 0 0.00038554339694155495 0.001648638005307646 0 0.00014680686730916958 0.0016114140156520604 0 0.0029209897356311169 0.0049766390099327384 0 0.0030644984090759126 0.0047500122375891797 0 0.0025605625691004011 0.0046399316573627536 0 0.00028305005050638957 0.00018985266267506804 0 0.00051172925558823649 0.0016786835632708844 0 -0.00085929869400975763 -0.0014989691084156098 0 0.00051172925558823649 0.0016786835632708844 0 -0.0021597456381151053 -0.0044553383253175764 0 -0.002123300104768485 -0.0042448423858870814 0 -0.0023268157884517599 -0.0042369124339817548 0 0.00028305005050638957 0.00018985266267506804 0 0.0011708419896585239 0.0006791355148145278 0 -0.002123300104768485 -0.0042448423858870814 0 -0.0019863474765833373 -0.0043154028677600161 0 -0.001828978204404788 -0.0041823194028547317 0 -0.0020014003530419251 -0.0045170284480838211 0 -0.0020444985813606307 -0.0044024034986681424 0 -0.001921884957446321 -0.0044172126454882733 0 -0.0020444985813606307 -0.0044024034986681424 0 -0.0019863474765833373 -0.0043154028677600161 0 -0.001921884957446321 -0.0044172126454882733 0 -0.0021597456381151053 -0.0044553383253175764 0 -0.0020444985813606307 -0.0044024034986681424 0 -0.002123300104768485 -0.0042448423858870814 0 -0.0020444985813606307 -0.0044024034986681424 0 -0.002123300104768485 -0.0042448423858870814 0 -0.0019863474765833373 -0.0043154028677600161 0 0.0011708419896585239 0.0006791355148145278 0 -0.0019736016503969578 -0.0056158621237154061 0 -0.0019863474765833373 -0.0043154028677600161 0 -0.001828978204404788 -0.0041823194028547317 0 -0.001921884957446321 -0.0044172126454882733 0 -0.0017856082961121634 -0.0044521044577663562 0 -0.001921884957446321 -0.0044172126454882733 0 -0.0019080481806576185 -0.0046024847080717683 0 -0.0018461733638681379 -0.0040903259077875896 0 -0.0017856082961121634 -0.0044521044577663562 0 -0.001921884957446321 -0.0044172126454882733 0 -0.0018461733638681379 -0.0040903259077875896 0 -0.0017856082961121634 -0.0044521044577663562 0 -0.0015468434985982209 -0.0044815856002837912 0 -0.0018461733638681379 -0.0040903259077875896 0 -0.0011656646116978225 -0.0044920282159114037 0 -0.0015468434985982209 -0.0044815856002837912 0 0.0011034154715911313 -0.00089029169866418182 0 0.00060985226217456117 -0.00097023584584743838 0 0.0010956689209962076 -0.001247945919393979 0 0.0011708419896585239 0.0006791355148145278 0 -0.00046378181824395157 -0.0039042107727440415 0 -0.0011656646116978225 -0.0044920282159114037 0 -0.0015468434985982209 -0.0044815856002837912 0 -0.0012818358044208698 -0.0046037215419711692 0 -0.00046378181824395157 -0.0039042107727440415 0 -0.00099206998676278795 -0.004357362825600856 0 -0.0014983960079401443 -0.0046852851983964373 0 -0.0012818358044208698 -0.0046037215419711692 0 -0.0013491395727793826 -0.0049068920191934397 0 -0.0015468434985982209 -0.0044815856002837912 0 -0.0014983960079401443 -0.0046852851983964373 0 -0.0012818358044208698 -0.0046037215419711692 0 -0.0015468434985982209 -0.0044815856002837912 0 -0.0014983960079401443 -0.0046852851983964373 0 -0.0016885715277991428 -0.0046558170705168116 0 -0.0010888817935496048 -0.0048335586541666392 0 -0.0012818358044208698 -0.0046037215419711692 0 -0.0013491395727793826 -0.0049068920191934397 0 -0.0010888817935496048 -0.0048335586541666392 0 -0.0011669959068390059 -0.0045100527391394073 0 -0.0012818358044208698 -0.0046037215419711692 0 -0.0010888817935496048 -0.0048335586541666392 0 -0.0011492374666719981 -0.0052162413510247387 0 -0.0013491395727793826 -0.0049068920191934397 0 -0.0014721300694278744 -0.0052247744322879291 0 -0.0013491395727793826 -0.0049068920191934397 0 -0.0015991441713924038 -0.0048964785514555515 0 -0.0014983960079401443 -0.0046852851983964373 0 -0.0013491395727793826 -0.0049068920191934397 0 -0.0015991441713924038 -0.0048964785514555515 0 -0.001791915762828012 -0.0052609136173297341 0 -0.0015991441713924038 -0.0048964785514555515 0 -0.0018160783678969842 -0.0048744153187695637 0 -0.0015991441713924038 -0.0048964785514555515 0 -0.0018160783678969842 -0.0048744153187695637 0 -0.0016885715277991428 -0.0046558170705168116 0 -0.0018948408468090624 -0.0032618190103600622 0 -0.0022271338681206982 -0.0047386731127462009 0 -0.0021436942647201996 -0.0049744104535026428 0 -0.0018160783678969842 -0.0048744153187695637 0 -0.0019080481806576185 -0.0046024847080717683 0 -0.0017856082961121634 -0.0044521044577663562 0 -0.0019080481806576185 -0.0046024847080717683 0 -0.0016885715277991428 -0.0046558170705168116 0 -0.0018160783678969842 -0.0048744153187695637 0 -0.0019080481806576185 -0.0046024847080717683 0 -0.0016885715277991428 -0.0046558170705168116 0 -0.0017856082961121634 -0.0044521044577663562 0 -0.0015468434985982209 -0.0044815856002837912 0 -0.0016885715277991428 -0.0046558170705168116 0 -0.0014983960079401443 -0.0046852851983964373 0 -0.0015991441713924038 -0.0048964785514555515 0 -0.0016885715277991428 -0.0046558170705168116 0 0.0048901731570073501 -0.0051985382390502639 0 0.0048857862060721867 -0.0051046011392203239 0 0.0047888225495705018 -0.0052535464382615681 0 0.0054874717303320421 -0.003410894481670956 0 0.0049653598388651942 -0.0048597828119833798 0 0.004956291950336855 -0.005252478361126996 0 0.0048901731570073501 -0.0051985382390502639 0 0.0047888225495705018 -0.0052535464382615681 0 0.0049393340120497953 -0.0051446919714742316 0 0.0048901731570073501 -0.0051985382390502639 0 0.0048857862060721867 -0.0051046011392203239 0 0.0049393340120497953 -0.0051446919714742316 0 0.0048901731570073501 -0.0051985382390502639 0 0.0049462023272048251 -0.0051961963878426384 0 0.004956291950336855 -0.005252478361126996 0 0.0048901731570073501 -0.0051985382390502639 0 0.0049462023272048251 -0.0051961963878426384 0 0.0043903102390229539 -0.0034496504001584722 0 0.0058415071280187233 -0.0027763888746855188 0 0.0052295125623410682 -0.0042352995768858547 0 0.0043903102390229539 -0.0034496504001584722 0 0.0038459681441260726 -0.0043629855883097705 0 0.0052295125623410682 -0.0042352995768858547 0 0.0043903102390229539 -0.0034496504001584722 0 0.0058415071280187233 -0.0027763888746855188 0 0.0042304071837036411 -0.0020795208123954249 0 0.0058415071280187233 -0.0027763888746855188 0 0.0061692933122864113 -0.0012785623398063957 0 0.0042304071837036411 -0.0020795208123954249 0 0.0054874717303320421 -0.003410894481670956 0 0.005447455889375335 -0.0056145384048868841 0 0.0049741746167832465 -0.0050810023467092909 0 0.0048857862060721867 -0.0051046011392203239 0 0.0049401440543350231 -0.0049917556340825587 0 0.0058415071280187233 -0.0027763888746855188 0 0.0061692933122864113 -0.0012785623398063957 0 0.0064512320778010168 -0.00090546658241516813 0 0.0049741746167832465 -0.0050810023467092909 0 0.0049393340120497953 -0.0051446919714742316 0 0.0048857862060721867 -0.0051046011392203239 0 0.0061692933122864113 -0.0012785623398063957 0 0.0064512320778010168 -0.00090546658241516813 0 0.0058267780129078878 -0.00063654062151007214 0 0.0064512320778010168 -0.00090546658241516813 0 0.0058267780129078878 -0.00063654062151007214 0 0.0060614132040662074 -0.00017222100149374603 0 0.005447455889375335 -0.0056145384048868841 0 0.0057984201225942866 -0.0047785363421022084 0 0.0049937249156195348 -0.0096601234340581953 0 0.0053130830824427901 -0.0086053014037947417 0 0.0056418527130439175 -0.0095127938991681031 0 0.0058267780129078878 -0.00063654062151007214 0 0.0060614132040662074 -0.00017222100149374603 0 0.0054554852525726854 -4.5074111594140107e-05 0 0.0049384467075429296 -0.0052369758049778713 0 0.0057984201225942866 -0.0047785363421022084 0 0.0059285434253864818 -0.010298015231835437 0 0.0056418527130439175 -0.0095127938991681031 0 0.0053048135630191957 -0.0099686396186923591 0 0.0049937249156195348 -0.0096601234340581953 0 0.0056418527130439175 -0.0095127938991681031 0 0.0053048135630191957 -0.0099686396186923591 0 0.0057965120045059219 0.00035822014089178042 0 0.0060614132040662074 -0.00017222100149374603 0 0.0054554852525726854 -4.5074111594140107e-05 0 0.0058267780129078878 -0.00063654062151007214 0 0.0054554852525726854 -4.5074111594140107e-05 0 0.0053298208305122994 -0.00042387648169391577 0 0.0061692933122864113 -0.0012785623398063957 0 0.0058267780129078878 -0.00063654062151007214 0 0.0051741681149206865 -0.00080228201111798454 0 0.0058267780129078878 -0.00063654062151007214 0 0.0053298208305122994 -0.00042387648169391577 0 0.0051741681149206865 -0.00080228201111798454 0 0.0061352404209289862 -0.0012677043457116806 0 0.0047769746838192675 -0.0014405108279759242 0 0.0049203334440533868 -0.00019307574111374648 0 0.0045956110226280291 -0.00060095852807760472 0 0.0051741681149206865 -0.00080228201111798454 0 0.0053298208305122994 -0.00042387648169391577 0 0.0049203334440533868 -0.00019307574111374648 0 0.0051741681149206865 -0.00080228201111798454 0 0.0054554852525726854 -4.5074111594140107e-05 0 0.0053298208305122994 -0.00042387648169391577 0 0.0049203334440533868 -0.00019307574111374648 0 0.0045890492693980234 0.00033071454327926746 0 0.005125980966168734 0.00033169998128002682 0 0.0049203334440533868 -0.00019307574111374648 0 0.005125980966168734 0.00033169998128002682 0 0.0054554852525726854 -4.5074111594140107e-05 0 0.0049203334440533868 -0.00019307574111374648 0 0.0045890492693980234 0.00033071454327926746 0 0.0049203334440533868 -0.00019307574111374648 0 0.00440794576303163 1.8723435193363822e-05 0 0.0049203334440533868 -0.00019307574111374648 0 0.0045956110226280291 -0.00060095852807760472 0 0.00440794576303163 1.8723435193363822e-05 0 0.0028410286236025361 -0.0026837153448453148 0 0.0042304071837036411 -0.0020795208123954249 0 0.0031592602810449045 -0.0036776354951077927 0 0.0037416215866682978 -0.001643563280379384 0 0.0047769746838192675 -0.0014405108279759242 0 0.0043903102390229539 -0.0034496504001584722 0 0.0042304071837036411 -0.0020795208123954249 0 0.0031592602810449045 -0.0036776354951077927 0 0.0043903102390229539 -0.0034496504001584722 0 0.0031592602810449045 -0.0036776354951077927 0 0.0038459681441260726 -0.0043629855883097705 0 0.0028410286236025361 -0.0026837153448453148 0 0.0031592602810449045 -0.0036776354951077927 0 0.0020792716514543641 -0.0040070776771905965 0 0.0020792716514543641 -0.0040070776771905965 0 0.0017718561715141007 -0.003139131920279036 0 0.0013532201550869223 -0.0038984238103946045 0 0.0037416215866682978 -0.001643563280379384 0 0.0028657178103956888 -0.0019019022936710391 0 0.0028410286236025361 -0.0026837153448453148 0 0.0020792716514543641 -0.0040070776771905965 0 0.0017718561715141007 -0.003139131920279036 0 0.0045956110226280291 -0.00060095852807760472 0 0.0039753345752512794 -0.00065574024570520979 0 0.0042234140665157157 -0.00020051175056680432 0 0.0042234140665157157 -0.00020051175056680432 0 0.00440794576303163 1.8723435193363822e-05 0 0.0040751351384779224 0.00040640702326703545 0 0.0045956110226280291 -0.00060095852807760472 0 0.0042234140665157157 -0.00020051175056680432 0 0.00440794576303163 1.8723435193363822e-05 0 0.0045890492693980234 0.00033071454327926746 0 0.0041461118719802311 0.00028764913995913609 0 0.00440794576303163 1.8723435193363822e-05 0 0.0041461118719802311 0.00028764913995913609 0 0.00440794576303163 1.8723435193363822e-05 0 0.0040751351384779224 0.00040640702326703545 0 0.0042234140665157157 -0.00020051175056680432 0 0.0040751351384779224 0.00040640702326703545 0 0.0034233946653114663 -0.00013749020654901445 0 0.0039753345752512794 -0.00065574024570520979 0 0.0042234140665157157 -0.00020051175056680432 0 0.0034233946653114663 -0.00013749020654901445 0 0.0034233946653114663 -0.00013749020654901445 0 0.0034360579272577282 0.00045495630391671868 0 0.0026254374790137328 0.00027562044580261772 0 0.0040751351384779224 0.00040640702326703545 0 0.0034233946653114663 -0.00013749020654901445 0 0.0034360579272577282 0.00045495630391671868 0 0.0036257098150435456 0.0014461394518924004 0 0.0034049789695620039 0.0015292508555358499 0 0.0035943737853224729 0.0013379387267004389 0 0.0034360579272577282 0.00045495630391671868 0 0.0026254374790137328 0.00027562044580261772 0 0.0035943737853224729 0.0013379387267004389 0 0.0040751351384779224 0.00040640702326703545 0 0.0034360579272577282 0.00045495630391671868 0 0.0045059830538760276 0.0024965551876254561 0 0.0041698868138409818 0.0020517574897544705 0 0.0042301759290001954 0.002946745900975383 0 0.0035943737853224729 0.0013379387267004389 0 0.0041698868138409818 0.0020517574897544705 0 0.0042301759290001954 0.002946745900975383 0 0.0045313730299072113 0.0020306434498889281 0 0.0045059830538760276 0.0024965551876254561 0 0.0041698868138409818 0.0020517574897544705 0 0.0034233946653114663 -0.00013749020654901445 0 0.0026254374790137328 0.00027562044580261772 0 0.0025381710652817024 -0.00040448720146355908 0 0.0034233946653114663 -0.00013749020654901445 0 0.0030078863785133274 -0.00083914656452920629 0 0.0025381710652817024 -0.00040448720146355908 0 0.0020254421137777946 -0.00095974769156816303 0 0.0030078863785133274 -0.00083914656452920629 0 0.0025381710652817024 -0.00040448720146355908 0 0.0039753345752512794 -0.00065574024570520979 0 0.0034233946653114663 -0.00013749020654901445 0 0.0030078863785133274 -0.00083914656452920629 0 0.0028657178103956888 -0.0019019022936710391 0 0.0020681515072844586 -0.0021182285110069904 0 0.0009551933049997516 -0.0034863014785222112 0 0.0013532201550869223 -0.0038984238103946045 0 0.00089014711909445889 -0.0040323947508627061 0 0.0017718561715141007 -0.003139131920279036 0 0.0009551933049997516 -0.0034863014785222112 0 0.0013532201550869223 -0.0038984238103946045 0 0.000512722268149964 -0.0040141005001704698 0 0.0009551933049997516 -0.0034863014785222112 0 0.00089014711909445889 -0.0040323947508627061 0 0.00026547232981259937 -0.0036973239373924789 0 0.000512722268149964 -0.0040141005001704698 0 0.0009551933049997516 -0.0034863014785222112 0 0.00081083526280528425 -0.0025711431923364152 0 0.0020681515072844586 -0.0021182285110069904 0 0.00066572418613233223 -0.0043817086871899679 0 0.00099118953986839366 -0.0043754362680618036 0 0.00087065002859386148 -0.0046972279541043988 0 0.000512722268149964 -0.0040141005001704698 0 0.00089014711909445889 -0.0040323947508627061 0 0.00066572418613233223 -0.0043817086871899679 0 0.00089014711909445889 -0.0040323947508627061 0 0.00066572418613233223 -0.0043817086871899679 0 0.00099118953986839366 -0.0043754362680618036 0 0.0013532201550869223 -0.0038984238103946045 0 0.0013337637612195045 -0.0044650709386370915 0 0.00099118953986839366 -0.0043754362680618036 0 0.0013532201550869223 -0.0038984238103946045 0 0.00089014711909445889 -0.0040323947508627061 0 0.00099118953986839366 -0.0043754362680618036 0 0.0013337637612195045 -0.0044650709386370915 0 0.00099118953986839366 -0.0043754362680618036 0 0.00087065002859386148 -0.0046972279541043988 0 0.0013337637612195045 -0.0044650709386370915 0 0.001056792393222362 -0.0049249335139974976 0 0.00087065002859386148 -0.0046972279541043988 0 0.00015617409404762345 -0.0055595822287724996 0 0.0009563932331503631 -0.0063924048468933367 0 0.001491913113373042 -0.0051777693723511486 0 0.00062435601088391016 -0.0052929103116532402 0 0.0016881615942892115 -0.0049859833578685762 0 0.0013337637612195045 -0.0044650709386370915 0 0.001056792393222362 -0.0049249335139974976 0 0.0018333295768038235 -0.0048080742548167639 0 0.00013166468480049255 -0.0054615307081094348 0 0.00062435601088391016 -0.0052929103116532402 0 0.00045525606342296259 -0.0046571435597305274 0 0.00066572418613233223 -0.0043817086871899679 0 0.00087065002859386148 -0.0046972279541043988 0 0.00045525606342296259 -0.0046571435597305274 0 0.00043787787911700519 -0.00506604786360473 0 0.00087065002859386148 -0.0046972279541043988 0 0.00043787787911700519 -0.00506604786360473 0 0.0010421387429138608 -0.0048775019166403958 0 0.00087065002859386148 -0.0046972279541043988 0 0.00062435601088391016 -0.0052929103116532402 0 0.00074202837973338172 -0.0049379977421294997 0 -0.00018001210746294171 -0.0058536050529767849 0 0.00017647744200582365 -0.0060503859270109794 0 -7.8861586893492236e-05 -0.0061005157668807056 0 -0.00018001210746294171 -0.0058536050529767849 0 0.00023747400190437612 -0.0057367438065379561 0 0.00017647744200582365 -0.0060503859270109794 0 0.00017647744200582365 -0.0060503859270109794 0 1.0326318689300217e-05 -0.0063425105184507198 0 0.00033144513919280733 -0.0063410690347093252 0 0.00017647744200582365 -0.0060503859270109794 0 -7.8861586893492236e-05 -0.0061005157668807056 0 1.0326318689300217e-05 -0.0063425105184507198 0 0.00017647744200582365 -0.0060503859270109794 0 0.00033144513919280733 -0.0063410690347093252 0 0.00051722449904169376 -0.0060167202686398774 0 0.00033144513919280733 -0.0063410690347093252 0 0.00051722449904169376 -0.0060167202686398774 0 0.00057009581110691412 -0.0064817992426973179 0 1.0326318689300217e-05 -0.0063425105184507198 0 0.00033144513919280733 -0.0063410690347093252 0 0.00016812522994224982 -0.0065842683019530033 0 0.00023747400190437612 -0.0057367438065379561 0 0.00017647744200582365 -0.0060503859270109794 0 0.00051722449904169376 -0.0060167202686398774 0 0.00062435601088391016 -0.0052929103116532402 0 0.00068781204958913791 -0.0062043281847372215 0 0.0016846188731306974 -0.006176194174232208 0 0.0009563932331503631 -0.0063924048468933367 0 0.0017589345995160908 -0.007221923624002138 0 0.0016846188731306974 -0.006176194174232208 0 0.0009563932331503631 -0.0063924048468933367 0 0.001491913113373042 -0.0051777693723511486 0 0.00051722449904169376 -0.0060167202686398774 0 0.00083174105759435788 -0.006332283712073109 0 0.00057009581110691412 -0.0064817992426973179 0 0.00068781204958913791 -0.0062043281847372215 0 0.00144368387009074 -0.0068377542201417387 0 0.0026213911172369656 -0.0069010313519301605 0 0.0020253220401367407 -0.0069829919609031236 0 0.002670572615168888 -0.0075719188033034736 0 0.0026213911172369656 -0.0069010313519301605 0 0.0020253220401367407 -0.0069829919609031236 0 0.00253030117781777 -0.005903560802917809 0 0.0016846188731306974 -0.006176194174232208 0 0.0017589345995160908 -0.007221923624002138 0 0.00253030117781777 -0.005903560802917809 0 0.00144368387009074 -0.0068377542201417387 0 0.0026203329214501817 -0.0060239570063620141 0 0.0016846188731306974 -0.006176194174232208 0 0.00253030117781777 -0.005903560802917809 0 0.001491913113373042 -0.0051777693723511486 0 0.00253030117781777 -0.005903560802917809 0 0.001491913113373042 -0.0051777693723511486 0 0.0028090468650333843 -0.0047627081841140617 0 0.0016881615942892115 -0.0049859833578685762 0 0.0027487301868894592 -0.0047617092589850377 0 0.0020792716514543641 -0.0040070776771905965 0 0.0013337637612195045 -0.0044650709386370915 0 0.0018333295768038235 -0.0048080742548167639 0 0.0020792716514543641 -0.0040070776771905965 0 0.0013532201550869223 -0.0038984238103946045 0 0.0013337637612195045 -0.0044650709386370915 0 0.0020792716514543641 -0.0040070776771905965 0 0.0018333295768038235 -0.0048080742548167639 0 0.0028090468650333843 -0.0047627081841140617 0 0.0031592602810449045 -0.0036776354951077927 0 0.0028090468650333843 -0.0047627081841140617 0 0.0038459681441260726 -0.0043629855883097705 0 0.0031592602810449045 -0.0036776354951077927 0 0.0020792716514543641 -0.0040070776771905965 0 0.0028090468650333843 -0.0047627081841140617 0 0.0028090468650333843 -0.0047627081841140617 0 0.0038459681441260726 -0.0043629855883097705 0 0.0036306202931876076 -0.0050830249251194127 0 0.0038459681441260726 -0.0043629855883097705 0 0.0036306202931876076 -0.0050830249251194127 0 0.0042272207689685566 -0.0050394094102670251 0 0.0036306202931876076 -0.0050830249251194127 0 0.0042272207689685566 -0.0050394094102670251 0 0.0039424780262793469 -0.0055953915453149207 0 0.0042272207689685566 -0.0050394094102670251 0 0.0039424780262793469 -0.0055953915453149207 0 0.0042673078387592796 -0.0054816537308169846 0 0.0039424780262793469 -0.0055953915453149207 0 0.0041226378600835835 -0.0060769000078751464 0 0.0043129271799183097 -0.0057602415784090656 0 0.0039424780262793469 -0.0055953915453149207 0 0.0043129271799183097 -0.0057602415784090656 0 0.0042673078387592796 -0.0054816537308169846 0 0.0036306202931876076 -0.0050830249251194127 0 0.0039424780262793469 -0.0055953915453149207 0 0.0033475921360259096 -0.00563544354856219 0 0.0039424780262793469 -0.0055953915453149207 0 0.0033475921360259096 -0.00563544354856219 0 0.0037367909457474671 -0.0060373055150042959 0 0.00253030117781777 -0.005903560802917809 0 0.0028090468650333843 -0.0047627081841140617 0 0.0033475921360259096 -0.00563544354856219 0 0.0028090468650333843 -0.0047627081841140617 0 0.0036306202931876076 -0.0050830249251194127 0 0.0033475921360259096 -0.00563544354856219 0 0.00253030117781777 -0.005903560802917809 0 0.0033576576785973879 -0.006270410141739219 0 0.0030544524513166161 -0.0067160033633896412 0 0.00253030117781777 -0.005903560802917809 0 0.0033475921360259096 -0.00563544354856219 0 0.0033576576785973879 -0.006270410141739219 0 0.0026213911172369656 -0.0069010313519301605 0 0.00253030117781777 -0.005903560802917809 0 0.0030544524513166161 -0.0067160033633896412 0 0.0033576576785973879 -0.006270410141739219 0 0.0030544524513166161 -0.0067160033633896412 0 0.0035831760003456792 -0.0067524754667791891 0 0.0030544524513166161 -0.0067160033633896412 0 0.0033917165137234253 -0.0071096258440227255 0 0.0035831760003456792 -0.0067524754667791891 0 0.0030544524513166161 -0.0067160033633896412 0 0.0029824301885621944 -0.007161197031700913 0 0.0033917165137234253 -0.0071096258440227255 0 0.0026213911172369656 -0.0069010313519301605 0 0.0030544524513166161 -0.0067160033633896412 0 0.0029824301885621944 -0.007161197031700913 0 0.0038249265625217078 -0.0071017400869654414 0 0.0033917165137234253 -0.0071096258440227255 0 0.0035831760003456792 -0.0067524754667791891 0 0.0038249265625217078 -0.0071017400869654414 0 0.0035831760003456792 -0.0067524754667791891 0 0.0040687214679186864 -0.0067999135695512337 0 0.0035831760003456792 -0.0067524754667791891 0 0.0039004354131884533 -0.0064586568893661798 0 0.0040687214679186864 -0.0067999135695512337 0 0.0039004354131884533 -0.0064586568893661798 0 0.0041226378600835835 -0.0060769000078751464 0 0.0042609838487715004 -0.0063897434382627662 0 0.0033576576785973879 -0.006270410141739219 0 0.0035831760003456792 -0.0067524754667791891 0 0.0039004354131884533 -0.0064586568893661798 0 0.0033576576785973879 -0.006270410141739219 0 0.0039004354131884533 -0.0064586568893661798 0 0.0037367909457474671 -0.0060373055150042959 0 0.0033475921360259096 -0.00563544354856219 0 0.0033576576785973879 -0.006270410141739219 0 0.0037367909457474671 -0.0060373055150042959 0 0.0039424780262793469 -0.0055953915453149207 0 0.0037367909457474671 -0.0060373055150042959 0 0.0041226378600835835 -0.0060769000078751464 0 0.0039004354131884533 -0.0064586568893661798 0 0.0037367909457474671 -0.0060373055150042959 0 0.0041226378600835835 -0.0060769000078751464 0 0.0041226378600835835 -0.0060769000078751464 0 0.0044706882281211066 -0.0060753415962682238 0 0.0043129271799183097 -0.0057602415784090656 0 0.0041226378600835835 -0.0060769000078751464 0 0.0044706882281211066 -0.0060753415962682238 0 0.0042609838487715004 -0.0063897434382627662 0 0.0044706882281211066 -0.0060753415962682238 0 0.0045344451892341412 -0.0064134815968013284 0 0.0042609838487715004 -0.0063897434382627662 0 0.0044706882281211066 -0.0060753415962682238 0 0.0045344451892341412 -0.0064134815968013284 0 0.0047072151832963389 -0.0062675610120650638 0 0.0045344451892341412 -0.0064134815968013284 0 0.0042609838487715004 -0.0063897434382627662 0 0.0044258663742434068 -0.0067522851705684849 0 0.0045344451892341412 -0.0064134815968013284 0 0.0044258663742434068 -0.0067522851705684849 0 0.0047221871123430325 -0.0066048035969428192 0 0.0039004354131884533 -0.0064586568893661798 0 0.0042609838487715004 -0.0063897434382627662 0 0.0040687214679186864 -0.0067999135695512337 0 0.0040687214679186864 -0.0067999135695512337 0 0.0044258663742434068 -0.0067522851705684849 0 0.0042088810391121903 -0.0071157366660687307 0 0.0042609838487715004 -0.0063897434382627662 0 0.0040687214679186864 -0.0067999135695512337 0 0.0044258663742434068 -0.0067522851705684849 0 0.0044258663742434068 -0.0067522851705684849 0 0.0045258533641019654 -0.0071509028298797506 0 0.0042088810391121903 -0.0071157366660687307 0 0.0044258663742434068 -0.0067522851705684849 0 0.0045258533641019654 -0.0071509028298797506 0 0.0046951619791799773 -0.0068883603778807498 0 0.0038249265625217078 -0.0071017400869654414 0 0.0040687214679186864 -0.0067999135695512337 0 0.0042088810391121903 -0.0071157366660687307 0 0.0051334451638715625 -0.0071742737106305927 0 0.004828599723323051 -0.0071499632576462208 0 0.0049695340107669605 -0.0068458153010902993 0 0.004828599723323051 -0.0071499632576462208 0 0.0046951619791799773 -0.0068883603778807498 0 0.0049695340107669605 -0.0068458153010902993 0 0.0045258533641019654 -0.0071509028298797506 0 0.004828599723323051 -0.0071499632576462208 0 0.0046951619791799773 -0.0068883603778807498 0 0.0044258663742434068 -0.0067522851705684849 0 0.0046951619791799773 -0.0068883603778807498 0 0.0047221871123430325 -0.0066048035969428192 0 0.0046951619791799773 -0.0068883603778807498 0 0.0049695340107669605 -0.0068458153010902993 0 0.0047221871123430325 -0.0066048035969428192 0 0.0049695340107669605 -0.0068458153010902993 0 0.0049561288051448819 -0.0065133241585791255 0 0.0047221871123430325 -0.0066048035969428192 0 0.0045344451892341412 -0.0064134815968013284 0 0.0047221871123430325 -0.0066048035969428192 0 0.0047072151832963389 -0.0062675610120650638 0 0.0049561288051448819 -0.0065133241585791255 0 0.0047221871123430325 -0.0066048035969428192 0 0.0047072151832963389 -0.0062675610120650638 0 0.0049561288051448819 -0.0065133241585791255 0 0.0047072151832963389 -0.0062675610120650638 0 0.0049544191087024115 -0.0062342125395129259 0 0.005189012668769255 -0.0063638859919558617 0 0.0052254507061282162 -0.0063529186339378492 0 0.0051981669254108596 -0.0063861006722044124 0 0.0051347010378885059 -0.0061876146947719623 0 0.0049331791878732935 -0.0058990174944651506 0 0.0050726483497725017 -0.0059868026689218878 0 0.0049544191087024115 -0.0062342125395129259 0 0.0046997039093158071 -0.0060141608927114709 0 0.0047072151832963389 -0.0062675610120650638 0 0.0049544191087024115 -0.0062342125395129259 0 0.0046997039093158071 -0.0060141608927114709 0 0.0044706882281211066 -0.0060753415962682238 0 0.0052426861908668899 -0.0054226547565474825 0 0.0046721018815005268 -0.0055008220538699994 0 0.0045824001110090079 -0.0060202208525902455 0 0.0049331791878732935 -0.0058990174944651506 0 0.0044706882281211066 -0.0060753415962682238 0 0.0047072151832963389 -0.0062675610120650638 0 0.0046997039093158071 -0.0060141608927114709 0 0.0046106564829339787 -0.0055278065678272831 0 0.0046721018815005268 -0.0055008220538699994 0 0.0047888225495705018 -0.0052535464382615681 0 0.0044706882281211066 -0.0060753415962682238 0 0.0046106564829339787 -0.0055278065678272831 0 0.0046721018815005268 -0.0055008220538699994 0 0.0044706882281211066 -0.0060753415962682238 0 0.0043129271799183097 -0.0057602415784090656 0 0.0046106564829339787 -0.0055278065678272831 0 0.0043129271799183097 -0.0057602415784090656 0 0.0046106564829339787 -0.0055278065678272831 0 0.0042673078387592796 -0.0054816537308169846 0 0.0042272207689685566 -0.0050394094102670251 0 0.0046106564829339787 -0.0055278065678272831 0 0.0042673078387592796 -0.0054816537308169846 0 0.0049331791878732935 -0.0058990174944651506 0 0.0048152818716383061 -0.0056777986093739267 0 0.0038459681441260726 -0.0043629855883097705 0 0.0042272207689685566 -0.0050394094102670251 0 0.0052295125623410682 -0.0042352995768858547 0 0.0046765474423575851 -0.0054262324624930894 0 0.0049653598388651942 -0.0048597828119833798 0 0.0042272207689685566 -0.0050394094102670251 0 0.0046106564829339787 -0.0055278065678272831 0 0.0052295125623410682 -0.0042352995768858547 0 0.0048122491815768649 -0.0054802308156228731 0 0.0046721018815005268 -0.0055008220538699994 0 0.0047888225495705018 -0.0052535464382615681 0 0.0048122491815768649 -0.0054802308156228731 0 0.0047888225495705018 -0.0052535464382615681 0 0.004953669816454816 -0.0053373135943533857 0 0.004956291950336855 -0.005252478361126996 0 0.0047888225495705018 -0.0052535464382615681 0 0.004953669816454816 -0.0053373135943533857 0 0.0049331791878732935 -0.0058990174944651506 0 0.0051606744502588255 -0.0057864260072562719 0 0.0014813639695884064 -0.0079554006350746002 0 0.0012039053082680776 -0.0078227193918350684 0 0.0015008519490746152 -0.0079722064894781428 0 0.0012524309922904312 -0.0081101750433922436 0 0.00085343812630630719 -0.0076630239135915476 0 0.0015498535865630912 -0.0080436981258660296 0 0.0015008519490746152 -0.0079722064894781428 0 0.0012524309922904312 -0.0081101750433922436 0 0.0012524309922904312 -0.0081101750433922436 0 0.00085343812630630719 -0.0076630239135915476 0 0.00095559963674198662 -0.0082541575124737126 0 0.00065178206933240597 -0.0080052931950878072 0 0.00085343812630630719 -0.0076630239135915476 0 0.00095559963674198662 -0.0082541575124737126 0 0.00065178206933240597 -0.0080052931950878072 0 0.00085343812630630719 -0.0076630239135915476 0 0.00051886859436156313 -0.0077142051761390652 0 0.0015424218330525488 -0.0079581411174093463 0 0.0015297849477642785 -0.0079653447082500654 0 0.0015535736853379582 -0.0079601213769068778 0 0.0015008519490746152 -0.0079722064894781428 0 0.0015424218330525488 -0.0079581411174093463 0 0.0015297849477642785 -0.0079653447082500654 0 0.0051996459875422573 -0.0078253009591256074 0 0.0047287633602372623 -0.0082660532661003004 0 0.0048112912065524953 -0.007792029371766423 0 0.0047287633602372623 -0.0082660532661003004 0 0.0048112912065524953 -0.007792029371766423 0 0.0044481798224583922 -0.0078556327046379725 0 0.0048112912065524953 -0.007792029371766423 0 0.0046537177851047398 -0.0074744779499932197 0 0.0049697183669371219 -0.007442568467626475 0 0.0048112912065524953 -0.007792029371766423 0 0.0046537177851047398 -0.0074744779499932197 0 0.0044481798224583922 -0.0078556327046379725 0 0.0045258533641019654 -0.0071509028298797506 0 0.004828599723323051 -0.0071499632576462208 0 0.0046537177851047398 -0.0074744779499932197 0 0.0051334451638715625 -0.0071742737106305927 0 0.004828599723323051 -0.0071499632576462208 0 0.0049697183669371219 -0.007442568467626475 0 0.004828599723323051 -0.0071499632576462208 0 0.0046537177851047398 -0.0074744779499932197 0 0.0049697183669371219 -0.007442568467626475 0 0.0042088810391121903 -0.0071157366660687307 0 0.0043137012075819626 -0.0075225615216061581 0 0.003976704507600801 -0.0074713007330078065 0 0.0038249265625217078 -0.0071017400869654414 0 0.0042088810391121903 -0.0071157366660687307 0 0.003976704507600801 -0.0074713007330078065 0 0.0045258533641019654 -0.0071509028298797506 0 0.0046537177851047398 -0.0074744779499932197 0 0.0043137012075819626 -0.0075225615216061581 0 0.0045258533641019654 -0.0071509028298797506 0 0.0042088810391121903 -0.0071157366660687307 0 0.0043137012075819626 -0.0075225615216061581 0 0.0046537177851047398 -0.0074744779499932197 0 0.0043137012075819626 -0.0075225615216061581 0 0.0044481798224583922 -0.0078556327046379725 0 0.0043137012075819626 -0.0075225615216061581 0 0.0041161085709150473 -0.0078025631915919248 0 0.003976704507600801 -0.0074713007330078065 0 0.0041161085709150473 -0.0078025631915919248 0 0.0044481798224583922 -0.0078556327046379725 0 0.0040623890677464374 -0.0081796473609607526 0 0.0047287633602372623 -0.0082660532661003004 0 0.0044481798224583922 -0.0078556327046379725 0 0.0040623890677464374 -0.0081796473609607526 0 0.0032639145611452493 -0.0079608217881117389 0 0.0028334377948403201 -0.0080860158648983719 0 0.0041161085709150473 -0.0078025631915919248 0 0.0040623890677464374 -0.0081796473609607526 0 0.0037520411193675352 -0.007816767569021079 0 0.0043137012075819626 -0.0075225615216061581 0 0.0041161085709150473 -0.0078025631915919248 0 0.0044481798224583922 -0.0078556327046379725 0 0.0028334377948403201 -0.0080860158648983719 0 0.0021137361345664398 -0.0079926593464644431 0 0.0040623890677464374 -0.0081796473609607526 0 0.0037520411193675352 -0.007816767569021079 0 0.0032745060328007746 -0.00808948495277554 0 0.0015535736853379582 -0.0079601213769068778 0 0.0015450051302129892 -0.0079454998849227479 0 0.0015450870337702411 -0.007939702180236187 0 0.0015450051302129892 -0.0079454998849227479 0 0.0014945982808967277 -0.0078814788136314807 0 0.0015445575244793937 -0.0079692711122542857 0 0.0016784074706959764 -0.0078043396375045166 0 0.0021137361345664398 -0.0079926593464644431 0 0.0037520411193675352 -0.007816767569021079 0 0.0033739745891602653 -0.0077380011158561298 0 0.0032745060328007746 -0.00808948495277554 0 0.0037520411193675352 -0.007816767569021079 0 0.003976704507600801 -0.0074713007330078065 0 0.0036205852525131744 -0.0074509186925849598 0 0.0041161085709150473 -0.0078025631915919248 0 0.0037520411193675352 -0.007816767569021079 0 0.003976704507600801 -0.0074713007330078065 0 0.0036205852525131744 -0.0074509186925849598 0 0.003245517747573378 -0.0074358675881400016 0 0.0033739745891602653 -0.0077380011158561298 0 0.0037520411193675352 -0.007816767569021079 0 0.0036205852525131744 -0.0074509186925849598 0 0.0033739745891602653 -0.0077380011158561298 0 0.0038249265625217078 -0.0071017400869654414 0 0.0033917165137234253 -0.0071096258440227255 0 0.0036205852525131744 -0.0074509186925849598 0 0.0033917165137234253 -0.0071096258440227255 0 0.0036205852525131744 -0.0074509186925849598 0 0.003245517747573378 -0.0074358675881400016 0 0.0038249265625217078 -0.0071017400869654414 0 0.003976704507600801 -0.0074713007330078065 0 0.0036205852525131744 -0.0074509186925849598 0 0.0026213911172369656 -0.0069010313519301605 0 0.0029824301885621944 -0.007161197031700913 0 0.002670572615168888 -0.0075719188033034736 0 0.003245517747573378 -0.0074358675881400016 0 0.0033739745891602653 -0.0077380011158561298 0 0.002670572615168888 -0.0075719188033034736 0 0.0029824301885621944 -0.007161197031700913 0 0.003245517747573378 -0.0074358675881400016 0 0.002670572615168888 -0.0075719188033034736 0 0.0029824301885621944 -0.007161197031700913 0 0.0033917165137234253 -0.0071096258440227255 0 0.003245517747573378 -0.0074358675881400016 0 0.0018517419422268415 -0.0079150802385572813 0 0.0014162498962163662 -0.0078184934723035133 0 0.001471148972957704 -0.0075316084419934561 0 0.0014945982808967277 -0.0078814788136314807 0 0.0014184530349705411 -0.007895139501403782 0 0.001325306868271983 -0.0078115704334908937 0 0.0021137361345664398 -0.0079926593464644431 0 0.0012820167046471392 -0.007795121298964606 0 0.0033739745891602653 -0.0077380011158561298 0 0.0032745060328007746 -0.00808948495277554 0 0.002670572615168888 -0.0075719188033034736 0 0.00092719391931214582 -0.0077468504974582842 0 0.00066942326244382193 -0.0077471404191161589 0 0.0014184530349705411 -0.007895139501403782 0 0.0015445575244793937 -0.0079692711122542857 0 0.0013034672832891684 -0.0078963229376614284 0 0.0021137361345664398 -0.0079926593464644431 0 0.0021516675131680943 -0.0076165300118441531 0 0.0014945982808967277 -0.0078814788136314807 0 0.0014184530349705411 -0.007895139501403782 0 0.0015445575244793937 -0.0079692711122542857 0 0.0001465657246907453 -0.0075616014501760425 0 6.7953849170353519e-05 -0.0075577866179627378 0 4.1183693276410621e-06 -0.0075226759863402937 0 0.0001465657246907453 -0.0075616014501760425 0 8.2541968930025103e-05 -0.0076008772534953469 0 6.7953849170353519e-05 -0.0075577866179627378 0 0.0001465657246907453 -0.0075616014501760425 0 0.00031233894534072535 -0.0075287827393221481 0 4.1183693276410621e-06 -0.0075226759863402937 0 0.0001465657246907453 -0.0075616014501760425 0 0.00016876468759242341 -0.0076097791934167771 0 8.2541968930025103e-05 -0.0076008772534953469 0 8.2541968930025103e-05 -0.0076008772534953469 0 0.00014008331244140635 -0.0077072987429131646 0 5.0611018294086996e-05 -0.0077092970270312925 0 0.00016876468759242341 -0.0076097791934167771 0 8.2541968930025103e-05 -0.0076008772534953469 0 0.00014008331244140635 -0.0077072987429131646 0 0.00014008331244140635 -0.0077072987429131646 0 0.00024580780995569037 -0.0076384824645140481 0 0.00025147694647666922 -0.0077974011228862843 0 0.00024580780995569037 -0.0076384824645140481 0 0.00033086309624710944 -0.0076686980127517795 0 0.00025147694647666922 -0.0077974011228862843 0 0.00016876468759242341 -0.0076097791934167771 0 0.00014008331244140635 -0.0077072987429131646 0 0.00024580780995569037 -0.0076384824645140481 0 0.00024580780995569037 -0.0076384824645140481 0 0.00022072929789709918 -0.0075802283743390212 0 0.00031233894534072535 -0.0075287827393221481 0 0.0001465657246907453 -0.0075616014501760425 0 0.00022072929789709918 -0.0075802283743390212 0 0.00031233894534072535 -0.0075287827393221481 0 0.0001465657246907453 -0.0075616014501760425 0 0.00016876468759242341 -0.0076097791934167771 0 0.00022072929789709918 -0.0075802283743390212 0 0.00016876468759242341 -0.0076097791934167771 0 0.00024580780995569037 -0.0076384824645140481 0 0.00022072929789709918 -0.0075802283743390212 0 0.0015424218330525488 -0.0079581411174093463 0 0.0015535736853379582 -0.0079601213769068778 0 0.0015445575244793937 -0.0079692711122542857 0 0.00085343812630630719 -0.0076630239135915476 0 0.00031233894534072535 -0.0075287827393221481 0 0.00051886859436156313 -0.0077142051761390652 0 0.0015535736853379582 -0.0079601213769068778 0 0.0015450051302129892 -0.0079454998849227479 0 0.0015445575244793937 -0.0079692711122542857 0 0.0012039053082680776 -0.0078227193918350684 0 0.00092719391931214582 -0.0077468504974582842 0 0.00031233894534072535 -0.0075287827393221481 0 0.00051886859436156313 -0.0077142051761390652 0 0.00033086309624710944 -0.0076686980127517795 0 0.00051886859436156313 -0.0077142051761390652 0 0.00033086309624710944 -0.0076686980127517795 0 0.00025147694647666922 -0.0077974011228862843 0 0.00024580780995569037 -0.0076384824645140481 0 0.00031233894534072535 -0.0075287827393221481 0 0.00033086309624710944 -0.0076686980127517795 0 0.00051886859436156313 -0.0077142051761390652 0 0.00036316086116948052 -0.0080353475206003302 0 0.00025147694647666922 -0.0077974011228862843 0 0.00065178206933240597 -0.0080052931950878072 0 0.00051886859436156313 -0.0077142051761390652 0 0.00036316086116948052 -0.0080353475206003302 0 0.0001003509110635402 -0.0078146253156782149 0 0.00025147694647666922 -0.0077974011228862843 0 9.3300277077658172e-05 -0.0080303222979467605 0 0.00036316086116948052 -0.0080353475206003302 0 0.00025147694647666922 -0.0077974011228862843 0 9.3300277077658172e-05 -0.0080303222979467605 0 0.0001003509110635402 -0.0078146253156782149 0 2.2940349795399032e-07 -0.0078471799976562989 0 9.3300277077658172e-05 -0.0080303222979467605 0 0.00014008331244140635 -0.0077072987429131646 0 0.0001003509110635402 -0.0078146253156782149 0 5.0611018294086996e-05 -0.0077092970270312925 0 0.00014008331244140635 -0.0077072987429131646 0 0.0001003509110635402 -0.0078146253156782149 0 0.00025147694647666922 -0.0077974011228862843 0 -6.5726149361447202e-05 -0.0077674897669885775 0 2.2940349795399032e-07 -0.0078471799976562989 0 -2.1872815707134932e-05 -0.0076739744321053568 0 0.0001003509110635402 -0.0078146253156782149 0 2.2940349795399032e-07 -0.0078471799976562989 0 5.0611018294086996e-05 -0.0077092970270312925 0 2.2940349795399032e-07 -0.0078471799976562989 0 -2.1872815707134932e-05 -0.0076739744321053568 0 5.0611018294086996e-05 -0.0077092970270312925 0 2.2940349795399032e-07 -0.0078471799976562989 0 -9.1876140172863347e-05 -0.0079870526164217467 0 9.3300277077658172e-05 -0.0080303222979467605 0 -6.5726149361447202e-05 -0.0077674897669885775 0 2.2940349795399032e-07 -0.0078471799976562989 0 -9.1876140172863347e-05 -0.0079870526164217467 0 -6.5726149361447202e-05 -0.0077674897669885775 0 -0.00013056614866356281 -0.0077654515336877802 0 -9.1876140172863347e-05 -0.0079870526164217467 0 -6.5726149361447202e-05 -0.0077674897669885775 0 -0.00013056614866356281 -0.0077654515336877802 0 -4.1884509888281805e-05 -0.0075886900831322159 0 -4.1884509888281805e-05 -0.0075886900831322159 0 -2.9055195914266447e-05 -0.007553333330655893 0 4.3363351163469422e-05 -0.0074459005780635997 0 -0.00013056614866356281 -0.0077654515336877802 0 -4.1884509888281805e-05 -0.0075886900831322159 0 4.3363351163469422e-05 -0.0074459005780635997 0 -4.1884509888281805e-05 -0.0075886900831322159 0 -1.3882093256214739e-05 -0.0075639315064697735 0 -2.9055195914266447e-05 -0.007553333330655893 0 -4.1884509888281805e-05 -0.0075886900831322159 0 -1.3882093256214739e-05 -0.0075639315064697735 0 -1.846395579005865e-05 -0.0076063091271718402 0 -1.3882093256214739e-05 -0.0075639315064697735 0 -1.846395579005865e-05 -0.0076063091271718402 0 1.658150967861336e-05 -0.0076078787450752005 0 -4.1884509888281805e-05 -0.0075886900831322159 0 -1.846395579005865e-05 -0.0076063091271718402 0 -2.1872815707134932e-05 -0.0076739744321053568 0 -6.5726149361447202e-05 -0.0077674897669885775 0 -4.1884509888281805e-05 -0.0075886900831322159 0 -2.1872815707134932e-05 -0.0076739744321053568 0 -1.846395579005865e-05 -0.0076063091271718402 0 -2.1872815707134932e-05 -0.0076739744321053568 0 1.658150967861336e-05 -0.0076078787450752005 0 -2.1872815707134932e-05 -0.0076739744321053568 0 5.0611018294086996e-05 -0.0077092970270312925 0 1.658150967861336e-05 -0.0076078787450752005 0 8.2541968930025103e-05 -0.0076008772534953469 0 5.0611018294086996e-05 -0.0077092970270312925 0 1.658150967861336e-05 -0.0076078787450752005 0 8.2541968930025103e-05 -0.0076008772534953469 0 1.658150967861336e-05 -0.0076078787450752005 0 2.7833036421337405e-05 -0.0075686603407565268 0 -1.3882093256214739e-05 -0.0075639315064697735 0 1.658150967861336e-05 -0.0076078787450752005 0 2.7833036421337405e-05 -0.0075686603407565268 0 8.2541968930025103e-05 -0.0076008772534953469 0 2.7833036421337405e-05 -0.0075686603407565268 0 6.7953849170353519e-05 -0.0075577866179627378 0 0.0014162498962163662 -0.0078184934723035133 0 0.0012397490321216314 -0.0076044532414333843 0 0.00099698723848048055 -0.0077144239861889159 0 0.0014184530349705411 -0.007895139501403782 0 0.0013034672832891684 -0.0078963229376614284 0 0.001325306868271983 -0.0078115704334908937 0 2.7833036421337405e-05 -0.0075686603407565268 0 6.7953849170353519e-05 -0.0075577866179627378 0 4.1183693276410621e-06 -0.0075226759863402937 0 0.0012820167046471392 -0.007795121298964606 0 0.0010678489684152299 -0.0077363406897244099 0 0.0013034672832891684 -0.0078963229376614284 0 0.001325306868271983 -0.0078115704334908937 0 0.00099698723848048055 -0.0077144239861889159 0 -1.3882093256214739e-05 -0.0075639315064697735 0 2.7833036421337405e-05 -0.0075686603407565268 0 4.1183693276410621e-06 -0.0075226759863402937 0 -1.3882093256214739e-05 -0.0075639315064697735 0 4.1183693276410621e-06 -0.0075226759863402937 0 -2.9055195914266447e-05 -0.007553333330655893 0 0.0011080755741875907 -0.0071730102785304371 0 0.0012397490321216314 -0.0076044532414333843 0 0.00099698723848048055 -0.0077144239861889159 0 0.0011080755741875907 -0.0071730102785304371 0 0.001471148972957704 -0.0075316084419934561 0 0.0012397490321216314 -0.0076044532414333843 0 0.0014162498962163662 -0.0078184934723035133 0 0.001471148972957704 -0.0075316084419934561 0 0.0012397490321216314 -0.0076044532414333843 0 0.00144368387009074 -0.0068377542201417387 0 0.0021516675131680943 -0.0076165300118441531 0 0.00083174105759435788 -0.006332283712073109 0 0.00057009581110691412 -0.0064817992426973179 0 0.00056619601556874382 -0.0067971286813976522 0 0.0011080755741875907 -0.0071730102785304371 0 0.00099698723848048055 -0.0077144239861889159 0 0.00082858400676781455 -0.0076962321980410678 0 0.00144368387009074 -0.0068377542201417387 0 0.00042979244466503295 -0.0072920411329912369 0 0.00057009581110691412 -0.0064817992426973179 0 0.00056619601556874382 -0.0067971286813976522 0 0.00041788513446850762 -0.0067364974323869328 0 0.00042979244466503295 -0.0072920411329912369 0 0.00037224508044506874 -0.0070633260757574567 0 4.1183693276410621e-06 -0.0075226759863402937 0 -1.6027849598950109e-05 -0.0075753930921370494 0 -2.9055195914266447e-05 -0.007553333330655893 0 0.0013034672832891684 -0.0078963229376614284 0 0.00099698723848048055 -0.0077144239861889159 0 0.00082858400676781455 -0.0076962321980410678 0 0.00066942326244382193 -0.0077471404191161589 0 0.00042979244466503295 -0.0072920411329912369 0 -1.6027849598950109e-05 -0.0075753930921370494 0 -2.9055195914266447e-05 -0.007553333330655893 0 4.3363351163469422e-05 -0.0074459005780635997 0 0.00060766713671770876 -0.0068156236106868585 0 0.00014355397865995677 -0.0070042686810100549 0 4.3363351163469422e-05 -0.0074459005780635997 0 0.00014355397865995677 -0.0070042686810100549 0 -8.4863841229031669e-05 -0.007161510811722783 0 4.3363351163469422e-05 -0.0074459005780635997 0 0.00042979244466503295 -0.0072920411329912369 0 4.6917524088017807e-05 -0.0074043933791690993 0 0.00060766713671770876 -0.0068156236106868585 0 0.00014355397865995677 -0.0070042686810100549 0 0.00041788513446850762 -0.0067364974323869328 0 0.00014355397865995677 -0.0070042686810100549 0 0.00041788513446850762 -0.0067364974323869328 0 0.00016812522994224982 -0.0065842683019530033 0 0.00041788513446850762 -0.0067364974323869328 0 0.00016812522994224982 -0.0065842683019530033 0 0.00037165444864678554 -0.0065353616759243043 0 0.00033144513919280733 -0.0063410690347093252 0 0.00016812522994224982 -0.0065842683019530033 0 0.00037165444864678554 -0.0065353616759243043 0 0.00057009581110691412 -0.0064817992426973179 0 0.00041788513446850762 -0.0067364974323869328 0 0.00037165444864678554 -0.0065353616759243043 0 0.00033144513919280733 -0.0063410690347093252 0 0.00057009581110691412 -0.0064817992426973179 0 0.00037165444864678554 -0.0065353616759243043 0 1.0326318689300217e-05 -0.0063425105184507198 0 0.00016812522994224982 -0.0065842683019530033 0 -0.00012653074581418872 -0.0065645432370281219 0 0.00016812522994224982 -0.0065842683019530033 0 -1.2399302686882734e-05 -0.0068266881388741882 0 -0.00012653074581418872 -0.0065645432370281219 0 -1.2399302686882734e-05 -0.0068266881388741882 0 -8.4863841229031669e-05 -0.007161510811722783 0 -0.00026854307204123538 -0.0067694323926018674 0 0.00014355397865995677 -0.0070042686810100549 0 0.00016812522994224982 -0.0065842683019530033 0 -1.2399302686882734e-05 -0.0068266881388741882 0 0.00014355397865995677 -0.0070042686810100549 0 -1.2399302686882734e-05 -0.0068266881388741882 0 -8.4863841229031669e-05 -0.007161510811722783 0 -8.4863841229031669e-05 -0.007161510811722783 0 -0.00014505033631683186 -0.0074652062797864989 0 -0.00023165964712971087 -0.0072100246049553521 0 -8.4863841229031669e-05 -0.007161510811722783 0 4.3363351163469422e-05 -0.0074459005780635997 0 -0.00014505033631683186 -0.0074652062797864989 0 -0.00013056614866356281 -0.0077654515336877802 0 4.3363351163469422e-05 -0.0074459005780635997 0 -0.00016222693773856826 -0.0076977529427888509 0 4.3363351163469422e-05 -0.0074459005780635997 0 -0.00014505033631683186 -0.0074652062797864989 0 -0.00016222693773856826 -0.0076977529427888509 0 -0.00014505033631683186 -0.0074652062797864989 0 -0.00016222693773856826 -0.0076977529427888509 0 -0.00017906929784533001 -0.0076224241688798502 0 -0.00016222693773856826 -0.0076977529427888509 0 -0.00020324069694824468 -0.0077281782077302684 0 -0.00017906929784533001 -0.0076224241688798502 0 -0.00016222693773856826 -0.0076977529427888509 0 -0.00026597455005459387 -0.0079317456503004424 0 -0.00020324069694824468 -0.0077281782077302684 0 -0.00013056614866356281 -0.0077654515336877802 0 -0.00016222693773856826 -0.0076977529427888509 0 -0.00026597455005459387 -0.0079317456503004424 0 -0.00026597455005459387 -0.0079317456503004424 0 -0.00020324069694824468 -0.0077281782077302684 0 -0.00025415448028283882 -0.0076080231171445174 0 -0.00026597455005459387 -0.0079317456503004424 0 -0.00025415448028283882 -0.0076080231171445174 0 -0.00031958997828094936 -0.0082035042135134833 0 -0.00020324069694824468 -0.0077281782077302684 0 -0.00025415448028283882 -0.0076080231171445174 0 -9.5161551989834015e-05 -0.0075656987212040045 0 -0.00025415448028283882 -0.0076080231171445174 0 -1.0303338142686233e-06 -0.0072775603233425938 0 -0.00013391651515646519 -0.0071267055503678612 0 -1.0303338142686233e-06 -0.0072775603233425938 0 -0.00013391651515646519 -0.0071267055503678612 0 9.3060086173275018e-07 -0.0059979209010321208 0 -0.00025415448028283882 -0.0076080231171445174 0 -1.0303338142686233e-06 -0.0072775603233425938 0 -0.00015309032478432694 -0.0076965112226911681 0 -0.00024137031225038294 -0.0077116846923746558 0 -0.00024282157911621017 -0.0080731819351224521 0 -0.00025415448028283882 -0.0076080231171445174 0 -0.00037550256581143161 -0.0083824636826505608 0 -0.00031958997828094936 -0.0082035042135134833 0 -0.00037550256581143161 -0.0083824636826505608 0 -0.0002633471523982122 -0.0086926572362539135 0 -0.00031958997828094936 -0.0082035042135134833 0 -0.00037550256581143161 -0.0083824636826505608 0 -0.00029637495893323931 -0.0091420538216077426 0 -0.0002633471523982122 -0.0086926572362539135 0 -0.0002633471523982122 -0.0086926572362539135 0 -0.00021038576439506463 -0.0084533625160762432 0 -0.00031958997828094936 -0.0082035042135134833 0 -0.00024282157911621017 -0.0080731819351224521 0 -0.00016332998005463273 -0.008834099856867398 0 -1.0303338142686233e-06 -0.0072775603233425938 0 -0.00015309032478432694 -0.0076965112226911681 0 7.6202250676409016e-08 -0.0085613448978651262 0 -0.00015309032478432694 -0.0076965112226911681 0 7.6202250676409016e-08 -0.0085613448978651262 0 4.7312523109813906e-05 -0.0085090945480428629 0 -0.00016332998005463273 -0.008834099856867398 0 -7.2586670883987268e-08 -0.0098445190813650427 0 7.6202250676409016e-08 -0.0085613448978651262 0 4.7312523109813906e-05 -0.0085090945480428629 0 2.4579077548045264e-07 -0.0098442588830623592 0 -0.00029637495893323931 -0.0091420538216077426 0 -0.0002633471523982122 -0.0086926572362539135 0 -0.00011102858693332205 -0.0091029750565496982 0 -0.0002633471523982122 -0.0086926572362539135 0 -0.0001088348265175703 -0.0086735601963533245 0 -0.00021038576439506463 -0.0084533625160762432 0 -0.0002633471523982122 -0.0086926572362539135 0 -0.0001088348265175703 -0.0086735601963533245 0 -0.00011102858693332205 -0.0091029750565496982 0 -0.00021038576439506463 -0.0084533625160762432 0 -0.00021077669958875821 -0.0081188995839149604 0 -5.2696598807870407e-05 -0.0083897200454959905 0 -0.0001088348265175703 -0.0086735601963533245 0 -0.00021038576439506463 -0.0084533625160762432 0 -5.2696598807870407e-05 -0.0083897200454959905 0 -0.00026597455005459387 -0.0079317456503004424 0 -0.00031958997828094936 -0.0082035042135134833 0 -0.00021077669958875821 -0.0081188995839149604 0 -0.00021038576439506463 -0.0084533625160762432 0 -0.00031958997828094936 -0.0082035042135134833 0 -0.00021077669958875821 -0.0081188995839149604 0 -0.00013056614866356281 -0.0077654515336877802 0 -0.00026597455005459387 -0.0079317456503004424 0 -0.00021077669958875821 -0.0081188995839149604 0 -0.00013056614866356281 -0.0077654515336877802 0 -0.00021077669958875821 -0.0081188995839149604 0 -9.1876140172863347e-05 -0.0079870526164217467 0 -0.00021077669958875821 -0.0081188995839149604 0 -9.1876140172863347e-05 -0.0079870526164217467 0 -5.2696598807870407e-05 -0.0083897200454959905 0 -9.1876140172863347e-05 -0.0079870526164217467 0 9.3300277077658172e-05 -0.0080303222979467605 0 -5.2696598807870407e-05 -0.0083897200454959905 0 0.00017725362253739454 -0.0083456051749571537 0 9.3300277077658172e-05 -0.0080303222979467605 0 -5.2696598807870407e-05 -0.0083897200454959905 0 0.00036316086116948052 -0.0080353475206003302 0 0.00017725362253739454 -0.0083456051749571537 0 9.3300277077658172e-05 -0.0080303222979467605 0 0.00065178206933240597 -0.0080052931950878072 0 0.00036316086116948052 -0.0080353475206003302 0 0.00050429586789871978 -0.008503193617062265 0 0.00036316086116948052 -0.0080353475206003302 0 0.00017725362253739454 -0.0083456051749571537 0 0.00050429586789871978 -0.008503193617062265 0 0.00017725362253739454 -0.0083456051749571537 0 0.00050429586789871978 -0.008503193617062265 0 4.098121376103612e-05 -0.0088562407722451147 0 0.00050429586789871978 -0.008503193617062265 0 4.098121376103612e-05 -0.0088562407722451147 0 0.00044033812913302954 -0.0090688740956918184 0 0.00017725362253739454 -0.0083456051749571537 0 4.098121376103612e-05 -0.0088562407722451147 0 -5.2696598807870407e-05 -0.0083897200454959905 0 -0.0001088348265175703 -0.0086735601963533245 0 4.098121376103612e-05 -0.0088562407722451147 0 -5.2696598807870407e-05 -0.0083897200454959905 0 4.098121376103612e-05 -0.0088562407722451147 0 -0.00011102858693332205 -0.0091029750565496982 0 2.6331360929917605e-05 -0.0097888506081565789 0 -0.0001088348265175703 -0.0086735601963533245 0 4.098121376103612e-05 -0.0088562407722451147 0 -0.00011102858693332205 -0.0091029750565496982 0 -0.00011102858693332205 -0.0091029750565496982 0 -2.1036292018044962e-06 -0.0098467158452032934 0 2.6331360929917605e-05 -0.0097888506081565789 0 -0.00029637495893323931 -0.0091420538216077426 0 -0.00011102858693332205 -0.0091029750565496982 0 -2.1036292018044962e-06 -0.0098467158452032934 0 -2.1036292018044962e-06 -0.0098467158452032934 0 2.6331360929917605e-05 -0.0097888506081565789 0 3.045503764752266e-06 -0.011209903717077897 0 4.098121376103612e-05 -0.0088562407722451147 0 2.6331360929917605e-05 -0.0097888506081565789 0 0.00044033812913302954 -0.0090688740956918184 0 0.00044033812913302954 -0.0090688740956918184 0 0.001077549467450561 -0.0095121783124711128 0 0.00087459608469074026 -0.0088618893118896491 0 2.6331360929917605e-05 -0.0097888506081565789 0 0.00044033812913302954 -0.0090688740956918184 0 0.001077549467450561 -0.0095121783124711128 0 0.00013193177375939646 -0.011877036061665005 0 5.7525630545036305e-05 -0.011563591744855271 0 8.5044753262835042e-07 -0.011215125212994314 0 2.6331360929917605e-05 -0.0097888506081565789 0 0.001077549467450561 -0.0095121783124711128 0 3.045503764752266e-06 -0.011209903717077897 0 0.00056008497863416695 -0.010687903404220555 0 2.0444665231231647e-07 -0.011213281718924465 0 0.00013193177375939646 -0.011877036061665005 0 5.7525630545036305e-05 -0.011563591744855271 0 8.6237546109770044e-05 -0.011887528013704039 0 1.2593560326524351e-07 -0.01250339613325503 0 5.7525630545036305e-05 -0.011563591744855271 0 9.3977295664502482e-05 -0.012730046861869787 0 5.7525630545036305e-05 -0.011563591744855271 0 9.3977295664502482e-05 -0.012730046861869787 0 0.00031609400248963919 -0.013629698520834631 0 0.00012103492589156519 -0.011781293981222851 0 0.00013117100783000023 -0.01271674607772624 0 1.2593560326524351e-07 -0.01250339613325503 0 5.7525630545036305e-05 -0.011563591744855271 0 8.5044753262835042e-07 -0.011215125212994314 0 -1.216619071490806e-05 -0.01331337959724802 0 9.3977295664502482e-05 -0.012730046861869787 0 0.00031609400248963919 -0.013629698520834631 0 0.00013193177375939646 -0.011877036061665005 0 8.6237546109770044e-05 -0.011887528013704039 0 0.00011375515236663616 -0.011848830442770505 0 0.0013577661426751337 -0.0086580807572447533 0 0.00087459608469074026 -0.0088618893118896491 0 0.00095559963674198662 -0.0082541575124737126 0 0.00056008497863416695 -0.010687903404220555 0 0.00075056372574141281 -0.010273247919567524 0 0.00018373554935486366 -0.011861859589101745 0 8.6237546109770044e-05 -0.011887528013704039 0 0.00011375515236663616 -0.011848830442770505 0 0.001077549467450561 -0.0095121783124711128 0 0.0013577661426751337 -0.0086580807572447533 0 0.00087459608469074026 -0.0088618893118896491 0 0.00050429586789871978 -0.008503193617062265 0 0.00044033812913302954 -0.0090688740956918184 0 0.00087459608469074026 -0.0088618893118896491 0 0.00050429586789871978 -0.008503193617062265 0 0.00087459608469074026 -0.0088618893118896491 0 0.00095559963674198662 -0.0082541575124737126 0 0.00065178206933240597 -0.0080052931950878072 0 0.00050429586789871978 -0.008503193617062265 0 0.00095559963674198662 -0.0082541575124737126 0 0.0007325120488255888 -0.0097997118991887972 0 0.00075056372574141281 -0.010273247919567524 0 0.0015498535865630912 -0.0080436981258660296 0 0.0012524309922904312 -0.0081101750433922436 0 0.0013577661426751337 -0.0086580807572447533 0 0.0012524309922904312 -0.0081101750433922436 0 0.0013577661426751337 -0.0086580807572447533 0 0.00095559963674198662 -0.0082541575124737126 0 0.0032348950835487775 0.0039110921029433731 0 0.0029741864236299191 0.0041193969506464027 0 0.0032908115954568785 0.0043339299472858204 0 0.003541141909410633 0.0039530064985600997 0 0.0032348950835487775 0.0039110921029433731 0 0.0032908115954568785 0.0043339299472858204 0 0.0011914478244611361 -0.0015006986539080303 0 0.00080971807514545948 -0.0012245662066298491 0 -0.0012710313762786956 -0.0072457383552153578 0 -0.0016528555038428092 -0.0068016554762795447 0 -0.0011767610454756325 -0.0068652959396388142 0 0.003541141909410633 0.0039530064985600997 0 0.0032348950835487775 0.0039110921029433731 0 0.0033838754278358164 0.0036530455491288433 0 0.003541141909410633 0.0039530064985600997 0 0.0037675720435398092 0.003580827612316297 0 0.0033838754278358164 0.0036530455491288433 0 0.0032348950835487775 0.0039110921029433731 0 0.0030007497766906463 0.003828905391714107 0 0.0031602074356688061 0.0035943667756859442 0 0.0030007497766906463 0.003828905391714107 0 0.002630501524710136 0.0039338667146679293 0 0.0029741864236299191 0.0041193969506464027 0 0.0030007497766906463 0.003828905391714107 0 0.002630501524710136 0.0039338667146679293 0 0.0030013737540840334 0.0035894838608180497 0 0.0032348950835487775 0.0039110921029433731 0 0.0030007497766906463 0.003828905391714107 0 0.0029741864236299191 0.0041193969506464027 0 0.002630501524710136 0.0039338667146679293 0 0.002681947053840767 0.0043257252594612432 0 0.0029741864236299191 0.0041193969506464027 0 0.002681947053840767 0.0043257252594612432 0 0.0029741864236299191 0.0041193969506464027 0 0.0028753501723713499 0.0044839365776316196 0 0.0029741864236299191 0.0041193969506464027 0 0.0028753501723713499 0.0044839365776316196 0 0.0032908115954568785 0.0043339299472858204 0 0.0028753501723713499 0.0044839365776316196 0 0.0027318235909740535 0.0047165422727909381 0 0.0030290055949096068 0.0046523214804877417 0 0.0028753501723713499 0.0044839365776316196 0 0.0030290055949096068 0.0046523214804877417 0 0.0032908115954568785 0.0043339299472858204 0 0.0028753501723713499 0.0044839365776316196 0 0.0027318235909740535 0.0047165422727909381 0 0.0026102892390336965 0.0046754437096800019 0 0.002681947053840767 0.0043257252594612432 0 0.0028753501723713499 0.0044839365776316196 0 0.0026102892390336965 0.0046754437096800019 0 0.0033044424437246359 0.0058382857766002003 0 0.0025058116369957029 0.0044433473519023244 0 0.0010293276496128815 0.0010121662525220125 0 0.0033044424437246359 0.0058382857766002003 0 0.0028276752234608037 0.004850270479752887 0 0.0027318235909740535 0.0047165422727909381 0 0.0030290055949096068 0.0046523214804877417 0 0.0010293276496128815 0.0010121662525220125 0 0.00046117121274104773 -0.0010117807413154191 0 -0.00151418185135962 -0.0059868405060515663 0 -0.0020562354630488571 -0.0063006208733304798 0 -0.0013019042721475209 -0.0064895026009772448 0 0.00046117121274104773 -0.0010117807413154191 0 0.00080971807514545948 -0.0012245662066298491 0 -0.0020562354630488571 -0.0063006208733304798 0 -0.0016528555038428092 -0.0068016554762795447 0 -0.0013019042721475209 -0.0064895026009772448 0 -0.0016528555038428092 -0.0068016554762795447 0 -0.0013019042721475209 -0.0064895026009772448 0 -0.0011767610454756325 -0.0068652959396388142 0 -0.00151418185135962 -0.0059868405060515663 0 -0.0013019042721475209 -0.0064895026009772448 0 -0.0010612762357129441 -0.0061089890529248689 0 -0.0013019042721475209 -0.0064895026009772448 0 -0.0010612762357129441 -0.0061089890529248689 0 -0.00084534520054087303 -0.0066316191391737845 0 -0.00063812951668565279 -0.0061868741517675883 0 -0.0010612762357129441 -0.0061089890529248689 0 -0.00084534520054087303 -0.0066316191391737845 0 -0.00063812951668565279 -0.0061868741517675883 0 -0.00084534520054087303 -0.0066316191391737845 0 -0.00050600689849884957 -0.0065779863084103329 0 -0.00084534520054087303 -0.0066316191391737845 0 -0.00050600689849884957 -0.0065779863084103329 0 -0.00045027524939956679 -0.0070427931268253171 0 -0.0013019042721475209 -0.0064895026009772448 0 -0.00084534520054087303 -0.0066316191391737845 0 -0.0011767610454756325 -0.0068652959396388142 0 -0.00084534520054087303 -0.0066316191391737845 0 -0.00083021721563991907 -0.007137269308750885 0 -0.0011767610454756325 -0.0068652959396388142 0 -1.2399302686882734e-05 -0.0068266881388741882 0 -0.00012653074581418872 -0.0065645432370281219 0 -0.00026854307204123538 -0.0067694323926018674 0 -0.00032820162902239491 -0.0062351118162509624 0 -0.00012653074581418872 -0.0065645432370281219 0 -0.00026854307204123538 -0.0067694323926018674 0 -0.00032820162902239491 -0.0062351118162509624 0 -0.00063812951668565279 -0.0061868741517675883 0 -0.00050600689849884957 -0.0065779863084103329 0 -0.00032820162902239491 -0.0062351118162509624 0 -0.00050600689849884957 -0.0065779863084103329 0 -0.00026854307204123538 -0.0067694323926018674 0 -0.00050600689849884957 -0.0065779863084103329 0 -0.00026854307204123538 -0.0067694323926018674 0 -0.00045027524939956679 -0.0070427931268253171 0 -0.00026854307204123538 -0.0067694323926018674 0 -0.00023165964712971087 -0.0072100246049553521 0 -0.00045027524939956679 -0.0070427931268253171 0 -8.4863841229031669e-05 -0.007161510811722783 0 -0.00026854307204123538 -0.0067694323926018674 0 -0.00023165964712971087 -0.0072100246049553521 0 -0.00023165964712971087 -0.0072100246049553521 0 -0.00045027524939956679 -0.0070427931268253171 0 -0.00024922070603365843 -0.0074537378502314618 0 -0.00024922070603365843 -0.0074537378502314618 0 -0.00040806761442057905 -0.007417252646936056 0 -0.00020586274149242599 -0.007540895697345968 0 -0.00045027524939956679 -0.0070427931268253171 0 -0.00024922070603365843 -0.0074537378502314618 0 -0.00040806761442057905 -0.007417252646936056 0 -0.00014505033631683186 -0.0074652062797864989 0 -0.00024922070603365843 -0.0074537378502314618 0 -0.00017906929784533001 -0.0076224241688798502 0 -0.00014505033631683186 -0.0074652062797864989 0 -0.00023165964712971087 -0.0072100246049553521 0 -0.00024922070603365843 -0.0074537378502314618 0 -0.0012710313762786956 -0.0072457383552153578 0 -0.00083021721563991907 -0.007137269308750885 0 -0.0011767610454756325 -0.0068652959396388142 0 -0.00045027524939956679 -0.0070427931268253171 0 -0.00083021721563991907 -0.007137269308750885 0 -0.00040806761442057905 -0.007417252646936056 0 -0.00084534520054087303 -0.0066316191391737845 0 -0.00045027524939956679 -0.0070427931268253171 0 -0.00083021721563991907 -0.007137269308750885 0 -0.00083021721563991907 -0.007137269308750885 0 -0.00040806761442057905 -0.007417252646936056 0 -0.00091176438996598802 -0.0076755691986739602 0 -0.0011975691386079364 -0.0085658782899295498 0 0.00043897442496172029 -0.003317530938019184 0 0.0011914478244611361 -0.0015006986539080303 0 0.00043897442496172029 -0.003317530938019184 0 -0.0012710313762786956 -0.0072457383552153578 0 -0.00083021721563991907 -0.007137269308750885 0 -0.00091176438996598802 -0.0076755691986739602 0 -9.5499593327986082e-05 -0.0028108245923316776 0 -0.00013229445064030364 -0.0029474483578281747 0 -0.00014254382016711174 -0.0028736730852468922 0 0.00043897442496172029 -0.003317530938019184 0 0.0022170693015705401 0.00060392030071204725 0 -0.00030090569319754409 -0.0074613988926168088 0 -0.00026888678392500035 -0.007488892688081528 0 -0.0001353390703330511 -0.0075044516415408808 0 -0.00040806761442057905 -0.007417252646936056 0 -0.00030090569319754409 -0.0074613988926168088 0 -0.00026888678392500035 -0.007488892688081528 0 0.00043897442496172029 -0.003317530938019184 0 -3.5838612017288666e-05 -0.0055692557358808436 0 6.7347445618403306e-05 -0.0030774879526809236 0 -0.00013229445064030364 -0.0029474483578281747 0 -0.00013461116021266383 -0.0033739893297229152 0 -9.5499593327986082e-05 -0.0028108245923316776 0 6.7347445618403306e-05 -0.0030774879526809236 0 -0.00013229445064030364 -0.0029474483578281747 0 -0.00017906929784533001 -0.0076224241688798502 0 -0.00020586274149242599 -0.007540895697345968 0 -9.5161551989834015e-05 -0.0075656987212040045 0 -0.00024922070603365843 -0.0074537378502314618 0 -0.00017906929784533001 -0.0076224241688798502 0 -0.00020586274149242599 -0.007540895697345968 0 -0.00026888678392500035 -0.007488892688081528 0 -0.0001353390703330511 -0.0075044516415408808 0 -0.00020586274149242599 -0.007540895697345968 0 -0.00040806761442057905 -0.007417252646936056 0 -0.00026888678392500035 -0.007488892688081528 0 -0.00020586274149242599 -0.007540895697345968 0 -0.0001353390703330511 -0.0075044516415408808 0 -9.5161551989834015e-05 -0.0075656987212040045 0 0.00017614325469706511 -0.0072757730913584218 0 -0.0001353390703330511 -0.0075044516415408808 0 -0.00020586274149242599 -0.007540895697345968 0 -9.5161551989834015e-05 -0.0075656987212040045 0 -0.00020324069694824468 -0.0077281782077302684 0 -0.00017906929784533001 -0.0076224241688798502 0 -9.5161551989834015e-05 -0.0075656987212040045 0 -9.5161551989834015e-05 -0.0075656987212040045 0 -0.00013391651515646519 -0.0071267055503678612 0 0.00017614325469706511 -0.0072757730913584218 0 -0.00025415448028283882 -0.0076080231171445174 0 -9.5161551989834015e-05 -0.0075656987212040045 0 -0.00013391651515646519 -0.0071267055503678612 0 -3.5838612017288666e-05 -0.0055692557358808436 0 0.00011054467292458112 -0.0055549552210071417 0 0.00026446598256118343 -0.0040622034978704457 0 1.3133304034157749e-06 -0.0059927633225919262 0 -3.4859059577496189e-07 -0.0045446996833947671 0 -0.00013391651515646519 -0.0071267055503678612 0 0.00017614325469706511 -0.0072757730913584218 0 9.3060086173275018e-07 -0.0059979209010321208 0 0.00011054467292458112 -0.0055549552210071417 0 -6.9053635266184753e-08 -0.0059943519633397059 0 -0.00013229445064030364 -0.0029474483578281747 0 -0.00013461116021266383 -0.0033739893297229152 0 -0.00014159302488933503 -0.0027123000921748927 0 -0.00013461116021266383 -0.0033739893297229152 0 -9.4526036701780296e-05 -0.0026748463919961858 0 -0.00014159302488933503 -0.0027123000921748927 0 6.7347445618403306e-05 -0.0030774879526809236 0 0.00026446598256118343 -0.0040622034978704457 0 -0.00013461116021266383 -0.0033739893297229152 0 0.00026446598256118343 -0.0040622034978704457 0 -0.00013461116021266383 -0.0033739893297229152 0 -3.4859059577496189e-07 -0.0045446996833947671 0 -0.00013461116021266383 -0.0033739893297229152 0 -3.4859059577496189e-07 -0.0045446996833947671 0 -3.137017542830113e-07 -0.0030950748531521355 0 -0.00013461116021266383 -0.0033739893297229152 0 -3.137017542830113e-07 -0.0030950748531521355 0 -9.4526036701780296e-05 -0.0026748463919961858 0 -3.137017542830113e-07 -0.0030950748531521355 0 -9.4526036701780296e-05 -0.0026748463919961858 0 -1.29598257502978e-08 -0.0016452723317166218 0 -9.4526036701780296e-05 -0.0026748463919961858 0 -1.29598257502978e-08 -0.0016452723317166218 0 -5.7603618515161299e-05 -0.002240991119209221 0 -5.7603618515161299e-05 -0.002240991119209221 0 -5.8891830009040911e-05 -0.0024679622658659354 0 7.0252620163848271e-05 -0.0017428778071343057 0 -1.29598257502978e-08 -0.0016452723317166218 0 -5.7603618515161299e-05 -0.002240991119209221 0 7.0252620163848271e-05 -0.0017428778071343057 0 -9.4526036701780296e-05 -0.0026748463919961858 0 -5.7603618515161299e-05 -0.002240991119209221 0 -0.00014159302488933503 -0.0027123000921748927 0 -0.00013229445064030364 -0.0029474483578281747 0 -0.00014159302488933503 -0.0027123000921748927 0 -0.00014254382016711174 -0.0028736730852468922 0 -5.7603618515161299e-05 -0.002240991119209221 0 -0.00014159302488933503 -0.0027123000921748927 0 -5.8891830009040911e-05 -0.0024679622658659354 0 -0.00014159302488933503 -0.0027123000921748927 0 -3.7151892190399583e-06 -0.0027777572201586696 0 -0.00014254382016711174 -0.0028736730852468922 0 0.0013970284527157803 -0.00032078319214741147 0 0.0022170693015705401 0.00060392030071204725 0 0.00010608213365794823 -0.0024291432221178084 0 0.0013970284527157803 -0.00032078319214741147 0 0.0017133682989325019 0.001261119489825672 0 0.002407982559033428 0.0012536269151194855 0 0.0014684591635057912 0.0019130107907308436 0 0.0013970284527157803 -0.00032078319214741147 0 0.0023495292251255375 0.0037458960336384031 0 0.0013970284527157803 -0.00032078319214741147 0 0.00062688036158964062 -0.00060768063528755171 0 0.0017133682989325019 0.001261119489825672 0 0.002407982559033428 0.0012536269151194855 0 0.0014417179908698652 0.0005946346549365899 0 0.00327795405068227 0.0032956157437860237 0 0.0031602074356688061 0.0035943667756859442 0 0.0029539868759098972 0.0035510402600070932 0 0.00327795405068227 0.0032956157437860237 0 0.0031602074356688061 0.0035943667756859442 0 0.0033838754278358164 0.0036530455491288433 0 0.0032348950835487775 0.0039110921029433731 0 0.0031602074356688061 0.0035943667756859442 0 0.0033838754278358164 0.0036530455491288433 0 0.0031548859935147458 0.0037155982724066451 0 0.0023495292251255375 0.0037458960336384031 0 0.0037675720435398092 0.003580827612316297 0 0.0033838754278358164 0.0036530455491288433 0 0.0035284265954158935 0.0034563334600394976 0 0.00327795405068227 0.0032956157437860237 0 0.0033838754278358164 0.0036530455491288433 0 0.0035284265954158935 0.0034563334600394976 0 0.0016920542422185789 0.0053233148897165617 0 0.0016511804107110725 0.00494981654495435 0 0.0020928612027766077 0.0050190230720167425 0 0.00081799944427215793 0.0032291806904882975 0 0.0023495292251255375 0.0037458960336384031 0 0.0021745154264299115 0.0047134692791043027 0 0.0023495292251255375 0.0037458960336384031 0 0.0030007497766906463 0.003828905391714107 0 0.0031602074356688061 0.0035943667756859442 0 0.0030013737540840334 0.0035894838608180497 0 0.0017133682989325019 0.001261119489825672 0 0.0014684591635057912 0.0019130107907308436 0 0.00087096761674286126 0.0012495184733940052 0 0.0017133682989325019 0.001261119489825672 0 0.00087096761674286126 0.0012495184733940052 0 0.0014417179908698652 0.0005946346549365899 0 0.00022028840412122169 0.0015819730713732723 0 0.00087096761674286126 0.0012495184733940052 0 -6.7401465197300712e-06 0.00095720879125290172 0 0.00022028840412122169 0.0015819730713732723 0 0.0014684591635057912 0.0019130107907308436 0 0.00087096761674286126 0.0012495184733940052 0 0.00087096761674286126 0.0012495184733940052 0 0.00029011773113477572 -0.00018839541697668097 0 -6.7401465197300712e-06 0.00095720879125290172 0 0.00087096761674286126 0.0012495184733940052 0 0.00029011773113477572 -0.00018839541697668097 0 0.0014417179908698652 0.0005946346549365899 0 0.000336640753129327 -0.00032999875318445195 0 0.00062688036158964062 -0.00060768063528755171 0 -1.29598257502978e-08 -0.0016452723317166218 0 0.00029011773113477572 -0.00018839541697668097 0 7.0252620163848271e-05 -0.0017428778071343057 0 -1.29598257502978e-08 -0.0016452723317166218 0 0.00029011773113477572 -0.00018839541697668097 0 5.4476035953255454e-07 -0.00019561436301631261 0 0.00029011773113477572 -0.00018839541697668097 0 5.4476035953255454e-07 -0.00019561436301631261 0 -4.729815081670153e-06 0.00053631061035805437 0 5.4476035953255454e-07 -0.00019561436301631261 0 -4.729815081670153e-06 0.00053631061035805437 0 -3.7515095927354961e-07 0.0012542204307961066 0 -3.7515095927354961e-07 0.0012542204307961066 0 -0.00011334343077340869 0.0012564849280024047 0 -7.3355544038178675e-05 0.0021296405908658293 0 -4.729815081670153e-06 0.00053631061035805437 0 -3.7515095927354961e-07 0.0012542204307961066 0 -0.00011334343077340869 0.0012564849280024047 0 -0.00011334343077340869 0.0012564849280024047 0 -7.3355544038178675e-05 0.0021296405908658293 0 -0.00022317897623099129 0.0016185196581811141 0 -4.729815081670153e-06 0.00053631061035805437 0 -0.00011334343077340869 0.0012564849280024047 0 -6.7401465197300712e-06 0.00095720879125290172 0 0.00029011773113477572 -0.00018839541697668097 0 -4.729815081670153e-06 0.00053631061035805437 0 -6.7401465197300712e-06 0.00095720879125290172 0 -0.00011334343077340869 0.0012564849280024047 0 -6.7401465197300712e-06 0.00095720879125290172 0 -0.00022317897623099129 0.0016185196581811141 0 1.9053527325169628e-07 0.0027040741851987243 0 -7.3355544038178675e-05 0.0021296405908658293 0 9.9775078458918154e-05 0.0032437790482334546 0 -3.7515095927354961e-07 0.0012542204307961066 0 1.9053527325169628e-07 0.0027040741851987243 0 -7.3355544038178675e-05 0.0021296405908658293 0 -7.3355544038178675e-05 0.0021296405908658293 0 9.9775078458918154e-05 0.0032437790482334546 0 1.2232200423368329e-05 0.002532384024254718 0 9.9775078458918154e-05 0.0032437790482334546 0 1.2232200423368329e-05 0.002532384024254718 0 0.00022312828839655076 0.0043391238839719003 0 0.00089608720745499291 0.0047406118257682641 0 0.00067073653082740971 0.005184095594176155 0 0.00022312828839655076 0.0043391238839719003 0 -7.3355544038178675e-05 0.0021296405908658293 0 1.2232200423368329e-05 0.002532384024254718 0 -0.00022317897623099129 0.0016185196581811141 0 0.00036132010372031759 0.003663265859115525 0 0.00052785020190715447 0.0032830770338067319 0 0.00089608720745499291 0.0047406118257682641 0 0.0010179261652769071 0.0050759878405910149 0 0.0012480544074800022 0.0048927847307510533 0 0.0010179261652769071 0.0050759878405910149 0 0.0012460576276052272 0.0052574352584972301 0 0.00086195291314174194 0.0053737444599750318 0 0.00089608720745499291 0.0047406118257682641 0 0.0010179261652769071 0.0050759878405910149 0 0.00067073653082740971 0.005184095594176155 0 0.0010179261652769071 0.0050759878405910149 0 0.00067073653082740971 0.005184095594176155 0 0.00086195291314174194 0.0053737444599750318 0 0.00081799944427215793 0.0032291806904882975 0 0.00052785020190715447 0.0032830770338067319 0 0.00022028840412122169 0.0015819730713732723 0 -6.7401465197300712e-06 0.00095720879125290172 0 -0.00022317897623099129 0.0016185196581811141 0 0.0010179261652769071 0.0050759878405910149 0 0.0012480544074800022 0.0048927847307510533 0 0.0012460576276052272 0.0052574352584972301 0 0.0016511804107110725 0.00494981654495435 0 0.0012480544074800022 0.0048927847307510533 0 0.0012460576276052272 0.0052574352584972301 0 0.0016920542422185789 0.0053233148897165617 0 0.0016511804107110725 0.00494981654495435 0 0.0012460576276052272 0.0052574352584972301 0 0.0016920542422185789 0.0053233148897165617 0 0.0012901701262524276 0.0056105727577437465 0 0.0012460576276052272 0.0052574352584972301 0 0.002681947053840767 0.0043257252594612432 0 0.0020442056366901831 0.004350368277368892 0 0.0026102892390336965 0.0046754437096800019 0 0.002630501524710136 0.0039338667146679293 0 0.002681947053840767 0.0043257252594612432 0 0.0020442056366901831 0.004350368277368892 0 0.0021745154264299115 0.0047134692791043027 0 0.001667685763314803 0.0049673283952729177 0 0.0012901701262524276 0.0056105727577437465 0 0.0012460576276052272 0.0052574352584972301 0 0.00097224405508057989 0.0055664757247594456 0 0.0012460576276052272 0.0052574352584972301 0 0.00086195291314174194 0.0053737444599750318 0 0.00097224405508057989 0.0055664757247594456 0 0.00067073653082740971 0.005184095594176155 0 0.00086195291314174194 0.0053737444599750318 0 0.00056821593025948116 0.0054205329567452417 0 0.00086195291314174194 0.0053737444599750318 0 0.0006560479131461585 0.0056102470718211069 0 0.00056821593025948116 0.0054205329567452417 0 0.00086195291314174194 0.0053737444599750318 0 0.0006560479131461585 0.0056102470718211069 0 0.00097224405508057989 0.0055664757247594456 0 0.0006560479131461585 0.0056102470718211069 0 0.00097224405508057989 0.0055664757247594456 0 0.00085781360981266761 0.0058297408985692051 0 0.0012901701262524276 0.0056105727577437465 0 0.00097224405508057989 0.0055664757247594456 0 0.00085781360981266761 0.0058297408985692051 0 0.001667685763314803 0.0049673283952729177 0 0.0010242590536926645 0.005471713008368329 0 0.00085781360981266761 0.0058297408985692051 0 0.00046787420239394651 0.0059605168626438131 0 0.00043328589498848382 0.0057725664859451589 0 0.0006560479131461585 0.0056102470718211069 0 0.00085781360981266761 0.0058297408985692051 0 0.00043328589498848382 0.0057725664859451589 0 0.0010242590536926645 0.005471713008368329 0 0.00050247888488895844 0.0059182235484317482 0 0.0011708404786018403 0.0051077219329781201 0 0.0010212227008208014 0.0058445552559040024 0 0.00046787420239394651 0.0059605168626438131 0 0.0010212227008208014 0.0058445552559040024 0 0.00046787420239394651 0.0059605168626438131 0 0.00071842189378163856 0.0061369184109407995 0 0.0011708404786018403 0.0051077219329781201 0 0.0014940562140418846 0.0058128543306037702 0 0.0019763778779736309 0.0051386477987990127 0 0.0011708404786018403 0.0051077219329781201 0 0.0010212227008208014 0.0058445552559040024 0 0.0014940562140418846 0.0058128543306037702 0 0.0024552271250436451 0.0054572325766549142 0 0.0019763778779736309 0.0051386477987990127 0 0.0020740902837250849 0.0059455008233353654 0 0.0014940562140418846 0.0058128543306037702 0 0.0019763778779736309 0.0051386477987990127 0 0.0020740902837250849 0.0059455008233353654 0 0.0030585363927424438 0.0054155471721775992 0 0.0024552271250436451 0.0054572325766549142 0 0.0026102892390336965 0.0046754437096800019 0 0.0024552271250436451 0.0054572325766549142 0 0.0020740902837250849 0.0059455008233353654 0 0.0026855006707834886 0.0060337855941865895 0 0.0030585363927424438 0.0054155471721775992 0 0.0024552271250436451 0.0054572325766549142 0 0.0026855006707834886 0.0060337855941865895 0 0.0024552271250436451 0.0054572325766549142 0 0.0026102892390336965 0.0046754437096800019 0 0.0019763778779736309 0.0051386477987990127 0 0.0020442056366901831 0.004350368277368892 0 0.0026102892390336965 0.0046754437096800019 0 0.0019763778779736309 0.0051386477987990127 0 0.0020442056366901831 0.004350368277368892 0 0.0011708404786018403 0.0051077219329781201 0 0.0019763778779736309 0.0051386477987990127 0 0.00029060983170533215 0.0070277034211510929 0 0.00040459842321347896 0.006901199463560749 0 0.00024750788717253715 0.0068076795399403161 0 5.7082404049731485e-05 0.0071821867727886778 0 0.00024750788717253715 0.0068076795399403161 0 3.8118579654821717e-05 0.0068466763643073867 0 0.00015038948780873859 0.0070610672332358593 0 0.00029060983170533215 0.0070277034211510929 0 0.00024750788717253715 0.0068076795399403161 0 0.00010243308894795058 0.0071159903806853955 0 0.00024995067189159724 0.0068416469651915099 0 5.7082404049731485e-05 0.0071821867727886778 0 3.8118579654821717e-05 0.0068466763643073867 0 4.4177394241881058e-05 0.0070700574132561544 0 0.00015038948780873859 0.0070610672332358593 0 0.00025056976785765904 0.0071349651500912919 0 0.00019018599937075932 0.0072671669457072203 0 0.00015038948780873859 0.0070610672332358593 0 0.00025056976785765904 0.0071349651500912919 0 0.00029060983170533215 0.0070277034211510929 0 0.00025056976785765904 0.0071349651500912919 0 0.00029060983170533215 0.0070277034211510929 0 0.00033641579704508999 0.0071349838119927475 0 0.00046966694059364674 0.0070832205328540893 0 0.00041901677924727378 0.0070566787972639071 0 0.00057862012089655748 0.0069450282791422725 0 0.00033641579704508999 0.0071349838119927475 0 0.00041901677924727378 0.0070566787972639071 0 0.00042560798916594934 0.0071526873993907353 0 0.00046966694059364674 0.0070832205328540893 0 0.00041901677924727378 0.0070566787972639071 0 0.00042560798916594934 0.0071526873993907353 0 0.00029060983170533215 0.0070277034211510929 0 0.00033641579704508999 0.0071349838119927475 0 0.00041901677924727378 0.0070566787972639071 0 0.00050042056852115031 0.0063515195413998719 0 0.00044489393069602776 0.0066280708932446031 0 0.00046966694059364674 0.0070832205328540893 0 0.00057862012089655748 0.0069450282791422725 0 0.00047962350699238079 0.0071456336655956838 0 0.00046787420239394651 0.0059605168626438131 0 0.00043328589498848382 0.0057725664859451589 0 0.00036892483790524781 0.0060830327115392081 0 0.00057862012089655748 0.0069450282791422725 0 0.00040459842321347896 0.006901199463560749 0 0.00060221407069048266 0.006406056855766935 0 0.00029060983170533215 0.0070277034211510929 0 0.00041901677924727378 0.0070566787972639071 0 0.00040459842321347896 0.006901199463560749 0 0.00041901677924727378 0.0070566787972639071 0 0.00057862012089655748 0.0069450282791422725 0 0.00040459842321347896 0.006901199463560749 0 0.00060221407069048266 0.006406056855766935 0 0.00013717485601662976 0.0065100771002234142 0 0.00024750788717253715 0.0068076795399403161 0 0.00040459842321347896 0.006901199463560749 0 0.00060221407069048266 0.006406056855766935 0 0.00024750788717253715 0.0068076795399403161 0 0.00050042056852115031 0.0063515195413998719 0 0.00048858644624026561 0.0059559085695808991 0 0.0006560479131461585 0.0056102470718211069 0 0.00043328589498848382 0.0057725664859451589 0 0.00042476807290880113 0.0055255754039624256 0 0.00056821593025948116 0.0054205329567452417 0 0.00042476807290880113 0.0055255754039624256 0 0.00028042259044332965 0.0054142854609861932 0 0.0006560479131461585 0.0056102470718211069 0 0.00056821593025948116 0.0054205329567452417 0 0.00042476807290880113 0.0055255754039624256 0 0.00060221407069048266 0.006406056855766935 0 2.4674227669433874e-05 0.0060872921332915352 0 0.00028042259044332965 0.0054142854609861932 0 0.00060221407069048266 0.006406056855766935 0 2.4674227669433874e-05 0.0060872921332915352 0 0.00013717485601662976 0.0065100771002234142 0 0.00048858644624026561 0.0059559085695808991 0 0.00031776470786997011 0.0054485685214764315 0 2.4674227669433874e-05 0.0060872921332915352 0 0.00013717485601662976 0.0065100771002234142 0 -0.00012475418897379379 0.0063890510887041965 0 0.00013717485601662976 0.0065100771002234142 0 3.8118579654821717e-05 0.0068466763643073867 0 -0.00012475418897379379 0.0063890510887041965 0 0.00013717485601662976 0.0065100771002234142 0 0.00024750788717253715 0.0068076795399403161 0 3.8118579654821717e-05 0.0068466763643073867 0 3.8118579654821717e-05 0.0068466763643073867 0 -0.00012475418897379379 0.0063890510887041965 0 -0.00037694515272740164 0.0063836405740285863 0 4.9233407850308188e-05 0.006852373795384596 0 -0.00012703865933696835 0.0067656573430291671 0 3.8118579654821717e-05 0.0068466763643073867 0 7.3141111235917026e-05 0.0071341451520053412 0 4.4177394241881058e-05 0.0070700574132561544 0 -0.00025665654068735547 0.0061647911573679054 0 -0.00012475418897379379 0.0063890510887041965 0 -0.00037694515272740164 0.0063836405740285863 0 2.4674227669433874e-05 0.0060872921332915352 0 -0.00025665654068735547 0.0061647911573679054 0 -0.00012475418897379379 0.0063890510887041965 0 -0.00025665654068735547 0.0061647911573679054 0 -0.0001008179227040268 0.0056341747868328858 0 -0.00026513304303939428 0.006008764762354092 0 2.4674227669433874e-05 0.0060872921332915352 0 -0.00025665654068735547 0.0061647911573679054 0 -0.0001008179227040268 0.0056341747868328858 0 2.4674227669433874e-05 0.0060872921332915352 0 -0.0001008179227040268 0.0056341747868328858 0 0.00028042259044332965 0.0054142854609861932 0 -0.0001008179227040268 0.0056341747868328858 0 3.9169755874990831e-05 0.0051204842331796134 0 -9.8270430658448362e-05 0.0052306429714640747 0 -0.0001008179227040268 0.0056341747868328858 0 -0.00026513304303939428 0.006008764762354092 0 -9.8270430658448362e-05 0.0052306429714640747 0 0.00067073653082740971 0.005184095594176155 0 0.00056821593025948116 0.0054205329567452417 0 0.00028042259044332965 0.0054142854609861932 0 -0.0001008179227040268 0.0056341747868328858 0 0.00028042259044332965 0.0054142854609861932 0 3.9169755874990831e-05 0.0051204842331796134 0 3.9169755874990831e-05 0.0051204842331796134 0 0.00022312828839655076 0.0043391238839719003 0 -9.8270430658448362e-05 0.0052306429714640747 0 0.00028042259044332965 0.0054142854609861932 0 3.9169755874990831e-05 0.0051204842331796134 0 0.00022312828839655076 0.0043391238839719003 0 0.00036132010372031759 0.003663265859115525 0 0.00015957664334690822 0.0041824496961765014 0 0.00067073653082740971 0.005184095594176155 0 0.00028042259044332965 0.0054142854609861932 0 0.00022312828839655076 0.0043391238839719003 0 9.9775078458918154e-05 0.0032437790482334546 0 0.00022312828839655076 0.0043391238839719003 0 8.2297843778080958e-08 0.0041535526806008808 0 0.00022312828839655076 0.0043391238839719003 0 8.2297843778080958e-08 0.0041535526806008808 0 -9.8270430658448362e-05 0.0052306429714640747 0 1.9053527325169628e-07 0.0027040741851987243 0 9.9775078458918154e-05 0.0032437790482334546 0 8.2297843778080958e-08 0.0041535526806008808 0 -0.00026513304303939428 0.006008764762354092 0 -9.8270430658448362e-05 0.0052306429714640747 0 -0.00019559568280286385 0.0063086794156310229 0 8.2297843778080958e-08 0.0041535526806008808 0 -9.8270430658448362e-05 0.0052306429714640747 0 -3.5376729592709932e-07 0.0056033092208419948 0 -9.8270430658448362e-05 0.0052306429714640747 0 -3.5376729592709932e-07 0.0056033092208419948 0 -0.00019559568280286385 0.0063086794156310229 0 -3.5376729592709932e-07 0.0056033092208419948 0 -0.00019559568280286385 0.0063086794156310229 0 -2.7536127230299015e-07 0.0070525281116221774 0 -0.00019559568280286385 0.0063086794156310229 0 -8.4152540167983426e-05 0.0071200676311758623 0 -0.0002325282391069722 0.0064497541405741732 0 -0.00019559568280286385 0.0063086794156310229 0 -8.4152540167983426e-05 0.0071200676311758623 0 -2.7536127230299015e-07 0.0070525281116221774 0 -8.4152540167983426e-05 0.0071200676311758623 0 -2.7536127230299015e-07 0.0070525281116221774 0 -4.2301902569968632e-07 0.0085028250064198251 0 -8.4152540167983426e-05 0.0071200676311758623 0 -4.2301902569968632e-07 0.0085028250064198251 0 -0.00011470459926134207 0.0085881977159342881 0 -4.2301902569968632e-07 0.0085028250064198251 0 -0.00011470459926134207 0.0085881977159342881 0 1.3162293914035674e-06 0.0099500605413204418 0 -8.4152540167983426e-05 0.0071200676311758623 0 -6.4684503682849179e-05 0.0067760965105762606 0 -4.4288966584663343e-05 0.0067335049210466491 0 -0.00012428002952187547 0.0073148811230125677 0 -0.00026181681993908847 0.0073074226526528849 0 -8.4152540167983426e-05 0.0071200676311758623 0 -4.4288966584663343e-05 0.0067335049210466491 0 -0.0002325282391069722 0.0064497541405741732 0 -6.4684503682849179e-05 0.0067760965105762606 0 -4.4288966584663343e-05 0.0067335049210466491 0 -0.00021106047644874285 0.0068261733640328165 0 -4.4288966584663343e-05 0.0067335049210466491 0 -9.1960135977573108e-05 0.0068405436586501641 0 -0.00021106047644874285 0.0068261733640328165 0 -4.4288966584663343e-05 0.0067335049210466491 0 -0.0002325282391069722 0.0064497541405741732 0 -0.00022330260332477646 0.0064227300192928119 0 -4.4288966584663343e-05 0.0067335049210466491 0 -9.1960135977573108e-05 0.0068405436586501641 0 -0.00022330260332477646 0.0064227300192928119 0 -0.00031014225136044294 0.0062975477830076315 0 -0.0002325282391069722 0.0064497541405741732 0 -0.00022330260332477646 0.0064227300192928119 0 -0.00025665654068735547 0.0061647911573679054 0 -0.00026513304303939428 0.006008764762354092 0 -0.00031014225136044294 0.0062975477830076315 0 -0.00026513304303939428 0.006008764762354092 0 -0.00031014225136044294 0.0062975477830076315 0 -0.0002325282391069722 0.0064497541405741732 0 -0.00026513304303939428 0.006008764762354092 0 -0.00019559568280286385 0.0063086794156310229 0 -0.0002325282391069722 0.0064497541405741732 0 -0.00010292547541000121 0.012713179203607717 0 2.376682972831885e-07 0.011476504288998371 0 -1.1750236367158182e-06 0.0135294360594126 0 -0.00010292547541000121 0.012713179203607717 0 0.0004953108907955608 0.012790640851916857 0 -0.00020475105901602913 0.013816340203536134 0 -0.00010292547541000121 0.012713179203607717 0 2.376682972831885e-07 0.011476504288998371 0 0.0004953108907955608 0.012790640851916857 0 2.376682972831885e-07 0.011476504288998371 0 0.0004953108907955608 0.012790640851916857 0 0.00042951072564435225 0.011898109952346211 0 0.00078959460993092642 0.012932845557093578 0 0.00088653427557105731 0.0101625214850403 0 0.00088653427557105731 0.0101625214850403 0 -1.6947369380555369e-07 0.0099532313485743967 0 2.376682972831885e-07 0.011476504288998371 0 0.00042951072564435225 0.011898109952346211 0 1.3705925574084199e-06 0.0099549502520348762 0 -0.00011470459926134207 0.0085881977159342881 0 0.00079480328664615534 0.0087345227894692588 0 1.3162293914035674e-06 0.0099500605413204418 0 -0.00026181681993908847 0.0073074226526528849 0 0.00088653427557105731 0.0101625214850403 0 -6.4684503682849179e-05 0.0067760965105762606 0 -0.00031096849545742618 0.006715054301288245 0 -0.00021106047644874285 0.0068261733640328165 0 -9.1960135977573108e-05 0.0068405436586501641 0 -0.00021106047644874285 0.0068261733640328165 0 -0.00037672198982972188 0.0071059112867902516 0 -0.00021106047644874285 0.0068261733640328165 0 -0.00050674900394516139 0.0068899442454666239 0 -0.00037672198982972188 0.0071059112867902516 0 -0.00031096849545742618 0.006715054301288245 0 -0.00021106047644874285 0.0068261733640328165 0 -0.00050674900394516139 0.0068899442454666239 0 0.00088653427557105731 0.0101625214850403 0 0.00076143101649211445 0.010825236032860595 0 0.0004953108907955608 0.012790640851916857 0 0.0018554464839301702 0.01511900781664164 0 0.00018672429311618108 0.015273370030699503 0 0.0004953108907955608 0.012790640851916857 0 0.0030138150009015011 0.012510556822149127 0 0.0018554464839301702 0.01511900781664164 0 0.0018554464839301702 0.01511900781664164 0 0.00022043133603814744 0.01776956264914106 0 0.00048357818304236807 0.017948725156336803 0 0.00076143101649211445 0.010825236032860595 0 -0.00011476160211461882 0.012947910039793618 0 -0.00050674900394516139 0.0068899442454666239 0 -0.00073670409000535552 0.0071885292438505343 0 -0.00037672198982972188 0.0071059112867902516 0 0.0018554464839301702 0.01511900781664164 0 0.00018672429311618108 0.015273370030699503 0 0.00022043133603814744 0.01776956264914106 0 0.00029436528832535496 0.017795120291919517 0 -0.00021716687918324628 0.017125731866814261 0 0.00018672429311618108 0.015273370030699503 0 0.00022043133603814744 0.01776956264914106 0 -0.00095465323958043445 0.01490856608006166 0 0.00018672429311618108 0.015273370030699503 0 -0.00020475105901602913 0.013816340203536134 0 -0.00095465323958043445 0.01490856608006166 0 0.0004953108907955608 0.012790640851916857 0 0.00018672429311618108 0.015273370030699503 0 -0.00020475105901602913 0.013816340203536134 0 -0.00073670409000535552 0.0071885292438505343 0 -0.00077841184788919441 0.0075753524891121905 0 -0.00096382555152405773 0.0075747445954813019 0 -0.00011476160211461882 0.012947910039793618 0 -0.0010711971115869587 0.010743954135858529 0 0.00022043133603814744 0.01776956264914106 0 0.00048357818304236807 0.017948725156336803 0 0.00028890158141527957 0.018098496252399447 0 -0.00073670409000535552 0.0071885292438505343 0 -0.00057360141622965076 0.0074337502018325093 0 -0.00037672198982972188 0.0071059112867902516 0 -0.00073670409000535552 0.0071885292438505343 0 -0.00057360141622965076 0.0074337502018325093 0 -0.00077841184788919441 0.0075753524891121905 0 -0.00038250091486486277 0.0074431211549187155 0 -0.00037672198982972188 0.0071059112867902516 0 -0.00022390166345873566 0.0072788406636004818 0 -0.00057360141622965076 0.0074337502018325093 0 -0.00038250091486486277 0.0074431211549187155 0 -0.00037672198982972188 0.0071059112867902516 0 -9.1960135977573108e-05 0.0068405436586501641 0 -0.00037672198982972188 0.0071059112867902516 0 -0.00022390166345873566 0.0072788406636004818 0 -0.00038250091486486277 0.0074431211549187155 0 -0.00022390166345873566 0.0072788406636004818 0 -0.00027528650321259 0.0075352174163817748 0 -0.00022390166345873566 0.0072788406636004818 0 -0.00027528650321259 0.0075352174163817748 0 -0.00015278052202732502 0.0074683037284510069 0 -0.00027528650321259 0.0075352174163817748 0 -0.00023822498519403162 0.0076530016833582046 0 -0.00015278052202732502 0.0074683037284510069 0 -0.00023822498519403162 0.0076530016833582046 0 -0.00014961665493148311 0.007673110677560567 0 -0.00030156440258928541 0.0078534140207824916 0 -0.00023822498519403162 0.0076530016833582046 0 -0.00037116930007951698 0.0077182760692009727 0 -0.00030156440258928541 0.0078534140207824916 0 -0.00027528650321259 0.0075352174163817748 0 -0.00023822498519403162 0.0076530016833582046 0 -0.00037116930007951698 0.0077182760692009727 0 -0.00037116930007951698 0.0077182760692009727 0 -0.00042196320187217222 0.0079054299982644037 0 -0.00030156440258928541 0.0078534140207824916 0 -0.00037116930007951698 0.0077182760692009727 0 -0.0005311917847192931 0.00765422175797316 0 -0.00053369904978789158 0.0078945775242086815 0 -0.00037116930007951698 0.0077182760692009727 0 -0.00042196320187217222 0.0079054299982644037 0 -0.00053369904978789158 0.0078945775242086815 0 -0.00038250091486486277 0.0074431211549187155 0 -0.00027528650321259 0.0075352174163817748 0 -0.00037116930007951698 0.0077182760692009727 0 -0.00038250091486486277 0.0074431211549187155 0 -0.00037116930007951698 0.0077182760692009727 0 -0.0005311917847192931 0.00765422175797316 0 -0.00057360141622965076 0.0074337502018325093 0 -0.00038250091486486277 0.0074431211549187155 0 -0.0005311917847192931 0.00765422175797316 0 -0.00057360141622965076 0.0074337502018325093 0 -0.00067293756009221899 0.0076774344043416716 0 -0.0005311917847192931 0.00765422175797316 0 -0.00057360141622965076 0.0074337502018325093 0 -0.00067293756009221899 0.0076774344043416716 0 -0.00077841184788919441 0.0075753524891121905 0 -0.00067293756009221899 0.0076774344043416716 0 -0.0005311917847192931 0.00765422175797316 0 -0.00072446781515960043 0.0078778758958789417 0 -0.0005311917847192931 0.00765422175797316 0 -0.00053369904978789158 0.0078945775242086815 0 -0.00072446781515960043 0.0078778758958789417 0 -0.00042196320187217222 0.0079054299982644037 0 -0.00053369904978789158 0.0078945775242086815 0 -0.00054574871031624298 0.0080665875984367065 0 -0.00053369904978789158 0.0078945775242086815 0 -0.0007026710595015121 0.0081063669728207166 0 -0.00054574871031624298 0.0080665875984367065 0 -0.00053369904978789158 0.0078945775242086815 0 -0.0007026710595015121 0.0081063669728207166 0 -0.00072446781515960043 0.0078778758958789417 0 -0.0007026710595015121 0.0081063669728207166 0 -0.00072446781515960043 0.0078778758958789417 0 -0.00089913719324508871 0.0080682143025641948 0 -0.00072446781515960043 0.0078778758958789417 0 -0.00089913719324508871 0.0080682143025641948 0 -0.00089075766679599792 0.0077825608132506118 0 -0.0007026710595015121 0.0081063669728207166 0 -0.00088755737250094543 0.0082820314288975828 0 -0.00089913719324508871 0.0080682143025641948 0 -0.00088755737250094543 0.0082820314288975828 0 -0.00089913719324508871 0.0080682143025641948 0 -0.0011027804484930992 0.0084297253847046665 0 -0.00089913719324508871 0.0080682143025641948 0 -0.00089075766679599792 0.0077825608132506118 0 -0.0012335085877559109 0.0079952591784204514 0 -0.00089075766679599792 0.0077825608132506118 0 -0.0010290063576480809 0.0075526283582695048 0 -0.0012335085877559109 0.0079952591784204514 0 -0.00067293756009221899 0.0076774344043416716 0 -0.00072446781515960043 0.0078778758958789417 0 -0.00089075766679599792 0.0077825608132506118 0 -0.00067293756009221899 0.0076774344043416716 0 -0.00089075766679599792 0.0077825608132506118 0 -0.00077841184788919441 0.0075753524891121905 0 -0.00089075766679599792 0.0077825608132506118 0 -0.00077841184788919441 0.0075753524891121905 0 -0.0010290063576480809 0.0075526283582695048 0 -0.00098337661455319501 0.0085013458236971231 0 -0.0010711971115869587 0.010743954135858529 0 7.3141111235917026e-05 0.0071341451520053412 0 5.9106537672988312e-05 0.0070923770265949714 0 2.1736869889188334e-05 0.0072880557545031369 0 7.3141111235917026e-05 0.0071341451520053412 0 4.7598285167474657e-05 0.0071975002991940444 0 4.4177394241881058e-05 0.0070700574132561544 0 -0.00025665654068735547 0.0061647911573679054 0 -0.00031014225136044294 0.0062975477830076315 0 -0.00037694515272740164 0.0063836405740285863 0 -0.00012703865933696835 0.0067656573430291671 0 -0.00010336986893213936 0.0067617036861481435 0 -0.00031014225136044294 0.0062975477830076315 0 -0.00037694515272740164 0.0063836405740285863 0 -0.00022330260332477646 0.0064227300192928119 0 -0.00011025801477811555 0.0068130169411400408 0 -0.00010336986893213936 0.0067617036861481435 0 -9.1960135977573108e-05 0.0068405436586501641 0 5.9106537672988312e-05 0.0070923770265949714 0 -4.628137912261572e-05 0.0072487349536925231 0 -9.1960135977573108e-05 0.0068405436586501641 0 -0.00022390166345873566 0.0072788406636004818 0 -4.628137912261572e-05 0.0072487349536925231 0 -0.00022390166345873566 0.0072788406636004818 0 -4.628137912261572e-05 0.0072487349536925231 0 -0.00015278052202732502 0.0074683037284510069 0 5.9106537672988312e-05 0.0070923770265949714 0 -4.628137912261572e-05 0.0072487349536925231 0 2.1736869889188334e-05 0.0072880557545031369 0 -4.628137912261572e-05 0.0072487349536925231 0 -6.7747914030879712e-05 0.0074643695092805771 0 2.1736869889188334e-05 0.0072880557545031369 0 -4.628137912261572e-05 0.0072487349536925231 0 -0.00015278052202732502 0.0074683037284510069 0 -6.7747914030879712e-05 0.0074643695092805771 0 -0.00023822498519403162 0.0076530016833582046 0 -0.00015278052202732502 0.0074683037284510069 0 -0.00014961665493148311 0.007673110677560567 0 -0.00015278052202732502 0.0074683037284510069 0 -0.00014961665493148311 0.007673110677560567 0 -6.7747914030879712e-05 0.0074643695092805771 0 -3.3931951216731302e-05 0.0075375699467345875 0 -6.7747914030879712e-05 0.0074643695092805771 0 2.1736869889188334e-05 0.0072880557545031369 0 -0.00014961665493148311 0.007673110677560567 0 -3.3931951216731302e-05 0.0075375699467345875 0 -6.7747914030879712e-05 0.0074643695092805771 0 -3.3931951216731302e-05 0.0075375699467345875 0 2.1736869889188334e-05 0.0072880557545031369 0 5.6877850219528534e-05 0.00745555907248835 0 2.1736869889188334e-05 0.0072880557545031369 0 4.7598285167474657e-05 0.0071975002991940444 0 5.6877850219528534e-05 0.00745555907248835 0 7.3141111235917026e-05 0.0071341451520053412 0 2.1736869889188334e-05 0.0072880557545031369 0 4.7598285167474657e-05 0.0071975002991940444 0 5.7082404049731485e-05 0.0071821867727886778 0 4.7598285167474657e-05 0.0071975002991940444 0 4.4177394241881058e-05 0.0070700574132561544 0 0.00010243308894795058 0.0071159903806853955 0 3.6349054288279961e-05 0.0073781799742434068 0 5.7082404049731485e-05 0.0071821867727886778 0 4.7598285167474657e-05 0.0071975002991940444 0 5.6877850219528534e-05 0.00745555907248835 0 0.00015038948780873859 0.0070610672332358593 0 1.9513533843744473e-05 0.0072857567026988809 0 0.00019018599937075932 0.0072671669457072203 0 9.3847968646262319e-05 0.0073960190416732918 0 1.9513533843744473e-05 0.0072857567026988809 0 0.00019018599937075932 0.0072671669457072203 0 9.3847968646262319e-05 0.0073960190416732918 0 0.00019018599937075932 0.0072671669457072203 0 0.00016984348509353002 0.0073822081720204052 0 0.00074086361650470528 0.0077029447359072776 0 0.00073844887411986379 0.0076845918976546738 0 0.00072485214887886714 0.0075993448523274578 0 9.3847968646262319e-05 0.0073960190416732918 0 7.5797589581113321e-05 0.0075014982212591183 0 0.00016984348509353002 0.0073822081720204052 0 9.3847968646262319e-05 0.0073960190416732918 0 7.5797589581113321e-05 0.0075014982212591183 0 1.9206841325856849e-06 0.0075142445366684551 0 0.00074086361650470528 0.0077029447359072776 0 0.00082994133013560294 0.0077994458445686983 0 0.00082790649416966612 0.007784637656819372 0 0.00043445004540432262 0.0076224193022339836 0 0.00025223307394784224 0.0076088249051660803 0 7.5797589581113321e-05 0.0075014982212591183 0 1.9206841325856849e-06 0.0075142445366684551 0 -6.9802852787773469e-05 0.0076941400177120345 0 0.00074086361650470528 0.0077029447359072776 0 0.00082790649416966612 0.007784637656819372 0 0.00073844887411986379 0.0076845918976546738 0 9.3847968646262319e-05 0.0073960190416732918 0 1.9206841325856849e-06 0.0075142445366684551 0 1.9513533843744473e-05 0.0072857567026988809 0 3.6349054288279961e-05 0.0073781799742434068 0 -7.6726059438996311e-05 0.0076273578009347564 0 1.9206841325856849e-06 0.0075142445366684551 0 1.9513533843744473e-05 0.0072857567026988809 0 -8.058226416921841e-05 0.0076650961548317782 0 -3.3931951216731302e-05 0.0075375699467345875 0 5.6877850219528534e-05 0.00745555907248835 0 -8.058226416921841e-05 0.0076650961548317782 0 -3.3931951216731302e-05 0.0075375699467345875 0 -9.9199572454792753e-05 0.0076655857790579578 0 -8.058226416921841e-05 0.0076650961548317782 0 -0.00014961665493148311 0.007673110677560567 0 -3.3931951216731302e-05 0.0075375699467345875 0 -9.9199572454792753e-05 0.0076655857790579578 0 -0.00014961665493148311 0.007673110677560567 0 -0.00013922628486945916 0.0077689961390490104 0 -0.00022553953046720664 0.0078618839812215555 0 -0.00014961665493148311 0.007673110677560567 0 -9.9199572454792753e-05 0.0076655857790579578 0 -0.00013922628486945916 0.0077689961390490104 0 -9.9199572454792753e-05 0.0076655857790579578 0 -0.00013922628486945916 0.0077689961390490104 0 -8.058226416921841e-05 0.0076650961548317782 0 0.0013526272373803184 0.0096244322921969026 0 0.00086252854854266224 0.0089934475926850017 0 0.0016443331359248976 0.011288935649932712 0 0.0016975157975701004 0.011261409975319672 0 0.0017861841465543569 0.011271923126005352 0 0.00025223307394784224 0.0076088249051660803 0 0.00086252854854266224 0.0089934475926850017 0 -0.00013922628486945916 0.0077689961390490104 0 -6.9802852787773469e-05 0.0076941400177120345 0 -0.00021909407279930695 0.0079629876546367193 0 0.00082994133013560294 0.0077994458445686983 0 0.00082790649416966612 0.007784637656819372 0 0.00094061322548424356 0.0078968174898315646 0 1.9206841325856849e-06 0.0075142445366684551 0 -8.058226416921841e-05 0.0076650961548317782 0 -6.9802852787773469e-05 0.0076941400177120345 0 -0.00013922628486945916 0.0077689961390490104 0 -8.058226416921841e-05 0.0076650961548317782 0 -6.9802852787773469e-05 0.0076941400177120345 0 0.0016443331359248976 0.011288935649932712 0 0.0016180688987493938 0.011254791825652581 0 0.0015758529799005949 0.011254324728845543 0 0.0016443331359248976 0.011288935649932712 0 0.0016180688987493938 0.011254791825652581 0 0.0016554583142856249 0.011258296272994454 0 0.0016443331359248976 0.011288935649932712 0 0.0016554583142856249 0.011258296272994454 0 0.0016975157975701004 0.011261409975319672 0 0.0016554583142856249 0.011258296272994454 0 0.0016611218230326782 0.011229422170311103 0 0.0016975157975701004 0.011261409975319672 0 0.0016180688987493938 0.011254791825652581 0 0.0016554583142856249 0.011258296272994454 0 0.0016611218230326782 0.011229422170311103 0 0.0016180688987493938 0.011254791825652581 0 0.0016611218230326782 0.011229422170311103 0 0.0015766372335280737 0.011225842630029549 0 0.0016611218230326782 0.011229422170311103 0 0.0017385603574788786 0.011243047049742836 0 0.0017595211021445881 0.011192103506190501 0 0.0016975157975701004 0.011261409975319672 0 0.0017385603574788786 0.011243047049742836 0 0.0017861841465543569 0.011271923126005352 0 0.0016611218230326782 0.011229422170311103 0 0.0016975157975701004 0.011261409975319672 0 0.0017385603574788786 0.011243047049742836 0 0.0019576276598329842 0.0114805007817247 0 0.0016893988725292396 0.01134347037824862 0 0.0018763119672915518 0.011308527611199054 0 0.001858486326794938 0.011331738157838183 0 0.0016712921431579384 0.011258867336784273 0 0.0016611218230326782 0.011229422170311103 0 0.0017595211021445881 0.011192103506190501 0 0.001635766647557365 0.011170695179364939 0 0.0016611218230326782 0.011229422170311103 0 0.001635766647557365 0.011170695179364939 0 0.0015766372335280737 0.011225842630029549 0 0.0016712921431579384 0.011258867336784273 0 0.0015428684478655337 0.011209389476301198 0 0.001635766647557365 0.011170695179364939 0 0.0015246109194573844 0.011196938658275261 0 0.0015766372335280737 0.011225842630029549 0 0.0015246109194573844 0.011196938658275261 0 0.0015209748026803987 0.011218370945363692 0 0.0015766372335280737 0.011225842630029549 0 0.0015246109194573844 0.011196938658275261 0 0.0014579092863377769 0.011126033975018487 0 0.0014446140143619297 0.011175599802107049 0 0.0015246109194573844 0.011196938658275261 0 0.0015209748026803987 0.011218370945363692 0 0.0014446140143619297 0.011175599802107049 0 0.0015209748026803987 0.011218370945363692 0 0.0014421073589197301 0.011209234716719007 0 0.0014446140143619297 0.011175599802107049 0 0.0015209748026803987 0.011218370945363692 0 0.0014973481822127825 0.011261634057283075 0 0.0015429696555228152 0.011241684878778647 0 0.0015209748026803987 0.011218370945363692 0 0.0014973481822127825 0.011261634057283075 0 0.0014421073589197301 0.011209234716719007 0 0.0013526272373803184 0.0096244322921969026 0 0.0010856522182600388 0.0094568837708749881 0 0.0014973481822127825 0.011261634057283075 0 0.0015758529799005949 0.011254324728845543 0 0.0015429696555228152 0.011241684878778647 0 0.0016443331359248976 0.011288935649932712 0 0.0014973481822127825 0.011261634057283075 0 0.0015758529799005949 0.011254324728845543 0 0.0016180688987493938 0.011254791825652581 0 0.0015758529799005949 0.011254324728845543 0 0.0015766372335280737 0.011225842630029549 0 0.0015758529799005949 0.011254324728845543 0 0.0015766372335280737 0.011225842630029549 0 0.0015429696555228152 0.011241684878778647 0 0.0015209748026803987 0.011218370945363692 0 0.0015766372335280737 0.011225842630029549 0 0.0015429696555228152 0.011241684878778647 0 0.0016054436131395012 0.011021121271591702 0 0.0015709157009704223 0.011222295637296442 0 0.0014055365106281387 0.011135596800720779 0 0.0016054436131395012 0.011021121271591702 0 0.0016913211878478588 0.011148848912056175 0 0.0015709157009704223 0.011222295637296442 0 -0.00078777481163562946 0.0085670461434588056 0 -0.0010191894864301253 0.0086577918695561074 0 -0.00093545058015038942 0.0087369981785610402 0 -0.0010191894864301253 0.0086577918695561074 0 -0.00083593729263974862 0.008411410234219107 0 -0.0011004106139025735 0.0086173644227373874 0 -0.00078777481163562946 0.0085670461434588056 0 -0.0010191894864301253 0.0086577918695561074 0 -0.00083593729263974862 0.008411410234219107 0 -0.00088755737250094543 0.0082820314288975828 0 -0.00083593729263974862 0.008411410234219107 0 -0.0011004106139025735 0.0086173644227373874 0 -0.0007026710595015121 0.0081063669728207166 0 -0.00088755737250094543 0.0082820314288975828 0 -0.00083593729263974862 0.008411410234219107 0 -0.0007026710595015121 0.0081063669728207166 0 -0.00083593729263974862 0.008411410234219107 0 -0.00066434011982097793 0.0082475340222890395 0 -0.00073015588653691248 0.0083832397572846992 0 -0.00083593729263974862 0.008411410234219107 0 -0.00066434011982097793 0.0082475340222890395 0 -0.00078777481163562946 0.0085670461434588056 0 -0.00073015588653691248 0.0083832397572846992 0 -0.00066089337775629181 0.0083307702915687617 0 -0.00078777481163562946 0.0085670461434588056 0 -0.00073015588653691248 0.0083832397572846992 0 -0.00083593729263974862 0.008411410234219107 0 -0.00078777481163562946 0.0085670461434588056 0 -0.00066089337775629181 0.0083307702915687617 0 -0.00058230986319795315 0.0082869128874613462 0 -0.00066089337775629181 0.0083307702915687617 0 -0.00066434011982097793 0.0082475340222890395 0 -0.00054885470979505497 0.0081847817540251222 0 -0.00073015588653691248 0.0083832397572846992 0 -0.00066089337775629181 0.0083307702915687617 0 -0.00066434011982097793 0.0082475340222890395 0 -0.0007026710595015121 0.0081063669728207166 0 -0.00066434011982097793 0.0082475340222890395 0 -0.00054574871031624298 0.0080665875984367065 0 -0.00066434011982097793 0.0082475340222890395 0 -0.00054574871031624298 0.0080665875984367065 0 -0.00054885470979505497 0.0081847817540251222 0 -0.00054574871031624298 0.0080665875984367065 0 -0.00054885470979505497 0.0081847817540251222 0 -0.00044542345494274875 0.008055274613719441 0 -0.00066089337775629181 0.0083307702915687617 0 -0.00054885470979505497 0.0081847817540251222 0 -0.00058230986319795315 0.0082869128874613462 0 -0.00054885470979505497 0.0081847817540251222 0 -0.00058230986319795315 0.0082869128874613462 0 -0.0004747882635894933 0.0081718139064939129 0 -0.00058230986319795315 0.0082869128874613462 0 -0.00056943658016058926 0.0083044630710284971 0 -0.0004747882635894933 0.0081718139064939129 0 -0.00078777481163562946 0.0085670461434588056 0 -0.00056943658016058926 0.0083044630710284971 0 -0.00044266336817017305 0.0082095237891383101 0 -0.00056943658016058926 0.0083044630710284971 0 -0.00044266336817017305 0.0082095237891383101 0 -0.0004747882635894933 0.0081718139064939129 0 -0.00071504605771822614 0.0085435278216971378 0 -0.00032709959421452754 0.0084210798588004211 0 0.0016054436131395012 0.011021121271591702 0 0.0016913211878478588 0.011148848912056175 0 0.001816828311803007 0.011184218799796274 0 0.0016913211878478588 0.011148848912056175 0 0.001816828311803007 0.011184218799796274 0 0.0017287214857488406 0.011215503877230644 0 0.00030383863684564969 0.0098721607688979987 0 0.0010231513441382944 0.010128231168640797 0 -0.00078777481163562946 0.0085670461434588056 0 3.9359089636349286e-06 0.0088351183255069177 0 8.8550409732829897e-05 0.0087446585460725541 0 -0.00078777481163562946 0.0085670461434588056 0 -0.00093545058015038942 0.0087369981785610402 0 3.9359089636349286e-06 0.0088351183255069177 0 -0.00078777481163562946 0.0085670461434588056 0 -0.00058230986319795315 0.0082869128874613462 0 -0.00056943658016058926 0.0083044630710284971 0 0.0010231513441382944 0.010128231168640797 0 0.00086252854854266224 0.0089934475926850017 0 -0.00044266336817017305 0.0082095237891383101 0 -0.00034809944564792269 0.0080307657339502153 0 -0.00021909407279930695 0.0079629876546367193 0 3.9359089636349286e-06 0.0088351183255069177 0 8.8550409732829897e-05 0.0087446585460725541 0 0.00098156781769589063 0.0089224618325544642 0 -0.00032709959421452754 0.0084210798588004211 0 0.00086252854854266224 0.0089934475926850017 0 0.001816828311803007 0.011184218799796274 0 0.0017861841465543569 0.011271923126005352 0 0.001810170264205335 0.011240769888177271 0 0.001816828311803007 0.011184218799796274 0 0.001810170264205335 0.011240769888177271 0 0.001812904003137408 0.011235009969770043 0 0.001816828311803007 0.011184218799796274 0 0.001812904003137408 0.011235009969770043 0 0.0017971193091248514 0.011232712573222895 0 -0.00044266336817017305 0.0082095237891383101 0 -0.0004747882635894933 0.0081718139064939129 0 -0.00034809944564792269 0.0080307657339502153 0 -0.00054885470979505497 0.0081847817540251222 0 -0.0004747882635894933 0.0081718139064939129 0 -0.00044542345494274875 0.008055274613719441 0 -0.0004747882635894933 0.0081718139064939129 0 -0.00044542345494274875 0.008055274613719441 0 -0.00034809944564792269 0.0080307657339502153 0 -0.00042196320187217222 0.0079054299982644037 0 -0.00054574871031624298 0.0080665875984367065 0 -0.00044542345494274875 0.008055274613719441 0 -0.00042196320187217222 0.0079054299982644037 0 -0.00044542345494274875 0.008055274613719441 0 -0.00030156440258928541 0.0078534140207824916 0 -0.00044542345494274875 0.008055274613719441 0 -0.00034809944564792269 0.0080307657339502153 0 -0.00030156440258928541 0.0078534140207824916 0 -0.00014961665493148311 0.007673110677560567 0 -0.00030156440258928541 0.0078534140207824916 0 -0.00022553953046720664 0.0078618839812215555 0 -0.00034809944564792269 0.0080307657339502153 0 -0.00030156440258928541 0.0078534140207824916 0 -0.00022553953046720664 0.0078618839812215555 0 -0.00013922628486945916 0.0077689961390490104 0 -0.00022553953046720664 0.0078618839812215555 0 -0.00021909407279930695 0.0079629876546367193 0 -0.00034809944564792269 0.0080307657339502153 0 -0.00022553953046720664 0.0078618839812215555 0 -0.00021909407279930695 0.0079629876546367193 0 0.0017385603574788786 0.011243047049742836 0 0.0017861841465543569 0.011271923126005352 0 0.0017979028012833345 0.01124319148702748 0 0.0017861841465543569 0.011271923126005352 0 0.0017979028012833345 0.01124319148702748 0 0.001810170264205335 0.011240769888177271 0 0.0017979028012833345 0.01124319148702748 0 0.0018159366723997292 0.01125300765643489 0 0.001810170264205335 0.011240769888177271 0 0.0017385603574788786 0.011243047049742836 0 0.0017595211021445881 0.011192103506190501 0 0.0017979028012833345 0.01124319148702748 0 0.0017595211021445881 0.011192103506190501 0 0.0017979028012833345 0.01124319148702748 0 0.0018306691115187754 0.011269617629157874 0 0.0019576276598329842 0.0114805007817247 0 0.0020665191373603381 0.011474712424383856 0 0.0020939703825015713 0.011493806349017253 0 0.001858486326794938 0.011331738157838183 0 0.0019266132479712893 0.011376116037408238 0 0.0020665191373603381 0.011474712424383856 0 0.001814626790997308 0.011637168053637296 0 0.0019737262250090711 0.011614446759504899 0 0.0020665191373603381 0.011474712424383856 0 0.0019737262250090711 0.011614446759504899 0 0.0020939703825015713 0.011493806349017253 0 0.0018306691115187754 0.011269617629157874 0 0.0018094383709716189 0.011257309844440906 0 0.0017824414887852255 0.011281808105950947 0 0.0018094383709716189 0.011257309844440906 0 0.0018159366723997292 0.01125300765643489 0 0.001812904003137408 0.011235009969770043 0 0.0017979028012833345 0.01124319148702748 0 0.0018306691115187754 0.011269617629157874 0 0.0018159366723997292 0.01125300765643489 0 0.0018306691115187754 0.011269617629157874 0 0.0018094383709716189 0.011257309844440906 0 0.0018159366723997292 0.01125300765643489 0 0.0018159366723997292 0.01125300765643489 0 0.001810170264205335 0.011240769888177271 0 0.001812904003137408 0.011235009969770043 0 0.0018094383709716189 0.011257309844440906 0 0.001812904003137408 0.011235009969770043 0 0.0017971193091248514 0.011232712573222895 0 0.0017287214857488406 0.011215503877230644 0 0.0017824414887852255 0.011281808105950947 0 0.0017505924219912504 0.01142189492480275 0 0.0017971193091248514 0.011232712573222895 0 0.0017287214857488406 0.011215503877230644 0 0.0017824414887852255 0.011281808105950947 0 0.0018094383709716189 0.011257309844440906 0 0.0017971193091248514 0.011232712573222895 0 0.0017824414887852255 0.011281808105950947 0 0.001816828311803007 0.011184218799796274 0 0.0017971193091248514 0.011232712573222895 0 0.0017287214857488406 0.011215503877230644 0 0.0018306691115187754 0.011269617629157874 0 0.0017824414887852255 0.011281808105950947 0 0.0017505924219912504 0.01142189492480275 0 0.0019266132479712893 0.011376116037408238 0 0.0017590539886780606 0.011407100941785915 0 0.0020665191373603381 0.011474712424383856 0 0.0017505924219912504 0.01142189492480275 0 0.001814626790997308 0.011637168053637296 0 0.0017505924219912504 0.01142189492480275 0 0.0016124614095888797 0.011751740718348742 0 0.001814626790997308 0.011637168053637296 0 0.0017505924219912504 0.01142189492480275 0 0.0016124614095888797 0.011751740718348742 0 0.0014596314600875623 0.011444366698397076 0 0.0017287214857488406 0.011215503877230644 0 0.0017505924219912504 0.01142189492480275 0 0.0015709157009704223 0.011222295637296442 0 0.0017505924219912504 0.01142189492480275 0 0.0015709157009704223 0.011222295637296442 0 0.0014596314600875623 0.011444366698397076 0 0.0016913211878478588 0.011148848912056175 0 0.0017287214857488406 0.011215503877230644 0 0.0015709157009704223 0.011222295637296442 0 0.0015687945083334702 0.012019702072021484 0 0.0016124614095888797 0.011751740718348742 0 0.0017213758822510103 0.011870418297129363 0 0.0015687945083334702 0.012019702072021484 0 0.0017213758822510103 0.011870418297129363 0 0.0017409816688896567 0.012048932884501406 0 0.001814626790997308 0.011637168053637296 0 0.0018540680893116643 0.011777691936221583 0 0.0017213758822510103 0.011870418297129363 0 0.0016124614095888797 0.011751740718348742 0 0.001814626790997308 0.011637168053637296 0 0.0017213758822510103 0.011870418297129363 0 0.001814626790997308 0.011637168053637296 0 0.0018540680893116643 0.011777691936221583 0 0.0019737262250090711 0.011614446759504899 0 0.0018540680893116643 0.011777691936221583 0 0.0017213758822510103 0.011870418297129363 0 0.0018669677531573386 0.011967610502516051 0 0.0017213758822510103 0.011870418297129363 0 0.0018669677531573386 0.011967610502516051 0 0.0017409816688896567 0.012048932884501406 0 0.0018669677531573386 0.011967610502516051 0 0.002059851383410769 0.011985674301159138 0 0.0019700717383113798 0.01212070151046566 0 0.0018540680893116643 0.011777691936221583 0 0.0018669677531573386 0.011967610502516051 0 0.0020236266602890272 0.011773803732357589 0 0.0018669677531573386 0.011967610502516051 0 0.002059851383410769 0.011985674301159138 0 0.0020236266602890272 0.011773803732357589 0 0.0018540680893116643 0.011777691936221583 0 0.0019737262250090711 0.011614446759504899 0 0.0020236266602890272 0.011773803732357589 0 0.0019737262250090711 0.011614446759504899 0 0.0020236266602890272 0.011773803732357589 0 0.0020939703825015713 0.011493806349017253 0 0.0020939703825015713 0.011493806349017253 0 0.0019491402148445779 0.011111644302698304 0 0.0018763119672915518 0.011308527611199054 0 0.0020955008154298562 0.011488627565453605 0 0.0021194161867675409 0.011530075960963618 0 0.0019576276598329842 0.0114805007817247 0 0.0020939703825015713 0.011493806349017253 0 0.0018763119672915518 0.011308527611199054 0 0.0020236266602890272 0.011773803732357589 0 0.0020939703825015713 0.011493806349017253 0 0.0023112219914689577 0.011950515673243362 0 0.002059851383410769 0.011985674301159138 0 0.0023112219914689577 0.011950515673243362 0 0.0021610679460213481 0.012157065831724618 0 0.002059851383410769 0.011985674301159138 0 0.0020236266602890272 0.011773803732357589 0 0.0023112219914689577 0.011950515673243362 0 0.0021610679460213481 0.012157065831724618 0 0.0022006163795851193 0.01236832655678774 0 0.0023780712493554059 0.012288038581556141 0 0.0021610679460213481 0.012157065831724618 0 0.0022006163795851193 0.01236832655678774 0 0.0020451216313602505 0.012292520410201773 0 0.0022006163795851193 0.01236832655678774 0 0.0021019813759863442 0.012434078481074138 0 0.002192808851989702 0.012510225031406282 0 0.0022006163795851193 0.01236832655678774 0 0.0020451216313602505 0.012292520410201773 0 0.0021019813759863442 0.012434078481074138 0 0.0020451216313602505 0.012292520410201773 0 0.0021019813759863442 0.012434078481074138 0 0.0019295707055345837 0.012429183137359606 0 0.0020451216313602505 0.012292520410201773 0 0.0019295707055345837 0.012429183137359606 0 0.0019028273926425642 0.012243930535149451 0 0.0020451216313602505 0.012292520410201773 0 0.0019700717383113798 0.01212070151046566 0 0.0019028273926425642 0.012243930535149451 0 0.0021610679460213481 0.012157065831724618 0 0.0020451216313602505 0.012292520410201773 0 0.0019700717383113798 0.01212070151046566 0 0.002059851383410769 0.011985674301159138 0 0.0021610679460213481 0.012157065831724618 0 0.0019700717383113798 0.01212070151046566 0 0.0018669677531573386 0.011967610502516051 0 0.0019700717383113798 0.01212070151046566 0 0.0018289669704773786 0.012146786211353395 0 0.0018669677531573386 0.011967610502516051 0 0.0018289669704773786 0.012146786211353395 0 0.0017409816688896567 0.012048932884501406 0 0.0018289669704773786 0.012146786211353395 0 0.0017409816688896567 0.012048932884501406 0 0.0017620085707495828 0.012237453103527243 0 0.0019264210642169896 0.012250741583462704 0 0.0018918921589794288 0.012586361743938892 0 0.0019700717383113798 0.01212070151046566 0 0.0018289669704773786 0.012146786211353395 0 0.0019028273926425642 0.012243930535149451 0 0.0018289669704773786 0.012146786211353395 0 0.0017554120059756816 0.012255803520950494 0 0.0019028273926425642 0.012243930535149451 0 0.0018938190071268279 0.012324510292131564 0 0.0018918921589794288 0.012586361743938892 0 0.0019295707055345837 0.012429183137359606 0 0.0017554120059756816 0.012255803520950494 0 0.0019028273926425642 0.012243930535149451 0 0.0016735447028236024 0.012012453790080847 0 0.0016828560877535268 0.012354988395783754 0 0.0013138079497031889 0.012499788258983504 0 0.0019673063455923089 0.012345124908332922 0 0.0016735447028236024 0.012012453790080847 0 0.0016828560877535268 0.012354988395783754 0 0.0018918921589794288 0.012586361743938892 0 0.0017966427091102779 0.012700080334277565 0 0.0025824495387446302 0.013181087128213082 0 0.0019591872843901224 0.013219168165212189 0 0.0021346366866332343 0.013822812758355684 0 0.0020341865167462763 0.012590365738174744 0 0.0025824495387446302 0.013181087128213082 0 0.0019591872843901224 0.013219168165212189 0 0.0018429921697202399 0.012341599216349468 0 0.0018918921589794288 0.012586361743938892 0 0.0015687945083334702 0.012019702072021484 0 0.0017409816688896567 0.012048932884501406 0 0.0017620085707495828 0.012237453103527243 0 0.0015265649907316792 0.01109447737178498 0 0.0017081165997607853 0.011116445648961705 0 0.0015646452081449018 0.010986272549731679 0 0.0015265649907316792 0.01109447737178498 0 0.0015646452081449018 0.010986272549731679 0 0.0014584343586167233 0.010976800067078471 0 0.0015265649907316792 0.01109447737178498 0 0.0014584343586167233 0.010976800067078471 0 0.0014176668275107036 0.011048069158355975 0 0.0015265649907316792 0.01109447737178498 0 0.0014579092863377769 0.011126033975018487 0 0.0014176668275107036 0.011048069158355975 0 0.0015246109194573844 0.011196938658275261 0 0.0015265649907316792 0.01109447737178498 0 0.0014579092863377769 0.011126033975018487 0 0.0016893988725292396 0.01134347037824862 0 0.0015246109194573844 0.011196938658275261 0 0.0015265649907316792 0.01109447737178498 0 0.0016893988725292396 0.01134347037824862 0 0.0018763119672915518 0.011308527611199054 0 0.0017081165997607853 0.011116445648961705 0 0.0016893988725292396 0.01134347037824862 0 0.0015265649907316792 0.01109447737178498 0 0.0017081165997607853 0.011116445648961705 0 0.0019491402148445779 0.011111644302698304 0 0.0018763119672915518 0.011308527611199054 0 0.0017081165997607853 0.011116445648961705 0 0.0019491402148445779 0.011111644302698304 0 0.0017081165997607853 0.011116445648961705 0 0.0017855152811540693 0.01091074126154015 0 0.0017081165997607853 0.011116445648961705 0 0.0016405393943149183 0.010904885516970239 0 0.0015646452081449018 0.010986272549731679 0 0.0017081165997607853 0.011116445648961705 0 0.0016405393943149183 0.010904885516970239 0 0.0017855152811540693 0.01091074126154015 0 0.0023112219914689577 0.011950515673243362 0 0.0021610679460213481 0.012157065831724618 0 0.0023780712493554059 0.012288038581556141 0 0.0021194161867675409 0.011530075960963618 0 0.0020795067807835737 0.011596577980158108 0 0.0022006163795851193 0.01236832655678774 0 0.0023780712493554059 0.012288038581556141 0 0.0022687515247853357 0.012515140377535301 0 0.0023780712493554059 0.012288038581556141 0 0.0023495219695488052 0.012495497969713708 0 0.0022687515247853357 0.012515140377535301 0 0.0020795067807835737 0.011596577980158108 0 0.0019952855261892942 0.011629214744574163 0 0.0016405393943149183 0.010904885516970239 0 0.0017855152811540693 0.01091074126154015 0 0.0016493599620740207 0.010781574872583348 0 0.0016405393943149183 0.010904885516970239 0 0.0015196151072172307 0.010867581621737959 0 0.0016493599620740207 0.010781574872583348 0 0.0016405393943149183 0.010904885516970239 0 0.0015646452081449018 0.010986272549731679 0 0.0015196151072172307 0.010867581621737959 0 0.0015646452081449018 0.010986272549731679 0 0.0014584343586167233 0.010976800067078471 0 0.0015196151072172307 0.010867581621737959 0 0.0014584343586167233 0.010976800067078471 0 0.0015196151072172307 0.010867581621737959 0 0.0014003345147052839 0.010887154292730185 0 0.0015196151072172307 0.010867581621737959 0 0.0014509419528695702 0.010807045476209634 0 0.0015076915132132612 0.010753755332678425 0 0.0015196151072172307 0.010867581621737959 0 0.0014509419528695702 0.010807045476209634 0 0.0014003345147052839 0.010887154292730185 0 0.0014509419528695702 0.010807045476209634 0 0.0013403125632343892 0.010815139588431015 0 0.0014003345147052839 0.010887154292730185 0 0.0013403125632343892 0.010815139588431015 0 0.0013149218424791901 0.01088848454850495 0 0.0012558629223281307 0.010852350489094418 0 0.0013403125632343892 0.010815139588431015 0 0.0013149218424791901 0.01088848454850495 0 0.0014003345147052839 0.010887154292730185 0 0.0013149218424791901 0.01088848454850495 0 0.0013479670457403731 0.010971125995557831 0 0.0012738424713807286 0.010940339380145655 0 0.0013149218424791901 0.01088848454850495 0 0.0014003345147052839 0.010887154292730185 0 0.0013479670457403731 0.010971125995557831 0 0.0014584343586167233 0.010976800067078471 0 0.0014003345147052839 0.010887154292730185 0 0.0013479670457403731 0.010971125995557831 0 0.0014584343586167233 0.010976800067078471 0 0.0014176668275107036 0.011048069158355975 0 0.0013479670457403731 0.010971125995557831 0 0.0014176668275107036 0.011048069158355975 0 0.0013479670457403731 0.010971125995557831 0 0.0013257328231572215 0.011051309348450375 0 0.0013479670457403731 0.010971125995557831 0 0.0013257328231572215 0.011051309348450375 0 0.0012826711687047914 0.011000867820925905 0 0.0013479670457403731 0.010971125995557831 0 0.0012826711687047914 0.011000867820925905 0 0.0012738424713807286 0.010940339380145655 0 0.0013257328231572215 0.011051309348450375 0 0.0013835658125598376 0.011107038799385146 0 0.0013010924414184283 0.01109608254932966 0 0.0014176668275107036 0.011048069158355975 0 0.0013257328231572215 0.011051309348450375 0 0.0013835658125598376 0.011107038799385146 0 0.0014579092863377769 0.011126033975018487 0 0.0014176668275107036 0.011048069158355975 0 0.0013835658125598376 0.011107038799385146 0 0.0011932579460392687 0.010988257665351324 0 0.0012416669191108764 0.011046067371036642 0 0.00118279178037274 0.011044809995421515 0 0.0011932579460392687 0.010988257665351324 0 0.0011453347511398084 0.010983305276083766 0 0.00118279178037274 0.011044809995421515 0 0.0011932579460392687 0.010988257665351324 0 0.001168462800327931 0.010945299591786244 0 0.0011453347511398084 0.010983305276083766 0 0.0013257328231572215 0.011051309348450375 0 0.0012416669191108764 0.011046067371036642 0 0.0013010924414184283 0.01109608254932966 0 0.0013257328231572215 0.011051309348450375 0 0.0012416669191108764 0.011046067371036642 0 0.0012826711687047914 0.011000867820925905 0 0.0012416669191108764 0.011046067371036642 0 0.0012386583980439029 0.010994889852250564 0 0.0012826711687047914 0.011000867820925905 0 0.0011932579460392687 0.010988257665351324 0 0.0012416669191108764 0.011046067371036642 0 0.0012386583980439029 0.010994889852250564 0 0.0012386583980439029 0.010994889852250564 0 0.0012738424713807286 0.010940339380145655 0 0.0012120969464949995 0.010921065863839029 0 0.0012386583980439029 0.010994889852250564 0 0.0012826711687047914 0.011000867820925905 0 0.0012738424713807286 0.010940339380145655 0 0.0011932579460392687 0.010988257665351324 0 0.001168462800327931 0.010945299591786244 0 0.0012120969464949995 0.010921065863839029 0 0.0011932579460392687 0.010988257665351324 0 0.0012386583980439029 0.010994889852250564 0 0.0012120969464949995 0.010921065863839029 0 0.001168462800327931 0.010945299591786244 0 0.0011775140412469669 0.010912592333094894 0 0.001158784157078081 0.01091746542924568 0 0.001168462800327931 0.010945299591786244 0 0.0011775140412469669 0.010912592333094894 0 0.0012120969464949995 0.010921065863839029 0 0.0012120969464949995 0.010921065863839029 0 0.0012558629223281307 0.010852350489094418 0 0.0011869263036172167 0.010835785410421092 0 0.0011775140412469669 0.010912592333094894 0 0.0011869263036172167 0.010835785410421092 0 0.0011436191441133166 0.010906633386085239 0 0.0011775140412469669 0.010912592333094894 0 0.0012120969464949995 0.010921065863839029 0 0.0011869263036172167 0.010835785410421092 0 0.00081478370781633009 0.0086793198489881138 0 0.00064664589958537879 0.0080933840986399178 0 0.0013149218424791901 0.01088848454850495 0 0.0012738424713807286 0.010940339380145655 0 0.0012558629223281307 0.010852350489094418 0 0.0012738424713807286 0.010940339380145655 0 0.0012120969464949995 0.010921065863839029 0 0.0012558629223281307 0.010852350489094418 0 0.0012558629223281307 0.010852350489094418 0 0.0011869263036172167 0.010835785410421092 0 0.001239547519274935 0.010756990112403589 0 0.0013403125632343892 0.010815139588431015 0 0.0012558629223281307 0.010852350489094418 0 0.001239547519274935 0.010756990112403589 0 0.00081478370781633009 0.0086793198489881138 0 0.00055418813641530619 0.0089548351450150204 0 0.0003749777795917717 0.0064791104629536569 0 0.0012688505955742804 0.0064243228137264817 0 0.0011158699270582709 0.0070640580582774616 0 0.0012688505955742804 0.0064243228137264817 0 0.0018671520443619507 0.0065934774652145842 0 0.0011158699270582709 0.0070640580582774616 0 0.0012688505955742804 0.0064243228137264817 0 0.001519260997793303 0.0059988093572406614 0 0.0018671520443619507 0.0065934774652145842 0 0.0012688505955742804 0.0064243228137264817 0 0.001519260997793303 0.0059988093572406614 0 0.00088665128768773487 0.0058204592607578251 0 0.0003749777795917717 0.0064791104629536569 0 0.0012688505955742804 0.0064243228137264817 0 0.00088665128768773487 0.0058204592607578251 0 0.0011775140412469669 0.010912592333094894 0 0.0011436191441133166 0.010906633386085239 0 0.001158784157078081 0.01091746542924568 0 0.0031217442623166455 0.0060925815690631427 0 0.0026593614819236896 0.0066704760364062676 0 0.0024097697304706553 0.0061761217008831802 0 0.0026593614819236896 0.0066704760364062676 0 0.0018671520443619507 0.0065934774652145842 0 0.0024097697304706553 0.0061761217008831802 0 0.001519260997793303 0.0059988093572406614 0 0.0018671520443619507 0.0065934774652145842 0 0.0020512041260568521 0.0057861601902713866 0 0.0018671520443619507 0.0065934774652145842 0 0.0020512041260568521 0.0057861601902713866 0 0.0024097697304706553 0.0061761217008831802 0 0.0027543419650314527 0.0056649175106888014 0 0.0020512041260568521 0.0057861601902713866 0 0.0024097697304706553 0.0061761217008831802 0 0.0027543419650314527 0.0056649175106888014 0 0.0026811128681304124 0.0051538471958050749 0 0.0023923826198322673 0.0053956236047567798 0 0.0027543419650314527 0.0056649175106888014 0 0.0020512041260568521 0.0057861601902713866 0 0.0023923826198322673 0.0053956236047567798 0 0.0020512041260568521 0.0057861601902713866 0 0.0023923826198322673 0.0053956236047567798 0 0.0020656220731566977 0.0049884161833427419 0 0.0020512041260568521 0.0057861601902713866 0 0.0020656220731566977 0.0049884161833427419 0 0.0014994585438039419 0.0053789899869848522 0 0.0016709224375730241 0.0059621306726116872 0 0.0010416551563169182 0.0059528277454937075 0 0.001217499352718441 0.0063066795610901057 0 0.00043879721931924467 0.0065378161960336755 0 0.0011342682622120959 0.0056206505879103858 0 0.00060576347200526543 0.0092320020909580549 0 0.0012141509941822339 0.0066987714842076445 0 0.0016709224375730241 0.0059621306726116872 0 0.00051172925558823649 0.0016786835632708844 0 0.0026811128681304124 0.0051538471958050749 0 0.0020656220731566977 0.0049884161833427419 0 0.0025605625691004011 0.0046399316573627536 0 0.0026811128681304124 0.0051538471958050749 0 0.0023923826198322673 0.0053956236047567798 0 0.0020656220731566977 0.0049884161833427419 0 0.00064664589958537879 0.0080933840986399178 0 0.00060576347200526543 0.0092320020909580549 0 0.001168462800327931 0.010945299591786244 0 0.0011436191441133166 0.010906633386085239 0 0.0011453347511398084 0.010983305276083766 0 0.00064664589958537879 0.0080933840986399178 0 0.0010416551563169182 0.0059528277454937075 0 0.0011436191441133166 0.010906633386085239 0 0.0011075750367116424 0.010962990644324076 0 0.0011453347511398084 0.010983305276083766 0 0.001168462800327931 0.010945299591786244 0 0.0011436191441133166 0.010906633386085239 0 0.001158784157078081 0.01091746542924568 0 -0.00023879621451043041 0.0074399701625639941 0 0.00048219746002911096 0.0068782036177796289 0 0.00043879721931924467 0.0065378161960336755 0 0.001519260997793303 0.0059988093572406614 0 0.0020512041260568521 0.0057861601902713866 0 0.0014994585438039419 0.0053789899869848522 0 0.001519260997793303 0.0059988093572406614 0 0.00088665128768773487 0.0058204592607578251 0 0.0014994585438039419 0.0053789899869848522 0 0.001217499352718441 0.0063066795610901057 0 0.00048219746002911096 0.0068782036177796289 0 0.00043879721931924467 0.0065378161960336755 0 0.0011075750367116424 0.010962990644324076 0 0.0011453347511398084 0.010983305276083766 0 0.0011333572217285585 0.011036421861407526 0 0.0011453347511398084 0.010983305276083766 0 0.0011333572217285585 0.011036421861407526 0 0.00118279178037274 0.011044809995421515 0 0.0013096715488427255 0.0097072582549837076 0 0.0012141509941822339 0.0066987714842076445 0 0.0011075750367116424 0.010962990644324076 0 0.0011333572217285585 0.011036421861407526 0 0.0010831462016629761 0.010969755548059686 0 0.0012600184060683438 0.0076251475035386419 0 0.0019464642494800097 0.007733226124321535 0 0.0018154580319099428 0.0072131384740134761 0 0.0010215288392725007 0.0072525148912792135 0 0.0017783531115104631 0.0072234000171430305 0 0.0012600184060683438 0.0076251475035386419 0 0.0012008199981206702 0.0073522894123501494 0 0.0018154580319099428 0.0072131384740134761 0 0.0012600184060683438 0.0076251475035386419 0 0.0012008199981206702 0.0073522894123501494 0 0.00087581501346367858 0.007585711958621311 0 0.001217499352718441 0.0063066795610901057 0 0.0019496751858078347 0.005724693729388582 0 0.0011342682622120959 0.0056206505879103858 0 0.00022087733789062042 0.00181669603112284 0 1.4234468822143697e-05 0.0018186139478501276 0 0.00014680686730916958 0.0016114140156520604 0 0.00051172925558823649 0.0016786835632708844 0 0.0012141509941822339 0.0066987714842076445 0 0.0012141509941822339 0.0066987714842076445 0 0.0014092340257979936 0.0041451368177098796 0 0.0019464642494800097 0.007733226124321535 0 0.0018154580319099428 0.0072131384740134761 0 0.002381978548368286 0.0072800611055645493 0 0.0014552765195123627 0.004390214560453712 0 0.0014092340257979936 0.0041451368177098796 0 0.0028823707277550164 0.0066800058115979825 0 0.002381978548368286 0.0072800611055645493 0 0.0022571943543751782 0.0066094766292096128 0 0.0018154580319099428 0.0072131384740134761 0 0.0022571943543751782 0.0066094766292096128 0 0.0017051136957679455 0.0064470508770431796 0 0.0018154580319099428 0.0072131384740134761 0 0.002381978548368286 0.0072800611055645493 0 0.0022571943543751782 0.0066094766292096128 0 0.0022571943543751782 0.0066094766292096128 0 0.0017051136957679455 0.0064470508770431796 0 0.0020740902837250849 0.0059455008233353654 0 0.0014940562140418846 0.0058128543306037702 0 0.0017051136957679455 0.0064470508770431796 0 0.0020740902837250849 0.0059455008233353654 0 0.0028823707277550164 0.0066800058115979825 0 0.0022571943543751782 0.0066094766292096128 0 0.0026855006707834886 0.0060337855941865895 0 0.0022571943543751782 0.0066094766292096128 0 0.0020740902837250849 0.0059455008233353654 0 0.0026855006707834886 0.0060337855941865895 0 0.00091796962309141281 0.0067627674102114597 0 0.0012503482972900607 0.006778065778911449 0 0.001055821420133943 0.0063371137302335083 0 0.00091796962309141281 0.0067627674102114597 0 0.00071981061724686688 0.0064874953203473808 0 0.00055431635964592015 0.0070987228805284887 0 0.00079398616404540042 0.0071445354627421888 0 0.00091796962309141281 0.0067627674102114597 0 0.00055431635964592015 0.0070987228805284887 0 0.00079398616404540042 0.0071445354627421888 0 0.00091796962309141281 0.0067627674102114597 0 0.0012503482972900607 0.006778065778911449 0 0.0018154580319099428 0.0072131384740134761 0 0.0017051136957679455 0.0064470508770431796 0 0.0012503482972900607 0.006778065778911449 0 0.00079398616404540042 0.0071445354627421888 0 0.0018154580319099428 0.0072131384740134761 0 0.0012503482972900607 0.006778065778911449 0 0.0017051136957679455 0.0064470508770431796 0 0.0012503482972900607 0.006778065778911449 0 0.001055821420133943 0.0063371137302335083 0 0.0014940562140418846 0.0058128543306037702 0 0.0017051136957679455 0.0064470508770431796 0 0.001055821420133943 0.0063371137302335083 0 0.0010212227008208014 0.0058445552559040024 0 0.0014940562140418846 0.0058128543306037702 0 0.001055821420133943 0.0063371137302335083 0 0.0010212227008208014 0.0058445552559040024 0 0.001055821420133943 0.0063371137302335083 0 0.00071842189378163856 0.0061369184109407995 0 0.00091796962309141281 0.0067627674102114597 0 0.001055821420133943 0.0063371137302335083 0 0.00071981061724686688 0.0064874953203473808 0 0.001055821420133943 0.0063371137302335083 0 0.00071981061724686688 0.0064874953203473808 0 0.00071842189378163856 0.0061369184109407995 0 0.00047962350699238079 0.0071456336655956838 0 0.0004650522320405423 0.0071477722039431724 0 0.00055431635964592015 0.0070987228805284887 0 0.00046787420239394651 0.0059605168626438131 0 0.00071842189378163856 0.0061369184109407995 0 0.00036892483790524781 0.0060830327115392081 0 0.00044489393069602776 0.0066280708932446031 0 0.00053660885568634702 0.0070713352135391844 0 0.00071981061724686688 0.0064874953203473808 0 0.00071842189378163856 0.0061369184109407995 0 0.00036892483790524781 0.0060830327115392081 0 0.00071981061724686688 0.0064874953203473808 0 0.00036892483790524781 0.0060830327115392081 0 0.00055431635964592015 0.0070987228805284887 0 0.00047962350699238079 0.0071456336655956838 0 0.0004650522320405423 0.0071477722039431724 0 0.00042560798916594934 0.0071526873993907353 0 0.00046966694059364674 0.0070832205328540893 0 0.00047962350699238079 0.0071456336655956838 0 0.00042560798916594934 0.0071526873993907353 0 0.00079398616404540042 0.0071445354627421888 0 0.00055431635964592015 0.0070987228805284887 0 0.00036520925662005557 0.0072362834628701645 0 0.0004650522320405423 0.0071477722039431724 0 0.00044744463822221127 0.0071613842597161937 0 0.00055431635964592015 0.0070987228805284887 0 0.00044744463822221127 0.0071613842597161937 0 0.00055431635964592015 0.0070987228805284887 0 0.00036520925662005557 0.0072362834628701645 0 0.00038407437890926386 0.0072102214188549145 0 0.00032466157936778385 0.0072765269860211295 0 0.00036520925662005557 0.0072362834628701645 0 0.00044744463822221127 0.0071613842597161937 0 0.00038407437890926386 0.0072102214188549145 0 0.00036520925662005557 0.0072362834628701645 0 0.00044744463822221127 0.0071613842597161937 0 0.00038407437890926386 0.0072102214188549145 0 0.00042657168643115377 0.0071717839200355965 0 0.00038407437890926386 0.0072102214188549145 0 0.00042657168643115377 0.0071717839200355965 0 0.00037318663232970044 0.0072070524125779035 0 0.0004650522320405423 0.0071477722039431724 0 0.00044744463822221127 0.0071613842597161937 0 0.00042657168643115377 0.0071717839200355965 0 0.00038407437890926386 0.0072102214188549145 0 0.00037318663232970044 0.0072070524125779035 0 0.00032466157936778385 0.0072765269860211295 0 0.00037318663232970044 0.0072070524125779035 0 0.00042560798916594934 0.0071526873993907353 0 0.00034894793450624865 0.0071950168503125663 0 0.0004650522320405423 0.0071477722039431724 0 0.00042657168643115377 0.0071717839200355965 0 0.00042560798916594934 0.0071526873993907353 0 0.00042657168643115377 0.0071717839200355965 0 0.00037318663232970044 0.0072070524125779035 0 0.00042560798916594934 0.0071526873993907353 0 0.00033641579704508999 0.0071349838119927475 0 0.00042560798916594934 0.0071526873993907353 0 0.00034894793450624865 0.0071950168503125663 0 0.00033641579704508999 0.0071349838119927475 0 0.00028090091538102759 0.0072108480054922063 0 0.00034894793450624865 0.0071950168503125663 0 0.00025056976785765904 0.0071349651500912919 0 0.00033641579704508999 0.0071349838119927475 0 0.00028090091538102759 0.0072108480054922063 0 0.00028090091538102759 0.0072108480054922063 0 0.00026299465291464738 0.0072788186356138613 0 0.00031351763664676138 0.0072481239307937272 0 0.00037318663232970044 0.0072070524125779035 0 0.00031351763664676138 0.0072481239307937272 0 0.00034894793450624865 0.0071950168503125663 0 0.00028090091538102759 0.0072108480054922063 0 0.00031351763664676138 0.0072481239307937272 0 0.00034894793450624865 0.0071950168503125663 0 0.00025056976785765904 0.0071349651500912919 0 0.00028090091538102759 0.0072108480054922063 0 0.00019018599937075932 0.0072671669457072203 0 0.00028090091538102759 0.0072108480054922063 0 0.00026299465291464738 0.0072788186356138613 0 0.00019018599937075932 0.0072671669457072203 0 0.00026299465291464738 0.0072788186356138613 0 0.00019018599937075932 0.0072671669457072203 0 0.00023266913473779369 0.0073365570216875498 0 0.00043445004540432262 0.0076224193022339836 0 0.00048684014021989694 0.0074793021895604864 0 7.5797589581113321e-05 0.0075014982212591183 0 0.00016984348509353002 0.0073822081720204052 0 0.00026391897422776387 0.0073655241443324687 0 0.00019018599937075932 0.0072671669457072203 0 0.00016984348509353002 0.0073822081720204052 0 0.00023266913473779369 0.0073365570216875498 0 0.00023266913473779369 0.0073365570216875498 0 0.00026391897422776387 0.0073655241443324687 0 0.00028253853506490453 0.0073035331202368917 0 0.00016984348509353002 0.0073822081720204052 0 0.00023266913473779369 0.0073365570216875498 0 0.00026391897422776387 0.0073655241443324687 0 0.00026391897422776387 0.0073655241443324687 0 0.00032466157936778385 0.0072765269860211295 0 0.00036520925662005557 0.0072362834628701645 0 0.00048684014021989694 0.0074793021895604864 0 0.00061289932575088902 0.0073595908921355252 0 0.00037318663232970044 0.0072070524125779035 0 0.00031351763664676138 0.0072481239307937272 0 0.00032466157936778385 0.0072765269860211295 0 0.00031351763664676138 0.0072481239307937272 0 0.00028253853506490453 0.0073035331202368917 0 0.00032466157936778385 0.0072765269860211295 0 0.00026299465291464738 0.0072788186356138613 0 0.00031351763664676138 0.0072481239307937272 0 0.00028253853506490453 0.0073035331202368917 0 0.00026299465291464738 0.0072788186356138613 0 0.00023266913473779369 0.0073365570216875498 0 0.00028253853506490453 0.0073035331202368917 0 0.00026391897422776387 0.0073655241443324687 0 0.00028253853506490453 0.0073035331202368917 0 0.00032466157936778385 0.0072765269860211295 0 0.0013549531431886687 0.011204205395151799 0 0.00130288411885838 0.01113970669603806 0 0.0012240812394912054 0.011120987049138399 0 0.00072485214887886714 0.0075993448523274578 0 0.00072827852858505025 0.0076107016825097554 0 0.00085346052170386588 0.0074830514993376729 0 0.0014973481822127825 0.011261634057283075 0 0.0013549531431886687 0.011204205395151799 0 0.0014421073589197301 0.011209234716719007 0 0.0013549531431886687 0.011204205395151799 0 0.0014421073589197301 0.011209234716719007 0 0.0014009631521253046 0.011182841647539429 0 0.0010856522182600388 0.0094568837708749881 0 0.0010565631517790136 0.009417726012512527 0 0.00073844887411986379 0.0076845918976546738 0 0.00072485214887886714 0.0075993448523274578 0 0.00072827852858505025 0.0076107016825097554 0 0.0013549531431886687 0.011204205395151799 0 0.0014009631521253046 0.011182841647539429 0 0.0013598893419926538 0.011143757339571445 0 0.0013835658125598376 0.011107038799385146 0 0.0014446140143619297 0.011175599802107049 0 0.0013598893419926538 0.011143757339571445 0 0.0014446140143619297 0.011175599802107049 0 0.0014009631521253046 0.011182841647539429 0 0.0013598893419926538 0.011143757339571445 0 0.0014421073589197301 0.011209234716719007 0 0.0014446140143619297 0.011175599802107049 0 0.0014009631521253046 0.011182841647539429 0 0.0014579092863377769 0.011126033975018487 0 0.0013835658125598376 0.011107038799385146 0 0.0014446140143619297 0.011175599802107049 0 0.0013835658125598376 0.011107038799385146 0 0.0013598893419926538 0.011143757339571445 0 0.0013010924414184283 0.01109608254932966 0 0.00130288411885838 0.01113970669603806 0 0.0013598893419926538 0.011143757339571445 0 0.0013010924414184283 0.01109608254932966 0 0.0013549531431886687 0.011204205395151799 0 0.00130288411885838 0.01113970669603806 0 0.0013598893419926538 0.011143757339571445 0 0.00130288411885838 0.01113970669603806 0 0.0012574822892126661 0.011095558246079086 0 0.0012240812394912054 0.011120987049138399 0 0.0012416669191108764 0.011046067371036642 0 0.0013010924414184283 0.01109608254932966 0 0.0012574822892126661 0.011095558246079086 0 0.00130288411885838 0.01113970669603806 0 0.0013010924414184283 0.01109608254932966 0 0.0012574822892126661 0.011095558246079086 0 0.0012574822892126661 0.011095558246079086 0 0.0012261653525125862 0.011076698975346759 0 0.0012240812394912054 0.011120987049138399 0 0.0012416669191108764 0.011046067371036642 0 0.0012574822892126661 0.011095558246079086 0 0.0012261653525125862 0.011076698975346759 0 0.0012416669191108764 0.011046067371036642 0 0.0012261653525125862 0.011076698975346759 0 0.00118279178037274 0.011044809995421515 0 0.0011333572217285585 0.011036421861407526 0 0.00118279178037274 0.011044809995421515 0 0.0012240812394912054 0.011120987049138399 0 0.0012261653525125862 0.011076698975346759 0 0.00118279178037274 0.011044809995421515 0 0.0012240812394912054 0.011120987049138399 0 0.0013096715488427255 0.0097072582549837076 0 0.0010220627462022567 0.0093002606123344864 0 0.0010215288392725007 0.0072525148912792135 0 0.00061289932575088902 0.0073595908921355252 0 0.0012008199981206702 0.0073522894123501494 0 0.00085346052170386588 0.0074830514993376729 0 0.00087581501346367858 0.007585711958621311 0 0.00072827852858505025 0.0076107016825097554 0 0.00085346052170386588 0.0074830514993376729 0 0.00087581501346367858 0.007585711958621311 0 0.0010565631517790136 0.009417726012512527 0 0.0010220627462022567 0.0093002606123344864 0 7.9415126810277161e-05 0.024882699236341517 0 0.00031842224581438687 0.024604950730276014 0 0.00014570120299604487 0.02462280071024861 0 3.2518963463767305e-09 0.024998991344533851 0 7.9415126810277161e-05 0.024882699236341517 0 0.00014570120299604487 0.02462280071024861 0 3.2518963463767305e-09 0.024998991344533851 0 7.9415126810277161e-05 0.024882699236341517 0 2.8162431698697877e-08 0.025000172476297031 0 0.00037777200727161681 0.024570751492906346 0 0.00021848389539653359 0.024557296273211394 0 7.9415126810277161e-05 0.024882699236341517 0 0.00031842224581438687 0.024604950730276014 0 0.00011614315031806876 0.025024994957086079 0 0.00015397603197481803 0.024361463855640437 0 0.00031842224581438687 0.024604950730276014 0 0.00024134527253840738 0.024086352598144747 0 0.00031842224581438687 0.024604950730276014 0 0.00024134527253840738 0.024086352598144747 0 0.00063247123026707202 0.024004201930682645 0 0.00015397603197481803 0.024361463855640437 0 9.548407087022719e-06 0.02410359429279961 0 0.00024134527253840738 0.024086352598144747 0 0.00015397603197481803 0.024361463855640437 0 0.00019198109579754674 0.024494342923465907 0 4.0432793492786738e-05 0.024365751243819445 0 0.00015397603197481803 0.024361463855640437 0 0.00019198109579754674 0.024494342923465907 0 0.00031842224581438687 0.024604950730276014 0 0.00019198109579754674 0.024494342923465907 0 0.00031842224581438687 0.024604950730276014 0 0.00023564691478082195 0.024563592180094684 0 0.00019198109579754674 0.024494342923465907 0 0.00015248259795090717 0.024536429308165034 0 4.0432793492786738e-05 0.024365751243819445 0 0.00019198109579754674 0.024494342923465907 0 0.00023564691478082195 0.024563592180094684 0 0.00015248259795090717 0.024536429308165034 0 -8.6632374358323685e-05 0.023034142369253344 0 -0.00010544363160154975 0.023709244645297462 0 -9.9583665643652216e-05 0.023135739708707477 0 1.8056867756959843e-05 0.023753254281266959 0 -1.5372807335185468e-05 0.024362881252406918 0 -8.6632374358323685e-05 0.023034142369253344 0 -0.00010544363160154975 0.023709244645297462 0 -9.9850097880998338e-05 0.023741914826136603 0 0.00023564691478082195 0.024563592180094684 0 0.00015248259795090717 0.024536429308165034 0 0.00021889083944560131 0.024553511152195225 0 6.3699486876725895e-05 0.024126223471995428 0 -1.5372807335185468e-05 0.024362881252406918 0 -9.4020482315600529e-05 0.023826885127301252 0 -2.7907188758078381e-08 0.024998654587011577 0 -6.6006113122318687e-05 0.024204003275282809 0 -1.5372807335185468e-05 0.024362881252406918 0 7.2142552001523485e-05 0.024866491345474886 0 4.8656334241364669e-06 0.024990431736016824 0 2.1032039484695573e-06 0.024998896197481104 0 1.4121631684174403e-06 0.024997500210833818 0 -0.00010544363160154975 0.023709244645297462 0 -9.4020482315600529e-05 0.023826885127301252 0 -6.6006113122318687e-05 0.024204003275282809 0 0.00031842224581438687 0.024604950730276014 0 0.00023564691478082195 0.024563592180094684 0 0.00014570120299604487 0.02462280071024861 0 0.00023564691478082195 0.024563592180094684 0 0.00021889083944560131 0.024553511152195225 0 0.00014570120299604487 0.02462280071024861 0 5.7192974879167729e-08 0.024999872189784209 0 7.2142552001523485e-05 0.024866491345474886 0 -4.1019528718616932e-10 0.025000001610105151 0 2.1032039484695573e-06 0.024998896197481104 0 1.59921345109516e-09 0.024999998188695475 0 2.1032039484695573e-06 0.024998896197481104 0 1.59921345109516e-09 0.024999998188695475 0 1.4121631684174403e-06 0.024997500210833818 0 1.59921345109516e-09 0.024999998188695475 0 -1.3874463420930453e-09 0.024999991015167027 0 1.4121631684174403e-06 0.024997500210833818 0 -1.5372807335185468e-05 0.024362881252406918 0 -3.2668819326735831e-07 0.024999797786721407 0 4.8656334241364669e-06 0.024990431736016824 0 -1.3874463420930453e-09 0.024999991015167027 0 1.4121631684174403e-06 0.024997500210833818 0 -2.7907188758078381e-08 0.024998654587011577 0 -6.6006113122318687e-05 0.024204003275282809 0 -3.8740679306351173e-08 0.024999267031745306 0 -3.7278213751339324e-07 0.02499904440421237 0 -7.5930769984763733e-05 0.022488962472857702 0 2.3518722247858596e-07 0.020020221823346483 0 -0.00010544363160154975 0.023709244645297462 0 -6.6006113122318687e-05 0.024204003275282809 0 -0.00011534281229288367 0.023612285218594525 0 -6.6006113122318687e-05 0.024204003275282809 0 -9.8832649853539638e-05 0.024000448611022612 0 -0.00011534281229288367 0.023612285218594525 0 -6.6006113122318687e-05 0.024204003275282809 0 -9.8832649853539638e-05 0.024000448611022612 0 -3.8740679306351173e-08 0.024999267031745306 0 -8.7357733447191989e-05 0.023934227059517258 0 -4.5179954897719422e-08 0.024999615127702487 0 -7.7734177117451576e-05 0.02391333755742707 0 9.8592156734841591e-08 0.024997964905868388 0 -3.7278213751339324e-07 0.02499904440421237 0 -7.7734177117451576e-05 0.02391333755742707 0 -3.7278213751339324e-07 0.02499904440421237 0 -7.5930769984763733e-05 0.022488962472857702 0 -7.7734177117451576e-05 0.02391333755742707 0 -7.5930769984763733e-05 0.022488962472857702 0 -8.8723457688635483e-05 0.022910852471851664 0 -8.8723457688635483e-05 0.022910852471851664 0 -9.9583665643652216e-05 0.023135739708707477 0 -8.7964113712909592e-06 0.022551957360953039 0 -7.5930769984763733e-05 0.022488962472857702 0 -8.8723457688635483e-05 0.022910852471851664 0 -8.7964113712909592e-06 0.022551957360953039 0 -9.8832649853539638e-05 0.024000448611022612 0 -8.8723457688635483e-05 0.022910852471851664 0 -0.00011534281229288367 0.023612285218594525 0 -8.7357733447191989e-05 0.023934227059517258 0 -8.0181127508100687e-05 0.023101058614227878 0 -0.00010544363160154975 0.023709244645297462 0 -0.00011534281229288367 0.023612285218594525 0 -9.9583665643652216e-05 0.023135739708707477 0 -8.6632374358323685e-05 0.023034142369253344 0 -9.9583665643652216e-05 0.023135739708707477 0 5.750105990499663e-05 0.022567224780151121 0 -8.8723457688635483e-05 0.022910852471851664 0 -0.00011534281229288367 0.023612285218594525 0 -9.9583665643652216e-05 0.023135739708707477 0 -9.9583665643652216e-05 0.023135739708707477 0 5.750105990499663e-05 0.022567224780151121 0 -8.7964113712909592e-06 0.022551957360953039 0 5.750105990499663e-05 0.022567224780151121 0 0.00010890029841484225 0.022289427025693767 0 -8.7964113712909592e-06 0.022551957360953039 0 5.750105990499663e-05 0.022567224780151121 0 0.00010890029841484225 0.022289427025693767 0 0.00038572209768292725 0.022076230990596871 0 5.750105990499663e-05 0.022567224780151121 0 0.00038572209768292725 0.022076230990596871 0 0.00024595320325334084 0.022515548671708643 0 9.1033739462301281e-05 0.021986447908149652 0 0.00011315057570522561 0.021465050824573464 0 0.00099624585284409503 0.021494999974395062 0 0.00010890029841484225 0.022289427025693767 0 9.1033739462301281e-05 0.021986447908149652 0 0.00038572209768292725 0.022076230990596871 0 -7.5930769984763733e-05 0.022488962472857702 0 9.1033739462301281e-05 0.021986447908149652 0 -8.7964113712909592e-06 0.022551957360953039 0 0.00010890029841484225 0.022289427025693767 0 9.1033739462301281e-05 0.021986447908149652 0 -8.7964113712909592e-06 0.022551957360953039 0 -7.5930769984763733e-05 0.022488962472857702 0 9.1033739462301281e-05 0.021986447908149652 0 0.00011315057570522561 0.021465050824573464 0 -7.5930769984763733e-05 0.022488962472857702 0 0.00011315057570522561 0.021465050824573464 0 2.3518722247858596e-07 0.020020221823346483 0 0.00011315057570522561 0.021465050824573464 0 2.3518722247858596e-07 0.020020221823346483 0 4.2776272993811759e-05 0.019996419794822119 0 6.3924376440736215e-05 0.021287913300616468 0 0.00041845128693630671 0.020614401510287959 0 0.00011315057570522561 0.021465050824573464 0 0.00092780969284294982 0.021166046697231287 0 0.00099624585284409503 0.021494999974395062 0 2.3518722247858596e-07 0.020020221823346483 0 4.2776272993811759e-05 0.019996419794822119 0 4.1005387862770999e-05 0.018692313360596138 0 0.00041845128693630671 0.020614401510287959 0 0.00071299055199113221 0.019818620482709229 0 0.00092780969284294982 0.021166046697231287 0 0.00099624585284409503 0.021494999974395062 0 0.0015024438608630742 0.020928719494728951 0 0.0006371392909605354 0.02146059726415387 0 0.00088278678403100471 0.021418005236728144 0 0.0011708200989612877 0.020923518096390609 0 0.0006371392909605354 0.02146059726415387 0 0.00088278678403100471 0.021418005236728144 0 0.00065020903059996734 0.021741450908916736 0 0.00080959153724160572 0.021491849848565531 0 0.0014086489313607908 0.021021259440288435 0 0.0001272291607259247 0.021905987691166546 0 0.00080959153724160572 0.021491849848565531 0 9.1033739462301281e-05 0.021986447908149652 0 0.0006371392909605354 0.02146059726415387 0 0.00038572209768292725 0.022076230990596871 0 0.0006371392909605354 0.02146059726415387 0 0.00038572209768292725 0.022076230990596871 0 0.00065020903059996734 0.021741450908916736 0 0.00038572209768292725 0.022076230990596871 0 0.00065020903059996734 0.021741450908916736 0 0.00056526247255967517 0.022019732684695321 0 0.00088278678403100471 0.021418005236728144 0 0.00065020903059996734 0.021741450908916736 0 0.00083713097801482099 0.021679674901730325 0 0.00065020903059996734 0.021741450908916736 0 0.00083713097801482099 0.021679674901730325 0 0.00056526247255967517 0.022019732684695321 0 0.00083713097801482099 0.021679674901730325 0 0.00072976516490136497 0.0220683464455593 0 0.00056526247255967517 0.022019732684695321 0 0.00083713097801482099 0.021679674901730325 0 0.00072976516490136497 0.0220683464455593 0 0.0010562069763858015 0.021585094675890617 0 -0.00010122563487966155 0.02425952154038408 0 -0.00011838897458588733 0.024107235809665974 0 -0.00021479526522125199 0.024126853355246163 0 -0.00010122563487966155 0.02425952154038408 0 1.0417656916213438e-05 0.02439585911652745 0 -3.1501507279923087e-05 0.024246111276406156 0 0.00038572209768292725 0.022076230990596871 0 0.00056526247255967517 0.022019732684695321 0 0.00024595320325334084 0.022515548671708643 0 0.00030591254747283457 0.023090785434205435 0 0.00011082121426598965 0.023469480856059575 0 0.00072976516490136497 0.0220683464455593 0 0.00056526247255967517 0.022019732684695321 0 0.00024595320325334084 0.022515548671708643 0 0.00015248259795090717 0.024536429308165034 0 1.0417656916213438e-05 0.02439585911652745 0 4.0432793492786738e-05 0.024365751243819445 0 -8.6632374358323685e-05 0.023034142369253344 0 5.750105990499663e-05 0.022567224780151121 0 0.00024595320325334084 0.022515548671708643 0 1.8056867756959843e-05 0.023753254281266959 0 0.00011082121426598965 0.023469480856059575 0 1.0417656916213438e-05 0.02439585911652745 0 4.0432793492786738e-05 0.024365751243819445 0 -3.1501507279923087e-05 0.024246111276406156 0 4.0432793492786738e-05 0.024365751243819445 0 1.3282926146795449e-05 0.024121670421146137 0 -3.1501507279923087e-05 0.024246111276406156 0 4.0432793492786738e-05 0.024365751243819445 0 -0.00037243841707975208 0.024210813028030565 0 9.548407087022719e-06 0.02410359429279961 0 0.00015397603197481803 0.024361463855640437 0 4.0432793492786738e-05 0.024365751243819445 0 9.548407087022719e-06 0.02410359429279961 0 6.8192171690656118e-05 0.024391096306038071 0 -0.00030238131882438503 0.02401641950665425 0 1.3282926146795449e-05 0.024121670421146137 0 -0.00011838897458588733 0.024107235809665974 0 -6.2639450678272921e-05 0.023932042903564051 0 -0.00011838897458588733 0.024107235809665974 0 -0.00016194004686037274 0.02392635038263987 0 -6.2639450678272921e-05 0.023932042903564051 0 -0.00010122563487966155 0.02425952154038408 0 -0.00011838897458588733 0.024107235809665974 0 -3.1501507279923087e-05 0.024246111276406156 0 1.3282926146795449e-05 0.024121670421146137 0 -0.00011838897458588733 0.024107235809665974 0 -3.1501507279923087e-05 0.024246111276406156 0 -0.00020965987782572905 0.02402519897293753 0 -0.00025331809355533648 0.02399874263336647 0 -0.00021479526522125199 0.024126853355246163 0 -0.00011838897458588733 0.024107235809665974 0 -0.00020965987782572905 0.02402519897293753 0 -0.00021479526522125199 0.024126853355246163 0 -0.00011838897458588733 0.024107235809665974 0 -0.00020965987782572905 0.02402519897293753 0 -0.00016194004686037274 0.02392635038263987 0 -0.00020965987782572905 0.02402519897293753 0 -0.00024101669846664684 0.023908782130767602 0 -0.00016194004686037274 0.02392635038263987 0 -0.0007560319194239171 0.016564521076321458 0 -0.00076769347453546166 0.016831204522395681 0 -0.00020965987782572905 0.02402519897293753 0 -0.00025331809355533648 0.02399874263336647 0 -0.00024101669846664684 0.023908782130767602 0 -0.00091739348496103462 0.0097491884402787932 0 -0.00091548856832146281 0.0096193171377162972 0 -0.0013222807910866754 0.0098314388788541211 0 -0.00091739348496103462 0.0097491884402787932 0 -0.00081757180982170916 0.0095803190128787956 0 -0.00091548856832146281 0.0096193171377162972 0 -0.00081757180982170916 0.0095803190128787956 0 -0.00082668298814274354 0.009619947657853567 0 -0.00091548856832146281 0.0096193171377162972 0 -0.00082668298814274354 0.009619947657853567 0 -0.00091548856832146281 0.0096193171377162972 0 -0.00081943928997078028 0.0096884059723837228 0 -0.0007560319194239171 0.016564521076321458 0 0.0012084610745906595 0.018792316448199391 0 0.0012084610745906595 0.018792316448199391 0 0.00043613577561882165 0.023442121804628183 0 -0.00025331809355533648 0.02399874263336647 0 -0.00025997107882276674 0.024016829298113839 0 -0.00021479526522125199 0.024126853355246163 0 0.0017993256369550489 0.021450273352638324 0 0.0016210816802025951 0.021207380921522238 0 0.0012266059582234435 0.021681136104669936 0 0.003102676842446128 0.018446719386939262 0 0.0026485033635659239 0.019138817813388793 0 0.0017164789764907893 0.018245877519633635 0 0.0012084610745906595 0.018792316448199391 0 0.00032353312565236599 0.013333826624065463 0 -0.00082668298814274354 0.009619947657853567 0 -0.00081943928997078028 0.0096884059723837228 0 -0.0008681249944663997 0.0097012454755388434 0 0.0012084610745906595 0.018792316448199391 0 0.0022130235351580422 0.020073211338866012 0 0.0022130235351580422 0.020073211338866012 0 0.002131421918807361 0.020131588741785066 0 0.0017993256369550489 0.021450273352638324 0 0.0019828939477388717 0.020984828190368364 0 0.0016210816802025951 0.021207380921522238 0 0.0019828939477388717 0.020984828190368364 0 0.0016210816802025951 0.021207380921522238 0 0.0017754195942649227 0.02067996852949382 0 0.0016210816802025951 0.021207380921522238 0 0.0013923982498956183 0.021200769508632075 0 0.0017754195942649227 0.02067996852949382 0 0.0016210816802025951 0.021207380921522238 0 0.0012266059582234435 0.021681136104669936 0 0.0013923982498956183 0.021200769508632075 0 0.0012266059582234435 0.021681136104669936 0 0.0010562069763858015 0.021585094675890617 0 0.0013923982498956183 0.021200769508632075 0 0.00030591254747283457 0.023090785434205435 0 0.00043613577561882165 0.023442121804628183 0 0.00072976516490136497 0.0220683464455593 0 0.0012266059582234435 0.021681136104669936 0 0.0010562069763858015 0.021585094675890617 0 0.00083713097801482099 0.021679674901730325 0 0.0010562069763858015 0.021585094675890617 0 0.0011258192218900444 0.021272410903002095 0 2.3518722247858596e-07 0.020020221823346483 0 4.1005387862770999e-05 0.018692313360596138 0 3.1407995711597948e-07 0.016293987753812238 0 0.0010562069763858015 0.021585094675890617 0 0.0011258192218900444 0.021272410903002095 0 0.0013923982498956183 0.021200769508632075 0 0.00088278678403100471 0.021418005236728144 0 0.00083713097801482099 0.021679674901730325 0 0.0011258192218900444 0.021272410903002095 0 0.0011258192218900444 0.021272410903002095 0 0.0014654117925620846 0.020921711775434084 0 0.0013923982498956183 0.021200769508632075 0 0.0014086489313607908 0.021021259440288435 0 0.001846257860617417 0.020643515650962313 0 0.0014654117925620846 0.020921711775434084 0 0.0011708200989612877 0.020923518096390609 0 0.0017913462981062123 0.020500651701268194 0 0.0011258192218900444 0.021272410903002095 0 0.0014654117925620846 0.020921711775434084 0 0.0011708200989612877 0.020923518096390609 0 0.00088278678403100471 0.021418005236728144 0 0.0011258192218900444 0.021272410903002095 0 0.0011708200989612877 0.020923518096390609 0 0.00099624585284409503 0.021494999974395062 0 0.0016256017969249316 0.021113788432299885 0 0.0015024438608630742 0.020928719494728951 0 4.1005387862770999e-05 0.018692313360596138 0 2.6709331560863767e-05 0.017443083641036767 0 3.1407995711597948e-07 0.016293987753812238 0 0.0016256017969249316 0.021113788432299885 0 0.0015024438608630742 0.020928719494728951 0 0.0018491340392929559 0.020759615499470127 0 0.0016256017969249316 0.021113788432299885 0 0.0018491340392929559 0.020759615499470127 0 0.0019383972249951236 0.020770972093547901 0 0.00071299055199113221 0.019818620482709229 0 0.00088180975568179925 0.019096953612962528 0 3.1407995711597948e-07 0.016293987753812238 0 -1.8263696051901277e-06 0.016166164764442333 0 -3.9522062196067861e-05 0.014937593537789543 0 2.6709331560863767e-05 0.017443083641036767 0 3.1407995711597948e-07 0.016293987753812238 0 -1.8263696051901277e-06 0.016166164764442333 0 0.00088180975568179925 0.019096953612962528 0 0.0008691006504259319 0.018547453720176171 0 0.0018491340392929559 0.020759615499470127 0 0.0019296209078803481 0.020687356060854329 0 0.0019383972249951236 0.020770972093547901 0 0.0019296209078803481 0.020687356060854329 0 0.0019383972249951236 0.020770972093547901 0 0.00180061609187068 0.020419416895329178 0 0.001846257860617417 0.020643515650962313 0 0.001794974574959615 0.020451154794735256 0 0.0019430299182358101 0.020337080229205415 0 0.0017913462981062123 0.020500651701268194 0 0.0017754195942649227 0.02067996852949382 0 0.0019430299182358101 0.020337080229205415 0 0.0017913462981062123 0.020500651701268194 0 0.00180061609187068 0.020419416895329178 0 0.0014654117925620846 0.020921711775434084 0 0.0017913462981062123 0.020500651701268194 0 0.0017754195942649227 0.02067996852949382 0 0.0014654117925620846 0.020921711775434084 0 0.0013923982498956183 0.021200769508632075 0 0.0017754195942649227 0.02067996852949382 0 0.0019430299182358101 0.020337080229205415 0 0.0017754195942649227 0.02067996852949382 0 0.0020879683104964328 0.020088700979193883 0 0.0019828939477388717 0.020984828190368364 0 0.0017754195942649227 0.02067996852949382 0 0.0020879683104964328 0.020088700979193883 0 0.0019430299182358101 0.020337080229205415 0 0.0020879683104964328 0.020088700979193883 0 0.0016265120634379004 0.020028647232010553 0 0.0020879683104964328 0.020088700979193883 0 0.0016265120634379004 0.020028647232010553 0 0.0015565722604464905 0.019202897298716146 0 0.0016265120634379004 0.020028647232010553 0 0.00097007986391308028 0.019245101518897349 0 0.0015565722604464905 0.019202897298716146 0 0.0016265120634379004 0.020028647232010553 0 0.0014825999240489192 0.020417081787504343 0 0.00098596638744495634 0.02027482606898966 0 0.0016265120634379004 0.020028647232010553 0 0.00098596638744495634 0.02027482606898966 0 0.00097007986391308028 0.019245101518897349 0 0.0019430299182358101 0.020337080229205415 0 0.0016265120634379004 0.020028647232010553 0 0.00180061609187068 0.020419416895329178 0 0.0016265120634379004 0.020028647232010553 0 0.00180061609187068 0.020419416895329178 0 0.0014825999240489192 0.020417081787504343 0 0.0019296209078803481 0.020687356060854329 0 0.00180061609187068 0.020419416895329178 0 0.001703217513228941 0.020575795034775881 0 0.0008691006504259319 0.018547453720176171 0 0.00076994850405163898 0.016682787608103922 0 -1.8263696051901277e-06 0.016166164764442333 0 -3.9445846606864351e-05 0.014868862362336388 0 -3.9522062196067861e-05 0.014937593537789543 0 0.0019296209078803481 0.020687356060854329 0 0.0016003861640548661 0.02075117688158162 0 0.001703217513228941 0.020575795034775881 0 3.1407995711597948e-07 0.016293987753812238 0 -3.9522062196067861e-05 0.014937593537789543 0 -1.1750236367158182e-06 0.0135294360594126 0 0.00076994850405163898 0.016682787608103922 0 0.0005361251697761785 0.016420547062141029 0 0.0016003861640548661 0.02075117688158162 0 0.001703217513228941 0.020575795034775881 0 0.0014825999240489192 0.020417081787504343 0 0.00180061609187068 0.020419416895329178 0 0.001703217513228941 0.020575795034775881 0 0.0014825999240489192 0.020417081787504343 0 0.00076994850405163898 0.016682787608103922 0 0.00024831729689542471 0.01728332601300395 0 -0.00011397466930428058 0.014479449554665463 0 -0.00029329924472919845 0.013847491773471547 0 -0.00062609046657664737 0.013920118157341775 0 0.0016003861640548661 0.02075117688158162 0 0.0014825999240489192 0.020417081787504343 0 0.00098596638744495634 0.02027482606898966 0 8.8936913245566291e-05 0.014464428519785919 0 -0.00011397466930428058 0.014479449554665463 0 -0.00062609046657664737 0.013920118157341775 0 -5.537670712233247e-05 0.014792311566617722 0 -0.00011397466930428058 0.014479449554665463 0 -3.9522062196067861e-05 0.014937593537789543 0 0.00076994850405163898 0.016682787608103922 0 0.00022286482421577809 0.016153171340709975 0 -0.00011397466930428058 0.014479449554665463 0 -3.9522062196067861e-05 0.014937593537789543 0 -1.1750236367158182e-06 0.0135294360594126 0 -0.00010292547541000121 0.012713179203607717 0 -1.1750236367158182e-06 0.0135294360594126 0 -0.00040152144043303564 0.013447836722482396 0 -0.00011397466930428058 0.014479449554665463 0 -1.1750236367158182e-06 0.0135294360594126 0 -0.00029329924472919845 0.013847491773471547 0 -1.1750236367158182e-06 0.0135294360594126 0 -0.00029329924472919845 0.013847491773471547 0 -0.00040152144043303564 0.013447836722482396 0 -0.00029329924472919845 0.013847491773471547 0 -0.00040152144043303564 0.013447836722482396 0 -0.00062609046657664737 0.013920118157341775 0 -0.00010292547541000121 0.012713179203607717 0 -0.00020475105901602913 0.013816340203536134 0 -0.00040152144043303564 0.013447836722482396 0 -0.00020475105901602913 0.013816340203536134 0 -0.00040152144043303564 0.013447836722482396 0 -0.00095465323958043445 0.01490856608006166 0 -0.00040152144043303564 0.013447836722482396 0 -0.00062609046657664737 0.013920118157341775 0 -0.00095465323958043445 0.01490856608006166 0 0.00024831729689542471 0.01728332601300395 0 -0.00021716687918324628 0.017125731866814261 0 0.00098596638744495634 0.02027482606898966 0 0.00097007986391308028 0.019245101518897349 0 0.00032357343664667624 0.019220662177342293 0 0.00097007986391308028 0.019245101518897349 0 0.00032357343664667624 0.019220662177342293 0 0.00045195743398605788 0.018379495105554349 0 0.00022043133603814744 0.01776956264914106 0 0.00032357343664667624 0.019220662177342293 0 0.00045195743398605788 0.018379495105554349 0 0.00022043133603814744 0.01776956264914106 0 0.00028890158141527957 0.018098496252399447 0 0.00045195743398605788 0.018379495105554349 0 -0.0010711971115869587 0.010743954135858529 0 -7.335257144393072e-05 0.014380111135665417 0 0.00028890158141527957 0.018098496252399447 0 0.00045195743398605788 0.018379495105554349 0 0.00070479371918774473 0.018102629466703046 0 0.00045195743398605788 0.018379495105554349 0 0.00070479371918774473 0.018102629466703046 0 0.0010219531536658822 0.018659968687535278 0 0.00097007986391308028 0.019245101518897349 0 0.00045195743398605788 0.018379495105554349 0 0.0010219531536658822 0.018659968687535278 0 0.00097007986391308028 0.019245101518897349 0 0.0010219531536658822 0.018659968687535278 0 0.0015565722604464905 0.019202897298716146 0 0.0010219531536658822 0.018659968687535278 0 0.0015565722604464905 0.019202897298716146 0 0.0017164789764907893 0.018245877519633635 0 0.0026485033635659239 0.019138817813388793 0 0.0020879683104964328 0.020088700979193883 0 0.0015565722604464905 0.019202897298716146 0 0.0026485033635659239 0.019138817813388793 0 0.0015565722604464905 0.019202897298716146 0 0.0017164789764907893 0.018245877519633635 0 0.00070479371918774473 0.018102629466703046 0 0.0010219531536658822 0.018659968687535278 0 0.0017164789764907893 0.018245877519633635 0 -7.335257144393072e-05 0.014380111135665417 0 0.00032353312565236599 0.013333826624065463 0 -0.0011377375703226615 0.0097121116430334935 0 -0.0008681249944663997 0.0097012454755388434 0 -0.00089937956582560204 0.0094824807726706043 0 -0.0011377375703226615 0.0097121116430334935 0 -0.00089937956582560204 0.0094824807726706043 0 -0.0011467586925958263 0.0093483954799561467 0 -0.00082668298814274354 0.009619947657853567 0 -0.0008681249944663997 0.0097012454755388434 0 -0.00089937956582560204 0.0094824807726706043 0 -0.00081757180982170916 0.0095803190128787956 0 -0.00089937956582560204 0.0094824807726706043 0 -0.0008494778380105421 0.0094152056671777794 0 -0.00081757180982170916 0.0095803190128787956 0 -0.00082668298814274354 0.009619947657853567 0 -0.00089937956582560204 0.0094824807726706043 0 -0.00089937956582560204 0.0094824807726706043 0 -0.0011467586925958263 0.0093483954799561467 0 -0.001045061278026735 0.0091532512133788123 0 -0.00089937956582560204 0.0094824807726706043 0 -0.001045061278026735 0.0091532512133788123 0 -0.0008494778380105421 0.0094152056671777794 0 -0.0011467586925958263 0.0093483954799561467 0 -0.0012931684300170839 0.0088388286983016508 0 -0.001045061278026735 0.0091532512133788123 0 -0.0011467586925958263 0.0093483954799561467 0 -0.0015140000458730223 0.0093465591529469493 0 -0.0012931684300170839 0.0088388286983016508 0 -0.0012241811262355745 0.008361390223333284 0 -0.0013680474646865556 0.0088874699807608096 0 -0.0011027804484930992 0.0084297253847046665 0 -0.0012335085877559109 0.0079952591784204514 0 -0.0012931684300170839 0.0088388286983016508 0 -0.00089913719324508871 0.0080682143025641948 0 -0.0011027804484930992 0.0084297253847046665 0 -0.0012335085877559109 0.0079952591784204514 0 -0.0016713044980778008 0.0096777389241457148 0 -0.0011377375703226615 0.0097121116430334935 0 -0.0015140000458730223 0.0093465591529469493 0 -0.0010711971115869587 0.010743954135858529 0 -0.0012241811262355745 0.008361390223333284 0 -0.0011377375703226615 0.0097121116430334935 0 -0.0011467586925958263 0.0093483954799561467 0 -0.0015140000458730223 0.0093465591529469493 0 0.0011699424892520033 0.010833838892910192 0 0.0005826239604277768 0.010667784442449861 0 0.0011386724146019728 0.011171081518908627 0 -4.0683046776141259e-05 0.0098498416082569498 0 -0.00020751286912087287 0.0099138269719245692 0 -0.0010191894864301253 0.0086577918695561074 0 -0.00093545058015038942 0.0087369981785610402 0 -0.0012377152053720981 0.0088491402466410289 0 0.0016054436131395012 0.011021121271591702 0 0.0011699424892520033 0.010833838892910192 0 0.0014055365106281387 0.011135596800720779 0 0.00030383863684564969 0.0098721607688979987 0 -4.0683046776141259e-05 0.0098498416082569498 0 0.0011699424892520033 0.010833838892910192 0 0.0011386724146019728 0.011171081518908627 0 0.0014055365106281387 0.011135596800720779 0 -0.0012377152053720981 0.0088491402466410289 0 -0.0011004106139025735 0.0086173644227373874 0 -0.0012931684300170839 0.0088388286983016508 0 -0.0010191894864301253 0.0086577918695561074 0 -0.0012377152053720981 0.0088491402466410289 0 -0.0011004106139025735 0.0086173644227373874 0 -0.00088755737250094543 0.0082820314288975828 0 -0.0011027804484930992 0.0084297253847046665 0 -0.0011004106139025735 0.0086173644227373874 0 -0.0011027804484930992 0.0084297253847046665 0 -0.0011004106139025735 0.0086173644227373874 0 -0.0012931684300170839 0.0088388286983016508 0 -0.0012377152053720981 0.0088491402466410289 0 -0.0012931684300170839 0.0088388286983016508 0 -0.001045061278026735 0.0091532512133788123 0 -0.001045061278026735 0.0091532512133788123 0 -0.0008494778380105421 0.0094152056671777794 0 -0.00094255198288894886 0.0091500104148736355 0 -0.0012377152053720981 0.0088491402466410289 0 -0.001045061278026735 0.0091532512133788123 0 -0.00094255198288894886 0.0091500104148736355 0 -0.0008494778380105421 0.0094152056671777794 0 -0.00094255198288894886 0.0091500104148736355 0 -0.00077866350822719044 0.009621501980026469 0 -0.00020751286912087287 0.0099138269719245692 0 -0.00049014470897772644 0.010049611625967986 0 0.0005826239604277768 0.010667784442449861 0 0.00038240069804992626 0.01109412587229335 0 -9.9308880199196886e-05 0.010478642573399135 0 0.0005826239604277768 0.010667784442449861 0 0.00081537748768674976 0.011327150916721807 0 0.0011386724146019728 0.011171081518908627 0 0.0005826239604277768 0.010667784442449861 0 0.00081537748768674976 0.011327150916721807 0 0.00038240069804992626 0.01109412587229335 0 0.00038240069804992626 0.01109412587229335 0 0.00033400253406124642 0.011779580202687136 0 -0.00011115775875707737 0.011228871431742555 0 0.00081537748768674976 0.011327150916721807 0 0.00038240069804992626 0.01109412587229335 0 0.00033400253406124642 0.011779580202687136 0 0.00081537748768674976 0.011327150916721807 0 0.00033400253406124642 0.011779580202687136 0 0.00089619551236678617 0.01189457997181902 0 0.00081537748768674976 0.011327150916721807 0 0.0011508212719168833 0.01155301929552484 0 0.00089619551236678617 0.01189457997181902 0 0.00081537748768674976 0.011327150916721807 0 0.0011508212719168833 0.01155301929552484 0 0.0011386724146019728 0.011171081518908627 0 0.0011386724146019728 0.011171081518908627 0 0.0014055365106281387 0.011135596800720779 0 0.0014596314600875623 0.011444366698397076 0 0.0015709157009704223 0.011222295637296442 0 0.0014055365106281387 0.011135596800720779 0 0.0014596314600875623 0.011444366698397076 0 0.0011508212719168833 0.01155301929552484 0 0.0014596314600875623 0.011444366698397076 0 0.0013996067832514677 0.0119425306941345 0 0.0011508212719168833 0.01155301929552484 0 0.0011386724146019728 0.011171081518908627 0 0.0014596314600875623 0.011444366698397076 0 0.0015687945083334702 0.012019702072021484 0 0.0016124614095888797 0.011751740718348742 0 0.0013996067832514677 0.0119425306941345 0 0.0016124614095888797 0.011751740718348742 0 0.0014596314600875623 0.011444366698397076 0 0.0013996067832514677 0.0119425306941345 0 0.0011508212719168833 0.01155301929552484 0 0.0013996067832514677 0.0119425306941345 0 0.00089619551236678617 0.01189457997181902 0 0.0013996067832514677 0.0119425306941345 0 0.00089619551236678617 0.01189457997181902 0 0.0011483630730005784 0.012532271071897723 0 0.0018429921697202399 0.012341599216349468 0 0.0014109695083525688 0.011941316091519279 0 0.0020341865167462763 0.012590365738174744 0 0.0013996067832514677 0.0119425306941345 0 0.0011483630730005784 0.012532271071897723 0 0.0020341865167462763 0.012590365738174744 0 0.0011483630730005784 0.012532271071897723 0 0.0013410118806703299 0.013179184417094383 0 0.0020341865167462763 0.012590365738174744 0 0.0019591872843901224 0.013219168165212189 0 0.0013410118806703299 0.013179184417094383 0 0.0011483630730005784 0.012532271071897723 0 0.0013410118806703299 0.013179184417094383 0 0.00074819643848943185 0.013168375461648507 0 0.0013410118806703299 0.013179184417094383 0 0.00074819643848943185 0.013168375461648507 0 0.00096615252616927586 0.013990905786228632 0 0.0013410118806703299 0.013179184417094383 0 0.0015887110393467338 0.013743165739978996 0 0.00096615252616927586 0.013990905786228632 0 0.0019591872843901224 0.013219168165212189 0 0.0013410118806703299 0.013179184417094383 0 0.0015887110393467338 0.013743165739978996 0 0.0019591872843901224 0.013219168165212189 0 0.0015887110393467338 0.013743165739978996 0 0.0021346366866332343 0.013822812758355684 0 0.00029472367276761418 0.0135215762516252 0 0.00074819643848943185 0.013168375461648507 0 0.00096615252616927586 0.013990905786228632 0 0.0011483630730005784 0.012532271071897723 0 0.00074819643848943185 0.013168375461648507 0 0.0005514957957453825 0.012454677484706047 0 0.00074819643848943185 0.013168375461648507 0 0.00021812945574614976 0.012949714391040833 0 0.0005514957957453825 0.012454677484706047 0 0.00029472367276761418 0.0135215762516252 0 0.00021812945574614976 0.012949714391040833 0 -0.00033315721344915131 0.013108564778785739 0 0.00029472367276761418 0.0135215762516252 0 0.00074819643848943185 0.013168375461648507 0 0.00021812945574614976 0.012949714391040833 0 0.00021812945574614976 0.012949714391040833 0 0.0005514957957453825 0.012454677484706047 0 -2.2594343278070731e-05 0.012466445601703494 0 0.00089619551236678617 0.01189457997181902 0 0.0011483630730005784 0.012532271071897723 0 0.0005514957957453825 0.012454677484706047 0 0.00033400253406124642 0.011779580202687136 0 0.00089619551236678617 0.01189457997181902 0 0.0005514957957453825 0.012454677484706047 0 0.00033400253406124642 0.011779580202687136 0 0.0005514957957453825 0.012454677484706047 0 -2.2594343278070731e-05 0.012466445601703494 0 0.00033400253406124642 0.011779580202687136 0 -0.0003972364257675501 0.011929673446614282 0 -2.2594343278070731e-05 0.012466445601703494 0 -0.0003972364257675501 0.011929673446614282 0 -0.0005297319833400631 0.012508423472832392 0 -2.2594343278070731e-05 0.012466445601703494 0 -0.0003972364257675501 0.011929673446614282 0 -0.0009026586472417542 0.012294725488910231 0 -0.00097273784638768812 0.011807413060545941 0 -0.0003972364257675501 0.011929673446614282 0 -0.0005297319833400631 0.012508423472832392 0 -0.0009026586472417542 0.012294725488910231 0 -0.0005297319833400631 0.012508423472832392 0 -0.00095731680197380577 0.012717591908872047 0 -0.0009026586472417542 0.012294725488910231 0 -0.0005297319833400631 0.012508423472832392 0 -0.00033315721344915131 0.013108564778785739 0 -0.00095731680197380577 0.012717591908872047 0 -0.0005297319833400631 0.012508423472832392 0 -2.2594343278070731e-05 0.012466445601703494 0 -0.00033315721344915131 0.013108564778785739 0 0.00021812945574614976 0.012949714391040833 0 -2.2594343278070731e-05 0.012466445601703494 0 -0.00033315721344915131 0.013108564778785739 0 0.0030059063417171095 0.021254972381054574 0 0.0029643075731317988 0.021416607596879141 0 0.0029770847637691313 0.021023519011471949 0 0.0012984504743240571 0.017156874628015628 0 0.001181608796588268 0.016916742826473308 0 0.0030059063417171095 0.021254972381054574 0 0.0029799161796839452 0.021267055278984738 0 0.0029643075731317988 0.021416607596879141 0 0.0015892739055231387 0.017308572691785686 0 0.0012984504743240571 0.017156874628015628 0 0.0028613328787277007 0.021115432737428597 0 0.0030059063417171095 0.021254972381054574 0 0.0029799161796839452 0.021267055278984738 0 0.00247059876345884 0.021699947460754605 0 0.0029643075731317988 0.021416607596879141 0 0.0025351785250947042 0.021289735766539024 0 0.00247059876345884 0.021699947460754605 0 0.0029643075731317988 0.021416607596879141 0 0.0029222431474979654 0.021864699369048803 0 0.0027983509180224842 0.021181032361146004 0 0.002609881074781272 0.020956327765860146 0 0.0029770847637691313 0.021023519011471949 0 0.0029643075731317988 0.021416607596879141 0 0.0027983509180224842 0.021181032361146004 0 0.0025351785250947042 0.021289735766539024 0 0.0029643075731317988 0.021416607596879141 0 0.0027983509180224842 0.021181032361146004 0 0.0029770847637691313 0.021023519011471949 0 0.0027983509180224842 0.021181032361146004 0 0.0025351785250947042 0.021289735766539024 0 0.002609881074781272 0.020956327765860146 0 0.0025351785250947042 0.021289735766539024 0 0.002609881074781272 0.020956327765860146 0 0.0020738426840882914 0.020966181445116534 0 0.002609881074781272 0.020956327765860146 0 0.0029770847637691313 0.021023519011471949 0 0.0024586794051641037 0.020426391590016031 0 0.002609881074781272 0.020956327765860146 0 0.0024586794051641037 0.020426391590016031 0 0.0020738426840882914 0.020966181445116534 0 0.001181608796588268 0.016916742826473308 0 -0.00044477219027559803 0.016331834831779007 0 -0.00095731680197380577 0.012717591908872047 0 -0.0009026586472417542 0.012294725488910231 0 -0.0014603705862492454 0.012420229789407534 0 -0.0009026586472417542 0.012294725488910231 0 -0.001421515153928301 0.012033285630566885 0 -0.0018247043111035259 0.012446376852163295 0 -0.0013847091669675559 0.011443895177143578 0 -0.00044477219027559803 0.016331834831779007 0 -0.0009026586472417542 0.012294725488910231 0 -0.001421515153928301 0.012033285630566885 0 -0.00097273784638768812 0.011807413060545941 0 -0.001421515153928301 0.012033285630566885 0 -0.0018247043111035259 0.012446376852163295 0 -0.0018242410781386552 0.011969319545275654 0 -0.0018247043111035259 0.012446376852163295 0 -0.0018242410781386552 0.011969319545275654 0 -0.0022908927056057115 0.012171770078963638 0 -0.0018242410781386552 0.011969319545275654 0 -0.001549734277416757 0.011641179052544623 0 -0.00209166492394583 0.011684825254699891 0 -0.001421515153928301 0.012033285630566885 0 -0.0018242410781386552 0.011969319545275654 0 -0.001549734277416757 0.011641179052544623 0 -0.001549734277416757 0.011641179052544623 0 -0.0017937356478530822 0.011166955779059559 0 -0.00209166492394583 0.011684825254699891 0 -0.0017937356478530822 0.011166955779059559 0 -0.0019062249912351892 0.010594778871308812 0 -0.002332585737519521 0.011246929063767622 0 -0.001549734277416757 0.011641179052544623 0 -0.0017937356478530822 0.011166955779059559 0 -0.0013101405651484365 0.011206411395620139 0 -0.0017937356478530822 0.011166955779059559 0 -0.0013101405651484365 0.011206411395620139 0 -0.0016207801738144364 0.010771287015025109 0 -0.0013101405651484365 0.011206411395620139 0 -0.0016207801738144364 0.010771287015025109 0 -0.0011247796608438675 0.010778237701141247 0 -0.0013101405651484365 0.011206411395620139 0 -0.00077545957199394097 0.011311501279547879 0 -0.0011247796608438675 0.010778237701141247 0 -0.001549734277416757 0.011641179052544623 0 -0.0013101405651484365 0.011206411395620139 0 -0.00097273784638768812 0.011807413060545941 0 -0.001421515153928301 0.012033285630566885 0 -0.001549734277416757 0.011641179052544623 0 -0.00097273784638768812 0.011807413060545941 0 -0.0013101405651484365 0.011206411395620139 0 -0.00097273784638768812 0.011807413060545941 0 -0.00077545957199394097 0.011311501279547879 0 -0.0003972364257675501 0.011929673446614282 0 -0.00011115775875707737 0.011228871431742555 0 -0.00077545957199394097 0.011311501279547879 0 -0.0003972364257675501 0.011929673446614282 0 -0.00097273784638768812 0.011807413060545941 0 -0.00077545957199394097 0.011311501279547879 0 0.00033400253406124642 0.011779580202687136 0 -0.0003972364257675501 0.011929673446614282 0 -0.00011115775875707737 0.011228871431742555 0 0.00038240069804992626 0.01109412587229335 0 -0.00011115775875707737 0.011228871431742555 0 -9.9308880199196886e-05 0.010478642573399135 0 -0.00011115775875707737 0.011228871431742555 0 -0.00077545957199394097 0.011311501279547879 0 -0.00059390649551951404 0.010783897427491661 0 -0.00077545957199394097 0.011311501279547879 0 -0.00059390649551951404 0.010783897427491661 0 -0.0011247796608438675 0.010778237701141247 0 -0.00059390649551951404 0.010783897427491661 0 -0.0011247796608438675 0.010778237701141247 0 -0.00098212201779947434 0.010173867870351506 0 -0.00049014470897772644 0.010049611625967986 0 -0.00098694483768385697 0.01014403552983463 0 -0.00059390649551951404 0.010783897427491661 0 -9.9308880199196886e-05 0.010478642573399135 0 -0.00098212201779947434 0.010173867870351506 0 -0.00011115775875707737 0.011228871431742555 0 -0.00059390649551951404 0.010783897427491661 0 -9.9308880199196886e-05 0.010478642573399135 0 -0.00081757180982170916 0.0095803190128787956 0 -0.0008494778380105421 0.0094152056671777794 0 -0.00077866350822719044 0.009621501980026469 0 -0.00091739348496103462 0.0097491884402787932 0 -0.00081757180982170916 0.0095803190128787956 0 -0.00077866350822719044 0.009621501980026469 0 -0.00091739348496103462 0.0097491884402787932 0 -0.00077866350822719044 0.009621501980026469 0 -0.00098212201779947434 0.010173867870351506 0 -0.00091739348496103462 0.0097491884402787932 0 -0.0013222807910866754 0.0098314388788541211 0 -0.00098212201779947434 0.010173867870351506 0 -0.0013222807910866754 0.0098314388788541211 0 -0.00098212201779947434 0.010173867870351506 0 -0.0014112567138718946 0.010365189132537173 0 -0.0013222807910866754 0.0098314388788541211 0 -0.0019149912229715501 0.010526537708438139 0 -0.0014112567138718946 0.010365189132537173 0 -0.00024101669846664684 0.023908782130767602 0 -0.00016194004686037274 0.02392635038263987 0 -0.0001812281460130116 0.023750395959160838 0 -0.00076769347453546166 0.016831204522395681 0 -0.00089929157568087036 0.017680201690762867 0 -0.0017937356478530822 0.011166955779059559 0 -0.0019062249912351892 0.010594778871308812 0 -0.0016207801738144364 0.010771287015025109 0 -0.00089929157568087036 0.017680201690762867 0 -0.0032901179456280515 0.011838681527830139 0 -0.0019149912229715501 0.010526537708438139 0 -0.0016207801738144364 0.010771287015025109 0 -0.0014112567138718946 0.010365189132537173 0 -0.0016207801738144364 0.010771287015025109 0 -0.0011247796608438675 0.010778237701141247 0 -0.0014112567138718946 0.010365189132537173 0 -0.0011247796608438675 0.010778237701141247 0 -0.00098212201779947434 0.010173867870351506 0 -0.0014112567138718946 0.010365189132537173 0 -0.00055007690438961304 0.023554581654191189 0 -0.00091475225095010142 0.023475490202275059 0 -0.00066127786715393388 0.023181382078923236 0 -0.00055007690438961304 0.023554581654191189 0 -0.00091475225095010142 0.023475490202275059 0 -0.00083564567347280648 0.023913965888003662 0 -0.0013124007547344969 0.023522432589171419 0 -0.00091475225095010142 0.023475490202275059 0 -0.0010286803760775241 0.023107787101503477 0 -0.0013124007547344969 0.023522432589171419 0 -0.00091475225095010142 0.023475490202275059 0 -0.00083564567347280648 0.023913965888003662 0 -0.00089929157568087036 0.017680201690762867 0 -9.3672592149402883e-05 0.024765032498817709 0 -0.00016194004686037274 0.02392635038263987 0 -0.0001812281460130116 0.023750395959160838 0 -6.2639450678272921e-05 0.023932042903564051 0 -0.00030238131882438503 0.02401641950665425 0 -9.3672592149402883e-05 0.024765032498817709 0 -0.00055007690438961304 0.023554581654191189 0 -0.00083564567347280648 0.023913965888003662 0 -0.00029534561493603864 0.023869062091870889 0 -0.00037243841707975208 0.024210813028030565 0 -0.00083564567347280648 0.023913965888003662 0 -0.00029534561493603864 0.023869062091870889 0 -0.00037243841707975208 0.024210813028030565 0 -0.00029534561493603864 0.023869062091870889 0 9.548407087022719e-06 0.02410359429279961 0 -0.00029534561493603864 0.023869062091870889 0 9.548407087022719e-06 0.02410359429279961 0 -3.183207809752681e-07 0.023822044476723127 0 -0.00029534561493603864 0.023869062091870889 0 -3.183207809752681e-07 0.023822044476723127 0 -0.00025723051082216978 0.023628213844907573 0 -3.183207809752681e-07 0.023822044476723127 0 -6.8588346189975884e-05 0.023542700147567933 0 0.00024727601844866457 0.023688084810361904 0 -3.183207809752681e-07 0.023822044476723127 0 -6.8588346189975884e-05 0.023542700147567933 0 -0.00025723051082216978 0.023628213844907573 0 -0.00055007690438961304 0.023554581654191189 0 -0.00029534561493603864 0.023869062091870889 0 -0.00025723051082216978 0.023628213844907573 0 -6.8588346189975884e-05 0.023542700147567933 0 -0.00025723051082216978 0.023628213844907573 0 -0.00033572729103549336 0.023322815476939342 0 -0.00055007690438961304 0.023554581654191189 0 -0.00025723051082216978 0.023628213844907573 0 -0.00033572729103549336 0.023322815476939342 0 -0.00055007690438961304 0.023554581654191189 0 -0.00033572729103549336 0.023322815476939342 0 -0.00066127786715393388 0.023181382078923236 0 0.00034379037213794358 0.023219495623433981 0 0.00023079439471118695 0.022216255666137601 0 -0.00033572729103549336 0.023322815476939342 0 -4.7557600124834144e-05 0.0232120956113426 0 -0.0003879952061094776 0.022933945772301758 0 -0.00033572729103549336 0.023322815476939342 0 -0.0003879952061094776 0.022933945772301758 0 -0.00066127786715393388 0.023181382078923236 0 0.00016227694482299064 0.024649192702067172 0 0.00015882840111734002 0.024650115531275336 0 0.00016591578343648166 0.024658295757169657 0 -6.8588346189975884e-05 0.023542700147567933 0 -7.6593632068352996e-05 0.023371486738449923 0 0.00024727601844866457 0.023688084810361904 0 6.399181672822546e-05 0.023479716530937639 0 0.00034379037213794358 0.023219495623433981 0 -6.8588346189975884e-05 0.023542700147567933 0 -0.00033572729103549336 0.023322815476939342 0 -4.7557600124834144e-05 0.0232120956113426 0 0.00034379037213794358 0.023219495623433981 0 0.00055302196170209546 0.022650917988482785 0 0.00016227694482299064 0.024649192702067172 0 0.00014490080401080625 0.024634109537729491 0 0.00015882840111734002 0.024650115531275336 0 0.00014490080401080625 0.024634109537729491 0 0.00015882840111734002 0.024650115531275336 0 0.00015254865173518374 0.024635851078693271 0 0.00018473037490069176 0.021059717289267671 0 -0.00059329927085171458 0.020529831905480449 0 0.00021423110285404635 0.020154213952202519 0 0.00089937233961725766 0.020512100613454851 0 0.00018473037490069176 0.021059717289267671 0 0.00021423110285404635 0.020154213952202519 0 0.00097720709901954399 0.021585654902057338 0 0.00089937233961725766 0.020512100613454851 0 0.00018473037490069176 0.021059717289267671 0 -0.0003879952061094776 0.022933945772301758 0 -0.00074733685363789423 0.022660925627500324 0 -0.00066127786715393388 0.023181382078923236 0 0.00023079439471118695 0.022216255666137601 0 -0.0013202990131314821 0.017535103641714168 0 -0.00091475225095010142 0.023475490202275059 0 -0.00066127786715393388 0.023181382078923236 0 -0.0010286803760775241 0.023107787101503477 0 -0.00074733685363789423 0.022660925627500324 0 -0.00066127786715393388 0.023181382078923236 0 -0.0010286803760775241 0.023107787101503477 0 -0.00089929157568087036 0.017680201690762867 0 -0.0017566156060979108 0.017103525875890705 0 -0.0017937356478530822 0.011166955779059559 0 -0.002332585737519521 0.011246929063767622 0 -0.00209166492394583 0.011684825254699891 0 -0.0027497005013822251 0.011909396369474261 0 -0.00209166492394583 0.011684825254699891 0 -0.0022908927056057115 0.012171770078963638 0 -0.0013202990131314821 0.017535103641714168 0 -0.0017566156060979108 0.017103525875890705 0 -0.0027497005013822251 0.011909396369474261 0 -0.002332585737519521 0.011246929063767622 0 -0.00209166492394583 0.011684825254699891 0 -0.0018242410781386552 0.011969319545275654 0 -0.00209166492394583 0.011684825254699891 0 -0.0022908927056057115 0.012171770078963638 0 -0.001924204017088103 0.01961359310728954 0 -0.0012604642555270661 0.020064682779235274 0 -0.00065157714758002977 0.019559083151739806 0 -0.00044477219027559803 0.016331834831779007 0 0.00058410165194072727 0.020297836255961342 0 -0.0013202990131314821 0.017535103641714168 0 -0.0020903623810761716 0.015943269185922898 0 -0.00044477219027559803 0.016331834831779007 0 -0.0020903623810761716 0.015943269185922898 0 -0.00065157714758002977 0.019559083151739806 0 -0.00016982567642876288 0.019859839808479961 0 0.0003098073310091205 0.019554335170227841 0 -0.00059329927085171458 0.020529831905480449 0 -0.00065157714758002977 0.019559083151739806 0 -0.00016982567642876288 0.019859839808479961 0 -0.00059329927085171458 0.020529831905480449 0 -0.0012604642555270661 0.020064682779235274 0 -0.00065157714758002977 0.019559083151739806 0 -0.00059329927085171458 0.020529831905480449 0 -0.00016982567642876288 0.019859839808479961 0 0.00021423110285404635 0.020154213952202519 0 0.0015611706638275517 0.020382383814754098 0 0.0020738426840882914 0.020966181445116534 0 0.0012448021410883723 0.021117888361756841 0 0.0024586794051641037 0.020426391590016031 0 0.0015611706638275517 0.020382383814754098 0 0.0020738426840882914 0.020966181445116534 0 0.0025351785250947042 0.021289735766539024 0 0.0020738426840882914 0.020966181445116534 0 0.0018228213453810528 0.021670235520096122 0 0.0012448021410883723 0.021117888361756841 0 0.0018228213453810528 0.021670235520096122 0 0.0010716340191356355 0.021963591156476676 0 0.0020738426840882914 0.020966181445116534 0 0.0012448021410883723 0.021117888361756841 0 0.0018228213453810528 0.021670235520096122 0 0.0018228213453810528 0.021670235520096122 0 0.0010716340191356355 0.021963591156476676 0 0.0013176804696051251 0.022639264939174487 0 0.00247059876345884 0.021699947460754605 0 0.0018228213453810528 0.021670235520096122 0 0.0020711183611412647 0.022499058868088902 0 0.00247059876345884 0.021699947460754605 0 0.0025351785250947042 0.021289735766539024 0 0.0018228213453810528 0.021670235520096122 0 -3.5333652647588081e-05 0.022953800253365138 0 0.00037513251148905681 0.022378332823722889 0 0.00043826533679056871 0.022973343814041845 0 0.000381367520159982 0.021821079592343331 0 0.00042973030865248548 0.022959564312799535 0 0.0010716340191356355 0.021963591156476676 0 0.00043826533679056871 0.022973343814041845 0 0.0013176804696051251 0.022639264939174487 0 0.0010716340191356355 0.021963591156476676 0 0.00034164660105649513 0.021491437676398356 0 0.00043826533679056871 0.022973343814041845 0 0.0012448021410883723 0.021117888361756841 0 0.0010716340191356355 0.021963591156476676 0 0.00034164660105649513 0.021491437676398356 0 0.0012448021410883723 0.021117888361756841 0 0.00034164660105649513 0.021491437676398356 0 0.00046834653492369135 0.020407750654371688 0 -3.5333652647588081e-05 0.022953800253365138 0 0.00037513251148905681 0.022378332823722889 0 -0.00027759746479145021 0.022194967611099126 0 0.00037513251148905681 0.022378332823722889 0 8.2083028974211986e-06 0.021924138993912448 0 -0.00027759746479145021 0.022194967611099126 0 8.2083028974211986e-06 0.021924138993912448 0 0.00030420669827195481 0.021483139519330854 0 -0.00031813159358857633 0.021641412568054543 0 9.2358965518208149e-05 0.021547039391666276 0 -0.00014414000588523586 0.02313674715867723 0 0.00037513251148905681 0.022378332823722889 0 8.2083028974211986e-06 0.021924138993912448 0 0.00030420669827195481 0.021483139519330854 0 0.000381367520159982 0.021821079592343331 0 9.2358965518208149e-05 0.021547039391666276 0 0.00034164660105649513 0.021491437676398356 0 0.00032414620481118232 0.020420045089075554 0 0.00046834653492369135 0.020407750654371688 0 9.2358965518208149e-05 0.021547039391666276 0 0.00047708719805270781 0.020566958631326907 0 -0.00065157714758002977 0.019559083151739806 0 0.00064597009113671975 0.019493753562153708 0 0.0003098073310091205 0.019554335170227841 0 0.0015611706638275517 0.020382383814754098 0 0.0012448021410883723 0.021117888361756841 0 0.00046834653492369135 0.020407750654371688 0 0.00058410165194072727 0.020297836255961342 0 0.00047708719805270781 0.020566958631326907 0 0.00047708719805270781 0.020566958631326907 0 0.00053181925648465415 0.020198130926548711 0 0.00089937233961725766 0.020512100613454851 0 0.00064670030050612806 0.019488280585951943 0 0.00021423110285404635 0.020154213952202519 0 -0.00016982567642876288 0.019859839808479961 0 0.0003098073310091205 0.019554335170227841 0 0.00021423110285404635 0.020154213952202519 0 0.00064670030050612806 0.019488280585951943 0 0.0003098073310091205 0.019554335170227841 0 0.00021423110285404635 0.020154213952202519 0 0.00089937233961725766 0.020512100613454851 0 0.00081678648804034545 0.019477942403286569 0 0.00064670030050612806 0.019488280585951943 0 0.00014490080401080625 0.024634109537729491 0 0.00013406240604146681 0.024600158430030817 0 0.00015254865173518374 0.024635851078693271 0 0.00013406240604146681 0.024600158430030817 0 0.00015254865173518374 0.024635851078693271 0 0.00015185882932143791 0.024610395209081502 0 0.00055302196170209546 0.022650917988482785 0 9.2358965518208149e-05 0.021547039391666276 0 0.00015254865173518374 0.024635851078693271 0 0.00016449580851255334 0.024666654008757213 0 0.00016206850210752973 0.024660180785246056 0 0.00015254865173518374 0.024635851078693271 0 0.00016488427692393643 0.024631388739602224 0 0.00016449580851255334 0.024666654008757213 0 0.00015254865173518374 0.024635851078693271 0 0.00016488427692393643 0.024631388739602224 0 0.00015185882932143791 0.024610395209081502 0 0.00016449580851255334 0.024666654008757213 0 0.00018501000656454483 0.024647061798051793 0 0.00016996786047240574 0.024725149088236056 0 0.00023841929147103982 0.024896693706756803 0 0.00016373661112630878 0.024687473623941164 0 0.00016488427692393643 0.024631388739602224 0 0.00016449580851255334 0.024666654008757213 0 0.00018501000656454483 0.024647061798051793 0 -6.2506043693759915e-05 0.02398267690319458 0 -3.7005151514764204e-05 0.025032885898647193 0 0.00021683740687423081 0.024892302411899016 0 0.00024252308979864922 0.025004651653638379 0 0.00012677017739138902 0.024913271057408062 0 0.00023841929147103982 0.024896693706756803 0 -6.2506043693759915e-05 0.02398267690319458 0 0.00016488427692393643 0.024631388739602224 0 0.00018501000656454483 0.024647061798051793 0 0.00017613334108795094 0.024607756912725886 0 -6.2506043693759915e-05 0.02398267690319458 0 -0.00014414000588523586 0.02313674715867723 0 -0.00092954132987859946 0.021776380069417969 0 -0.00031813159358857633 0.021641412568054543 0 -0.00027759746479145021 0.022194967611099126 0 0.00016488427692393643 0.024631388739602224 0 0.00017613334108795094 0.024607756912725886 0 0.00015185882932143791 0.024610395209081502 0 8.2083028974211986e-06 0.021924138993912448 0 -0.00031813159358857633 0.021641412568054543 0 -0.00027759746479145021 0.022194967611099126 0 -0.00092954132987859946 0.021776380069417969 0 -0.00027759746479145021 0.022194967611099126 0 -0.00070672614936970039 0.022591004960387566 0 -6.2506043693759915e-05 0.02398267690319458 0 -0.00064716769255165939 0.023537382572132615 0 -0.00031005609360975467 0.025100956167264765 0 -0.00022923260441828986 0.024878901191153768 0 -0.00010991897009958163 0.025038817623603972 0 -0.00031005609360975467 0.025100956167264765 0 -0.00022923260441828986 0.024878901191153768 0 -0.00045363383491805109 0.024738958748647396 0 -0.00022923260441828986 0.024878901191153768 0 -0.00045363383491805109 0.024738958748647396 0 -0.00030286676628829372 0.024405655091635298 0 -0.00022923260441828986 0.024878901191153768 0 -0.00018947720388632743 0.024569904986290362 0 -0.00030286676628829372 0.024405655091635298 0 -3.5333652647588081e-05 0.022953800253365138 0 -0.00070672614936970039 0.022591004960387566 0 -0.00038894623432001471 0.023907520868309488 0 -0.00064716769255165939 0.023537382572132615 0 -0.00038073631075603501 0.02398141131621653 0 -0.00045363383491805109 0.024738958748647396 0 -0.00038894623432001471 0.023907520868309488 0 -0.00030286676628829372 0.024405655091635298 0 -3.5333652647588081e-05 0.022953800253365138 0 -0.00027759746479145021 0.022194967611099126 0 -0.00070672614936970039 0.022591004960387566 0 9.3357573326241605e-10 0.025000099111681762 0 -5.8242403941427049e-05 0.024906411833089604 0 -4.3812893157000365e-05 0.02484112055436917 0 -5.8242403941427049e-05 0.024906411833089604 0 -0.00018947720388632743 0.024569904986290362 0 -4.3812893157000365e-05 0.02484112055436917 0 -0.00022923260441828986 0.024878901191153768 0 -5.8242403941427049e-05 0.024906411833089604 0 -0.00018947720388632743 0.024569904986290362 0 -0.00022923260441828986 0.024878901191153768 0 -5.8242403941427049e-05 0.024906411833089604 0 -0.00010991897009958163 0.025038817623603972 0 -5.8242403941427049e-05 0.024906411833089604 0 4.3231174284598409e-06 0.025009615182930461 0 -0.00010991897009958163 0.025038817623603972 0 9.3357573326241605e-10 0.025000099111681762 0 -5.8242403941427049e-05 0.024906411833089604 0 4.3231174284598409e-06 0.025009615182930461 0 9.3357573326241605e-10 0.025000099111681762 0 4.3231174284598409e-06 0.025009615182930461 0 -2.1718446937050235e-08 0.024999919285699838 0 4.3231174284598409e-06 0.025009615182930461 0 4.5277163988104699e-05 0.024973169610842463 0 -2.1718446937050235e-08 0.024999919285699838 0 4.5277163988104699e-05 0.024973169610842463 0 -2.1718446937050235e-08 0.024999919285699838 0 -5.2579281132099734e-06 0.024976531880106592 0 4.5277163988104699e-05 0.024973169610842463 0 0.00010601050554320655 0.025030435990101463 0 0.00012677017739138902 0.024913271057408062 0 4.3231174284598409e-06 0.025009615182930461 0 4.5277163988104699e-05 0.024973169610842463 0 0.00010601050554320655 0.025030435990101463 0 0.00024252308979864922 0.025004651653638379 0 0.00010601050554320655 0.025030435990101463 0 0.00012677017739138902 0.024913271057408062 0 1.8988631960537386e-05 0.025014527651905732 0 -3.7005151514764204e-05 0.025032885898647193 0 0.00021683740687423081 0.024892302411899016 0 0.00012677017739138902 0.024913271057408062 0 0.00016996786047240574 0.024725149088236056 0 0.00012677017739138902 0.024913271057408062 0 8.0076198069486997e-05 0.024848972936738781 0 0.00016996786047240574 0.024725149088236056 0 4.5277163988104699e-05 0.024973169610842463 0 0.00012677017739138902 0.024913271057408062 0 8.0076198069486997e-05 0.024848972936738781 0 -2.1718446937050235e-08 0.024999919285699838 0 -5.2579281132099734e-06 0.024976531880106592 0 5.0852892288972967e-09 0.024999983454557621 0 8.0076198069486997e-05 0.024848972936738781 0 -5.2579281132099734e-06 0.024976531880106592 0 3.2208885247763969e-05 0.024721024352282354 0 -6.7946016906053619e-06 0.024966814160039496 0 2.3678145091661805e-05 0.024856090224160403 0 4.5277163988104699e-05 0.024973169610842463 0 8.0076198069486997e-05 0.024848972936738781 0 -5.2579281132099734e-06 0.024976531880106592 0 -5.2579281132099734e-06 0.024976531880106592 0 5.0852892288972967e-09 0.024999983454557621 0 -1.5881009906316025e-06 0.025003434525563757 0 5.0852892288972967e-09 0.024999983454557621 0 -1.5881009906316025e-06 0.025003434525563757 0 6.7810595193827111e-06 0.025006160935521927 0 2.3678145091661805e-05 0.024856090224160403 0 4.6674840077062751e-05 0.024874427638394803 0 -1.5881009906316025e-06 0.025003434525563757 0 6.7810595193827111e-06 0.025006160935521927 0 2.8723874659756778e-05 0.025014112757609435 0 6.7810595193827111e-06 0.025006160935521927 0 2.8723874659756778e-05 0.025014112757609435 0 3.1800887627684331e-08 0.025000004331330816 0 5.0852892288972967e-09 0.024999983454557621 0 6.7810595193827111e-06 0.025006160935521927 0 3.1800887627684331e-08 0.025000004331330816 0 3.2208885247763969e-05 0.024721024352282354 0 9.8570607398321296e-05 0.024634652631147974 0 0.0001203719713912665 0.024680425003033007 0 9.8570607398321296e-05 0.024634652631147974 0 0.0001203719713912665 0.024680425003033007 0 0.0001367708050992529 0.024633489013442571 0 0.0001203719713912665 0.024680425003033007 0 0.00010231885921495215 0.024741959719859784 0 0.00016996786047240574 0.024725149088236056 0 3.2208885247763969e-05 0.024721024352282354 0 0.0001203719713912665 0.024680425003033007 0 0.00010231885921495215 0.024741959719859784 0 8.0076198069486997e-05 0.024848972936738781 0 3.2208885247763969e-05 0.024721024352282354 0 0.00010231885921495215 0.024741959719859784 0 8.0076198069486997e-05 0.024848972936738781 0 0.00010231885921495215 0.024741959719859784 0 0.00016996786047240574 0.024725149088236056 0 0.00016996786047240574 0.024725149088236056 0 0.00016644438432393221 0.024680586459793947 0 0.00015738678498928785 0.024663874209635697 0 0.0001203719713912665 0.024680425003033007 0 0.00016996786047240574 0.024725149088236056 0 0.00015738678498928785 0.024663874209635697 0 0.00016449580851255334 0.024666654008757213 0 0.00016996786047240574 0.024725149088236056 0 0.00016644438432393221 0.024680586459793947 0 0.00015882840111734002 0.024650115531275336 0 0.00015254865173518374 0.024635851078693271 0 0.00016206850210752973 0.024660180785246056 0 0.00016449580851255334 0.024666654008757213 0 0.00016644438432393221 0.024680586459793947 0 0.00016206850210752973 0.024660180785246056 0 0.00016644438432393221 0.024680586459793947 0 0.00016206850210752973 0.024660180785246056 0 0.00016591578343648166 0.024658295757169657 0 0.00015882840111734002 0.024650115531275336 0 0.00016206850210752973 0.024660180785246056 0 0.00016591578343648166 0.024658295757169657 0 0.00016591578343648166 0.024658295757169657 0 0.00015738678498928785 0.024663874209635697 0 0.000168457003178388 0.024634629331503136 0 0.00034379037213794358 0.023219495623433981 0 0.00019625054334589711 0.024235084570194611 0 0.00016227694482299064 0.024649192702067172 0 0.00016591578343648166 0.024658295757169657 0 0.000168457003178388 0.024634629331503136 0 0.00016644438432393221 0.024680586459793947 0 0.00016591578343648166 0.024658295757169657 0 0.00015738678498928785 0.024663874209635697 0 0.00015738678498928785 0.024663874209635697 0 0.0001367708050992529 0.024633489013442571 0 0.000168457003178388 0.024634629331503136 0 0.0001203719713912665 0.024680425003033007 0 0.00015738678498928785 0.024663874209635697 0 0.0001367708050992529 0.024633489013442571 0 0.00019625054334589711 0.024235084570194611 0 0.00021848389539653359 0.024557296273211394 0 0.0001367708050992529 0.024633489013442571 0 0.000168457003178388 0.024634629331503136 0 0.00012297880308102053 0.024590898027484633 0 9.548407087022719e-06 0.02410359429279961 0 -3.183207809752681e-07 0.023822044476723127 0 0.00024134527253840738 0.024086352598144747 0 -3.183207809752681e-07 0.023822044476723127 0 0.00024727601844866457 0.023688084810361904 0 0.00024134527253840738 0.024086352598144747 0 0.00024727601844866457 0.023688084810361904 0 0.00024134527253840738 0.024086352598144747 0 0.00063247123026707202 0.024004201930682645 0 0.00031842224581438687 0.024604950730276014 0 0.00011614315031806876 0.025024994957086079 0 0.00014142233416475553 0.025040745010274042 0 7.9415126810277161e-05 0.024882699236341517 0 0.00011614315031806876 0.025024994957086079 0 4.9693636635320301e-05 0.024991649777721402 0 0.00022796952173884379 0.024580767177333783 0 0.00021848389539653359 0.024557296273211394 0 0.00011614315031806876 0.025024994957086079 0 6.9862379869888708e-05 0.025016240012534587 0 4.9693636635320301e-05 0.024991649777721402 0 0.00011614315031806876 0.025024994957086079 0 0.00011023351628453413 0.025021278519864864 0 6.9862379869888708e-05 0.025016240012534587 0 7.9415126810277161e-05 0.024882699236341517 0 4.9693636635320301e-05 0.024991649777721402 0 2.8162431698697877e-08 0.025000172476297031 0 4.9693636635320301e-05 0.024991649777721402 0 2.8162431698697877e-08 0.025000172476297031 0 3.0351617590205238e-05 0.025010658510710423 0 6.9862379869888708e-05 0.025016240012534587 0 4.9693636635320301e-05 0.024991649777721402 0 3.0351617590205238e-05 0.025010658510710423 0 2.8723874659756778e-05 0.025014112757609435 0 6.9862379869888708e-05 0.025016240012534587 0 3.0351617590205238e-05 0.025010658510710423 0 2.8162431698697877e-08 0.025000172476297031 0 3.0351617590205238e-05 0.025010658510710423 0 3.1800887627684331e-08 0.025000004331330816 0 2.8723874659756778e-05 0.025014112757609435 0 3.0351617590205238e-05 0.025010658510710423 0 3.1800887627684331e-08 0.025000004331330816 0 2.8723874659756778e-05 0.025014112757609435 0 0.00011023351628453413 0.025021278519864864 0 6.9862379869888708e-05 0.025016240012534587 0 9.8570607398321296e-05 0.024634652631147974 0 0.0001367708050992529 0.024633489013442571 0 0.00012297880308102053 0.024590898027484633 0 4.6674840077062751e-05 0.024874427638394803 0 0.00021848389539653359 0.024557296273211394 0 3.8759701239856512e-05 0.025007418956955903 0 1.3404791158449845e-05 0.024972398181918629 0 4.2233244510753408e-05 0.024945320965333542 0 3.8759701239856512e-05 0.025007418956955903 0 8.3486827324660311e-05 0.024963646305760676 0 4.2233244510753408e-05 0.024945320965333542 0 0.0001024907949247083 0.02479156852311476 0 1.481371734458157e-05 0.024994801605694839 0 -2.1682764435303577e-05 0.025011219760036341 0 -2.4046837082015699e-05 0.025012043823331487 0 -8.1628606293322695e-06 0.025005862649051934 0 4.3596046939909879e-05 0.024824619293325949 0 0.0001024907949247083 0.02479156852311476 0 -8.1628606293322695e-06 0.025005862649051934 0 -3.707840652701936e-08 0.025000049558075305 0 1.2978997122924233e-08 0.024999989292795951 0 -8.1628606293322695e-06 0.025005862649051934 0 -3.707840652701936e-08 0.025000049558075305 0 -9.3898513193181538e-06 0.025004934231645268 0 -2.1682764435303577e-05 0.025011219760036341 0 -8.1628606293322695e-06 0.025005862649051934 0 -9.3898513193181538e-06 0.025004934231645268 0 -3.707840652701936e-08 0.025000049558075305 0 -8.3589041557330228e-06 0.024998510928606832 0 8.2440289347894886e-08 0.024999862281047967 0 -8.3589041557330228e-06 0.024998510928606832 0 -3.6879955180990954e-05 0.024973199694573182 0 8.2440289347894886e-08 0.024999862281047967 0 -2.1682764435303577e-05 0.025011219760036341 0 -8.3589041557330228e-06 0.024998510928606832 0 -3.6879955180990954e-05 0.024973199694573182 0 -2.1682764435303577e-05 0.025011219760036341 0 -9.3898513193181538e-06 0.025004934231645268 0 -8.3589041557330228e-06 0.024998510928606832 0 -3.707840652701936e-08 0.025000049558075305 0 -9.3898513193181538e-06 0.025004934231645268 0 -8.3589041557330228e-06 0.024998510928606832 0 -2.1682764435303577e-05 0.025011219760036341 0 -3.3913359918771035e-05 0.025014347708734178 0 -3.6879955180990954e-05 0.024973199694573182 0 -3.3913359918771035e-05 0.025014347708734178 0 -0.00011548423794169694 0.024961505289823476 0 -3.6879955180990954e-05 0.024973199694573182 0 0.00030584334854302325 0.0244296799209298 0 0.00016442378105477313 0.024427298651330885 0 0.00016490499537616461 0.024275814433928899 0 0.0001024907949247083 0.02479156852311476 0 2.6732533555506764e-05 0.024607093537049939 0 5.1916985047777541e-05 0.024309389959165168 0 0.00016442378105477313 0.024427298651330885 0 0.00016490499537616461 0.024275814433928899 0 5.1916985047777541e-05 0.024309389959165168 0 2.1122871494174049e-05 0.024426008621037127 0 0.00016442378105477313 0.024427298651330885 0 0.00021904543017412819 0.023867061070194297 0 0.00021985729666825591 0.02426276104754951 0 0.00018575680811031773 0.023863664278470895 0 0.00021985729666825591 0.02426276104754951 0 0.00019790823319731815 0.024434413365946834 0 0.00018575680811031773 0.023863664278470895 0 0.00019790823319731815 0.024434413365946834 0 0.00011974511231631999 0.02419764097886383 0 0.00018237776024168406 0.024002618776464844 0 0.0002789722578202145 0.025019634926445562 0 0.00020801300719104605 0.024974345319168336 0 0.00024635197031322252 0.02490680172565355 0 0.00021478427289602908 0.024389563076106843 0 0.00019395083425749506 0.023969151600111375 0 0.0002789722578202145 0.025019634926445562 0 0.00020801300719104605 0.024974345319168336 0 0.00013968567408783822 0.025019636310565575 0 9.7043931433478929e-05 0.024272218607901165 0 0.00024067530409390341 0.024608833152201959 0 9.7043931433478929e-05 0.024272218607901165 0 0.00017627863878333529 0.024742439733625523 0 0.00020801300719104605 0.024974345319168336 0 0.00014747731654202612 0.024936893845432368 0 0.00024635197031322252 0.02490680172565355 0 0.0001024907949247083 0.02479156852311476 0 0.00017627863878333529 0.024742439733625523 0 3.8759701239856512e-05 0.025007418956955903 0 0.00013968567408783822 0.025019636310565575 0 8.3486827324660311e-05 0.024963646305760676 0 0.00020801300719104605 0.024974345319168336 0 0.00013968567408783822 0.025019636310565575 0 0.00014747731654202612 0.024936893845432368 0 0.00013968567408783822 0.025019636310565575 0 0.00014747731654202612 0.024936893845432368 0 8.3486827324660311e-05 0.024963646305760676 0 0.00014747731654202612 0.024936893845432368 0 8.3486827324660311e-05 0.024963646305760676 0 8.714320457203458e-05 0.024889159038383537 0 0.00014747731654202612 0.024936893845432368 0 8.714320457203458e-05 0.024889159038383537 0 0.00013719466019825212 0.02484505114224687 0 8.714320457203458e-05 0.024889159038383537 0 9.6043273263194653e-05 0.02481980462367207 0 5.3553708311952535e-05 0.024889932263487093 0 8.714320457203458e-05 0.024889159038383537 0 0.00013719466019825212 0.02484505114224687 0 9.6043273263194653e-05 0.02481980462367207 0 0.00024067530409390341 0.024608833152201959 0 0.00018697874389130611 0.024638604841969114 0 0.00021985729666825591 0.02426276104754951 0 0.00019790823319731815 0.024434413365946834 0 0.00017510926202052611 0.024680676522234286 0 0.00013719466019825212 0.02484505114224687 0 0.00024635197031322252 0.02490680172565355 0 0.00017510926202052611 0.024680676522234286 0 0.00019790823319731815 0.024434413365946834 0 0.00010251556826337203 0.024379150972648332 0 0.00011974511231631999 0.02419764097886383 0 0.00014747731654202612 0.024936893845432368 0 0.00013719466019825212 0.02484505114224687 0 0.00024635197031322252 0.02490680172565355 0 0.00019790823319731815 0.024434413365946834 0 9.9826380275966819e-05 0.024526715891902317 0 0.00010251556826337203 0.024379150972648332 0 9.9826380275966819e-05 0.024526715891902317 0 0.00017510926202052611 0.024680676522234286 0 2.293679338745853e-05 0.024597334282493551 0 0.00019790823319731815 0.024434413365946834 0 9.9826380275966819e-05 0.024526715891902317 0 0.00017510926202052611 0.024680676522234286 0 9.6043273263194653e-05 0.02481980462367207 0 9.8530354426798152e-05 0.024823137143112965 0 5.3553708311952535e-05 0.024889932263487093 0 0.00017510926202052611 0.024680676522234286 0 9.6043273263194653e-05 0.02481980462367207 0 9.8530354426798152e-05 0.024823137143112965 0 0.00013719466019825212 0.02484505114224687 0 0.00017510926202052611 0.024680676522234286 0 9.6043273263194653e-05 0.02481980462367207 0 5.3553708311952535e-05 0.024889932263487093 0 2.3121951429294159e-05 0.024951178173103338 0 5.1064679279126564e-05 0.024913759080674336 0 9.8530354426798152e-05 0.024823137143112965 0 5.3553708311952535e-05 0.024889932263487093 0 5.1064679279126564e-05 0.024913759080674336 0 5.3553708311952535e-05 0.024889932263487093 0 2.2271416755888738e-05 0.024953253531012749 0 2.3121951429294159e-05 0.024951178173103338 0 5.3553708311952535e-05 0.024889932263487093 0 4.2233244510753408e-05 0.024945320965333542 0 2.2271416755888738e-05 0.024953253531012749 0 8.714320457203458e-05 0.024889159038383537 0 5.3553708311952535e-05 0.024889932263487093 0 4.2233244510753408e-05 0.024945320965333542 0 8.3486827324660311e-05 0.024963646305760676 0 8.714320457203458e-05 0.024889159038383537 0 4.2233244510753408e-05 0.024945320965333542 0 1.481371734458157e-05 0.024994801605694839 0 -9.3596344531977124e-09 0.024999980506299292 0 1.3404791158449845e-05 0.024972398181918629 0 4.2233244510753408e-05 0.024945320965333542 0 2.2271416755888738e-05 0.024953253531012749 0 1.3404791158449845e-05 0.024972398181918629 0 1.9435013711781339e-08 0.024999879428286194 0 2.2271416755888738e-05 0.024953253531012749 0 1.9435013711781339e-08 0.024999879428286194 0 2.2271416755888738e-05 0.024953253531012749 0 2.3121951429294159e-05 0.024951178173103338 0 1.9435013711781339e-08 0.024999879428286194 0 2.2161881947880718e-08 0.024999899088928083 0 2.3121951429294159e-05 0.024951178173103338 0 2.2161881947880718e-08 0.024999899088928083 0 2.3121951429294159e-05 0.024951178173103338 0 5.1064679279126564e-05 0.024913759080674336 0 2.2161881947880718e-08 0.024999899088928083 0 5.1064679279126564e-05 0.024913759080674336 0 4.9571895038885031e-08 0.024999907784028833 0 5.1064679279126564e-05 0.024913759080674336 0 3.608258596509191e-05 0.02494482645895062 0 9.5536457717991833e-05 0.02484731865766825 0 5.1064679279126564e-05 0.024913759080674336 0 4.9571895038885031e-08 0.024999907784028833 0 3.608258596509191e-05 0.02494482645895062 0 4.9571895038885031e-08 0.024999907784028833 0 3.608258596509191e-05 0.02494482645895062 0 -1.5790669487468609e-08 0.024999988159490116 0 -0.00019714026225941975 0.02436715626806463 0 -4.3812893157000365e-05 0.02484112055436917 0 6.92230710310753e-08 0.02499874384385525 0 -9.3433813975764041e-05 0.024668410227271183 0 -4.6624796648871723e-08 0.024999849032093541 0 -0.00019714026225941975 0.02436715626806463 0 -0.00018947720388632743 0.024569904986290362 0 -4.3812893157000365e-05 0.02484112055436917 0 9.3357573326241605e-10 0.025000099111681762 0 -4.3812893157000365e-05 0.02484112055436917 0 6.92230710310753e-08 0.02499874384385525 0 -0.00038894623432001471 0.023907520868309488 0 -0.00030286676628829372 0.024405655091635298 0 -0.00033650733136208056 0.024190887533792078 0 -0.00018947720388632743 0.024569904986290362 0 -0.00030286676628829372 0.024405655091635298 0 -0.00033650733136208056 0.024190887533792078 0 -0.00019714026225941975 0.02436715626806463 0 -0.00018947720388632743 0.024569904986290362 0 -0.00033650733136208056 0.024190887533792078 0 -0.00038894623432001471 0.023907520868309488 0 -0.00033650733136208056 0.024190887533792078 0 -0.00017164139110666671 0.024081989098551904 0 -0.00033650733136208056 0.024190887533792078 0 -0.00017164139110666671 0.024081989098551904 0 -0.00013694344209769053 0.024321428064984378 0 -0.00038894623432001471 0.023907520868309488 0 -0.00017164139110666671 0.024081989098551904 0 2.7829225597947354e-05 0.023650142746081196 0 -0.00033650733136208056 0.024190887533792078 0 -0.00013694344209769053 0.024321428064984378 0 -0.00029742411456195434 0.024363704413238967 0 -0.00019714026225941975 0.02436715626806463 0 -0.00033650733136208056 0.024190887533792078 0 -0.00029742411456195434 0.024363704413238967 0 -9.3433813975764041e-05 0.024668410227271183 0 -8.4044992281610337e-05 0.024607495938855237 0 9.8530354426798152e-05 0.024823137143112965 0 5.1064679279126564e-05 0.024913759080674336 0 9.5536457717991833e-05 0.02484731865766825 0 0.00017510926202052611 0.024680676522234286 0 9.8530354426798152e-05 0.024823137143112965 0 9.5536457717991833e-05 0.02484731865766825 0 0.00017510926202052611 0.024680676522234286 0 9.5536457717991833e-05 0.02484731865766825 0 2.293679338745853e-05 0.024597334282493551 0 -0.00013694344209769053 0.024321428064984378 0 -0.00029742411456195434 0.024363704413238967 0 2.293679338745853e-05 0.024597334282493551 0 -8.4044992281610337e-05 0.024607495938855237 0 1.3372004406784504e-05 0.024609364703349217 0 -0.00013694344209769053 0.024321428064984378 0 4.5239300006883863e-05 0.0244686240559236 0 2.293679338745853e-05 0.024597334282493551 0 4.5239300006883863e-05 0.0244686240559236 0 3.219623031547275e-05 0.024554351332392605 0 2.293679338745853e-05 0.024597334282493551 0 4.5239300006883863e-05 0.0244686240559236 0 3.219623031547275e-05 0.024554351332392605 0 0.00012008929851134841 0.024436706963009834 0 4.5239300006883863e-05 0.0244686240559236 0 0.00012008929851134841 0.024436706963009834 0 0.00013972374174572017 0.024235704774470523 0 0.00098965688830986924 0.024351182159646372 0 0.00051674795632377876 0.023737061477714577 0 0.0010617884201697379 0.0237820364409673 0 0.00062373734789889586 0.024517561104064424 0 0.0002833743472263394 0.023946301643985309 0 -0.00013694344209769053 0.024321428064984378 0 4.5239300006883863e-05 0.0244686240559236 0 0.00013972374174572017 0.024235704774470523 0 -0.00017164139110666671 0.024081989098551904 0 0.00013972374174572017 0.024235704774470523 0 2.7829225597947354e-05 0.023650142746081196 0 -0.00017164139110666671 0.024081989098551904 0 -0.00013694344209769053 0.024321428064984378 0 0.00013972374174572017 0.024235704774470523 0 0.00051674795632377876 0.023737061477714577 0 0.00048427288218359245 0.023447530756973187 0 2.7829225597947354e-05 0.023650142746081196 0 0.0002833743472263394 0.023946301643985309 0 4.2973880567787534e-05 0.02364944043357994 0 0.00051674795632377876 0.023737061477714577 0 0.00096567911739215925 0.023331883470725109 0 0.0010617884201697379 0.0237820364409673 0 0.00051674795632377876 0.023737061477714577 0 0.00096567911739215925 0.023331883470725109 0 0.00048427288218359245 0.023447530756973187 0 0.00096567911739215925 0.023331883470725109 0 0.00043826533679056871 0.022973343814041845 0 0.0013176804696051251 0.022639264939174487 0 0.00096567911739215925 0.023331883470725109 0 0.00048427288218359245 0.023447530756973187 0 0.00043826533679056871 0.022973343814041845 0 -3.5333652647588081e-05 0.022953800253365138 0 0.00043826533679056871 0.022973343814041845 0 2.7829225597947354e-05 0.023650142746081196 0 -3.5333652647588081e-05 0.022953800253365138 0 -0.00038894623432001471 0.023907520868309488 0 2.7829225597947354e-05 0.023650142746081196 0 0.00048427288218359245 0.023447530756973187 0 0.00043826533679056871 0.022973343814041845 0 2.7829225597947354e-05 0.023650142746081196 0 0.0018228213453810528 0.021670235520096122 0 0.0020711183611412647 0.022499058868088902 0 0.0013176804696051251 0.022639264939174487 0 0.0020711183611412647 0.022499058868088902 0 0.0013176804696051251 0.022639264939174487 0 0.0015579737773601611 0.023358384110815165 0 0.00096567911739215925 0.023331883470725109 0 0.0013176804696051251 0.022639264939174487 0 0.0015579737773601611 0.023358384110815165 0 0.00096567911739215925 0.023331883470725109 0 0.0015579737773601611 0.023358384110815165 0 0.0010617884201697379 0.0237820364409673 0 0.0020711183611412647 0.022499058868088902 0 0.0015579737773601611 0.023358384110815165 0 0.0021571163847764179 0.023683819824407867 0 0.0020711183611412647 0.022499058868088902 0 0.0021571163847764179 0.023683819824407867 0 0.0028621973771091069 0.023313364935988019 0 0.0021571163847764179 0.023683819824407867 0 0.0017747729368265152 0.024256744627067357 0 0.0027110765099679643 0.024305082761650078 0 0.0015579737773601611 0.023358384110815165 0 0.0021571163847764179 0.023683819824407867 0 0.0017747729368265152 0.024256744627067357 0 0.0015579737773601611 0.023358384110815165 0 0.0017747729368265152 0.024256744627067357 0 0.0010617884201697379 0.0237820364409673 0 0.00098965688830986924 0.024351182159646372 0 0.0017747729368265152 0.024256744627067357 0 0.0010617884201697379 0.0237820364409673 0 0.00098965688830986924 0.024351182159646372 0 0.0017747729368265152 0.024256744627067357 0 0.0015215672798605277 0.02506850398386035 0 0.00062373734789889586 0.024517561104064424 0 0.00076842761477364141 0.024018827624100729 0 3.219623031547275e-05 0.024554351332392605 0 0.00012008929851134841 0.024436706963009834 0 0.00019326964211160901 0.024575651805133554 0 0.0017747729368265152 0.024256744627067357 0 0.0020909784293013226 0.024791198530484462 0 0.0015215672798605277 0.02506850398386035 0 0.0017747729368265152 0.024256744627067357 0 0.0020909784293013226 0.024791198530484462 0 0.0027110765099679643 0.024305082761650078 0 0.0020909784293013226 0.024791198530484462 0 0.0022000924208947078 0.02516962850690552 0 0.0015215672798605277 0.02506850398386035 0 0.0013058671786943836 0.022459089552283606 0 0.0012914561099145398 0.022531791129534049 0 0.001217108473039895 0.022408818758971466 0 0.0012914561099145398 0.022531791129534049 0 0.0011908668256142084 0.022395580501089703 0 0.001217108473039895 0.022408818758971466 0 0.0020909784293013226 0.024791198530484462 0 0.0022000924208947078 0.02516962850690552 0 0.0026049945118144795 0.02516975670401303 0 0.0012963333351645114 0.022396489485926901 0 0.0013058671786943836 0.022459089552283606 0 0.001217108473039895 0.022408818758971466 0 0.00021140170464051378 0.023312426677614892 0 0.00076842761477364141 0.024018827624100729 0 0.0012963333351645114 0.022396489485926901 0 0.0013058671786943836 0.022459089552283606 0 0.0013661684542165223 0.022384813500150463 0 0.0016938758926787162 0.02313733377540558 0 0.00076842761477364141 0.024018827624100729 0 0.0016938758926787162 0.02313733377540558 0 0.0011640881294199884 0.022620207675357107 0 0.001291995191245254 0.022416491727658115 0 0.0011908668256142084 0.022395580501089703 0 0.001217108473039895 0.022408818758971466 0 -0.00065027389708519187 0.024194402979659219 0 -0.00025348361673554689 0.02420367988569937 0 -0.00057795820165440048 0.023813734842693803 0 -0.00065027389708519187 0.024194402979659219 0 -0.00025348361673554689 0.02420367988569937 0 -0.00027981715950062969 0.024586667559731781 0 0.0013058671786943836 0.022459089552283606 0 0.0012914561099145398 0.022531791129534049 0 0.0013824768545991808 0.022597451497166847 0 -0.00025348361673554689 0.02420367988569937 0 -0.00012208713760372022 0.024432038040600568 0 -2.8213576042415085e-05 0.024375277222671101 0 -0.00020594370168023902 0.024504404458234531 0 0.00076842761477364141 0.024018827624100729 0 3.219623031547275e-05 0.024554351332392605 0 -0.00012208713760372022 0.024432038040600568 0 -0.00027981715950062969 0.024586667559731781 0 -0.00025348361673554689 0.02420367988569937 0 -0.00012208713760372022 0.024432038040600568 0 -0.00027981715950062969 0.024586667559731781 0 3.219623031547275e-05 0.024554351332392605 0 -0.00012208713760372022 0.024432038040600568 0 -2.8213576042415085e-05 0.024375277222671101 0 3.219623031547275e-05 0.024554351332392605 0 3.8388048025814519e-05 0.024469065579853462 0 -2.8213576042415085e-05 0.024375277222671101 0 3.219623031547275e-05 0.024554351332392605 0 2.293679338745853e-05 0.024597334282493551 0 3.8388048025814519e-05 0.024469065579853462 0 9.9826380275966819e-05 0.024526715891902317 0 2.293679338745853e-05 0.024597334282493551 0 3.8388048025814519e-05 0.024469065579853462 0 9.9826380275966819e-05 0.024526715891902317 0 3.8388048025814519e-05 0.024469065579853462 0 0.00010251556826337203 0.024379150972648332 0 3.8388048025814519e-05 0.024469065579853462 0 0.00010251556826337203 0.024379150972648332 0 4.5500661099091365e-05 0.024252877365029204 0 0.00010251556826337203 0.024379150972648332 0 4.5500661099091365e-05 0.024252877365029204 0 0.00011974511231631999 0.02419764097886383 0 -0.00025348361673554689 0.02420367988569937 0 -2.8213576042415085e-05 0.024375277222671101 0 -6.5506993565400898e-05 0.024090454565075137 0 3.8388048025814519e-05 0.024469065579853462 0 4.5500661099091365e-05 0.024252877365029204 0 -2.8213576042415085e-05 0.024375277222671101 0 4.5500661099091365e-05 0.024252877365029204 0 -2.8213576042415085e-05 0.024375277222671101 0 -6.5506993565400898e-05 0.024090454565075137 0 -6.5506993565400898e-05 0.024090454565075137 0 -2.1522417632952501e-05 0.023914343016871158 0 -0.00024630763610244879 0.023643574221124546 0 4.5500661099091365e-05 0.024252877365029204 0 -6.5506993565400898e-05 0.024090454565075137 0 -2.1522417632952501e-05 0.023914343016871158 0 5.2016966456764042e-05 0.023661634021957263 0 0.00019395083425749506 0.023969151600111375 0 4.5500661099091365e-05 0.024252877365029204 0 -2.1522417632952501e-05 0.023914343016871158 0 0.00011974511231631999 0.02419764097886383 0 -2.1522417632952501e-05 0.023914343016871158 0 0.00011974511231631999 0.02419764097886383 0 0.00018237776024168406 0.024002618776464844 0 9.7043931433478929e-05 0.024272218607901165 0 0.00019395083425749506 0.023969151600111375 0 -4.7891124155846546e-05 0.024138366612459543 0 -5.0709869418218251e-05 0.02413834250561132 0 -7.1281416355659433e-05 0.024116368399278578 0 9.7043931433478929e-05 0.024272218607901165 0 -7.3807430349603413e-05 0.024175036249374397 0 0.00019395083425749506 0.023969151600111375 0 5.0913348518454343e-05 0.023576774142943197 0 0.00014148871575056076 0.023432548162831131 0 0.00039208288805889929 0.023419346569375186 0 0.00020695652674055864 0.023092004092657124 0 -4.7891124155846546e-05 0.024138366612459543 0 -7.1281416355659433e-05 0.024116368399278578 0 -7.0428550783472173e-05 0.024111904918784885 0 5.1916985047777541e-05 0.024309389959165168 0 2.1122871494174049e-05 0.024426008621037127 0 -4.7374901247700998e-05 0.0242427036191755 0 0.00014148871575056076 0.023432548162831131 0 2.6264202961413688e-05 0.023162849279613582 0 0.00020695652674055864 0.023092004092657124 0 0.00014148871575056076 0.023432548162831131 0 2.6264202961413688e-05 0.023162849279613582 0 -0.00024630763610244879 0.023643574221124546 0 2.6264202961413688e-05 0.023162849279613582 0 -0.00024630763610244879 0.023643574221124546 0 -0.00014938085929771511 0.022939663133772974 0 -0.00035987007389754442 0.022919596440479941 0 -0.0001172300047989336 0.022871772393311424 0 -0.00070154795281972217 0.023332250140025271 0 -0.00024630763610244879 0.023643574221124546 0 -0.00014938085929771511 0.022939663133772974 0 -0.00070154795281972217 0.023332250140025271 0 -0.00057795820165440048 0.023813734842693803 0 -0.00024630763610244879 0.023643574221124546 0 -0.00025348361673554689 0.02420367988569937 0 -6.5506993565400898e-05 0.024090454565075137 0 -0.00024630763610244879 0.023643574221124546 0 -0.00025348361673554689 0.02420367988569937 0 -0.00057795820165440048 0.023813734842693803 0 -0.00024630763610244879 0.023643574221124546 0 5.2016966456764042e-05 0.023661634021957263 0 -0.00025829148822475529 0.023653852761659468 0 0.001605788754971902 0.022627649168454486 0 0.0015169676494476939 0.022831803660832869 0 0.0019162684158663358 0.022629314237306509 0 0.00057199117766270268 0.022796677072787846 0 0.001649199008868349 0.021904132493782758 0 0.00061147762838380877 0.022064402246172406 0 0.00098724543273249424 0.022099663159118654 0 0.0011489283455089561 0.021364433007655663 0 0.00049585975112717096 0.021908299399528978 0 0.00061147762838380877 0.022064402246172406 0 0.0011489283455089561 0.021364433007655663 0 0.00021140170464051378 0.023312426677614892 0 0.00057199117766270268 0.022796677072787846 0 -0.00070154795281972217 0.023332250140025271 0 -0.00057795820165440048 0.023813734842693803 0 -0.0010997683603871998 0.02362027217439143 0 0.0012914561099145398 0.022531791129534049 0 0.0015169676494476939 0.022831803660832869 0 0.0013824768545991808 0.022597451497166847 0 -0.00065027389708519187 0.024194402979659219 0 -0.00057795820165440048 0.023813734842693803 0 -0.0010997683603871998 0.02362027217439143 0 0.001605788754971902 0.022627649168454486 0 0.0015169676494476939 0.022831803660832869 0 0.0013824768545991808 0.022597451497166847 0 0.00052879478296623066 0.02196566286543165 0 0.00061147762838380877 0.022064402246172406 0 0.00043403757663871434 0.022393537859907973 0 0.00016638189292293208 0.022386887140957351 0 0.00043403757663871434 0.022393537859907973 0 0.00023937154072976516 0.022824483660850884 0 0.00057199117766270268 0.022796677072787846 0 0.00041878019513237429 0.022383751050035431 0 -0.00035987007389754442 0.022919596440479941 0 0.00057199117766270268 0.022796677072787846 0 0.00016638189292293208 0.022386887140957351 0 0.00052879478296623066 0.02196566286543165 0 0.00043403757663871434 0.022393537859907973 0 0.00061147762838380877 0.022064402246172406 0 0.00043403757663871434 0.022393537859907973 0 0.00068193052111640607 0.02226777018295532 0 0.00043403757663871434 0.022393537859907973 0 0.00068193052111640607 0.02226777018295532 0 0.0007182319295202886 0.022505817547532225 0 0.00068193052111640607 0.02226777018295532 0 0.00098724543273249424 0.022099663159118654 0 0.0007182319295202886 0.022505817547532225 0 0.00098724543273249424 0.022099663159118654 0 0.0011870355871982108 0.022449766562815426 0 0.0007182319295202886 0.022505817547532225 0 0.00061147762838380877 0.022064402246172406 0 0.00068193052111640607 0.02226777018295532 0 0.00098724543273249424 0.022099663159118654 0 0.0015693391199222599 0.021881819734072973 0 0.0016113437887300165 0.022400682908838825 0 0.0011870355871982108 0.022449766562815426 0 0.00098724543273249424 0.022099663159118654 0 0.0015693391199222599 0.021881819734072973 0 0.0011870355871982108 0.022449766562815426 0 0.0015693391199222599 0.021881819734072973 0 0.0022314976998089129 0.022280503596261412 0 0.0016113437887300165 0.022400682908838825 0 0.0015693391199222599 0.021881819734072973 0 0.0022609040845517517 0.021686827009953159 0 0.0022314976998089129 0.022280503596261412 0 0.0015693391199222599 0.021881819734072973 0 0.0018264345029466811 0.02087155585478041 0 0.0022609040845517517 0.021686827009953159 0 0.00098724543273249424 0.022099663159118654 0 0.0015693391199222599 0.021881819734072973 0 0.0011489283455089561 0.021364433007655663 0 0.0015693391199222599 0.021881819734072973 0 0.0011489283455089561 0.021364433007655663 0 0.0018264345029466811 0.02087155585478041 0 0.0019162684158663358 0.022629314237306509 0 0.0020871122569457168 0.022369014691024241 0 0.0018525928168734225 0.02241043089931985 0 0.0020871122569457168 0.022369014691024241 0 0.0024153079333007949 0.022250974920018138 0 0.0020092962737909286 0.02230382436573642 0 0.001649199008868349 0.021904132493782758 0 0.0020338019994135871 0.021672614596787498 0 0.0019162684158663358 0.022629314237306509 0 0.0020871122569457168 0.022369014691024241 0 0.0023479659775537606 0.022347635799437094 0 0.0020092962737909286 0.02230382436573642 0 0.0018557946747613135 0.022312945240943582 0 0.0018525928168734225 0.02241043089931985 0 0.0020871122569457168 0.022369014691024241 0 0.0020092962737909286 0.02230382436573642 0 0.0018525928168734225 0.02241043089931985 0 0.0020871122569457168 0.022369014691024241 0 0.0023479659775537606 0.022347635799437094 0 0.0024153079333007949 0.022250974920018138 0 0.0023286801903876571 0.022111414009123385 0 0.0024153079333007949 0.022250974920018138 0 0.0020650762047175596 0.022166054909944131 0 0.0023286801903876571 0.022111414009123385 0 0.0024153079333007949 0.022250974920018138 0 0.0027257760479104192 0.022077133792874886 0 0.0023286801903876571 0.022111414009123385 0 0.0020650762047175596 0.022166054909944131 0 0.0020320755581820092 0.022105773548156845 0 0.0024253715929466158 0.022262319856444213 0 0.0019170535530903606 0.022137646227007635 0 0.0024153079333007949 0.022250974920018138 0 0.0020092962737909286 0.02230382436573642 0 0.0018915820017318086 0.022205227972016506 0 0.002596852091251549 0.021430126885487281 0 0.0026541566055954605 0.02132138966488456 0 0.0020092962737909286 0.02230382436573642 0 0.0018915820017318086 0.022205227972016506 0 0.0018557946747613135 0.022312945240943582 0 0.0018915820017318086 0.022205227972016506 0 0.0017274460841931109 0.022316282842337495 0 0.0014059024403141195 0.022124693329430924 0 0.0020650762047175596 0.022166054909944131 0 0.0020320755581820092 0.022105773548156845 0 0.0017750693408672598 0.022104079473813629 0 0.0019170535530903606 0.022137646227007635 0 0.0018642105533684548 0.022437987737826966 0 0.0030169542695118678 0.020728360658664183 0 0.0032355462349059998 0.020747688322764666 0 0.0031230973251086419 0.020836061122581351 0 0.0026541566055954605 0.02132138966488456 0 0.0018642105533684548 0.022437987737826966 0 0.0018915820017318086 0.022205227972016506 0 0.0017274460841931109 0.022316282842337495 0 0.0018557946747613135 0.022312945240943582 0 0.0017274460841931109 0.022316282842337495 0 0.0018525928168734225 0.02241043089931985 0 0.0017030135231656698 0.02247630435248555 0 0.001605788754971902 0.022627649168454486 0 0.0019162684158663358 0.022629314237306509 0 0.0017030135231656698 0.02247630435248555 0 0.0017274460841931109 0.022316282842337495 0 0.0018557946747613135 0.022312945240943582 0 0.0018525928168734225 0.02241043089931985 0 0.0017274460841931109 0.022316282842337495 0 0.0016104336413935798 0.022377713066546425 0 0.0017030135231656698 0.02247630435248555 0 0.0016104336413935798 0.022377713066546425 0 0.0017030135231656698 0.02247630435248555 0 0.0015243720904909747 0.02250072311575085 0 0.001605788754971902 0.022627649168454486 0 0.0017030135231656698 0.02247630435248555 0 0.0015243720904909747 0.02250072311575085 0 0.0019162684158663358 0.022629314237306509 0 0.0018525928168734225 0.02241043089931985 0 0.0017030135231656698 0.02247630435248555 0 0.0012815997634986847 0.022511422495324049 0 0.0018642105533684548 0.022437987737826966 0 0.0013824768545991808 0.022597451497166847 0 0.0015243720904909747 0.02250072311575085 0 0.0014059024403141195 0.022124693329430924 0 0.001605788754971902 0.022627649168454486 0 0.0013824768545991808 0.022597451497166847 0 0.0015243720904909747 0.02250072311575085 0 0.0017274460841931109 0.022316282842337495 0 0.0016104336413935798 0.022377713066546425 0 0.0014059024403141195 0.022124693329430924 0 0.0016104336413935798 0.022377713066546425 0 0.0015243720904909747 0.02250072311575085 0 0.0014059024403141195 0.022124693329430924 0 0.0013058671786943836 0.022459089552283606 0 0.0013824768545991808 0.022597451497166847 0 0.0013661684542165223 0.022384813500150463 0 0.0016938758926787162 0.02313733377540558 0 0.0018642105533684548 0.022437987737826966 0 0.0020909784293013226 0.024791198530484462 0 0.0026049945118144795 0.02516975670401303 0 0.0027110765099679643 0.024305082761650078 0 0.0018642105533684548 0.022437987737826966 0 0.0030277329593552333 0.022717989994620363 0 0.0032355462349059998 0.020747688322764666 0 0.0031230973251086419 0.020836061122581351 0 0.0032400160766016279 0.020953602051371235 0 0.0031230973251086419 0.020836061122581351 0 0.0029903741077504649 0.020958025284514598 0 0.0032400160766016279 0.020953602051371235 0 0.0030169542695118678 0.020728360658664183 0 0.0031230973251086419 0.020836061122581351 0 0.0029903741077504649 0.020958025284514598 0 0.0029903741077504649 0.020958025284514598 0 0.0032400160766016279 0.020953602051371235 0 0.0032100140565080801 0.021270692837016301 0 0.0030277329593552333 0.022717989994620363 0 0.0030099478040764498 0.022254256140230525 0 0.0021571163847764179 0.023683819824407867 0 0.0027110765099679643 0.024305082761650078 0 0.0028621973771091069 0.023313364935988019 0 0.0029903741077504649 0.020958025284514598 0 0.0029607483967849122 0.021453631404129352 0 0.0029408778283257745 0.021212389068241314 0 0.0029903741077504649 0.020958025284514598 0 0.0032100140565080801 0.021270692837016301 0 0.0029607483967849122 0.021453631404129352 0 0.0029799161796839452 0.021267055278984738 0 0.0029643075731317988 0.021416607596879141 0 0.0029607483967849122 0.021453631404129352 0 0.0029643075731317988 0.021416607596879141 0 0.0029607483967849122 0.021453631404129352 0 0.0029222431474979654 0.021864699369048803 0 0.0030099478040764498 0.022254256140230525 0 0.0029617451882120076 0.021900914975013112 0 0.0020711183611412647 0.022499058868088902 0 0.0028621973771091069 0.023313364935988019 0 0.0029222431474979654 0.021864699369048803 0 0.0032100140565080801 0.021270692837016301 0 0.0029607483967849122 0.021453631404129352 0 0.0029222431474979654 0.021864699369048803 0 0.00247059876345884 0.021699947460754605 0 0.0020711183611412647 0.022499058868088902 0 0.0029222431474979654 0.021864699369048803 0 0.0028613328787277007 0.021115432737428597 0 0.0029799161796839452 0.021267055278984738 0 0.0029074994029225027 0.021037374061422139 0 0.0029799161796839452 0.021267055278984738 0 0.0029607483967849122 0.021453631404129352 0 0.0029408778283257745 0.021212389068241314 0 0.0029799161796839452 0.021267055278984738 0 0.0029408778283257745 0.021212389068241314 0 0.0029074994029225027 0.021037374061422139 0 0.0029903741077504649 0.020958025284514598 0 0.0029408778283257745 0.021212389068241314 0 0.0029045331851382272 0.020967567192947394 0 0.0029074994029225027 0.021037374061422139 0 0.0029045331851382272 0.020967567192947394 0 0.0028661310893272345 0.020796690897685214 0 0.0029408778283257745 0.021212389068241314 0 0.0029074994029225027 0.021037374061422139 0 0.0029045331851382272 0.020967567192947394 0 0.0029045331851382272 0.020967567192947394 0 0.0028951348953197113 0.020810999972894189 0 0.0028661310893272345 0.020796690897685214 0 0.0028951348953197113 0.020810999972894189 0 0.0028344192645405049 0.020652874180622945 0 0.0028661310893272345 0.020796690897685214 0 0.0029903741077504649 0.020958025284514598 0 0.0029045331851382272 0.020967567192947394 0 0.0028951348953197113 0.020810999972894189 0 0.0030169542695118678 0.020728360658664183 0 0.0029903741077504649 0.020958025284514598 0 0.0028951348953197113 0.020810999972894189 0 0.0028803181211447498 0.020681631663540225 0 0.0030169542695118678 0.020728360658664183 0 0.0028951348953197113 0.020810999972894189 0 0.0028803181211447498 0.020681631663540225 0 0.0028951348953197113 0.020810999972894189 0 0.0028344192645405049 0.020652874180622945 0 0.0028344192645405049 0.020652874180622945 0 0.0028222922186743101 0.020514445897600913 0 0.0028256616259380771 0.020602874752204934 0 0.0028803181211447498 0.020681631663540225 0 0.0028344192645405049 0.020652874180622945 0 0.0028256616259380771 0.020602874752204934 0 0.0028344192645405049 0.020652874180622945 0 0.0028222922186743101 0.020514445897600913 0 0.0028260187950127987 0.020515625835334554 0 0.0028222922186743101 0.020514445897600913 0 0.0028260187950127987 0.020515625835334554 0 0.0028935779734594784 0.020387365476176131 0 0.0028344192645405049 0.020652874180622945 0 0.0028260187950127987 0.020515625835334554 0 0.0028661310893272345 0.020796690897685214 0 0.0028260187950127987 0.020515625835334554 0 0.0028661310893272345 0.020796690897685214 0 0.002845231055819943 0.020830038359593909 0 0.0029074994029225027 0.021037374061422139 0 0.0028661310893272345 0.020796690897685214 0 0.002845231055819943 0.020830038359593909 0 0.0028260187950127987 0.020515625835334554 0 0.002845231055819943 0.020830038359593909 0 0.0027961425647995354 0.020599999127589495 0 0.002845231055819943 0.020830038359593909 0 0.0027519800669229969 0.020877274725301622 0 0.0027961425647995354 0.020599999127589495 0 0.0015892739055231387 0.017308572691785686 0 0.0018649089056007719 0.017547359264677691 0 0.0028613328787277007 0.021115432737428597 0 0.002845231055819943 0.020830038359593909 0 0.0027519800669229969 0.020877274725301622 0 0.0028613328787277007 0.021115432737428597 0 0.0029074994029225027 0.021037374061422139 0 0.002845231055819943 0.020830038359593909 0 0.0015887110393467338 0.013743165739978996 0 0.00096615252616927586 0.013990905786228632 0 0.0016909242880370091 0.014473029723174742 0 0.0022281563196748034 0.016781989111519471 0 0.0017966427091102779 0.012700080334277565 0 0.0015887110393467338 0.013743165739978996 0 0.0016909242880370091 0.014473029723174742 0 0.0021346366866332343 0.013822812758355684 0 0.0018649089056007719 0.017547359264677691 0 0.0022281563196748034 0.016781989111519471 0 0.0027519800669229969 0.020877274725301622 0 0.0027961425647995354 0.020599999127589495 0 0.0024546609611593995 0.020625865947422963 0 0.0027961425647995354 0.020599999127589495 0 0.0024546609611593995 0.020625865947422963 0 0.0028413606523998011 0.020210381343883747 0 0.0033586704097200376 0.019320822603752244 0 0.0034436487788443485 0.019787161104354654 0 0.0028413606523998011 0.020210381343883747 0 0.0022281563196748034 0.016781989111519471 0 0.0026607337851428953 0.021148591303649187 0 0.0034436487788443485 0.019787161104354654 0 0.0028413606523998011 0.020210381343883747 0 0.0031954718572433302 0.020117234232826232 0 0.0034436487788443485 0.019787161104354654 0 0.0031954718572433302 0.020117234232826232 0 0.00376055971964995 0.019720171814528117 0 0.0028260187950127987 0.020515625835334554 0 0.0027961425647995354 0.020599999127589495 0 0.0028413606523998011 0.020210381343883747 0 0.0028260187950127987 0.020515625835334554 0 0.0028413606523998011 0.020210381343883747 0 0.0028935779734594784 0.020387365476176131 0 0.0028935779734594784 0.020387365476176131 0 0.0032851606963125194 0.020393505072925765 0 0.0029916307182114754 0.020564489575064071 0 0.0028413606523998011 0.020210381343883747 0 0.0028935779734594784 0.020387365476176131 0 0.0031954718572433302 0.020117234232826232 0 0.0028222922186743101 0.020514445897600913 0 0.0028935779734594784 0.020387365476176131 0 0.0029916307182114754 0.020564489575064071 0 0.0028935779734594784 0.020387365476176131 0 0.0031954718572433302 0.020117234232826232 0 0.0032851606963125194 0.020393505072925765 0 0.0031954718572433302 0.020117234232826232 0 0.0032851606963125194 0.020393505072925765 0 0.00376055971964995 0.019720171814528117 0 0.0032851606963125194 0.020393505072925765 0 0.0032201059956893196 0.02067495015895154 0 0.0037272598974856233 0.020553936931132725 0 0.0032851606963125194 0.020393505072925765 0 0.0032201059956893196 0.02067495015895154 0 0.0029916307182114754 0.020564489575064071 0 0.0033077976102079886 0.020872423184595743 0 0.0030177531613503478 0.02094217679464179 0 0.0032993668765786367 0.021056276418678375 0 0.0032201059956893196 0.02067495015895154 0 0.0033077976102079886 0.020872423184595743 0 0.0030177531613503478 0.02094217679464179 0 0.0030177531613503478 0.02094217679464179 0 0.0029916307182114754 0.020564489575064071 0 0.0027841011015944119 0.020770643346340784 0 0.0032201059956893196 0.02067495015895154 0 0.0030177531613503478 0.02094217679464179 0 0.0029916307182114754 0.020564489575064071 0 0.0028222922186743101 0.020514445897600913 0 0.0029916307182114754 0.020564489575064071 0 0.0026896172433140499 0.02061016164192133 0 0.0029916307182114754 0.020564489575064071 0 0.0024729794171435412 0.020509649799415774 0 0.0027841011015944119 0.020770643346340784 0 0.0029206586782438175 0.020443926121791134 0 0.0026855074724528561 0.021023066400212526 0 0.002898330204279756 0.020524810242362048 0 0.0026855074724528561 0.021023066400212526 0 0.002596852091251549 0.021430126885487281 0 0.0026855074724528561 0.021023066400212526 0 0.0020338019994135871 0.021672614596787498 0 0.0026855074724528561 0.021023066400212526 0 0.0023479659775537606 0.022347635799437094 0 0.0024153079333007949 0.022250974920018138 0 0.0027257760479104192 0.022077133792874886 0 0.0018264345029466811 0.02087155585478041 0 0.0025985752891980684 0.021043745217048389 0 0.0022609040845517517 0.021686827009953159 0 0.0018264345029466811 0.02087155585478041 0 0.0024729794171435412 0.020509649799415774 0 0.0025985752891980684 0.021043745217048389 0 0.0024729794171435412 0.020509649799415774 0 0.0027841011015944119 0.020770643346340784 0 0.0025985752891980684 0.021043745217048389 0 0.0030177531613503478 0.02094217679464179 0 0.0027841011015944119 0.020770643346340784 0 0.0025985752891980684 0.021043745217048389 0 0.0030177531613503478 0.02094217679464179 0 0.0025985752891980684 0.021043745217048389 0 0.0028102413412065285 0.021196861363829433 0 0.0026034958349813501 0.021050383789465967 0 0.0028074251082120805 0.021492320529013589 0 0.0025985752891980684 0.021043745217048389 0 0.0027523477424387672 0.021764410780888449 0 0.0022609040845517517 0.021686827009953159 0 0.0022609040845517517 0.021686827009953159 0 0.0025512578015539204 0.022134780086326446 0 0.0022314976998089129 0.022280503596261412 0 0.0027523477424387672 0.021764410780888449 0 0.0022609040845517517 0.021686827009953159 0 0.0025512578015539204 0.022134780086326446 0 0.0028074251082120805 0.021492320529013589 0 0.0024352942620168741 0.021715833544338013 0 0.0027523477424387672 0.021764410780888449 0 0.0025512578015539204 0.022134780086326446 0 0.0028029913900231309 0.022254542712840181 0 0.0028102413412065285 0.021196861363829433 0 0.0030662473859054116 0.02128812277839259 0 0.0029646746424796867 0.02134999910552925 0 0.0028102413412065285 0.021196861363829433 0 0.0031114936756523395 0.021176393094476467 0 0.0030662473859054116 0.02128812277839259 0 0.0031114936756523395 0.021176393094476467 0 0.003196646537855691 0.021292411854958983 0 0.0033226915110377282 0.021199493773966568 0 0.0031114936756523395 0.021176393094476467 0 0.0032993668765786367 0.021056276418678375 0 0.0033226915110377282 0.021199493773966568 0 0.0031114936756523395 0.021176393094476467 0 0.0030662473859054116 0.02128812277839259 0 0.003196646537855691 0.021292411854958983 0 0.003196646537855691 0.021292411854958983 0 0.0033226915110377282 0.021199493773966568 0 0.003358716321387754 0.021318051570930495 0 0.0030177531613503478 0.02094217679464179 0 0.0031114936756523395 0.021176393094476467 0 0.0032993668765786367 0.021056276418678375 0 0.0030177531613503478 0.02094217679464179 0 0.0028102413412065285 0.021196861363829433 0 0.0031114936756523395 0.021176393094476467 0 0.00305732692709284 0.021508230767039938 0 0.0031284904414165308 0.021464043750973574 0 0.0031065378961910163 0.021374565831641691 0 0.0020011728829865592 0.019305833632723583 0 0.0024352942620168741 0.021715833544338013 0 0.0020011728829865592 0.019305833632723583 0 0.0026648456619027716 0.020508122260420099 0 0.0026648456619027716 0.020508122260420099 0 0.0033630205528235768 0.021459615499347929 0 0.0032092883580033971 0.021422355905854489 0 0.0032022878112640159 0.02139299730365686 0 0.0033783631899071526 0.021380270989078957 0 0.0020291605046426856 0.018146597916613966 0 0.0020409410256248331 0.018144511337186676 0 0.0020413158529059994 0.018145432799167898 0 0.0016844676852592235 0.01670488811686317 0 0.0026648456619027716 0.020508122260420099 0 0.0026648456619027716 0.020508122260420099 0 0.0032107421794820576 0.021702800392358768 0 0.0031788747169891442 0.021540609940641792 0 0.00325034867882921 0.021378127710553467 0 0.0033783631899071526 0.021380270989078957 0 0.0031788747169891442 0.021540609940641792 0 0.0031065378961910163 0.021374565831641691 0 0.00325034867882921 0.021378127710553467 0 0.003196646537855691 0.021292411854958983 0 0.00325034867882921 0.021378127710553467 0 0.003358716321387754 0.021318051570930495 0 0.0030662473859054116 0.02128812277839259 0 0.003196646537855691 0.021292411854958983 0 0.0031065378961910163 0.021374565831641691 0 0.003196646537855691 0.021292411854958983 0 0.0031065378961910163 0.021374565831641691 0 0.00325034867882921 0.021378127710553467 0 0.0030662473859054116 0.02128812277839259 0 0.0031065378961910163 0.021374565831641691 0 0.0030365908496814945 0.021363782373088724 0 0.00305732692709284 0.021508230767039938 0 0.0031065378961910163 0.021374565831641691 0 0.0030365908496814945 0.021363782373088724 0 0.00305732692709284 0.021508230767039938 0 0.0030365908496814945 0.021363782373088724 0 0.0029646746424796867 0.02134999910552925 0 0.0030662473859054116 0.02128812277839259 0 0.0030365908496814945 0.021363782373088724 0 0.0029646746424796867 0.02134999910552925 0 0.0024352942620168741 0.021715833544338013 0 0.0023257360729806702 0.021703269638105965 0 0.0025512578015539204 0.022134780086326446 0 0.0028029913900231309 0.022254542712840181 0 0.0024268637229526951 0.022586600238794382 0 0.0025512578015539204 0.022134780086326446 0 0.0022314976998089129 0.022280503596261412 0 0.0024268637229526951 0.022586600238794382 0 0.0022045431769790818 0.022498336087825858 0 0.0024268637229526951 0.022586600238794382 0 0.0021446886136516677 0.022614109550323246 0 0.0022314976998089129 0.022280503596261412 0 0.0022045431769790818 0.022498336087825858 0 0.0024268637229526951 0.022586600238794382 0 0.0012840165995831256 0.019970172881763931 0 0.0016463162166495771 0.020954762040236812 0 0.002209259455692105 0.020122104647420001 0 0.0012488899291753447 0.016038787149346513 0 0.00122209802334022 0.015980157679403396 0 0.0011119885796151052 0.016109579604413716 0 0.0012840165995831256 0.019970172881763931 0 0.002209259455692105 0.020122104647420001 0 0.0020525183637740527 0.019470602666885762 0 0.0024268637229526951 0.022586600238794382 0 0.0022083512894566907 0.022735171786024203 0 0.0021446886136516677 0.022614109550323246 0 0.0023257360729806702 0.021703269638105965 0 0.0016366816635234331 0.018791620441568891 0 0.0014720301723005593 0.016983687365268882 0 0.0016366816635234331 0.018791620441568891 0 0.002209259455692105 0.020122104647420001 0 0.0020525183637740527 0.019470602666885762 0 0.0027572709885697404 0.019296004860487988 0 0.0011893176261403547 0.016048613516086524 0 0.0012759009736119159 0.016000301108136768 0 0.0012692050721210314 0.015964348780097216 0 0.0012488899291753447 0.016038787149346513 0 0.0012692050721210314 0.015964348780097216 0 0.0012512442553661719 0.015977869766071892 0 0.0014720301723005593 0.016983687365268882 0 0.001289453973567743 0.015795749123301939 0 0.0012570293762099423 0.015948375170536579 0 0.0012692050721210314 0.015964348780097216 0 0.0012512442553661719 0.015977869766071892 0 0.0012570293762099423 0.015948375170536579 0 0.0012692050721210314 0.015964348780097216 0 0.0012624760502266894 0.015930457568121 0 0.0012488899291753447 0.016038787149346513 0 0.00122209802334022 0.015980157679403396 0 0.0012512442553661719 0.015977869766071892 0 0.00122209802334022 0.015980157679403396 0 0.0012512442553661719 0.015977869766071892 0 0.0012346840394734146 0.015949402222051108 0 0.0012570293762099423 0.015948375170536579 0 0.0012512442553661719 0.015977869766071892 0 0.0012346840394734146 0.015949402222051108 0 0.00122209802334022 0.015980157679403396 0 0.0012346840394734146 0.015949402222051108 0 0.0012002449656108166 0.015958506012871194 0 0.0012002449656108166 0.015958506012871194 0 0.0011517575093518081 0.015950592701932827 0 0.00117839346770592 0.016002198699602774 0 0.0012002449656108166 0.015958506012871194 0 0.0011517575093518081 0.015950592701932827 0 0.0012115975111876584 0.015916627858101082 0 0.0011517575093518081 0.015950592701932827 0 0.00117839346770592 0.016002198699602774 0 0.0011312989124366232 0.015999906008169293 0 0.00117839346770592 0.016002198699602774 0 0.0011528873404812155 0.016028407409124524 0 0.0011312989124366232 0.015999906008169293 0 0.00122209802334022 0.015980157679403396 0 0.0012002449656108166 0.015958506012871194 0 0.00117839346770592 0.016002198699602774 0 0.0020011728829865592 0.019305833632723583 0 0.0014720301723005593 0.016983687365268882 0 0.0011306772405156259 0.016163432248929282 0 0.0012488899291753447 0.016038787149346513 0 0.0011119885796151052 0.016109579604413716 0 0.0011760904936255351 0.015870011741547067 0 0.0014302966222968486 0.016588059240273397 0 0.00122209802334022 0.015980157679403396 0 0.00117839346770592 0.016002198699602774 0 0.0011538686863214642 0.016070622132528488 0 0.0011528873404812155 0.016028407409124524 0 0.001144271069238389 0.016051830465140145 0 0.0011312989124366232 0.015999906008169293 0 0.00117839346770592 0.016002198699602774 0 0.0011528873404812155 0.016028407409124524 0 0.0011538686863214642 0.016070622132528488 0 0.0011528873404812155 0.016028407409124524 0 0.001144271069238389 0.016051830465140145 0 0.0011538686863214642 0.016070622132528488 0 0.0020291605046426856 0.018146597916613966 0 0.0020409410256248331 0.018144511337186676 0 0.0020288805325823231 0.018145822047346407 0 0.0013175961793818493 0.016321143604442555 0 0.0014302966222968486 0.016588059240273397 0 0.0020011728829865592 0.019305833632723583 0 0.0014302966222968486 0.016588059240273397 0 0.00035743740201970594 0.013404962756267343 0 0.00044473732445713516 0.013861170248126845 0 0.00061408507390350745 0.013550622697590879 0 0.001104065851856175 0.016121017968229772 0 0.001144271069238389 0.016051830465140145 0 0.0010525501534958948 0.015996270638371973 0 0.0016844676852592235 0.01670488811686317 0 0.0005667876327914627 0.01450497387224136 0 0.0016844676852592235 0.01670488811686317 0 0.0014302966222968486 0.016588059240273397 0 0.001104065851856175 0.016121017968229772 0 0.001144271069238389 0.016051830465140145 0 0.0011531826179264149 0.0160741871438159 0 0.001144271069238389 0.016051830465140145 0 0.0010525501534958948 0.015996270638371973 0 0.0011312989124366232 0.015999906008169293 0 0.0011517575093518081 0.015950592701932827 0 0.0010525501534958948 0.015996270638371973 0 0.0011207040663197621 0.015873226263372699 0 0.0011517575093518081 0.015950592701932827 0 0.0010525501534958948 0.015996270638371973 0 0.0011312989124366232 0.015999906008169293 0 0.0010525501534958948 0.015996270638371973 0 0.0011207040663197621 0.015873226263372699 0 0.00097664477834163228 0.01586629022307114 0 0.0011517575093518081 0.015950592701932827 0 0.0011207040663197621 0.015873226263372699 0 0.0012115975111876584 0.015916627858101082 0 0.0011207040663197621 0.015873226263372699 0 0.0012115975111876584 0.015916627858101082 0 0.0012290556716397099 0.015850762394142317 0 0.0011207040663197621 0.015873226263372699 0 0.0011891068490881625 0.015772146463117778 0 0.0012290556716397099 0.015850762394142317 0 0.0011891068490881625 0.015772146463117778 0 0.0012514973191309433 0.015810956825376241 0 0.0012290556716397099 0.015850762394142317 0 0.0011207040663197621 0.015873226263372699 0 0.0011891068490881625 0.015772146463117778 0 0.0010863744101131288 0.01568544451757322 0 0.0011207040663197621 0.015873226263372699 0 0.0010863744101131288 0.01568544451757322 0 0.00097664477834163228 0.01586629022307114 0 0.0010863744101131288 0.01568544451757322 0 0.0012094121241614836 0.01571379180599938 0 0.0010931021121824208 0.015502221947710296 0 0.0011891068490881625 0.015772146463117778 0 0.0010863744101131288 0.01568544451757322 0 0.0012094121241614836 0.01571379180599938 0 0.0012094121241614836 0.01571379180599938 0 0.0012878567933809148 0.015797572653866644 0 0.0012514973191309433 0.015810956825376241 0 0.0011891068490881625 0.015772146463117778 0 0.0012094121241614836 0.01571379180599938 0 0.0012514973191309433 0.015810956825376241 0 0.0012094121241614836 0.01571379180599938 0 0.0012878567933809148 0.015797572653866644 0 0.0010931021121824208 0.015502221947710296 0 0.0012878567933809148 0.015797572653866644 0 0.0010931021121824208 0.015502221947710296 0 0.0012683074632340555 0.015796017655368005 0 0.0012484764917370102 0.015935104209912426 0 0.0012314171198978682 0.015986593638690805 0 0.0012639267197675015 0.015954818908016321 0 0.0012611831553293602 0.015875820002308527 0 0.0012484764917370102 0.015935104209912426 0 0.0012639267197675015 0.015954818908016321 0 0.0012611831553293602 0.015875820002308527 0 0.0012484764917370102 0.015935104209912426 0 0.0012443619103477915 0.01591931051084438 0 0.0012878567933809148 0.015797572653866644 0 0.0012611831553293602 0.015875820002308527 0 0.0012514973191309433 0.015810956825376241 0 0.0012878567933809148 0.015797572653866644 0 0.0012611831553293602 0.015875820002308527 0 0.0012639267197675015 0.015954818908016321 0 0.0012611831553293602 0.015875820002308527 0 0.0012514973191309433 0.015810956825376241 0 0.0012554283855640569 0.015885282980049358 0 0.0012611831553293602 0.015875820002308527 0 0.0012554283855640569 0.015885282980049358 0 0.0012443619103477915 0.01591931051084438 0 0.0012554283855640569 0.015885282980049358 0 0.0012436771434960268 0.015918661906623964 0 0.0012443619103477915 0.01591931051084438 0 0.0012554283855640569 0.015885282980049358 0 0.0012589111240959953 0.015912743852667718 0 0.0012532640259197785 0.015876750435278832 0 0.0012554283855640569 0.015885282980049358 0 0.0012589111240959953 0.015912743852667718 0 0.0012436771434960268 0.015918661906623964 0 0.0012514973191309433 0.015810956825376241 0 0.0012554283855640569 0.015885282980049358 0 0.0012532640259197785 0.015876750435278832 0 0.0012514973191309433 0.015810956825376241 0 0.0012532640259197785 0.015876750435278832 0 0.0012290556716397099 0.015850762394142317 0 0.0012532640259197785 0.015876750435278832 0 0.0012290556716397099 0.015850762394142317 0 0.0012529041505246695 0.015919439648081832 0 0.0012115975111876584 0.015916627858101082 0 0.0012290556716397099 0.015850762394142317 0 0.0012529041505246695 0.015919439648081832 0 0.0012346840394734146 0.015949402222051108 0 0.0012115975111876584 0.015916627858101082 0 0.0012529041505246695 0.015919439648081832 0 0.0012570293762099423 0.015948375170536579 0 0.0012346840394734146 0.015949402222051108 0 0.0012529041505246695 0.015919439648081832 0 0.0012346840394734146 0.015949402222051108 0 0.0012002449656108166 0.015958506012871194 0 0.0012115975111876584 0.015916627858101082 0 0.0012589111240959953 0.015912743852667718 0 0.0012529041505246695 0.015919439648081832 0 0.0012624760502266894 0.015930457568121 0 0.0012589111240959953 0.015912743852667718 0 0.0012532640259197785 0.015876750435278832 0 0.0012529041505246695 0.015919439648081832 0 0.0012570293762099423 0.015948375170536579 0 0.0012529041505246695 0.015919439648081832 0 0.0012624760502266894 0.015930457568121 0 0.0012589111240959953 0.015912743852667718 0 0.0012632091860541883 0.015919910430702292 0 0.00123661843917047 0.015935802439454201 0 0.0012632091860541883 0.015919910430702292 0 0.001184888072842327 0.01596558139985103 0 0.00123661843917047 0.015935802439454201 0 0.0012589111240959953 0.015912743852667718 0 0.0012624760502266894 0.015930457568121 0 0.0012632091860541883 0.015919910430702292 0 0.00084974061059307207 0.016363110917678992 0 0.0011232936374559494 0.016284468852527354 0 0.001184888072842327 0.01596558139985103 0 0.0011232936374559494 0.016284468852527354 0 0.0013038944203943316 0.016017338918938223 0 0.0011948119866650212 0.016652446623541144 0 0.00062767143614803045 0.016933279525376734 0 0.001270904967533403 0.02010388565522685 0 0.0011388756870831405 0.015818924292123671 0 0.0011137516876205745 0.01609091700945918 0 0.00084974061059307207 0.016363110917678992 0 0.0011232936374559494 0.016284468852527354 0 0.0010100597218946942 0.01648928880146884 0 0.0011232936374559494 0.016284468852527354 0 0.001184888072842327 0.01596558139985103 0 0.0013038944203943316 0.016017338918938223 0 0.001184888072842327 0.01596558139985103 0 0.0012234878928159727 0.015963144276551156 0 0.0013038944203943316 0.016017338918938223 0 0.001184888072842327 0.01596558139985103 0 0.0012234878928159727 0.015963144276551156 0 0.0012168678206348369 0.015944515237190544 0 0.001184888072842327 0.01596558139985103 0 0.00123661843917047 0.015935802439454201 0 0.0012168678206348369 0.015944515237190544 0 0.0012589111240959953 0.015912743852667718 0 0.00123661843917047 0.015935802439454201 0 0.0012436771434960268 0.015918661906623964 0 0.00123661843917047 0.015935802439454201 0 0.0012436771434960268 0.015918661906623964 0 0.0012168678206348369 0.015944515237190544 0 0.0012443619103477915 0.01591931051084438 0 0.0012168678206348369 0.015944515237190544 0 0.001222640026707065 0.015960306099701473 0 0.0012436771434960268 0.015918661906623964 0 0.0012443619103477915 0.01591931051084438 0 0.0012168678206348369 0.015944515237190544 0 0.0012109434991647975 0.015957275412183457 0 0.001222640026707065 0.015960306099701473 0 0.0011925914048862801 0.015991815606492762 0 0.0012168678206348369 0.015944515237190544 0 0.0012109434991647975 0.015957275412183457 0 0.001222640026707065 0.015960306099701473 0 0.0012234878928159727 0.015963144276551156 0 0.0012109434991647975 0.015957275412183457 0 0.0011950900262568977 0.015961271715062009 0 0.0012234878928159727 0.015963144276551156 0 0.0012168678206348369 0.015944515237190544 0 0.0012109434991647975 0.015957275412183457 0 0.0012109434991647975 0.015957275412183457 0 0.0011925914048862801 0.015991815606492762 0 0.0011950900262568977 0.015961271715062009 0 0.0012059426049385324 0.016012484101891857 0 0.001222640026707065 0.015960306099701473 0 0.0011925914048862801 0.015991815606492762 0 0.0012059426049385324 0.016012484101891857 0 0.001173409720248397 0.016049026675019871 0 0.0011925914048862801 0.015991815606492762 0 0.0012484764917370102 0.015935104209912426 0 0.0012443619103477915 0.01591931051084438 0 0.001222640026707065 0.015960306099701473 0 0.0012059426049385324 0.016012484101891857 0 0.0012314171198978682 0.015986593638690805 0 0.001222640026707065 0.015960306099701473 0 0.0012484764917370102 0.015935104209912426 0 0.0012314171198978682 0.015986593638690805 0 0.001222640026707065 0.015960306099701473 0 0.0010551985778545667 0.016808890748867548 0 0.0012697399058284129 0.016301037438720092 0 0.0011095728612827902 0.016181246815867769 0 0.00087175962453861044 0.016666655455971596 0 0.001088404577471918 0.016166701279510261 0 0.0012697399058284129 0.016301037438720092 0 0.0013016310069978835 0.017068027178180723 0 0.001665727949691116 0.01707522746009258 0 0.0010551985778545667 0.016808890748867548 0 0.0012697399058284129 0.016301037438720092 0 0.0013016310069978835 0.017068027178180723 0 0.0010551985778545667 0.016808890748867548 0 0.00057336466303869495 0.017199026565553523 0 0.0011095728612827902 0.016181246815867769 0 0.0011547047048986589 0.016057201655826619 0 0.0011528053227960709 0.015953087418406425 0 0.0011095728612827902 0.016181246815867769 0 0.0011547047048986589 0.016057201655826619 0 0.001173409720248397 0.016049026675019871 0 0.0011319780253799862 0.016106494797579449 0 0.0011547047048986589 0.016057201655826619 0 0.001173409720248397 0.016049026675019871 0 0.0011925914048862801 0.015991815606492762 0 0.0011547047048986589 0.016057201655826619 0 0.0011925914048862801 0.015991815606492762 0 0.0011528053227960709 0.015953087418406425 0 0.00057336466303869495 0.017199026565553523 0 0.00081784776181515807 0.017847040510050885 0 0.00059193636874859594 0.018172289287953409 0 0.0011925914048862801 0.015991815606492762 0 0.0011528053227960709 0.015953087418406425 0 0.0011950900262568977 0.015961271715062009 0 0.0012234878928159727 0.015963144276551156 0 0.0011528053227960709 0.015953087418406425 0 0.0011950900262568977 0.015961271715062009 0 0.00057336466303869495 0.017199026565553523 0 0.0010881684519486808 0.017388776207194555 0 0.00081784776181515807 0.017847040510050885 0 0.0010881684519486808 0.017388776207194555 0 0.0010824631862782548 0.017865892781489423 0 0.00081784776181515807 0.017847040510050885 0 0.0010551985778545667 0.016808890748867548 0 0.00057336466303869495 0.017199026565553523 0 0.0010881684519486808 0.017388776207194555 0 0.0013016310069978835 0.017068027178180723 0 0.001438448557396567 0.017763535152036426 0 0.001665727949691116 0.01707522746009258 0 0.0010551985778545667 0.016808890748867548 0 0.0010881684519486808 0.017388776207194555 0 0.0013016310069978835 0.017068027178180723 0 0.0010881684519486808 0.017388776207194555 0 0.0013016310069978835 0.017068027178180723 0 0.001438448557396567 0.017763535152036426 0 0.0010170694146634524 0.017588886163714491 0 0.0011826382915033798 0.018400547526693484 0 0.0010881684519486808 0.017388776207194555 0 0.0015412643083173145 0.017840098953177324 0 0.0010824631862782548 0.017865892781489423 0 0.0011826382915033798 0.018400547526693484 0 0.0011052151643074037 0.019182384076352355 0 0.0015412643083173145 0.017840098953177324 0 0.0010824631862782548 0.017865892781489423 0 0.00088050037603398096 0.018390519625733685 0 0.0015412643083173145 0.017840098953177324 0 0.0010080732017580113 0.018596446166032243 0 0.0010113910189978536 0.019285249544595536 0 0.0012818278289675848 0.018718705144818517 0 0.0012199347398389869 0.019064665058067858 0 0.0013089513802231893 0.018953814816383967 0 0.00081784776181515807 0.017847040510050885 0 0.00088050037603398096 0.018390519625733685 0 0.00059193636874859594 0.018172289287953409 0 0.0010824631862782548 0.017865892781489423 0 0.00081784776181515807 0.017847040510050885 0 0.00088050037603398096 0.018390519625733685 0 0.0015412643083173145 0.017840098953177324 0 0.00088050037603398096 0.018390519625733685 0 0.0010080732017580113 0.018596446166032243 0 0.0012234878928159727 0.015963144276551156 0 0.0011528053227960709 0.015953087418406425 0 0.0013038944203943316 0.016017338918938223 0 0.00057336466303869495 0.017199026565553523 0 0.00059193636874859594 0.018172289287953409 0 7.169023228227142e-05 0.018556323153290571 0 0.00087175962453861044 0.016666655455971596 0 0.00062767143614803045 0.016933279525376734 0 0.00059193636874859594 0.018172289287953409 0 7.169023228227142e-05 0.018556323153290571 0 0.00061822276114716014 0.018864254862065812 0 0.00088050037603398096 0.018390519625733685 0 0.00059193636874859594 0.018172289287953409 0 0.00061822276114716014 0.018864254862065812 0 7.169023228227142e-05 0.018556323153290571 0 0.000538825128320773 0.019609509438735198 0 -0.00036783598691329604 0.019826356622367154 0 7.169023228227142e-05 0.018556323153290571 0 0.00061822276114716014 0.018864254862065812 0 0.000538825128320773 0.019609509438735198 0 0.00061822276114716014 0.018864254862065812 0 0.0010113910189978536 0.019285249544595536 0 0.000538825128320773 0.019609509438735198 0 0.0012818278289675848 0.018718705144818517 0 0.0012199347398389869 0.019064665058067858 0 0.0010113910189978536 0.019285249544595536 0 0.0012199347398389869 0.019064665058067858 0 0.001240095822332171 0.019222335410190302 0 0.0013257253222896932 0.019106703806464974 0 0.00061822276114716014 0.018864254862065812 0 0.0010080732017580113 0.018596446166032243 0 0.0010113910189978536 0.019285249544595536 0 0.00088050037603398096 0.018390519625733685 0 0.00061822276114716014 0.018864254862065812 0 0.0010080732017580113 0.018596446166032243 0 0.0012199347398389869 0.019064665058067858 0 0.0010113910189978536 0.019285249544595536 0 0.001240095822332171 0.019222335410190302 0 0.0010113910189978536 0.019285249544595536 0 0.001240095822332171 0.019222335410190302 0 0.001276163732581641 0.019392198218854878 0 0.00096792268993463782 0.022408652342935761 0 0.0011140041034296549 0.022327639461099152 0 0.00035312634253558778 0.023584572914866167 0 0.00038031045444049773 0.023585663575785794 0 0.00034544510227220221 0.023554098725627158 0 0.00035558599675528357 0.023492449036527186 0 0.0003450862022163128 0.023363211448501085 0 0.00079424633659631199 0.02339190213181417 0 0.0011140041034296549 0.022327639461099152 0 0.0011245470515696223 0.021211407126512018 0 0.00038031045444049773 0.023585663575785794 0 0.00035558599675528357 0.023492449036527186 0 0.00034544510227220221 0.023554098725627158 0 0.00038031045444049773 0.023585663575785794 0 0.00035558599675528357 0.023492449036527186 0 0.00079424633659631199 0.02339190213181417 0 0.0011140041034296549 0.022327639461099152 0 0.0012486834578663037 0.023195203925490515 0 0.0010113910189978536 0.019285249544595536 0 0.001276163732581641 0.019392198218854878 0 0.000538825128320773 0.019609509438735198 0 0.00042408611005370823 0.02320146078318347 0 0.00079424633659631199 0.02339190213181417 0 0.00065594861853389094 0.023087375388231857 0 0.0003450862022163128 0.023363211448501085 0 0.00042408611005370823 0.02320146078318347 0 0.00079424633659631199 0.02339190213181417 0 0.00079424633659631199 0.02339190213181417 0 0.00065594861853389094 0.023087375388231857 0 0.00095875359876231145 0.023041899954966902 0 0.0011245470515696223 0.021211407126512018 0 0.001270904967533403 0.02010388565522685 0 0.0018152959923069441 0.022668977196421088 0 0.0017745599328438998 0.022807919805359945 0 0.0019004732325280708 0.022703093871607474 0 0.0017745599328438998 0.022807919805359945 0 0.0019525628074996868 0.02276933350546366 0 0.0019004732325280708 0.022703093871607474 0 0.0015907474317655556 0.02284035741746996 0 0.0018152959923069441 0.022668977196421088 0 0.0017745599328438998 0.022807919805359945 0 0.0011232936374559494 0.016284468852527354 0 0.0010100597218946942 0.01648928880146884 0 0.0011948119866650212 0.016652446623541144 0 0.001270904967533403 0.02010388565522685 0 0.0012483936507513957 0.022502798104540787 0 0.0019525628074996868 0.02276933350546366 0 0.0019004732325280708 0.022703093871607474 0 0.0019872432655830279 0.022701347189369506 0 0.0012759009736119159 0.016000301108136768 0 0.0012692050721210314 0.015964348780097216 0 0.0012632091860541883 0.015919910430702292 0 0.0016366816635234331 0.018791620441568891 0 0.001270904967533403 0.02010388565522685 0 0.0022083512894566907 0.022735171786024203 0 0.001953850616943636 0.022766010710368399 0 0.0019872432655830279 0.022701347189369506 0 0.0016366816635234331 0.018791620441568891 0 0.0011388756870831405 0.015818924292123671 0 0.00053841721459115823 0.016847122218528604 0 0.0010100597218946942 0.01648928880146884 0 0.0011948119866650212 0.016652446623541144 0 0.00053841721459115823 0.016847122218528604 0 0.00084974061059307207 0.016363110917678992 0 0.0010100597218946942 0.01648928880146884 0 0.0012692050721210314 0.015964348780097216 0 0.0012624760502266894 0.015930457568121 0 0.0012632091860541883 0.015919910430702292 0 0.0021446886136516677 0.022614109550323246 0 0.0019872432655830279 0.022701347189369506 0 0.0020264319632735191 0.022510444710195671 0 0.0022083512894566907 0.022735171786024203 0 0.0021446886136516677 0.022614109550323246 0 0.0019872432655830279 0.022701347189369506 0 0.0012486834578663037 0.023195203925490515 0 0.0017711082007280717 0.022703276695731654 0 0.0018152959923069441 0.022668977196421088 0 0.0019004732325280708 0.022703093871607474 0 0.0020264319632735191 0.022510444710195671 0 0.0019004732325280708 0.022703093871607474 0 0.0019872432655830279 0.022701347189369506 0 0.0020264319632735191 0.022510444710195671 0 0.00079424633659631199 0.02339190213181417 0 0.0014674385016826997 0.022999170516263861 0 0.00095875359876231145 0.023041899954966902 0 0.0014674385016826997 0.022999170516263861 0 0.00086857842126320461 0.022722632398382177 0 0.00095875359876231145 0.023041899954966902 0 0.0022045431769790818 0.022498336087825858 0 0.0021446886136516677 0.022614109550323246 0 0.0020264319632735191 0.022510444710195671 0 0.0022314976998089129 0.022280503596261412 0 0.0022045431769790818 0.022498336087825858 0 0.0020264319632735191 0.022510444710195671 0 0.0022314976998089129 0.022280503596261412 0 0.0014674385016826997 0.022999170516263861 0 0.0016113437887300165 0.022400682908838825 0 0.002201000956032539 0.02232089519378724 0 0.0017711082007280717 0.022703276695731654 0 0.0014674385016826997 0.022999170516263861 0 0.0011870355871982108 0.022449766562815426 0 0.00086857842126320461 0.022722632398382177 0 0.0014674385016826997 0.022999170516263861 0 0.0016113437887300165 0.022400682908838825 0 0.0011870355871982108 0.022449766562815426 0 0.0011870355871982108 0.022449766562815426 0 0.00086857842126320461 0.022722632398382177 0 0.0007182319295202886 0.022505817547532225 0 0.00086857842126320461 0.022722632398382177 0 0.0007182319295202886 0.022505817547532225 0 0.00057690159179461971 0.022854737376822556 0 0.00043403757663871434 0.022393537859907973 0 0.0007182319295202886 0.022505817547532225 0 0.00049248897983269601 0.022648352857437867 0 0.00043403757663871434 0.022393537859907973 0 0.00049248897983269601 0.022648352857437867 0 0.00023937154072976516 0.022824483660850884 0 0.00049248897983269601 0.022648352857437867 0 0.00057690159179461971 0.022854737376822556 0 0.00023937154072976516 0.022824483660850884 0 0.0007182319295202886 0.022505817547532225 0 0.00049248897983269601 0.022648352857437867 0 0.00057690159179461971 0.022854737376822556 0 0.00057690159179461971 0.022854737376822556 0 0.00040879161303046567 0.023029595787343614 0 0.00065594861853389094 0.023087375388231857 0 0.00057690159179461971 0.022854737376822556 0 0.00040879161303046567 0.023029595787343614 0 0.00023937154072976516 0.022824483660850884 0 0.00042408611005370823 0.02320146078318347 0 0.00040879161303046567 0.023029595787343614 0 0.00020045377274712815 0.023082431773162763 0 0.00042408611005370823 0.02320146078318347 0 0.00040879161303046567 0.023029595787343614 0 0.00065594861853389094 0.023087375388231857 0 0.00086857842126320461 0.022722632398382177 0 0.00065594861853389094 0.023087375388231857 0 0.00095875359876231145 0.023041899954966902 0 0.00086857842126320461 0.022722632398382177 0 0.00057690159179461971 0.022854737376822556 0 0.00065594861853389094 0.023087375388231857 0 3.5125056232857014e-05 0.023113082646052573 0 -2.281950806394994e-05 0.022997157221378139 0 -3.1989970909636707e-05 0.023033581883055355 0 1.620799641211805e-05 0.022989681897111196 0 3.5125056232857014e-05 0.023113082646052573 0 -2.281950806394994e-05 0.022997157221378139 0 1.620799641211805e-05 0.022989681897111196 0 0.00020045377274712815 0.023082431773162763 0 0.00023937154072976516 0.022824483660850884 0 1.620799641211805e-05 0.022989681897111196 0 3.5125056232857014e-05 0.023113082646052573 0 0.00020045377274712815 0.023082431773162763 0 0.00040879161303046567 0.023029595787343614 0 0.00020045377274712815 0.023082431773162763 0 0.00023937154072976516 0.022824483660850884 0 1.620799641211805e-05 0.022989681897111196 0 0.00023937154072976516 0.022824483660850884 0 -0.00014938085929771511 0.022939663133772974 0 0.00016638189292293208 0.022386887140957351 0 0.00023937154072976516 0.022824483660850884 0 -0.00014938085929771511 0.022939663133772974 0 2.6264202961413688e-05 0.023162849279613582 0 -0.00014938085929771511 0.022939663133772974 0 -2.281950806394994e-05 0.022997157221378139 0 1.620799641211805e-05 0.022989681897111196 0 -0.00014938085929771511 0.022939663133772974 0 -2.281950806394994e-05 0.022997157221378139 0 -2.281950806394994e-05 0.022997157221378139 0 0.00020695652674055864 0.023092004092657124 0 -3.1989970909636707e-05 0.023033581883055355 0 5.0913348518454343e-05 0.023576774142943197 0 -4.8309692131437925e-05 0.02358619895287755 0 2.6264202961413688e-05 0.023162849279613582 0 -2.281950806394994e-05 0.022997157221378139 0 0.00020695652674055864 0.023092004092657124 0 -7.1281416355659433e-05 0.024116368399278578 0 -7.0428550783472173e-05 0.024111904918784885 0 -9.8223885726245804e-05 0.024087921639905075 0 5.1916985047777541e-05 0.024309389959165168 0 -4.7374901247700998e-05 0.0242427036191755 0 2.0720463036930011e-05 0.024123400573635476 0 -7.3807430349603413e-05 0.024175036249374397 0 -9.1264453326147439e-05 0.02407888516647692 0 -4.7374901247700998e-05 0.0242427036191755 0 -9.7569889282894529e-05 0.024070138657512365 0 2.0720463036930011e-05 0.024123400573635476 0 -7.0428550783472173e-05 0.024111904918784885 0 -9.8223885726245804e-05 0.024087921639905075 0 -9.7569889282894529e-05 0.024070138657512365 0 -4.8309692131437925e-05 0.02358619895287755 0 -0.00010024314792719229 0.02362576390963465 0 3.5125056232857014e-05 0.023113082646052573 0 -3.1989970909636707e-05 0.023033581883055355 0 -3.6405071970475133e-05 0.023302558999515801 0 -9.8223885726245804e-05 0.024087921639905075 0 -9.7569889282894529e-05 0.024070138657512365 0 -0.0001377183416802061 0.024015328466400376 0 -9.7569889282894529e-05 0.024070138657512365 0 -0.0001377183416802061 0.024015328466400376 0 -9.8598060847766408e-05 0.024011472450060294 0 -0.00024790304567216375 0.024448595755236214 0 -8.8059095843696903e-05 0.024486628887163894 0 -9.7569889282894529e-05 0.024070138657512365 0 -9.8598060847766408e-05 0.024011472450060294 0 2.0720463036930011e-05 0.024123400573635476 0 -0.00030684509296989581 0.024754750589943159 0 -0.00018132880789789046 0.024770383707963601 0 -0.00020864288895798341 0.024864644869272375 0 -0.00030684509296989581 0.024754750589943159 0 -0.00021098561872324808 0.024666825654102182 0 -0.0002771952086230805 0.024635848392536498 0 -0.00030684509296989581 0.024754750589943159 0 -0.00021098561872324808 0.024666825654102182 0 -0.00018132880789789046 0.024770383707963601 0 -0.00024790304567216375 0.024448595755236214 0 6.1571335708027563e-05 0.023854131950129406 0 -0.0001377183416802061 0.024015328466400376 0 -9.8598060847766408e-05 0.024011472450060294 0 -0.00017015911859608228 0.023941054331903171 0 -0.00010024314792719229 0.02362576390963465 0 6.1571335708027563e-05 0.023854131950129406 0 -3.6405071970475133e-05 0.023302558999515801 0 0.0001087475016701301 0.023326169887789443 0 6.1845302373808367e-05 0.023509500838125773 0 3.5125056232857014e-05 0.023113082646052573 0 -3.6405071970475133e-05 0.023302558999515801 0 0.0001087475016701301 0.023326169887789443 0 3.5125056232857014e-05 0.023113082646052573 0 0.0001087475016701301 0.023326169887789443 0 0.00021127268223501344 0.023230538460992323 0 0.0003450862022163128 0.023363211448501085 0 0.0001087475016701301 0.023326169887789443 0 0.00021127268223501344 0.023230538460992323 0 0.00042408611005370823 0.02320146078318347 0 0.00020045377274712815 0.023082431773162763 0 0.00021127268223501344 0.023230538460992323 0 3.5125056232857014e-05 0.023113082646052573 0 0.00020045377274712815 0.023082431773162763 0 0.00021127268223501344 0.023230538460992323 0 0.0003450862022163128 0.023363211448501085 0 0.00042408611005370823 0.02320146078318347 0 0.00021127268223501344 0.023230538460992323 0 0.0001087475016701301 0.023326169887789443 0 0.00026047401204703309 0.023465889048185862 0 0.00023860417305739375 0.023569992394940675 0 6.2860706371612767e-06 0.02376022921177609 0 0.00054807204538606224 0.022710967330089971 0 0.00035558599675528357 0.023492449036527186 0 0.0003450862022163128 0.023363211448501085 0 0.00026047401204703309 0.023465889048185862 0 0.0001087475016701301 0.023326169887789443 0 0.00023860417305739375 0.023569992394940675 0 0.00016728049999348377 0.023780623645862101 0 0.0003450862022163128 0.023363211448501085 0 0.0001087475016701301 0.023326169887789443 0 0.00026047401204703309 0.023465889048185862 0 0.00026047401204703309 0.023465889048185862 0 0.00029705011436996948 0.023552278919300732 0 0.00023860417305739375 0.023569992394940675 0 0.00035558599675528357 0.023492449036527186 0 0.00026047401204703309 0.023465889048185862 0 0.00029705011436996948 0.023552278919300732 0 0.00035558599675528357 0.023492449036527186 0 0.00029705011436996948 0.023552278919300732 0 0.00034544510227220221 0.023554098725627158 0 0.00035312634253558778 0.023584572914866167 0 0.00029705011436996948 0.023552278919300732 0 0.00034544510227220221 0.023554098725627158 0 0.00035312634253558778 0.023584572914866167 0 0.00029705011436996948 0.023552278919300732 0 0.00031169331826212351 0.023612065111575341 0 0.00031169331826212351 0.023612065111575341 0 0.00023860417305739375 0.023569992394940675 0 0.00026576987149776117 0.023684661485083223 0 0.00035312634253558778 0.023584572914866167 0 0.00037506393304051505 0.023580847314941891 0 0.00031169331826212351 0.023612065111575341 0 0.0011140041034296549 0.022327639461099152 0 0.00081325819183798416 0.022064759916912761 0 0.00037506393304051505 0.023580847314941891 0 0.00031169331826212351 0.023612065111575341 0 0.00027618646709441955 0.023653005548737574 0 0.001240095822332171 0.019222335410190302 0 0.001276163732581641 0.019392198218854878 0 0.0014250611149371811 0.019186572228572837 0 0.00028934079623076434 0.023063205535216156 0 0.00081325819183798416 0.022064759916912761 0 0.00029705011436996948 0.023552278919300732 0 0.00031169331826212351 0.023612065111575341 0 0.00023860417305739375 0.023569992394940675 0 0.00023860417305739375 0.023569992394940675 0 0.00016728049999348377 0.023780623645862101 0 0.00026576987149776117 0.023684661485083223 0 0.00054807204538606224 0.022710967330089971 0 0.00081325819183798416 0.022064759916912761 0 0.00061380452306865655 0.022360468018738797 0 0.00095475072844347436 0.022048973421236219 0 0.00069025983179910792 0.022439151079735074 0 0.001415578941544096 0.019048872087984475 0 0.0014250611149371811 0.019186572228572837 0 0.0015304826482604821 0.019021460750624664 0 0.00081325819183798416 0.022064759916912761 0 0.00070661539518659597 0.021338397657439567 0 0.00054807204538606224 0.022710967330089971 0 0.00070661539518659597 0.021338397657439567 0 0.001240095822332171 0.019222335410190302 0 0.0013257253222896932 0.019106703806464974 0 0.0014250611149371811 0.019186572228572837 0 0.0012199347398389869 0.019064665058067858 0 0.0013257253222896932 0.019106703806464974 0 0.0013089513802231893 0.018953814816383967 0 0.001415578941544096 0.019048872087984475 0 0.0013257253222896932 0.019106703806464974 0 0.0013089513802231893 0.018953814816383967 0 0.001415578941544096 0.019048872087984475 0 0.0013257253222896932 0.019106703806464974 0 0.0014250611149371811 0.019186572228572837 0 0.0001087475016701301 0.023326169887789443 0 0.00013032637649406449 0.023576668977732081 0 6.1845302373808367e-05 0.023509500838125773 0 8.0861547592301646e-05 0.023075372138688134 0 0.00046383824767492972 0.023478043336022925 0 0.00022476845776865894 0.022942745102131335 0 -0.0004123945889128986 0.024627749454760331 0 -0.00038877891261796091 0.024580991829906494 0 -0.00044244070430562825 0.024554892369799994 0 0.00054807204538606224 0.022710967330089971 0 6.1571335708027563e-05 0.023854131950129406 0 6.1571335708027563e-05 0.023854131950129406 0 0.00042738371210789184 0.022832092352430007 0 -0.0004123945889128986 0.024627749454760331 0 -0.00038877891261796091 0.024580991829906494 0 -0.00034091498259709266 0.0246048099539307 0 0.0003244315918272662 0.023396554805809357 0 0.00012487844301676667 0.023584443717432204 0 3.9799148857458562e-05 0.023409241643369483 0 -0.00038877891261796091 0.024580991829906494 0 -0.00043197471381357802 0.0245456946634733 0 -0.00029948561837929276 0.02455024955699904 0 0.00056539870622064744 0.021601181850071496 0 0.00071550965168253879 0.021508800264530521 0 0.0007086337991312234 0.020917402203565433 0 0.00069627279848013678 0.020887711700969407 0 0.00075642372523553319 0.020843266079991467 0 0.00066006376034879078 0.02213267152635822 0 0.00073321052290576782 0.022169273038135897 0 0.00045510159188004472 0.022591411649183015 0 0.00026636387076051782 0.022807004372034281 0 0.00027793472178034347 0.022938088506109948 0 0.00026636387076051782 0.022807004372034281 0 -0.00016275743506589106 0.024188605339755774 0 0.00066006376034879078 0.02213267152635822 0 0.00045510159188004472 0.022591411649183015 0 0.00031657018606008245 0.022453028068782938 0 -0.00038877891261796091 0.024580991829906494 0 -0.00043197471381357802 0.0245456946634733 0 -0.00044244070430562825 0.024554892369799994 0 0.00034606152523670899 0.022533080782569465 0 0.00070780800020397376 0.022200198428595816 0 0.00085426343223567723 0.022522360962348727 0 0.00026636387076051782 0.022807004372034281 0 0.00049082539036367418 0.022171875351302141 0 0.00042738371210789184 0.022832092352430007 0 0.00049082539036367418 0.022171875351302141 0 0.00031916332743151047 0.021992531641169454 0 0.00041135979185791347 0.022194844516929751 0 0.00055482078845210821 0.021982079795715467 0 0.00026636387076051782 0.022807004372034281 0 0.00042738371210789184 0.022832092352430007 0 0.00066006376034879078 0.02213267152635822 0 0.00071552222789026852 0.022131049709236544 0 0.00073321052290576782 0.022169273038135897 0 0.001415578941544096 0.019048872087984475 0 0.0013089513802231893 0.018953814816383967 0 0.0014797724570510611 0.018965506354001953 0 0.0013685651815370957 0.01977265688149114 0 0.00095906543017655426 0.020511983337022876 0 0.0012818278289675848 0.018718705144818517 0 0.0013089513802231893 0.018953814816383967 0 0.0014795752812735811 0.018956450317363892 0 0.001415578941544096 0.019048872087984475 0 0.0014797724570510611 0.018965506354001953 0 0.0015304826482604821 0.019021460750624664 0 0.00075414193439490916 0.021470630640922091 0 0.00098671313720077457 0.021287524497143731 0 0.00066512495130373317 0.020577451840348895 0 0.0012206609304470217 0.020255864316920395 0 0.0015022747204271815 0.020251416982412423 0 0.0014267176394583477 0.019473921680390742 0 0.00095906543017655426 0.020511983337022876 0 0.00070661539518659597 0.021338397657439567 0 0.00088420476694662197 0.020875904367643319 0 0.00088241011488895266 0.020875130938812745 0 0.00088187670515274606 0.020876658010866616 0 0.00095906543017655426 0.020511983337022876 0 0.00077135132673253326 0.02125509163786405 0 0.00054807204538606224 0.022710967330089971 0 0.00042738371210789184 0.022832092352430007 0 0.00069983864379334908 0.021642053416246892 0 0.00031916332743151047 0.021992531641169454 0 0.00055482078845210821 0.021982079795715467 0 0.00069983864379334908 0.021642053416246892 0 0.00055482078845210821 0.021982079795715467 0 0.00089695163311563695 0.021845454331546811 0 0.00055482078845210821 0.021982079795715467 0 0.00089695163311563695 0.021845454331546811 0 0.00080718524507635567 0.022185802437167688 0 0.00070661539518659597 0.021338397657439567 0 0.00077135132673253326 0.02125509163786405 0 0.00041135979185791347 0.022194844516929751 0 0.00055482078845210821 0.021982079795715467 0 0.00080718524507635567 0.022185802437167688 0 0.00049082539036367418 0.022171875351302141 0 0.00077135132673253326 0.02125509163786405 0 0.00077135132673253326 0.02125509163786405 0 0.00056539870622064744 0.021601181850071496 0 0.00023511963248517643 0.021673062225412945 0 0.00061764772507265364 0.021664438130596694 0 0.00033302658865988027 0.021888337739761298 0 0.00049082539036367418 0.022171875351302141 0 0.00056539870622064744 0.021601181850071496 0 0.00077135132673253326 0.02125509163786405 0 0.00088138553486082354 0.020345701546011414 0 0.00056539870622064744 0.021601181850071496 0 0.00088138553486082354 0.020345701546011414 0 0.0011826382915033798 0.018400547526693484 0 0.00095906543017655426 0.020511983337022876 0 0.00033063979388965928 0.01932374886000493 0 0.0012206609304470217 0.020255864316920395 0 0.0014267176394583477 0.019473921680390742 0 0.00088138553486082354 0.020345701546011414 0 0.0010299886677677609 0.017612939412300896 0 0.0011961849073919221 0.020159236954745269 0 0.00058165362614399268 0.018802529353487373 0 0.0010731397845920592 0.018932761730190494 0 0.0011826382915033798 0.018400547526693484 0 0.0010299886677677609 0.017612939412300896 0 0.00033063979388965928 0.01932374886000493 0 0.0014267176394583477 0.019473921680390742 0 0.00077127606709593351 0.01801672806431466 0 0.00088138553486082354 0.020345701546011414 0 0.00092073880033113887 0.020128179123872398 0 0.00069198148748806233 0.020824519272578394 0 0.00075642372523553319 0.020843266079991467 0 0.00074562488327976765 0.020783658727143377 0 0.00069627279848013678 0.020887711700969407 0 0.00069198148748806233 0.020824519272578394 0 0.00075642372523553319 0.020843266079991467 0 0.00074562488327976765 0.020783658727143377 0 0.00068750944315630863 0.020761713544924485 0 0.00076179538833180769 0.020726553942774759 0 0.0011162791225112572 0.016164020641570132 0 0.0010299886677677609 0.017612939412300896 0 0.0010274945838785611 0.016226903999195939 0 0.0010570606056374094 0.016340459483035842 0 0.0010795722283383426 0.016253166066759188 0 0.00069198148748806233 0.020824519272578394 0 0.00074562488327976765 0.020783658727143377 0 0.00068750944315630863 0.020761713544924485 0 0.0010299886677677609 0.017612939412300896 0 0.0010180044824752851 0.017666863829367826 0 0.00058165362614399268 0.018802529353487373 0 0.0010731397845920592 0.018932761730190494 0 0.00094834684330669095 0.017707528791639345 0 0.00092073880033113887 0.020128179123872398 0 0.0010180044824752851 0.017666863829367826 0 1.3982347606421665e-05 0.023799160517406669 0 -0.00014952789289169907 0.024776052374061858 0 0.00015047480891465775 0.024176268190165644 0 -0.00014078937727394765 0.024246974573146687 0 -0.00022275231585010001 0.024525275654745094 0 -1.8351236967056025e-05 0.024622193879596882 0 -2.8260158116995727e-05 0.02469210507302062 0 -0.00012299541893546765 0.024742926767657377 0 -1.8351236967056025e-05 0.024622193879596882 0 -2.8260158116995727e-05 0.02469210507302062 0 3.0342238926236257e-05 0.02468260290211358 0 0.00075642372523553319 0.020843266079991467 0 0.00074562488327976765 0.020783658727143377 0 0.00080018680947581584 0.020784692437147381 0 0.00071550965168253879 0.021508800264530521 0 0.00023253373771724156 0.022979914045280866 0 0.00045510159188004472 0.022591411649183015 0 -3.4249318010284308e-05 0.022781455919130607 0 0.00016962973017503228 0.023024166606238659 0 1.3982347606421665e-05 0.023799160517406669 0 0.00023253373771724156 0.022979914045280866 0 1.3982347606421665e-05 0.023799160517406669 0 0.00027793472178034347 0.022938088506109948 0 0.00045510159188004472 0.022591411649183015 0 -3.4249318010284308e-05 0.022781455919130607 0 0.00031657018606008245 0.022453028068782938 0 -7.337284651337791e-05 0.023770531592830945 0 0.00012487844301676667 0.023584443717432204 0 -0.00015923969258574967 0.023668678600692574 0 0.00015047480891465775 0.024176268190165644 0 2.7753578251749408e-05 0.024028747049911453 0 -0.00014078937727394765 0.024246974573146687 0 1.3982347606421665e-05 0.023799160517406669 0 1.8197373146590558e-06 0.024072524510152377 0 1.8197373146590558e-06 0.024072524510152377 0 -0.00010438728581173737 0.024403980109644167 0 -8.7516068400557442e-05 0.024193355466610347 0 -8.6892294691332772e-05 0.024295234977404361 0 -5.903341328515732e-06 0.024294624701341149 0 -8.7516068400557442e-05 0.024193355466610347 0 -8.6892294691332772e-05 0.024295234977404361 0 -0.0001679361950552273 0.024296093843988641 0 -0.00017274357774155341 0.024429314666029447 0 -0.00016275743506589106 0.024188605339755774 0 1.8197373146590558e-06 0.024072524510152377 0 -0.00016275743506589106 0.024188605339755774 0 0.00012487844301676667 0.023584443717432204 0 -0.00015923969258574967 0.023668678600692574 0 3.9799148857458562e-05 0.023409241643369483 0 -0.00030684509296989581 0.024754750589943159 0 -0.00034091498259709266 0.0246048099539307 0 -0.0002771952086230805 0.024635848392536498 0 -0.00030684509296989581 0.024754750589943159 0 -0.0004123945889128986 0.024627749454760331 0 -0.00034091498259709266 0.0246048099539307 0 -0.00038877891261796091 0.024580991829906494 0 -0.00029948561837929276 0.02455024955699904 0 -0.00034091498259709266 0.0246048099539307 0 -0.00016275743506589106 0.024188605339755774 0 -0.00039237004421132737 0.02460112169131987 0 -0.0003114081173205664 0.024570618346623236 0 -0.00034091498259709266 0.0246048099539307 0 -0.0002771952086230805 0.024635848392536498 0 -0.00023181428226781633 0.024572071315832968 0 -0.00021098561872324808 0.024666825654102182 0 -0.0002771952086230805 0.024635848392536498 0 -0.00023181428226781633 0.024572071315832968 0 -0.0003114081173205664 0.024570618346623236 0 -0.0002771952086230805 0.024635848392536498 0 -0.00023181428226781633 0.024572071315832968 0 -0.00021098561872324808 0.024666825654102182 0 -0.00017128435625372342 0.024609579137947615 0 -0.0002051329781351077 0.024654534945299563 0 -6.157734512927093e-05 0.024669986409012783 0 -0.00017128435625372342 0.024609579137947615 0 -4.8215805432258864e-05 0.024618858438590911 0 -0.00013038428791520062 0.024583001747872178 0 -0.00021098561872324808 0.024666825654102182 0 -8.312577994884512e-05 0.024639844363282391 0 -0.00014436440621955353 0.024707709266110441 0 -0.00021098561872324808 0.024666825654102182 0 -0.00017128435625372342 0.024609579137947615 0 -4.8215805432258864e-05 0.024618858438590911 0 -8.693846181246117e-05 0.024675968070032417 0 -5.7229904310325458e-05 0.024715475988881165 0 -9.6694516272551707e-05 0.024753275068150071 0 -6.157734512927093e-05 0.024669986409012783 0 -9.8923001089481425e-05 0.024742464377352572 0 -9.4379106445466887e-05 0.024481013247732289 0 -6.3379080866431922e-05 0.024479233159601637 0 -7.547070536970532e-05 0.024510481245237574 0 -6.0898156869440545e-05 0.024615402416044842 0 -6.7734731299399833e-05 0.024481897055359469 0 -4.3659989268127699e-05 0.024568012000961276 0 -0.00013038428791520062 0.024583001747872178 0 -0.00014135352207174598 0.02456962123603347 0 -6.157734512927093e-05 0.024669986409012783 0 -6.0898156869440545e-05 0.024615402416044842 0 -4.8215805432258864e-05 0.024618858438590911 0 -4.3659989268127699e-05 0.024568012000961276 0 -0.00013038428791520062 0.024583001747872178 0 1.8197373146590558e-06 0.024072524510152377 0 -6.7734731299399833e-05 0.024481897055359469 0 -0.00023181428226781633 0.024572071315832968 0 -0.00017128435625372342 0.024609579137947615 0 -0.00014156324115275213 0.024569998820615547 0 -0.00017274357774155341 0.024429314666029447 0 -6.7734731299399833e-05 0.024481897055359469 0 -0.00017128435625372342 0.024609579137947615 0 -0.00013038428791520062 0.024583001747872178 0 -0.00014156324115275213 0.024569998820615547 0 -6.9087842839105038e-05 0.024495022156469641 0 -6.7734731299399833e-05 0.024481897055359469 0 -3.2516115747143903e-05 0.024513616495174823 0 -6.3379080866431922e-05 0.024479233159601637 0 -5.7285640989617129e-05 0.024515615938734601 0 -6.3379080866431922e-05 0.024479233159601637 0 -5.7285640989617129e-05 0.024515615938734601 0 -7.547070536970532e-05 0.024510481245237574 0 -3.2516115747143903e-05 0.024513616495174823 0 -5.7285640989617129e-05 0.024515615938734601 0 -4.9987664661560952e-05 0.024538190772195666 0 -5.7285640989617129e-05 0.024515615938734601 0 -7.547070536970532e-05 0.024510481245237574 0 -7.3969070355066278e-05 0.024534210084685818 0 -9.4379106445466887e-05 0.024481013247732289 0 -7.547070536970532e-05 0.024510481245237574 0 -9.9658235251702383e-05 0.024534721830710499 0 -6.0898156869440545e-05 0.024615402416044842 0 -6.4474265524333077e-05 0.024784207767275562 0 -7.547070536970532e-05 0.024510481245237574 0 -7.3969070355066278e-05 0.024534210084685818 0 -9.9658235251702383e-05 0.024534721830710499 0 -5.1486306266125221e-05 0.025038510073479094 0 -4.6860372534957366e-05 0.025041624320076148 0 -4.1885685011535501e-05 0.024992408458844692 0 -9.6370814143140749e-05 0.024806825477179852 0 -0.00013275988039191804 0.024632719616416811 0 -5.6845257684547822e-05 0.024887291957975552 0 -4.5525518403078096e-05 0.025035720302268884 0 -9.6370814143140749e-05 0.024806825477179852 0 -0.00010357703013891731 0.024891425387277157 0 -7.3969070355066278e-05 0.024534210084685818 0 -9.7480474811942336e-05 0.024542316584481652 0 -6.7972333712086914e-05 0.024562356799763943 0 -7.3969070355066278e-05 0.024534210084685818 0 -9.9658235251702383e-05 0.024534721830710499 0 -9.7480474811942336e-05 0.024542316584481652 0 -6.4474265524333077e-05 0.024784207767275562 0 -5.6845257684547822e-05 0.024887291957975552 0 -6.4474265524333077e-05 0.024784207767275562 0 -9.6370814143140749e-05 0.024806825477179852 0 -6.1634300172283039e-05 0.024814519667594081 0 -4.8102116348422983e-05 0.024861081939766785 0 -6.4951996419321546e-05 0.024849367465333391 0 -9.6370814143140749e-05 0.024806825477179852 0 -5.6845257684547822e-05 0.024887291957975552 0 -7.3969070355066278e-05 0.024534210084685818 0 -4.9987664661560952e-05 0.024538190772195666 0 -6.7972333712086914e-05 0.024562356799763943 0 -0.00014078937727394765 0.024246974573146687 0 -0.00022275231585010001 0.024525275654745094 0 -0.00030907621735139251 0.024465806822000224 0 -0.00010438728581173737 0.024403980109644167 0 -0.00013275988039191804 0.024632719616416811 0 -5.7285640989617129e-05 0.024515615938734601 0 -7.3969070355066278e-05 0.024534210084685818 0 -4.9987664661560952e-05 0.024538190772195666 0 -6.6315751169424271e-09 0.025000003102482248 0 -1.5668889138703717e-05 0.024999007694259397 0 -1.1069943852054594e-05 0.025006368548581737 0 -4.1215897681978987e-05 0.024965209956300315 0 -4.0812632954091356e-05 0.024960501484595721 0 -1.6963842433733277e-05 0.024978277180464539 0 -3.1066233316504297e-05 0.025005150433658953 0 -1.5668889138703717e-05 0.024999007694259397 0 -1.1069943852054594e-05 0.025006368548581737 0 -3.1066233316504297e-05 0.025005150433658953 0 -2.7464720066429243e-05 0.024997870774069796 0 -4.1885685011535501e-05 0.024992408458844692 0 -3.1066233316504297e-05 0.025005150433658953 0 -1.5668889138703717e-05 0.024999007694259397 0 -2.7464720066429243e-05 0.024997870774069796 0 -5.6845257684547822e-05 0.024887291957975552 0 -6.3369057499793207e-06 0.025001106842134586 0 -4.1215897681978987e-05 0.024965209956300315 0 -1.6963842433733277e-05 0.024978277180464539 0 -1.7545200052305656e-05 0.024994090444756936 0 -4.1215897681978987e-05 0.024965209956300315 0 -1.7545200052305656e-05 0.024994090444756936 0 -2.7833411411316855e-05 0.025006060369429945 0 -6.4474265524333077e-05 0.024784207767275562 0 -2.9364567605483193e-05 0.024865265133559664 0 -1.6963842433733277e-05 0.024978277180464539 0 -4.8442302478496737e-10 0.024999970543436126 0 -7.5293377493143819e-06 0.024997110054758062 0 -6.3369057499793207e-06 0.025001106842134586 0 -1.7330112753853377e-08 0.024999988603036948 0 -1.6963842433733277e-05 0.024978277180464539 0 -7.5293377493143819e-06 0.024997110054758062 0 -1.7545200052305656e-05 0.024994090444756936 0 -6.6315751169424271e-09 0.025000003102482248 0 -1.1069943852054594e-05 0.025006368548581737 0 -4.3231966845233365e-09 0.025000015526195137 0 -7.5293377493143819e-06 0.024997110054758062 0 -4.3758436041549813e-10 0.025000024725449006 0 -6.6067042208714803e-06 0.025004852948646853 0 -4.8442302478496737e-10 0.024999970543436126 0 -7.5293377493143819e-06 0.024997110054758062 0 -4.3758436041549813e-10 0.025000024725449006 0 -1.1908730056005009e-05 0.02496170470732401 0 -2.9364567605483193e-05 0.024865265133559664 0 -7.5293377493143819e-06 0.024997110054758062 0 -6.6067042208714803e-06 0.025004852948646853 0 -1.7545200052305656e-05 0.024994090444756936 0 -1.1908730056005009e-05 0.02496170470732401 0 -3.8107440435120178e-05 0.02483463767997288 0 -2.336128518911711e-10 0.024999997809120142 0 -1.723430475587842e-07 0.024999444347097555 0 -1.6966373781845395e-07 0.024999469242058987 0 -1.5163403318239444e-08 0.02499995963343369 0 -1.1908730056005009e-05 0.02496170470732401 0 -1.9552083518808167e-05 0.024896910057136123 0 -3.1756798225788045e-05 0.024899913744400499 0 -3.2938725584502389e-05 0.024895942858336635 0 -5.43450330207474e-05 0.024746778121559076 0 -5.7363993914542601e-05 0.02477657404551473 0 -6.5613427560935343e-05 0.024747414438711826 0 -6.6067042208714803e-06 0.025004852948646853 0 -1.7545200052305656e-05 0.024994090444756936 0 -2.7833411411316855e-05 0.025006060369429945 0 -3.8107440435120178e-05 0.02483463767997288 0 -2.9364567605483193e-05 0.024865265133559664 0 -3.6171837524239234e-05 0.024739087304957982 0 -4.1121453964931267e-05 0.024737793865805602 0 -4.0523057243019073e-05 0.024739756235503611 0 -3.5879852524257948e-05 0.024735511082499675 0 -3.6171837524239234e-05 0.024739087304957982 0 -4.1121453964931267e-05 0.024737793865805602 0 -6.0898156869440545e-05 0.024615402416044842 0 -2.9364567605483193e-05 0.024865265133559664 0 -3.8735223863398042e-05 0.024660234055496572 0 -5.7229904310325458e-05 0.024715475988881165 0 -9.2124658642412732e-06 0.024756075700598686 0 -3.8107440435120178e-05 0.02483463767997288 0 -3.0339617298876347e-06 0.024877520909410592 0 -8.693846181246117e-05 0.024675968070032417 0 -3.8735223863398042e-05 0.024660234055496572 0 -5.7229904310325458e-05 0.024715475988881165 0 -6.157734512927093e-05 0.024669986409012783 0 -3.8107440435120178e-05 0.02483463767997288 0 -7.4097674126105872e-07 0.024998389336975169 0 -1.6966373781845395e-07 0.024999469242058987 0 -2.9264425296277034e-07 0.02499937164261308 0 -2.336128518911711e-10 0.024999997809120142 0 -1.6966373781845395e-07 0.024999469242058987 0 -2.636941535869272e-10 0.024999998686129055 0 -1.723430475587842e-07 0.024999444347097555 0 -7.4097674126105872e-07 0.024998389336975169 0 -1.6966373781845395e-07 0.024999469242058987 0 -1.6966373781845395e-07 0.024999469242058987 0 -2.636941535869272e-10 0.024999998686129055 0 -2.9264425296277034e-07 0.02499937164261308 0 -2.636941535869272e-10 0.024999998686129055 0 -2.9264425296277034e-07 0.02499937164261308 0 -4.0239160337486764e-11 0.024999999311552137 0 -3.0339617298876347e-06 0.024877520909410592 0 3.6251034818884182e-06 0.024935934301443113 0 -2.9264425296277034e-07 0.02499937164261308 0 -4.0239160337486764e-11 0.024999999311552137 0 -6.6330490899417372e-08 0.024999818691277313 0 -9.2124658642412732e-06 0.024756075700598686 0 -8.7247775302674383e-05 0.024853260082751516 0 1.1793644981009586e-05 0.024875313086942508 0 -9.2124658642412732e-06 0.024756075700598686 0 -9.6694516272551707e-05 0.024753275068150071 0 -8.7247775302674383e-05 0.024853260082751516 0 -5.7229904310325458e-05 0.024715475988881165 0 -9.2124658642412732e-06 0.024756075700598686 0 -9.6694516272551707e-05 0.024753275068150071 0 -8.312577994884512e-05 0.024639844363282391 0 -9.6694516272551707e-05 0.024753275068150071 0 -0.00014436440621955353 0.024707709266110441 0 -0.00021098561872324808 0.024666825654102182 0 -0.00014436440621955353 0.024707709266110441 0 -0.00018132880789789046 0.024770383707963601 0 -9.6694516272551707e-05 0.024753275068150071 0 -0.00014436440621955353 0.024707709266110441 0 -0.00018132880789789046 0.024770383707963601 0 -0.00018132880789789046 0.024770383707963601 0 -8.7247775302674383e-05 0.024853260082751516 0 -0.00020864288895798341 0.024864644869272375 0 -9.6694516272551707e-05 0.024753275068150071 0 -0.00018132880789789046 0.024770383707963601 0 -8.7247775302674383e-05 0.024853260082751516 0 -8.7247775302674383e-05 0.024853260082751516 0 -0.00020864288895798341 0.024864644869272375 0 -0.00011548423794169694 0.024961505289823476 0 -8.8059095843696903e-05 0.024486628887163894 0 2.6732533555506764e-05 0.024607093537049939 0 5.1916985047777541e-05 0.024309389959165168 0 2.0720463036930011e-05 0.024123400573635476 0 0.00016490499537616461 0.024275814433928899 0 -8.7247775302674383e-05 0.024853260082751516 0 -0.00011548423794169694 0.024961505289823476 0 -3.6879955180990954e-05 0.024973199694573182 0 -3.6879955180990954e-05 0.024973199694573182 0 8.2440289347894886e-08 0.024999862281047967 0 1.1793644981009586e-05 0.024875313086942508 0 5.6626112812609045e-11 0.024999999968928485 0 -4.0239160337486764e-11 0.024999999311552137 0 -6.6330490899417372e-08 0.024999818691277313 0 3.8753841825389957e-09 0.024999978360791309 0 3.6251034818884182e-06 0.024935934301443113 0 -8.7247775302674383e-05 0.024853260082751516 0 -3.6879955180990954e-05 0.024973199694573182 0 1.1793644981009586e-05 0.024875313086942508 0 0.00099082035896884023 0.010452542648263834 0 0.0010491695510855127 0.010419303283585455 0 0.0010516703483127521 0.010394015859038952 0 0.0010219579904357549 0.010622667876653245 0 0.0012166453958723212 0.011332975031215272 0 0.00099082035896884023 0.010452542648263834 0 0.0011783550621074169 0.010433673731351342 0 0.0012516274896185973 0.010686341308027479 0 0.00099082035896884023 0.010452542648263834 0 0.0011783550621074169 0.010433673731351342 0 0.0010987476213611689 0.01036419635573704 0 0.0011783550621074169 0.010433673731351342 0 0.0010987476213611689 0.01036419635573704 0 0.001351010755718538 0.010298836085980353 0 0.0011783550621074169 0.010433673731351342 0 0.0012516274896185973 0.010686341308027479 0 0.001351010755718538 0.010298836085980353 0 0.00030174639404097984 0.0096772065333247531 0 0.001351010755718538 0.010298836085980353 0 0.00086826212848706221 0.0090936228786984985 0 0.00075915877707910192 0.010042438700425873 0 0.0012830884863400541 0.010292012937373991 0 0.00099082035896884023 0.010452542648263834 0 0.0010987476213611689 0.01036419635573704 0 0.0010491695510855127 0.010419303283585455 0 0.0010987476213611689 0.01036419635573704 0 0.0010491695510855127 0.010419303283585455 0 0.0010578703541155774 0.010456320996615533 0 0.00075915877707910192 0.010042438700425873 0 0.00014400157248131002 0.0096877904230888174 0 0.0010491695510855127 0.010419303283585455 0 0.0011446761856090204 0.010456775325632594 0 0.0010578703541155774 0.010456320996615533 0 0.0010491695510855127 0.010419303283585455 0 0.001123740257402918 0.010388376551462613 0 0.0011446761856090204 0.010456775325632594 0 0.0012288179610136331 0.010411083289445755 0 0.001123740257402918 0.010388376551462613 0 0.0011446761856090204 0.010456775325632594 0 0.0017884099004023928 0.011907116240076858 0 0.0014812922200757726 0.011308853424830206 0 0.0018759715872352072 0.012246221147602137 0 0.0019246955946203366 0.012287406782497295 0 0.0019402217456580173 0.01233425615428513 0 0.0017884099004023928 0.011907116240076858 0 0.0020280073498410095 0.012530176769055403 0 0.0020499530607706712 0.012396638557914001 0 0.0019402217456580173 0.01233425615428513 0 0.0020017676168226899 0.012342884231225211 0 0.002041192995654805 0.012492651144770946 0 0.0020499530607706712 0.012396638557914001 0 0.0019402217456580173 0.01233425615428513 0 0.0010491695510855127 0.010419303283585455 0 0.001123740257402918 0.010388376551462613 0 0.0010516703483127521 0.010394015859038952 0 0.0014812922200757726 0.011308853424830206 0 0.0012166453958723212 0.011332975031215272 0 0.0019246955946203366 0.012287406782497295 0 0.0019252709010014958 0.012332225117918942 0 0.0019402217456580173 0.01233425615428513 0 0.0013334481015754576 0.011644120299197905 0 0.0013408711738162925 0.011807715445716148 0 0.0010992561051812865 0.011699637888649323 0 0.0013408711738162925 0.011807715445716148 0 0.0010992561051812865 0.011699637888649323 0 0.0013012588349119913 0.012158423730035214 0 0.0019252709010014958 0.012332225117918942 0 0.0019402217456580173 0.01233425615428513 0 0.0019576084332362134 0.012329045280233195 0 0.0012166453958723212 0.011332975031215272 0 0.001677103583032814 0.011949487105804627 0 0.0010992561051812865 0.011699637888649323 0 0.0013012588349119913 0.012158423730035214 0 0.00078156348589704795 0.011844969677612354 0 0.0020499530607706712 0.012396638557914001 0 0.0020017676168226899 0.012342884231225211 0 0.0020456716196397065 0.012298073213312407 0 0.0020017676168226899 0.012342884231225211 0 0.0019576084332362134 0.012329045280233195 0 0.0020456716196397065 0.012298073213312407 0 0.0019402217456580173 0.01233425615428513 0 0.0020017676168226899 0.012342884231225211 0 0.0019576084332362134 0.012329045280233195 0 0.001677103583032814 0.011949487105804627 0 0.00077358735905227181 0.012986064782676318 0 0.0013439353122167948 0.01197459205682511 0 0.00077358735905227181 0.012986064782676318 0 0.0013012588349119913 0.012158423730035214 0 0.0013152549488687308 0.012595610957894843 0 0.0013116916967522855 0.012671879470402712 0 0.0013408711738162925 0.011807715445716148 0 0.0013012588349119913 0.012158423730035214 0 0.001386985007650166 0.011792577717419685 0 0.0013012588349119913 0.012158423730035214 0 0.001386985007650166 0.011792577717419685 0 0.001397181780525368 0.011870918100974624 0 0.001386985007650166 0.011792577717419685 0 0.0013170196179770248 0.011448642349960261 0 0.001397181780525368 0.011870918100974624 0 0.001386985007650166 0.011792577717419685 0 0.0013978151193305862 0.011766280116693178 0 0.0013170196179770248 0.011448642349960261 0 0.0013408711738162925 0.011807715445716148 0 0.001386985007650166 0.011792577717419685 0 0.0013978151193305862 0.011766280116693178 0 0.0011224309281727481 0.011315639924837202 0 0.0013156658735902259 0.01147160023202029 0 0.00099082035896884023 0.010452542648263834 0 0.00088764547168198151 0.010950378069205133 0 0.0012516274896185973 0.010686341308027479 0 0.00099082035896884023 0.010452542648263834 0 0.000577711432172621 0.010625077568569383 0 0.00088764547168198151 0.010950378069205133 0 0.0012166453958723212 0.011332975031215272 0 0.0011224309281727481 0.011315639924837202 0 0.0013334481015754576 0.011644120299197905 0 0.0013408711738162925 0.011807715445716148 0 0.0013978151193305862 0.011766280116693178 0 0.00088764547168198151 0.010950378069205133 0 0.0012516274896185973 0.010686341308027479 0 0.0013170196179770248 0.011448642349960261 0 0.0012516274896185973 0.010686341308027479 0 0.0013170196179770248 0.011448642349960261 0 0.0015608932150445107 0.010967702528978758 0 0.0013170196179770248 0.011448642349960261 0 0.0015771783286433838 0.011388967403409887 0 0.0015608932150445107 0.010967702528978758 0 0.0013170196179770248 0.011448642349960261 0 0.0014805619694428361 0.011655654308551595 0 0.001397181780525368 0.011870918100974624 0 0.0013170196179770248 0.011448642349960261 0 0.0015771783286433838 0.011388967403409887 0 0.0014805619694428361 0.011655654308551595 0 0.0015771783286433838 0.011388967403409887 0 0.001872781898720923 0.011214270073876582 0 0.001691540965884394 0.011650749527021524 0 0.0015771783286433838 0.011388967403409887 0 0.001872781898720923 0.011214270073876582 0 0.0015608932150445107 0.010967702528978758 0 0.001872781898720923 0.011214270073876582 0 0.0021213611774957555 0.011000693544859727 0 0.0018604050753560605 0.010756080125492461 0 0.001872781898720923 0.011214270073876582 0 0.0021213611774957555 0.011000693544859727 0 0.0021588921269586263 0.01126952306395693 0 0.0018604050753560605 0.010756080125492461 0 0.0022500874085441365 0.010671362330793435 0 0.001958370323195846 0.010222195204106208 0 0.0021213611774957555 0.011000693544859727 0 0.0018604050753560605 0.010756080125492461 0 0.0022500874085441365 0.010671362330793435 0 0.001872781898720923 0.011214270073876582 0 0.0018604050753560605 0.010756080125492461 0 0.0015608932150445107 0.010967702528978758 0 0.0012516274896185973 0.010686341308027479 0 0.0015608932150445107 0.010967702528978758 0 0.001351010755718538 0.010298836085980353 0 0.0018604050753560605 0.010756080125492461 0 0.0015608932150445107 0.010967702528978758 0 0.001351010755718538 0.010298836085980353 0 0.002742753233663367 0.010854665578144389 0 0.0024409644203235272 0.011039590927124435 0 0.0026182439202278884 0.010575753491727066 0 0.0029311485743046843 0.010482825108456903 0 0.002742753233663367 0.010854665578144389 0 0.0026182439202278884 0.010575753491727066 0 0.0021213611774957555 0.011000693544859727 0 0.0024409644203235272 0.011039590927124435 0 0.0022500874085441365 0.010671362330793435 0 0.0024409644203235272 0.011039590927124435 0 0.0022500874085441365 0.010671362330793435 0 0.0026182439202278884 0.010575753491727066 0 0.0021213611774957555 0.011000693544859727 0 0.0024409644203235272 0.011039590927124435 0 0.0021588921269586263 0.01126952306395693 0 0.0022500874085441365 0.010671362330793435 0 0.0026182439202278884 0.010575753491727066 0 0.0024718188230004262 0.010113624980890874 0 0.0028167126838499435 0.010183312057715875 0 0.0026182439202278884 0.010575753491727066 0 0.0024718188230004262 0.010113624980890874 0 0.0029311485743046843 0.010482825108456903 0 0.0028167126838499435 0.010183312057715875 0 0.0026182439202278884 0.010575753491727066 0 0.0028167126838499435 0.010183312057715875 0 0.0028994601309389949 0.0095879131572518192 0 0.0024718188230004262 0.010113624980890874 0 0.0024718188230004262 0.010113624980890874 0 0.0021460171129656456 0.0095725479942649055 0 0.001958370323195846 0.010222195204106208 0 0.0022500874085441365 0.010671362330793435 0 0.0024718188230004262 0.010113624980890874 0 0.001958370323195846 0.010222195204106208 0 0.0028994601309389949 0.0095879131572518192 0 0.0024718188230004262 0.010113624980890874 0 0.0021460171129656456 0.0095725479942649055 0 0.0028994601309389949 0.0095879131572518192 0 0.0021460171129656456 0.0095725479942649055 0 0.0024382522477278332 0.0089932709226647582 0 0.001351010755718538 0.010298836085980353 0 0.001958370323195846 0.010222195204106208 0 0.0016057065138010101 0.0094302276135136021 0 0.0018604050753560605 0.010756080125492461 0 0.001351010755718538 0.010298836085980353 0 0.001958370323195846 0.010222195204106208 0 0.0021460171129656456 0.0095725479942649055 0 0.001958370323195846 0.010222195204106208 0 0.0016057065138010101 0.0094302276135136021 0 0.001351010755718538 0.010298836085980353 0 0.0016057065138010101 0.0094302276135136021 0 0.00086826212848706221 0.0090936228786984985 0 0.0016057065138010101 0.0094302276135136021 0 0.00086826212848706221 0.0090936228786984985 0 0.0012898788049746286 0.0085738228724123663 0 0.0021460171129656456 0.0095725479942649055 0 0.0016057065138010101 0.0094302276135136021 0 0.0019199707569029494 0.0088205038449009794 0 0.0016057065138010101 0.0094302276135136021 0 0.0012898788049746286 0.0085738228724123663 0 0.0019199707569029494 0.0088205038449009794 0 0.0012898788049746286 0.0085738228724123663 0 0.0019199707569029494 0.0088205038449009794 0 0.0016939703974833207 0.0080728660955523383 0 0.0012898788049746286 0.0085738228724123663 0 0.0011092337989348829 0.0078492565429510164 0 0.0016939703974833207 0.0080728660955523383 0 0.0012898788049746286 0.0085738228724123663 0 0.0011092337989348829 0.0078492565429510164 0 0.00063940701378458647 0.0083383018286625806 0 0.00086826212848706221 0.0090936228786984985 0 0.0012898788049746286 0.0085738228724123663 0 0.00063940701378458647 0.0083383018286625806 0 0.0028994601309389949 0.0095879131572518192 0 0.0028557623832068781 0.008578700118651035 0 0.0024382522477278332 0.0089932709226647582 0 0.0021460171129656456 0.0095725479942649055 0 0.0024382522477278332 0.0089932709226647582 0 0.0019199707569029494 0.0088205038449009794 0 0.0019199707569029494 0.0088205038449009794 0 0.0023069523185198517 0.0082184141424656403 0 0.0016939703974833207 0.0080728660955523383 0 0.0024382522477278332 0.0089932709226647582 0 0.0019199707569029494 0.0088205038449009794 0 0.0023069523185198517 0.0082184141424656403 0 0.0028557623832068781 0.008578700118651035 0 0.0024382522477278332 0.0089932709226647582 0 0.0023069523185198517 0.0082184141424656403 0 0.0028557623832068781 0.008578700118651035 0 0.0023069523185198517 0.0082184141424656403 0 0.0027393400219480417 0.0076009636416147228 0 0.0023069523185198517 0.0082184141424656403 0 0.0027393400219480417 0.0076009636416147228 0 0.0021365123476416925 0.0074272631846914227 0 0.0021365123476416925 0.0074272631846914227 0 0.0016939703974833207 0.0080728660955523383 0 0.0015873108412220738 0.0074540588056123541 0 0.0023069523185198517 0.0082184141424656403 0 0.0021365123476416925 0.0074272631846914227 0 0.0016939703974833207 0.0080728660955523383 0 0.0026593614819236896 0.0066704760364062676 0 0.0018671520443619507 0.0065934774652145842 0 0.0021365123476416925 0.0074272631846914227 0 0.0018671520443619507 0.0065934774652145842 0 0.0021365123476416925 0.0074272631846914227 0 0.0015873108412220738 0.0074540588056123541 0 0.0026593614819236896 0.0066704760364062676 0 0.0027393400219480417 0.0076009636416147228 0 0.0021365123476416925 0.0074272631846914227 0 0.0011092337989348829 0.0078492565429510164 0 0.00050201632200121311 0.0075067711310689983 0 0.00063940701378458647 0.0083383018286625806 0 0.0011092337989348829 0.0078492565429510164 0 0.0016939703974833207 0.0080728660955523383 0 0.0015873108412220738 0.0074540588056123541 0 0.0018671520443619507 0.0065934774652145842 0 0.0015873108412220738 0.0074540588056123541 0 0.0011158699270582709 0.0070640580582774616 0 0.0011092337989348829 0.0078492565429510164 0 0.0015873108412220738 0.0074540588056123541 0 0.0011158699270582709 0.0070640580582774616 0 0.0003749777795917717 0.0064791104629536569 0 0.0011158699270582709 0.0070640580582774616 0 0.00050201632200121311 0.0075067711310689983 0 0.0011092337989348829 0.0078492565429510164 0 0.0011158699270582709 0.0070640580582774616 0 0.00050201632200121311 0.0075067711310689983 0 0.0003749777795917717 0.0064791104629536569 0 -0.00014334945197893071 0.0071622174552152295 0 0.00050201632200121311 0.0075067711310689983 0 0.00055418813641530619 0.0089548351450150204 0 0.00024242470868710483 0.0092536988188208665 0 -0.00014334945197893071 0.0071622174552152295 0 -2.2971816254368141e-05 0.00801239973164216 0 -0.00067740332754967383 0.0078562802533635526 0 -2.2971816254368141e-05 0.00801239973164216 0 -0.00061435301786856729 0.0084720103721727582 0 -0.00067740332754967383 0.0078562802533635526 0 -0.00014334945197893071 0.0071622174552152295 0 -2.2971816254368141e-05 0.00801239973164216 0 0.00050201632200121311 0.0075067711310689983 0 -2.2971816254368141e-05 0.00801239973164216 0 0.00050201632200121311 0.0075067711310689983 0 0.00063940701378458647 0.0083383018286625806 0 -2.2971816254368141e-05 0.00801239973164216 0 0.00063940701378458647 0.0083383018286625806 0 0.00015863550200327341 0.0089144173555520262 0 -2.2971816254368141e-05 0.00801239973164216 0 0.00015863550200327341 0.0089144173555520262 0 -0.00061435301786856729 0.0084720103721727582 0 0.00030174639404097984 0.0096772065333247531 0 0.00015863550200327341 0.0089144173555520262 0 -0.000483317694760291 0.0090866070204139639 0 0.00015863550200327341 0.0089144173555520262 0 -0.000483317694760291 0.0090866070204139639 0 -0.00061435301786856729 0.0084720103721727582 0 0.00086826212848706221 0.0090936228786984985 0 0.00063940701378458647 0.0083383018286625806 0 0.00015863550200327341 0.0089144173555520262 0 0.00030174639404097984 0.0096772065333247531 0 0.00086826212848706221 0.0090936228786984985 0 0.00015863550200327341 0.0089144173555520262 0 0.0012467796501482288 0.010530860925106009 0 0.0011446761856090204 0.010456775325632594 0 0.0011899574093012333 0.010578922430347219 0 0.0012288179610136331 0.010411083289445755 0 0.0012467796501482288 0.010530860925106009 0 0.0011446761856090204 0.010456775325632594 0 0.00014400157248131002 0.0096877904230888174 0 0.00073213193085463026 0.0098895918958234463 0 0.0011446761856090204 0.010456775325632594 0 0.0010578703541155774 0.010456320996615533 0 0.0011899574093012333 0.010578922430347219 0 -0.000483317694760291 0.0090866070204139639 0 -0.00061435301786856729 0.0084720103721727582 0 -0.0012134401582178341 0.0085537095764034714 0 0.00073213193085463026 0.0098895918958234463 0 0.00024242470868710483 0.0092536988188208665 0 -0.00061435301786856729 0.0084720103721727582 0 -0.0012134401582178341 0.0085537095764034714 0 -0.00067740332754967383 0.0078562802533635526 0 0.0013643485263093937 0.010596121954797189 0 0.0013894621542967509 0.010678805315146788 0 0.0014579261798051543 0.010683769111014114 0 0.0012467796501482288 0.010530860925106009 0 0.0012046547735685489 0.010587468795232565 0 0.0013961607273831539 0.010540988593270907 0 0.00093745570322012722 0.010320568465150113 0 0.00073213193085463026 0.0098895918958234463 0 0.0013643485263093937 0.010596121954797189 0 0.0013894621542967509 0.010678805315146788 0 0.0012995874617893473 0.010675815009719394 0 0.0013894621542967509 0.010678805315146788 0 0.0013942125345211458 0.010749329316008291 0 0.0014395220461967211 0.010731537627757786 0 0.0013894621542967509 0.010678805315146788 0 0.0012995874617893473 0.010675815009719394 0 0.001327320785732508 0.01074102013573416 0 0.001239547519274935 0.010756990112403589 0 0.0012995874617893473 0.010675815009719394 0 0.001327320785732508 0.01074102013573416 0 0.0013403125632343892 0.010815139588431015 0 0.001239547519274935 0.010756990112403589 0 0.001327320785732508 0.01074102013573416 0 0.0014509419528695702 0.010807045476209634 0 0.0013403125632343892 0.010815139588431015 0 0.0013942125345211458 0.010749329316008291 0 0.0013894621542967509 0.010678805315146788 0 0.001327320785732508 0.01074102013573416 0 0.0013942125345211458 0.010749329316008291 0 0.0013403125632343892 0.010815139588431015 0 0.001327320785732508 0.01074102013573416 0 0.0013942125345211458 0.010749329316008291 0 0.0014509419528695702 0.010807045476209634 0 0.0013942125345211458 0.010749329316008291 0 0.0014395220461967211 0.010731537627757786 0 0.0014509419528695702 0.010807045476209634 0 0.0015076915132132612 0.010753755332678425 0 0.0014395220461967211 0.010731537627757786 0 0.0015076915132132612 0.010753755332678425 0 0.0014395220461967211 0.010731537627757786 0 0.0014579261798051543 0.010683769111014114 0 0.0013894621542967509 0.010678805315146788 0 0.0014395220461967211 0.010731537627757786 0 0.0014579261798051543 0.010683769111014114 0 0.0015076915132132612 0.010753755332678425 0 0.0014579261798051543 0.010683769111014114 0 0.0015426924575399712 0.010682353572458345 0 0.0022616663728538505 0.012576815346915207 0 0.0022893660715295186 0.012559190017126978 0 0.002264268960697815 0.012573842022289356 0 0.0015076915132132612 0.010753755332678425 0 0.0015426924575399712 0.010682353572458345 0 0.0016493599620740207 0.010781574872583348 0 0.0019109435225455563 0.011645967077458769 0 0.0019952855261892942 0.011629214744574163 0 0.0015196151072172307 0.010867581621737959 0 0.0015076915132132612 0.010753755332678425 0 0.0016493599620740207 0.010781574872583348 0 0.0023495219695488052 0.012495497969713708 0 0.0022687515247853357 0.012515140377535301 0 0.0022753005411333192 0.012573672291166921 0 0.0022687515247853357 0.012515140377535301 0 0.0022468683185497534 0.012584917509945249 0 0.0022753005411333192 0.012573672291166921 0 0.0022687515247853357 0.012515140377535301 0 0.0022468683185497534 0.012584917509945249 0 0.0022159648956944413 0.012576998226242779 0 0.0022468683185497534 0.012584917509945249 0 0.0022753005411333192 0.012573672291166921 0 0.0022613668157642403 0.012584670563483322 0 0.0023495219695488052 0.012495497969713708 0 0.0022893660715295186 0.012559190017126978 0 0.0022753005411333192 0.012573672291166921 0 0.0022616663728538505 0.012576815346915207 0 0.0023495219695488052 0.012495497969713708 0 0.0022893660715295186 0.012559190017126978 0 0.0022893660715295186 0.012559190017126978 0 0.0022753005411333192 0.012573672291166921 0 0.002264268960697815 0.012573842022289356 0 0.002264268960697815 0.012573842022289356 0 0.0022616999560775585 0.012576679311665149 0 0.0022443999226302276 0.012568992355301001 0 0.0022753005411333192 0.012573672291166921 0 0.002264268960697815 0.012573842022289356 0 0.0022616999560775585 0.012576679311665149 0 0.0022616999560775585 0.012576679311665149 0 0.0022613668157642403 0.012584670563483322 0 0.0022505191177725672 0.012565573388384082 0 0.0022616999560775585 0.012576679311665149 0 0.0022443999226302276 0.012568992355301001 0 0.0022505191177725672 0.012565573388384082 0 0.0022443999226302276 0.012568992355301001 0 0.0022505191177725672 0.012565573388384082 0 0.0022303305257505459 0.012557306952676529 0 0.0022753005411333192 0.012573672291166921 0 0.0022616999560775585 0.012576679311665149 0 0.0022613668157642403 0.012584670563483322 0 0.0022605181550943362 0.012563719928833697 0 0.002248999951337447 0.012544336860770212 0 0.0022754816639324743 0.012522502377371845 0 0.0022605181550943362 0.012563719928833697 0 0.0022678787880718925 0.012580070470483758 0 0.0022754816639324743 0.012522502377371845 0 0.0025676577580029921 0.013008760689431853 0 0.0017074848277759673 0.01495678593715033 0 0.0022613668157642403 0.012584670563483322 0 0.0022605181550943362 0.012563719928833697 0 0.0022678787880718925 0.012580070470483758 0 0.0022613668157642403 0.012584670563483322 0 0.0022605181550943362 0.012563719928833697 0 0.0022505191177725672 0.012565573388384082 0 0.0022505191177725672 0.012565573388384082 0 0.0022317143968066601 0.012542988675638722 0 0.0022303305257505459 0.012557306952676529 0 0.0022605181550943362 0.012563719928833697 0 0.0022505191177725672 0.012565573388384082 0 0.002248999951337447 0.012544336860770212 0 0.0022505191177725672 0.012565573388384082 0 0.002248999951337447 0.012544336860770212 0 0.0022317143968066601 0.012542988675638722 0 0.002248999951337447 0.012544336860770212 0 0.0022317143968066601 0.012542988675638722 0 0.0022371296793363186 0.012522446384604684 0 0.0022317143968066601 0.012542988675638722 0 0.0022036537889304863 0.012542238637782119 0 0.0022131406531752892 0.012518769308415924 0 0.0022036537889304863 0.012542238637782119 0 0.0021784173179076266 0.012516173628448625 0 0.0022131406531752892 0.012518769308415924 0 0.0022036537889304863 0.012542238637782119 0 0.0022303305257505459 0.012557306952676529 0 0.0022218718395002469 0.012562601951645739 0 0.0022317143968066601 0.012542988675638722 0 0.0022036537889304863 0.012542238637782119 0 0.0022303305257505459 0.012557306952676529 0 0.0022036537889304863 0.012542238637782119 0 0.0021968568218621249 0.012559531211454785 0 0.0021624949151518883 0.012539004912440166 0 0.0022036537889304863 0.012542238637782119 0 0.0021968568218621249 0.012559531211454785 0 0.0022218718395002469 0.012562601951645739 0 0.0022036537889304863 0.012542238637782119 0 0.0021624949151518883 0.012539004912440166 0 0.0021784173179076266 0.012516173628448625 0 0.0017884099004023928 0.011907116240076858 0 0.0017313152665221941 0.011454482848711643 0 0.0012288179610136331 0.010411083289445755 0 0.0012467796501482288 0.010530860925106009 0 0.0013961607273831539 0.010540988593270907 0 0.0020473549751738617 0.012436693251498578 0 0.0021624949151518883 0.012539004912440166 0 0.0021517157086770344 0.012567494054755848 0 0.0017884099004023928 0.011907116240076858 0 0.0022895987104091294 0.012714295781543013 0 0.0021968568218621249 0.012559531211454785 0 0.0021624949151518883 0.012539004912440166 0 0.0021517157086770344 0.012567494054755848 0 0.0012046547735685489 0.010587468795232565 0 0.0014579261798051543 0.010683769111014114 0 0.0013961607273831539 0.010540988593270907 0 0.00073213193085463026 0.0098895918958234463 0 0.0017074687418910234 0.010945829735254172 0 0.0014579261798051543 0.010683769111014114 0 0.0015426924575399712 0.010682353572458345 0 0.0013961607273831539 0.010540988593270907 0 0.0019109435225455563 0.011645967077458769 0 0.0017313152665221941 0.011454482848711643 0 0.0022616663728538505 0.012576815346915207 0 0.0021517157086770344 0.012567494054755848 0 0.0022274319678704736 0.012569353111382169 0 0.0022616663728538505 0.012576815346915207 0 0.002264268960697815 0.012573842022289356 0 0.0022274319678704736 0.012569353111382169 0 0.002264268960697815 0.012573842022289356 0 0.0022443999226302276 0.012568992355301001 0 0.0022274319678704736 0.012569353111382169 0 0.0022443999226302276 0.012568992355301001 0 0.0022274319678704736 0.012569353111382169 0 0.0022218718395002469 0.012562601951645739 0 0.0022443999226302276 0.012568992355301001 0 0.0022303305257505459 0.012557306952676529 0 0.0022218718395002469 0.012562601951645739 0 0.0021968568218621249 0.012559531211454785 0 0.0021517157086770344 0.012567494054755848 0 0.0022274319678704736 0.012569353111382169 0 0.0021968568218621249 0.012559531211454785 0 0.0022274319678704736 0.012569353111382169 0 0.0022218718395002469 0.012562601951645739 0 0.0022281563196748034 0.016781989111519471 0 0.0025328144337806633 0.016445931726479693 0 0.00094954744251177095 0.013032883437476991 0 0.0013604717746009294 0.01299483881785312 0 0.0013138079497031889 0.012499788258983504 0 0.00094954744251177095 0.013032883437476991 0 0.0013604717746009294 0.01299483881785312 0 0.0014564608160489453 0.013355140388016907 0 0.0013604717746009294 0.01299483881785312 0 0.0017209887070473013 0.013144040859175267 0 0.0014564608160489453 0.013355140388016907 0 0.0013604717746009294 0.01299483881785312 0 0.0013138079497031889 0.012499788258983504 0 0.0016449090115096974 0.012850807104926504 0 0.0016828560877535268 0.012354988395783754 0 0.0013138079497031889 0.012499788258983504 0 0.0018320878528906403 0.012581364359196944 0 0.0013138079497031889 0.012499788258983504 0 0.0018320878528906403 0.012581364359196944 0 0.0016449090115096974 0.012850807104926504 0 0.0019673063455923089 0.012345124908332922 0 0.0016828560877535268 0.012354988395783754 0 0.0018320878528906403 0.012581364359196944 0 0.0018320878528906403 0.012581364359196944 0 0.0018754379073170117 0.012840807775079642 0 0.0016449090115096974 0.012850807104926504 0 0.0018754379073170117 0.012840807775079642 0 0.0016449090115096974 0.012850807104926504 0 0.0017209887070473013 0.013144040859175267 0 0.0013604717746009294 0.01299483881785312 0 0.0016449090115096974 0.012850807104926504 0 0.0017209887070473013 0.013144040859175267 0 0.0018754379073170117 0.012840807775079642 0 0.0017209887070473013 0.013144040859175267 0 0.0020287186071847587 0.013123897205809067 0 0.0020287186071847587 0.013123897205809067 0 0.0020990959353163461 0.012622412940922272 0 0.0024831041523520072 0.013268864486903771 0 0.0021185717994685075 0.012621197272076314 0 0.0023470932977771347 0.01296870296070054 0 0.0018754379073170117 0.012840807775079642 0 0.0020287186071847587 0.013123897205809067 0 0.0020990959353163461 0.012622412940922272 0 0.0020990959353163461 0.012622412940922272 0 0.0021437374493910666 0.01258351269597292 0 0.0022200758695135997 0.012606328280412698 0 0.0018320878528906403 0.012581364359196944 0 0.0018754379073170117 0.012840807775079642 0 0.0020990959353163461 0.012622412940922272 0 0.0018938190071268279 0.012324510292131564 0 0.002134068621153441 0.012578291032163428 0 0.0019673063455923089 0.012345124908332922 0 0.0020990959353163461 0.012622412940922272 0 0.0021437374493910666 0.01258351269597292 0 0.0019673063455923089 0.012345124908332922 0 0.0018320878528906403 0.012581364359196944 0 0.0020990959353163461 0.012622412940922272 0 0.0021019813759863442 0.012434078481074138 0 0.0019295707055345837 0.012429183137359606 0 0.0021437374493910666 0.01258351269597292 0 0.0022006163795851193 0.01236832655678774 0 0.0022687515247853357 0.012515140377535301 0 0.002192808851989702 0.012510225031406282 0 0.0021437374493910666 0.01258351269597292 0 0.002192808851989702 0.012510225031406282 0 0.0022159648956944413 0.012576998226242779 0 0.0021019813759863442 0.012434078481074138 0 0.0021437374493910666 0.01258351269597292 0 0.002192808851989702 0.012510225031406282 0 0.0022687515247853357 0.012515140377535301 0 0.002192808851989702 0.012510225031406282 0 0.0022159648956944413 0.012576998226242779 0 0.0021437374493910666 0.01258351269597292 0 0.0022159648956944413 0.012576998226242779 0 0.0022200758695135997 0.012606328280412698 0 0.0022468683185497534 0.012584917509945249 0 0.0022159648956944413 0.012576998226242779 0 0.0022200758695135997 0.012606328280412698 0 0.0023470932977771347 0.01296870296070054 0 0.0025676577580029921 0.013008760689431853 0 0.0022468683185497534 0.012584917509945249 0 0.0022613668157642403 0.012584670563483322 0 0.0022200758695135997 0.012606328280412698 0 0.0022613668157642403 0.012584670563483322 0 0.0022200758695135997 0.012606328280412698 0 0.0022678787880718925 0.012580070470483758 0 0.0024831041523520072 0.013268864486903771 0 0.0024228806047144973 0.01369726631258965 0 0.0027964030679637837 0.013875527618333603 0 0.0027964030679637837 0.013875527618333603 0 0.0025584363454814662 0.014100912444986758 0 0.0030881233139105737 0.01445482628085357 0 0.0024228806047144973 0.01369726631258965 0 0.0027964030679637837 0.013875527618333603 0 0.0025584363454814662 0.014100912444986758 0 0.0017230175855366919 0.018005400142727605 0 0.0026997466627043392 0.018031400167505283 0 0.002837375396184985 0.01907596189183907 0 0.0022285946504626885 0.016169730583383134 0 0.0024239920442547815 0.01639433516267811 0 0.0024228806047144973 0.01369726631258965 0 0.0025584363454814662 0.014100912444986758 0 0.0019893048100167615 0.013731257362262826 0 0.0020287186071847587 0.013123897205809067 0 0.0024831041523520072 0.013268864486903771 0 0.0019893048100167615 0.013731257362262826 0 0.0024831041523520072 0.013268864486903771 0 0.0024228806047144973 0.01369726631258965 0 0.0019893048100167615 0.013731257362262826 0 0.002837375396184985 0.01907596189183907 0 0.0034530117981928991 0.018983694413170899 0 0.0037320073480934962 0.019737324097321152 0 0.0017209887070473013 0.013144040859175267 0 0.0020287186071847587 0.013123897205809067 0 0.0019893048100167615 0.013731257362262826 0 0.0017209887070473013 0.013144040859175267 0 0.0019893048100167615 0.013731257362262826 0 0.0014564608160489453 0.013355140388016907 0 0.0024239920442547815 0.01639433516267811 0 0.0025328144337806633 0.016445931726479693 0 0.0026997466627043392 0.018031400167505283 0 0.002837375396184985 0.01907596189183907 0 0.0034530117981928991 0.018983694413170899 0 0.0026997466627043392 0.018031400167505283 0 0.0034530117981928991 0.018983694413170899 0 0.0039668824929575018 0.017806765761907064 0 0.0032851606963125194 0.020393505072925765 0 0.00376055971964995 0.019720171814528117 0 0.0037272598974856233 0.020553936931132725 0 0.0037934146910622865 0.01963422863482844 0 0.0037660721362673213 0.019072988995345312 0 0.0034530117981928991 0.018983694413170899 0 0.00376055971964995 0.019720171814528117 0 0.0039668824929575018 0.017806765761907064 0 0.0034436487788443485 0.019787161104354654 0 0.00376055971964995 0.019720171814528117 0 0.0037320073480934962 0.019737324097321152 0 0.0034530117981928991 0.018983694413170899 0 0.00376055971964995 0.019720171814528117 0 0.0037320073480934962 0.019737324097321152 0 0.0033586704097200376 0.019320822603752244 0 0.0034436487788443485 0.019787161104354654 0 0.0037320073480934962 0.019737324097321152 0 0.0033077976102079886 0.020872423184595743 0 0.0037272598974856233 0.020553936931132725 0 0.0035013555962314885 0.020943230033124812 0 0.0032201059956893196 0.02067495015895154 0 0.0033077976102079886 0.020872423184595743 0 0.0037272598974856233 0.020553936931132725 0 0.0026997466627043392 0.018031400167505283 0 0.0039668824929575018 0.017806765761907064 0 0.0027469682167962661 0.016858648964993287 0 0.0037660721362673213 0.019072988995345312 0 0.0037814297555085414 0.018744398876132884 0 0.0037272598974856233 0.020553936931132725 0 0.003688795112087495 0.020870587543355249 0 0.0035013555962314885 0.020943230033124812 0 0.0039668824929575018 0.017806765761907064 0 0.0035302411121439052 0.01600990823520888 0 0.0027469682167962661 0.016858648964993287 0 0.0035302411121439052 0.01600990823520888 0 0.0025650456071493822 0.015939639404330339 0 0.0027469682167962661 0.016858648964993287 0 0.0025650456071493822 0.015939639404330339 0 0.0020517562802092235 0.016329613180927977 0 0.0020533900360781379 0.015517599020926018 0 0.0027469682167962661 0.016858648964993287 0 0.0021304664290046167 0.017184209888580194 0 0.0020517562802092235 0.016329613180927977 0 0.0025650456071493822 0.015939639404330339 0 0.0027469682167962661 0.016858648964993287 0 0.0020517562802092235 0.016329613180927977 0 0.0026997466627043392 0.018031400167505283 0 0.0027469682167962661 0.016858648964993287 0 0.0021304664290046167 0.017184209888580194 0 0.0017230175855366919 0.018005400142727605 0 0.0026997466627043392 0.018031400167505283 0 0.0021304664290046167 0.017184209888580194 0 0.0017230175855366919 0.018005400142727605 0 0.001473954285157603 0.016696412671075977 0 0.00067868220047143731 0.016988906229253649 0 0.0017230175855366919 0.018005400142727605 0 0.0021304664290046167 0.017184209888580194 0 0.001473954285157603 0.016696412671075977 0 0.0022285946504626885 0.016169730583383134 0 0.0017074848277759673 0.01495678593715033 0 0.001473954285157603 0.016696412671075977 0 0.0020517562802092235 0.016329613180927977 0 0.0015982804459438048 0.015760217388174905 0 0.0021304664290046167 0.017184209888580194 0 0.001473954285157603 0.016696412671075977 0 0.0020517562802092235 0.016329613180927977 0 0.0020517562802092235 0.016329613180927977 0 0.0015982804459438048 0.015760217388174905 0 0.0020533900360781379 0.015517599020926018 0 0.001473954285157603 0.016696412671075977 0 0.0015982804459438048 0.015760217388174905 0 0.0010028908573861148 0.015931734657089539 0 0.0015982804459438048 0.015760217388174905 0 0.0020533900360781379 0.015517599020926018 0 0.0015554181662927027 0.015058817263517316 0 0.0015982804459438048 0.015760217388174905 0 0.0015554181662927027 0.015058817263517316 0 0.0012505373783702346 0.015438569969871287 0 0.0020533900360781379 0.015517599020926018 0 0.0020173209624574071 0.014902066633327531 0 0.0015554181662927027 0.015058817263517316 0 0.0015554181662927027 0.015058817263517316 0 0.0015753525677881268 0.014227500217727866 0 0.001072412288830955 0.014913858037963756 0 0.0020173209624574071 0.014902066633327531 0 0.0015554181662927027 0.015058817263517316 0 0.0015753525677881268 0.014227500217727866 0 0.0015753525677881268 0.014227500217727866 0 0.0022687528921694006 0.014111373056898998 0 0.0017780624338610122 0.013779677216250239 0 0.0015753525677881268 0.014227500217727866 0 0.0021790127299293454 0.014513520768266777 0 0.0022687528921694006 0.014111373056898998 0 0.0020173209624574071 0.014902066633327531 0 0.0015753525677881268 0.014227500217727866 0 0.0021790127299293454 0.014513520768266777 0 0.0021790127299293454 0.014513520768266777 0 0.0027005004705202645 0.014567720436525424 0 0.0023523140671154481 0.014814749259852246 0 0.0012422202788904375 0.012710469431230536 0 0.0011190187752590382 0.012957920459843427 0 0.0013737491494381141 0.012981979782535829 0 0.0022687528921694006 0.014111373056898998 0 0.0028023299845583221 0.014445313298329517 0 0.0021471647929796099 0.013651244059402113 0 0.0021790127299293454 0.014513520768266777 0 0.0022687528921694006 0.014111373056898998 0 0.0027005004705202645 0.014567720436525424 0 0.0022686332647099141 0.016437473004150074 0 0.0015895247771399437 0.012860063885227082 0 0.0022687528921694006 0.014111373056898998 0 0.0028023299845583221 0.014445313298329517 0 0.0027005004705202645 0.014567720436525424 0 0.0022686332647099141 0.016437473004150074 0 0.0025631940153065698 0.016037592801655797 0 0.0035302411121439052 0.01600990823520888 0 0.0028554990852247813 0.014427690815555892 0 0.0027005004705202645 0.014567720436525424 0 0.0035302411121439052 0.01600990823520888 0 0.0027005004705202645 0.014567720436525424 0 0.0025354537428670218 0.015273094540704102 0 0.0027005004705202645 0.014567720436525424 0 0.0023523140671154481 0.014814749259852246 0 0.0025354537428670218 0.015273094540704102 0 0.0020173209624574071 0.014902066633327531 0 0.0023523140671154481 0.014814749259852246 0 0.0025354537428670218 0.015273094540704102 0 0.0020173209624574071 0.014902066633327531 0 0.0021790127299293454 0.014513520768266777 0 0.0023523140671154481 0.014814749259852246 0 0.0025650456071493822 0.015939639404330339 0 0.0020533900360781379 0.015517599020926018 0 0.0025354537428670218 0.015273094540704102 0 0.0020533900360781379 0.015517599020926018 0 0.0020173209624574071 0.014902066633327531 0 0.0025354537428670218 0.015273094540704102 0 0.0035302411121439052 0.01600990823520888 0 0.0025650456071493822 0.015939639404330339 0 0.0025354537428670218 0.015273094540704102 0 0.003688795112087495 0.020870587543355249 0 0.003575341592547522 0.021138658700337199 0 0.0034828362451988907 0.021089610796448 0 0.003688795112087495 0.020870587543355249 0 0.0037498082720384546 0.021113821133951136 0 0.003575341592547522 0.021138658700337199 0 0.0037814297555085414 0.018744398876132884 0 0.0022686332647099141 0.016437473004150074 0 0.0037498082720384546 0.021113821133951136 0 0.003575341592547522 0.021138658700337199 0 0.0034564642966667448 0.021365759651109897 0 0.0022686332647099141 0.016437473004150074 0 0.0021489327575840256 0.017386358544671274 0 0.003575341592547522 0.021138658700337199 0 0.0034477644020174817 0.021226118127312815 0 0.0034564642966667448 0.021365759651109897 0 0.003575341592547522 0.021138658700337199 0 0.0034477644020174817 0.021226118127312815 0 0.0034828362451988907 0.021089610796448 0 0.0034477644020174817 0.021226118127312815 0 0.0033226915110377282 0.021199493773966568 0 0.003358716321387754 0.021318051570930495 0 0.0034477644020174817 0.021226118127312815 0 0.0033226915110377282 0.021199493773966568 0 0.0034828362451988907 0.021089610796448 0 0.0032993668765786367 0.021056276418678375 0 0.0033226915110377282 0.021199493773966568 0 0.0034828362451988907 0.021089610796448 0 0.003688795112087495 0.020870587543355249 0 0.0034828362451988907 0.021089610796448 0 0.0035013555962314885 0.020943230033124812 0 0.0032993668765786367 0.021056276418678375 0 0.0034828362451988907 0.021089610796448 0 0.0035013555962314885 0.020943230033124812 0 0.0033077976102079886 0.020872423184595743 0 0.0032993668765786367 0.021056276418678375 0 0.0035013555962314885 0.020943230033124812 0 0.0021426287721941426 0.012430567299064835 0 0.0021888873289312325 0.012471792619933692 0 0.0022298865742801997 0.012453245415077701 0 0.0021426287721941426 0.012430567299064835 0 0.0022298865742801997 0.012453245415077701 0 0.0021483517272674821 0.012372138706444998 0 6.6082852885896776e-05 0.015686848240779483 0 -0.00010744135855864204 0.015165467027480794 0 -0.0007643437326525105 0.015197829264357936 0 0.0010839113311893443 0.014001694042517115 0 0.00065587838170233525 0.013803967824405189 0 0.0020499530607706712 0.012396638557914001 0 0.0021426287721941426 0.012430567299064835 0 0.0021377363720034366 0.012482844162727635 0 0.0020499530607706712 0.012396638557914001 0 0.0021426287721941426 0.012430567299064835 0 0.0021483517272674821 0.012372138706444998 0 0.002041192995654805 0.012492651144770946 0 0.0020499530607706712 0.012396638557914001 0 0.0021377363720034366 0.012482844162727635 0 0.0021624949151518883 0.012539004912440166 0 0.0021377363720034366 0.012482844162727635 0 0.0021784173179076266 0.012516173628448625 0 0.002041192995654805 0.012492651144770946 0 0.0021624949151518883 0.012539004912440166 0 0.0021377363720034366 0.012482844162727635 0 0.0021377363720034366 0.012482844162727635 0 0.0021784173179076266 0.012516173628448625 0 0.0021851196928738162 0.012499292175099192 0 0.0021426287721941426 0.012430567299064835 0 0.0021377363720034366 0.012482844162727635 0 0.0021888873289312325 0.012471792619933692 0 0.0021377363720034366 0.012482844162727635 0 0.0021851196928738162 0.012499292175099192 0 0.0021888873289312325 0.012471792619933692 0 0.0021851196928738162 0.012499292175099192 0 0.0021888873289312325 0.012471792619933692 0 0.0022272757720950974 0.01249364350219373 0 0.0021851196928738162 0.012499292175099192 0 0.0022131406531752892 0.012518769308415924 0 0.0022272757720950974 0.01249364350219373 0 0.0021784173179076266 0.012516173628448625 0 0.0021851196928738162 0.012499292175099192 0 0.0022131406531752892 0.012518769308415924 0 0.0017074848277759673 0.01495678593715033 0 0.0010839113311893443 0.014001694042517115 0 0.0022317143968066601 0.012542988675638722 0 0.0022131406531752892 0.012518769308415924 0 0.0022371296793363186 0.012522446384604684 0 0.0022272757720950974 0.01249364350219373 0 0.0022754816639324743 0.012522502377371845 0 0.0022298865742801997 0.012453245415077701 0 0.0022131406531752892 0.012518769308415924 0 0.0022371296793363186 0.012522446384604684 0 0.0022272757720950974 0.01249364350219373 0 0.0022371296793363186 0.012522446384604684 0 0.0022272757720950974 0.01249364350219373 0 0.0022754816639324743 0.012522502377371845 0 0.002248999951337447 0.012544336860770212 0 0.0022371296793363186 0.012522446384604684 0 0.0022754816639324743 0.012522502377371845 0 0.0021888873289312325 0.012471792619933692 0 0.0022272757720950974 0.01249364350219373 0 0.0022298865742801997 0.012453245415077701 0 0.001473954285157603 0.016696412671075977 0 0.00067868220047143731 0.016988906229253649 0 0.0010028908573861148 0.015931734657089539 0 0.0017074848277759673 0.01495678593715033 0 0.00037963898541724738 0.015793741134856393 0 0.00067868220047143731 0.016988906229253649 0 0.0010028908573861148 0.015931734657089539 0 0.00029458501170598307 0.015794936840592504 0 0.0010028908573861148 0.015931734657089539 0 0.00029458501170598307 0.015794936840592504 0 0.00078636150803919542 0.01543604158715366 0 0.0010028908573861148 0.015931734657089539 0 0.0012505373783702346 0.015438569969871287 0 0.00078636150803919542 0.01543604158715366 0 0.0015982804459438048 0.015760217388174905 0 0.0010028908573861148 0.015931734657089539 0 0.0012505373783702346 0.015438569969871287 0 0.00082988453723309278 0.016138055210028215 0 6.6082852885896776e-05 0.015686848240779483 0 0.00039238708853861579 0.015398963552029122 0 6.6082852885896776e-05 0.015686848240779483 0 0.00039238708853861579 0.015398963552029122 0 -0.00010744135855864204 0.015165467027480794 0 0.00039238708853861579 0.015398963552029122 0 -0.00010744135855864204 0.015165467027480794 0 -2.8678543955148156e-05 0.014626825881493421 0 0.00037963898541724738 0.015793741134856393 0 -3.8811744232655373e-05 0.01468161146838013 0 0.00029458501170598307 0.015794936840592504 0 0.00058779982437073765 0.01502129920562666 0 -2.8678543955148156e-05 0.014626825881493421 0 0.00029458501170598307 0.015794936840592504 0 0.00058779982437073765 0.01502129920562666 0 0.00078636150803919542 0.01543604158715366 0 0.00058779982437073765 0.01502129920562666 0 -2.8678543955148156e-05 0.014626825881493421 0 0.00086296057423721243 0.014374202315029795 0 0.0015554181662927027 0.015058817263517316 0 0.0012505373783702346 0.015438569969871287 0 0.001072412288830955 0.014913858037963756 0 0.0012505373783702346 0.015438569969871287 0 0.00078636150803919542 0.01543604158715366 0 0.001072412288830955 0.014913858037963756 0 0.00058779982437073765 0.01502129920562666 0 0.00078636150803919542 0.01543604158715366 0 0.001072412288830955 0.014913858037963756 0 0.00058779982437073765 0.01502129920562666 0 0.001072412288830955 0.014913858037963756 0 0.00086296057423721243 0.014374202315029795 0 0.0015753525677881268 0.014227500217727866 0 0.00086296057423721243 0.014374202315029795 0 0.00089860505725731935 0.013512000053413447 0 0.0015753525677881268 0.014227500217727866 0 0.00089860505725731935 0.013512000053413447 0 0.0014072754873018867 0.013443400877761413 0 0.0015753525677881268 0.014227500217727866 0 0.001072412288830955 0.014913858037963756 0 0.00086296057423721243 0.014374202315029795 0 -2.8678543955148156e-05 0.014626825881493421 0 0.00089860505725731935 0.013512000053413447 0 -0.0006089327835555571 0.014197220265103137 0 0.00095874940486380552 0.013416459407977793 0 0.00013537537299331128 0.013618106116328004 0 -2.8678543955148156e-05 0.014626825881493421 0 0.00086296057423721243 0.014374202315029795 0 0.00089860505725731935 0.013512000053413447 0 0.0012220837657923233 0.01278069791411726 0 0.0013116916967522855 0.012671879470402712 0 0.001208682203582206 0.013068751006973573 0 0.00089860505725731935 0.013512000053413447 0 0.0012220837657923233 0.01278069791411726 0 0.001208682203582206 0.013068751006973573 0 -0.00010744135855864204 0.015165467027480794 0 -2.8678543955148156e-05 0.014626825881493421 0 -0.00059161063195582546 0.014762693849346427 0 -2.8678543955148156e-05 0.014626825881493421 0 -0.0006089327835555571 0.014197220265103137 0 -0.00059161063195582546 0.014762693849346427 0 -0.00010744135855864204 0.015165467027480794 0 -0.00059161063195582546 0.014762693849346427 0 -0.0007643437326525105 0.015197829264357936 0 0.0020499530607706712 0.012396638557914001 0 0.0021483517272674821 0.012372138706444998 0 0.0020456716196397065 0.012298073213312407 0 -0.0006089327835555571 0.014197220265103137 0 -0.00059161063195582546 0.014762693849346427 0 -0.0015704889217131842 0.014671685868595265 0 0.00065587838170233525 0.013803967824405189 0 0.00077358735905227181 0.012986064782676318 0 -0.00059161063195582546 0.014762693849346427 0 -0.0007643437326525105 0.015197829264357936 0 -0.0015704889217131842 0.014671685868595265 0 0.00013537537299331128 0.013618106116328004 0 0.00077358735905227181 0.012986064782676318 0 0.0012220837657923233 0.01278069791411726 0 0.0013152549488687308 0.012595610957894843 0 0.0013116916967522855 0.012671879470402712 0 0.0013116916967522855 0.012671879470402712 0 0.0013228899618837663 0.012749303564192519 0 0.001208682203582206 0.013068751006973573 0 0.0013228899618837663 0.012749303564192519 0 0.0013416205369718823 0.013112577166739556 0 0.0014053355134216736 0.012849575188331975 0 0.0013228899618837663 0.012749303564192519 0 0.0013416205369718823 0.013112577166739556 0 0.001208682203582206 0.013068751006973573 0 0.0013416205369718823 0.013112577166739556 0 0.001208682203582206 0.013068751006973573 0 0.0012206857019069664 0.013256386516550618 0 0.00089860505725731935 0.013512000053413447 0 0.001208682203582206 0.013068751006973573 0 0.0012206857019069664 0.013256386516550618 0 0.00089860505725731935 0.013512000053413447 0 0.0014072754873018867 0.013443400877761413 0 0.0012206857019069664 0.013256386516550618 0 0.0014072754873018867 0.013443400877761413 0 0.0014597689292547376 0.013320156464803643 0 0.0012206857019069664 0.013256386516550618 0 0.0014597689292547376 0.013320156464803643 0 0.0012206857019069664 0.013256386516550618 0 0.0015120453919189787 0.013387977097155127 0 0.0013416205369718823 0.013112577166739556 0 0.0012206857019069664 0.013256386516550618 0 0.0015120453919189787 0.013387977097155127 0 0.0013743731825173143 0.013142588278051068 0 0.0015435273546650853 0.013265474079694445 0 0.0016092054544037165 0.013120578416378637 0 0.0016868620346210583 0.013191576635279543 0 0.0015379653639827453 0.013026374092097219 0 0.0013416205369718823 0.013112577166739556 0 0.0016092054544037165 0.013120578416378637 0 0.0015379653639827453 0.013026374092097219 0 0.0014597689292547376 0.013320156464803643 0 0.0015120453919189787 0.013387977097155127 0 0.001519364373939424 0.013502114606749068 0 0.0015435273546650853 0.013265474079694445 0 0.0015494109187355321 0.013639536909128232 0 0.0016092054544037165 0.013120578416378637 0 0.0014995114240862364 0.013367077985719279 0 0.001723008686038529 0.01343670641984814 0 0.0016092054544037165 0.013120578416378637 0 0.0016868620346210583 0.013191576635279543 0 0.001723008686038529 0.01343670641984814 0 0.0015379653639827453 0.013026374092097219 0 0.0015607438121377942 0.013013104068348018 0 0.0014505515360222535 0.012775436060135122 0 0.0015379653639827453 0.013026374092097219 0 0.0014053355134216736 0.012849575188331975 0 0.0014505515360222535 0.012775436060135122 0 0.0013416205369718823 0.013112577166739556 0 0.0015379653639827453 0.013026374092097219 0 0.0014053355134216736 0.012849575188331975 0 0.0006925867837230188 0.013324778538373409 0 0.00081875092621924326 0.013028284695676212 0 0.00089980574109949551 0.013230063219408334 0 0.00035743740201970594 0.013404962756267343 0 0.0006925867837230188 0.013324778538373409 0 0.00061408507390350745 0.013550622697590879 0 0.00035743740201970594 0.013404962756267343 0 0.0006925867837230188 0.013324778538373409 0 0.00081875092621924326 0.013028284695676212 0 0.0032092883580033971 0.021422355905854489 0 0.0033783631899071526 0.021380270989078957 0 0.0034564642966667448 0.021365759651109897 0 0.0016844676852592235 0.01670488811686317 0 0.0021489327575840256 0.017386358544671274 0 0.0006925867837230188 0.013324778538373409 0 0.00086787802022071734 0.013472056684325544 0 0.00061408507390350745 0.013550622697590879 0 0.0006925867837230188 0.013324778538373409 0 0.00089980574109949551 0.013230063219408334 0 0.00086787802022071734 0.013472056684325544 0 0.00325034867882921 0.021378127710553467 0 0.0033783631899071526 0.021380270989078957 0 0.003358716321387754 0.021318051570930495 0 0.0033783631899071526 0.021380270989078957 0 0.003358716321387754 0.021318051570930495 0 0.0034564642966667448 0.021365759651109897 0 0.0034477644020174817 0.021226118127312815 0 0.003358716321387754 0.021318051570930495 0 0.0034564642966667448 0.021365759651109897 0 0.00081875092621924326 0.013028284695676212 0 0.001032370375232653 0.013107931517327458 0 0.00089980574109949551 0.013230063219408334 0 0.0012422202788904375 0.012710469431230536 0 0.00081875092621924326 0.013028284695676212 0 0.0011190187752590382 0.012957920459843427 0 0.00081875092621924326 0.013028284695676212 0 0.0011190187752590382 0.012957920459843427 0 0.001032370375232653 0.013107931517327458 0 0.0011190187752590382 0.012957920459843427 0 0.001032370375232653 0.013107931517327458 0 0.0012195012762078084 0.013090484690701409 0 0.001032370375232653 0.013107931517327458 0 0.0011202418678085361 0.013266772444941817 0 0.0012195012762078084 0.013090484690701409 0 0.0011202418678085361 0.013266772444941817 0 0.0012500991559965321 0.013520210634134751 0 0.00086787802022071734 0.013472056684325544 0 0.001032370375232653 0.013107931517327458 0 0.0011202418678085361 0.013266772444941817 0 0.00089980574109949551 0.013230063219408334 0 0.0011202418678085361 0.013266772444941817 0 0.00089980574109949551 0.013230063219408334 0 0.00086787802022071734 0.013472056684325544 0 0.0011202418678085361 0.013266772444941817 0 0.0015705924468739309 0.013282080919472621 0 0.0012500991559965321 0.013520210634134751 0 0.0011202418678085361 0.013266772444941817 0 0.0012195012762078084 0.013090484690701409 0 0.0015705924468739309 0.013282080919472621 0 0.0012195012762078084 0.013090484690701409 0 0.0013737491494381141 0.012981979782535829 0 0.0015705924468739309 0.013282080919472621 0 0.0015895247771399437 0.012860063885227082 0 0.0017012497564388737 0.013470790015784318 0 0.0011190187752590382 0.012957920459843427 0 0.0012195012762078084 0.013090484690701409 0 0.0013737491494381141 0.012981979782535829 0 0.0022687528921694006 0.014111373056898998 0 0.0021471647929796099 0.013651244059402113 0 0.0017780624338610122 0.013779677216250239 0 0.0021471647929796099 0.013651244059402113 0 0.0017780624338610122 0.013779677216250239 0 0.0015705924468739309 0.013282080919472621 0 0.0015753525677881268 0.014227500217727866 0 0.0014072754873018867 0.013443400877761413 0 0.0017780624338610122 0.013779677216250239 0 0.0014072754873018867 0.013443400877761413 0 0.0017780624338610122 0.013779677216250239 0 0.0015705924468739309 0.013282080919472621 0 0.0014072754873018867 0.013443400877761413 0 0.0014597689292547376 0.013320156464803643 0 0.0015705924468739309 0.013282080919472621 0 0.0014597689292547376 0.013320156464803643 0 0.0015705924468739309 0.013282080919472621 0 0.001519364373939424 0.013502114606749068 0 0.001519364373939424 0.013502114606749068 0 0.0016261118248645341 0.013888792741920867 0 0.0013464458437098437 0.013796326899000273 0 0.0015120453919189787 0.013387977097155127 0 0.001519364373939424 0.013502114606749068 0 0.0016261118248645341 0.013888792741920867 0 0.0013464458437098437 0.013796326899000273 0 0.0012500991559965321 0.013520210634134751 0 0.00096466559656218861 0.013945338574755354 0 0.001519364373939424 0.013502114606749068 0 0.0013464458437098437 0.013796326899000273 0 0.0012500991559965321 0.013520210634134751 0 0.0015705924468739309 0.013282080919472621 0 0.001519364373939424 0.013502114606749068 0 0.0012500991559965321 0.013520210634134751 0 0.00086787802022071734 0.013472056684325544 0 0.00096466559656218861 0.013945338574755354 0 0.0007076176380643595 0.013709390612144394 0 0.0012500991559965321 0.013520210634134751 0 0.00086787802022071734 0.013472056684325544 0 0.00096466559656218861 0.013945338574755354 0 0.00044473732445713516 0.013861170248126845 0 0.00096466559656218861 0.013945338574755354 0 0.0007076176380643595 0.013709390612144394 0 0.00044473732445713516 0.013861170248126845 0 0.00096466559656218861 0.013945338574755354 0 0.00051728466932896195 0.014501958316608402 0 0.00044473732445713516 0.013861170248126845 0 0.0007076176380643595 0.013709390612144394 0 0.00061408507390350745 0.013550622697590879 0 0.00086787802022071734 0.013472056684325544 0 0.0007076176380643595 0.013709390612144394 0 0.00061408507390350745 0.013550622697590879 0 0.00079489510239845712 0.015290962001798093 0 0.00082620778459727325 0.015454191230047593 0 0.0010863744101131288 0.01568544451757322 0 0.00097664477834163228 0.01586629022307114 0 0.00084763040670109916 0.015518078303107481 0 0.00051728466932896195 0.014501958316608402 0 0.00095398428494042125 0.014803963453666958 0 0.00084763040670109916 0.015518078303107481 0 0.0005667876327914627 0.01450497387224136 0 0.00079489510239845712 0.015290962001798093 0 0.00096466559656218861 0.013945338574755354 0 0.00051728466932896195 0.014501958316608402 0 0.00095398428494042125 0.014803963453666958 0 0.00096466559656218861 0.013945338574755354 0 0.00095398428494042125 0.014803963453666958 0 0.0013898106329255078 0.014585789042783596 0 0.0013052557320390589 0.01423730430664836 0 0.00095544384644051061 0.015039199122518375 0 0.0012362993658573105 0.013866116310451575 0 0.0011672707182458037 0.014447266928709231 0 0.00098320791543224048 0.014583493947417871 0 0.00095398428494042125 0.014803963453666958 0 0.0013898106329255078 0.014585789042783596 0 0.00085170919283071057 0.015510231992432746 0 0.00095398428494042125 0.014803963453666958 0 0.00085170919283071057 0.015510231992432746 0 0.00084763040670109916 0.015518078303107481 0 0.0012362993658573105 0.013866116310451575 0 0.0013172872657960422 0.014386223643483699 0 0.0011672707182458037 0.014447266928709231 0 0.0012362993658573105 0.013866116310451575 0 0.0015099911620292076 0.014151202627634677 0 0.0013172872657960422 0.014386223643483699 0 0.0015494109187355321 0.013639536909128232 0 0.0013052557320390589 0.01423730430664836 0 0.0016261118248645341 0.013888792741920867 0 0.0013464458437098437 0.013796326899000273 0 0.0013898106329255078 0.014585789042783596 0 0.0013464458437098437 0.013796326899000273 0 0.00096466559656218861 0.013945338574755354 0 0.0013898106329255078 0.014585789042783596 0 0.0014995114240862364 0.013367077985719279 0 0.0012362993658573105 0.013866116310451575 0 0.0016204226117234857 0.013763805742869773 0 0.0015099911620292076 0.014151202627634677 0 0.0016204226117234857 0.013763805742869773 0 0.0017546521075418832 0.014074717864264241 0 0.0012362993658573105 0.013866116310451575 0 0.0015099911620292076 0.014151202627634677 0 0.0016204226117234857 0.013763805742869773 0 0.0015099911620292076 0.014151202627634677 0 0.001601305833574661 0.014333964115456562 0 0.0017546521075418832 0.014074717864264241 0 0.0015099911620292076 0.014151202627634677 0 0.00145867632206568 0.014455441262278003 0 0.001601305833574661 0.014333964115456562 0 0.00145867632206568 0.014455441262278003 0 0.001601305833574661 0.014333964115456562 0 0.001556081219206666 0.014576250167669655 0 0.001601305833574661 0.014333964115456562 0 0.001556081219206666 0.014576250167669655 0 0.0017203436767087577 0.014507617578782873 0 0.0016072830266157143 0.014725280917592464 0 0.001556081219206666 0.014576250167669655 0 0.0017203436767087577 0.014507617578782873 0 0.0016072830266157143 0.014725280917592464 0 0.0016960235890727429 0.014716392168457363 0 0.0017203436767087577 0.014507617578782873 0 0.0016072830266157143 0.014725280917592464 0 0.001531483300029295 0.014893491385609527 0 0.0016430846650871537 0.014866787623171437 0 0.0016072830266157143 0.014725280917592464 0 0.0016960235890727429 0.014716392168457363 0 0.0016430846650871537 0.014866787623171437 0 0.001531483300029295 0.014893491385609527 0 0.0015112329428912459 0.014750766004561409 0 0.0014256540188545292 0.014873338689170202 0 0.0016072830266157143 0.014725280917592464 0 0.001531483300029295 0.014893491385609527 0 0.0015112329428912459 0.014750766004561409 0 0.0016072830266157143 0.014725280917592464 0 0.0015112329428912459 0.014750766004561409 0 0.001556081219206666 0.014576250167669655 0 0.00145867632206568 0.014455441262278003 0 0.001556081219206666 0.014576250167669655 0 0.0014427309941356602 0.014682814986131113 0 0.0015112329428912459 0.014750766004561409 0 0.001556081219206666 0.014576250167669655 0 0.0014427309941356602 0.014682814986131113 0 0.00145867632206568 0.014455441262278003 0 0.0014427309941356602 0.014682814986131113 0 0.0013469003616596656 0.014644148136995334 0 0.0013738519049249932 0.014780833344385231 0 0.0014427309941356602 0.014682814986131113 0 0.0013469003616596656 0.014644148136995334 0 0.0013738519049249932 0.014780833344385231 0 0.0014427309941356602 0.014682814986131113 0 0.0014256540188545292 0.014873338689170202 0 0.0014256540188545292 0.014873338689170202 0 0.0013396671025416938 0.015066507616803332 0 0.0014475410720321605 0.015022345542169297 0 0.0015112329428912459 0.014750766004561409 0 0.0014427309941356602 0.014682814986131113 0 0.0014256540188545292 0.014873338689170202 0 0.0013738519049249932 0.014780833344385231 0 0.0014256540188545292 0.014873338689170202 0 0.0013373181988721053 0.014910796357696729 0 0.001531483300029295 0.014893491385609527 0 0.0014256540188545292 0.014873338689170202 0 0.0014475410720321605 0.015022345542169297 0 0.0012710460218459906 0.01499318987079868 0 0.0012535804228979831 0.015147806800556858 0 0.0013396671025416938 0.015066507616803332 0 0.0013373181988721053 0.014910796357696729 0 0.0012710460218459906 0.01499318987079868 0 0.0013396671025416938 0.015066507616803332 0 0.0014256540188545292 0.014873338689170202 0 0.0013373181988721053 0.014910796357696729 0 0.0013396671025416938 0.015066507616803332 0 0.0013373181988721053 0.014910796357696729 0 0.0012922942575341308 0.01483403585192301 0 0.0012710460218459906 0.01499318987079868 0 0.0012922942575341308 0.01483403585192301 0 0.0013469003616596656 0.014644148136995334 0 0.00120460885700249 0.014736269424187825 0 0.0013738519049249932 0.014780833344385231 0 0.0013373181988721053 0.014910796357696729 0 0.0012922942575341308 0.01483403585192301 0 0.0013738519049249932 0.014780833344385231 0 0.0012922942575341308 0.01483403585192301 0 0.0013469003616596656 0.014644148136995334 0 0.0013469003616596656 0.014644148136995334 0 0.0013172872657960422 0.014386223643483699 0 0.00120460885700249 0.014736269424187825 0 0.00145867632206568 0.014455441262278003 0 0.0013469003616596656 0.014644148136995334 0 0.0013172872657960422 0.014386223643483699 0 0.0015099911620292076 0.014151202627634677 0 0.00145867632206568 0.014455441262278003 0 0.0013172872657960422 0.014386223643483699 0 0.0013172872657960422 0.014386223643483699 0 0.0011672707182458037 0.014447266928709231 0 0.00120460885700249 0.014736269424187825 0 0.0011672707182458037 0.014447266928709231 0 0.00098320791543224048 0.014583493947417871 0 0.001121832352525834 0.014656936231304096 0 0.00098320791543224048 0.014583493947417871 0 0.0011143628397964804 0.014845495262454496 0 0.001085402996984816 0.015105919295171787 0 0.00098320791543224048 0.014583493947417871 0 0.0011143628397964804 0.014845495262454496 0 0.001121832352525834 0.014656936231304096 0 0.0011143628397964804 0.014845495262454496 0 0.00120460885700249 0.014736269424187825 0 0.0011699062061923222 0.014901132499934701 0 0.0011143628397964804 0.014845495262454496 0 0.001121832352525834 0.014656936231304096 0 0.00120460885700249 0.014736269424187825 0 0.0011672707182458037 0.014447266928709231 0 0.001121832352525834 0.014656936231304096 0 0.00120460885700249 0.014736269424187825 0 0.0012922942575341308 0.01483403585192301 0 0.00120460885700249 0.014736269424187825 0 0.0012173868745391817 0.014939431939864752 0 0.00120460885700249 0.014736269424187825 0 0.0011699062061923222 0.014901132499934701 0 0.0012173868745391817 0.014939431939864752 0 0.0012922942575341308 0.01483403585192301 0 0.0012173868745391817 0.014939431939864752 0 0.0012710460218459906 0.01499318987079868 0 0.0012173868745391817 0.014939431939864752 0 0.0012710460218459906 0.01499318987079868 0 0.0012023940203096403 0.015106052036576325 0 0.0012710460218459906 0.01499318987079868 0 0.0012023940203096403 0.015106052036576325 0 0.0012535804228979831 0.015147806800556858 0 0.0012023940203096403 0.015106052036576325 0 0.0011747806921399602 0.015294804708330502 0 0.0012535804228979831 0.015147806800556858 0 0.0012023940203096403 0.015106052036576325 0 0.0011462320374415792 0.015078367778180859 0 0.0011747806921399602 0.015294804708330502 0 0.0011143628397964804 0.014845495262454496 0 0.0011462320374415792 0.015078367778180859 0 0.001085402996984816 0.015105919295171787 0 0.0012173868745391817 0.014939431939864752 0 0.0012023940203096403 0.015106052036576325 0 0.0011462320374415792 0.015078367778180859 0 0.0011143628397964804 0.014845495262454496 0 0.0011699062061923222 0.014901132499934701 0 0.0011462320374415792 0.015078367778180859 0 0.0011699062061923222 0.014901132499934701 0 0.0012173868745391817 0.014939431939864752 0 0.0011462320374415792 0.015078367778180859 0 0.0011462320374415792 0.015078367778180859 0 0.0011209449910617841 0.015388847736248479 0 0.0011747806921399602 0.015294804708330502 0 0.0011462320374415792 0.015078367778180859 0 0.001085402996984816 0.015105919295171787 0 0.0011209449910617841 0.015388847736248479 0 0.0010931021121824208 0.015502221947710296 0 0.001085402996984816 0.015105919295171787 0 0.0011209449910617841 0.015388847736248479 0 0.0010931021121824208 0.015502221947710296 0 0.00098320791543224048 0.014583493947417871 0 0.001085402996984816 0.015105919295171787 0 0.0010863744101131288 0.01568544451757322 0 0.0010931021121824208 0.015502221947710296 0 0.00084763040670109916 0.015518078303107481 0 0.0010931021121824208 0.015502221947710296 0 0.00085170919283071057 0.015510231992432746 0 0.00084763040670109916 0.015518078303107481 0 0.0010609749651958431 0.015419239534679644 0 0.00095544384644051061 0.015039199122518375 0 0.0018888938990172517 0.013288934401013041 0 0.001909201846231406 0.013713522189470846 0 0.002114658242940261 0.013690873532265713 0 0.002258219374728677 0.013714111894486561 0 0.0018888938990172517 0.013288934401013041 0 0.002114658242940261 0.013690873532265713 0 0.0018976364155410769 0.013370231682977282 0 0.0018688141422765797 0.013262557382677209 0 0.0015903043246577879 0.01289446283481053 0 0.0015607438121377942 0.013013104068348018 0 0.0018888938990172517 0.013288934401013041 0 0.0015903043246577879 0.01289446283481053 0 0.0015607438121377942 0.013013104068348018 0 0.0015173256444168488 0.012890616835563314 0 0.0015379653639827453 0.013026374092097219 0 0.0015607438121377942 0.013013104068348018 0 0.0018888938990172517 0.013288934401013041 0 0.0016868620346210583 0.013191576635279543 0 0.0015379653639827453 0.013026374092097219 0 0.0018888938990172517 0.013288934401013041 0 0.0016868620346210583 0.013191576635279543 0 0.0018888938990172517 0.013288934401013041 0 0.001723008686038529 0.01343670641984814 0 0.0014995114240862364 0.013367077985719279 0 0.001723008686038529 0.01343670641984814 0 0.0016204226117234857 0.013763805742869773 0 0.0016204226117234857 0.013763805742869773 0 0.001909201846231406 0.013713522189470846 0 0.0017546521075418832 0.014074717864264241 0 0.001723008686038529 0.01343670641984814 0 0.0016204226117234857 0.013763805742869773 0 0.001909201846231406 0.013713522189470846 0 0.0018888938990172517 0.013288934401013041 0 0.001723008686038529 0.01343670641984814 0 0.001909201846231406 0.013713522189470846 0 0.001909201846231406 0.013713522189470846 0 0.0019593531209104063 0.013948121429083178 0 0.0017546521075418832 0.014074717864264241 0 0.001909201846231406 0.013713522189470846 0 0.0019593531209104063 0.013948121429083178 0 0.0021940136293337668 0.013910864878037974 0 0.001909201846231406 0.013713522189470846 0 0.0021940136293337668 0.013910864878037974 0 0.002114658242940261 0.013690873532265713 0 0.0019593531209104063 0.013948121429083178 0 0.0017546521075418832 0.014074717864264241 0 0.0018770016592951305 0.014318328814794381 0 0.001601305833574661 0.014333964115456562 0 0.0017546521075418832 0.014074717864264241 0 0.0017203436767087577 0.014507617578782873 0 0.0017546521075418832 0.014074717864264241 0 0.0017203436767087577 0.014507617578782873 0 0.0018770016592951305 0.014318328814794381 0 0.0017203436767087577 0.014507617578782873 0 0.0018770016592951305 0.014318328814794381 0 0.0018849640766792127 0.014583181670683785 0 0.0018770016592951305 0.014318328814794381 0 0.0018849640766792127 0.014583181670683785 0 0.0021304430496101828 0.014563461765781842 0 0.0018849640766792127 0.014583181670683785 0 0.0021304430496101828 0.014563461765781842 0 0.0019378384105320421 0.014774138455324248 0 0.0018849640766792127 0.014583181670683785 0 0.0018069418716942615 0.014764380944302364 0 0.0019378384105320421 0.014774138455324248 0 0.0017203436767087577 0.014507617578782873 0 0.0018849640766792127 0.014583181670683785 0 0.0018069418716942615 0.014764380944302364 0 0.0016960235890727429 0.014716392168457363 0 0.0017203436767087577 0.014507617578782873 0 0.0018069418716942615 0.014764380944302364 0 0.0019593531209104063 0.013948121429083178 0 0.0021940136293337668 0.013910864878037974 0 0.0021304430496101828 0.014563461765781842 0 0.0019593531209104063 0.013948121429083178 0 0.0018770016592951305 0.014318328814794381 0 0.0021304430496101828 0.014563461765781842 0 0.0021940136293337668 0.013910864878037974 0 0.0023060821539557437 0.013800764067724451 0 0.0022307664092031981 0.013769369174637291 0 0.0022439186999709581 0.013938950224675615 0 0.0021223122346050909 0.014321194659923391 0 0.0023320441649789208 0.01354500700773973 0 0.0028686484742197161 0.013286775911343588 0 0.0021940136293337668 0.013910864878037974 0 0.0023460092357696846 0.013516172547244751 0 0.0022307664092031981 0.013769369174637291 0 0.0021940136293337668 0.013910864878037974 0 0.002114658242940261 0.013690873532265713 0 0.0022496730552121619 0.013688723915290718 0 0.0021940136293337668 0.013910864878037974 0 0.0022496730552121619 0.013688723915290718 0 0.0023460092357696846 0.013516172547244751 0 0.002258219374728677 0.013714111894486561 0 0.002114658242940261 0.013690873532265713 0 0.0022496730552121619 0.013688723915290718 0 0.002258219374728677 0.013714111894486561 0 0.0022496730552121619 0.013688723915290718 0 0.0020534973406305494 0.013655228850232735 0 0.0022496730552121619 0.013688723915290718 0 0.0020129135107457771 0.013508741325404474 0 0.0020534973406305494 0.013655228850232735 0 0.0022496730552121619 0.013688723915290718 0 0.0023460092357696846 0.013516172547244751 0 0.0020129135107457771 0.013508741325404474 0 0.0023460092357696846 0.013516172547244751 0 0.0020129135107457771 0.013508741325404474 0 0.002139275370222024 0.013035741942995831 0 0.0020129135107457771 0.013508741325404474 0 0.0017981107764241176 0.013311109157611562 0 0.002139275370222024 0.013035741942995831 0 0.0017981107764241176 0.013311109157611562 0 0.0016695622225758246 0.013092871269151986 0 0.002139275370222024 0.013035741942995831 0 0.0020129135107457771 0.013508741325404474 0 0.0017651937771356759 0.013448878659759016 0 0.0018643314437281969 0.013579005492597673 0 0.0020129135107457771 0.013508741325404474 0 0.0017651937771356759 0.013448878659759016 0 0.0017981107764241176 0.013311109157611562 0 0.0017651937771356759 0.013448878659759016 0 0.0017981107764241176 0.013311109157611562 0 0.0016493519158562037 0.013336369162643984 0 0.0017981107764241176 0.013311109157611562 0 0.0016493519158562037 0.013336369162643984 0 0.0016695622225758246 0.013092871269151986 0 0.0025507049135359669 0.011699894965161198 0 0.0021606118116113491 0.011958984816015469 0 0.002148458201590109 0.011900351957951315 0 0.0024244572320321197 0.01163014475990904 0 0.0025507049135359669 0.011699894965161198 0 0.002148458201590109 0.011900351957951315 0 0.0043739520040997626 0.009722164714770316 0 0.0012536120056364428 0.01276446245729819 0 0.0027693190797252478 0.011504507657675783 0 0.0017408746341031193 0.012699304271224324 0 0.0016493519158562037 0.013336369162643984 0 0.0013674442024611702 0.013528914734421924 0 0.0016695622225758246 0.013092871269151986 0 0.002188001363839846 0.011777098616634257 0 0.0021670858517803021 0.011877060617358029 0 0.0021606118116113491 0.011958984816015469 0 0.0016493519158562037 0.013336369162643984 0 0.0016164671300835675 0.013462940309401865 0 0.0013674442024611702 0.013528914734421924 0 0.0017651937771356759 0.013448878659759016 0 0.0016493519158562037 0.013336369162643984 0 0.0016164671300835675 0.013462940309401865 0 0.0017651937771356759 0.013448878659759016 0 0.0016164671300835675 0.013462940309401865 0 0.001692107983939075 0.013581523323569045 0 0.001692107983939075 0.013581523323569045 0 0.0013674442024611702 0.013528914734421924 0 0.0017412220341993538 0.013731169670586886 0 0.0016164671300835675 0.013462940309401865 0 0.001692107983939075 0.013581523323569045 0 0.0013674442024611702 0.013528914734421924 0 0.0017896634616026889 0.012670230120796943 0 0.0020676612054697729 0.012049384376645952 0 0.0027053979630067108 0.011993063600964676 0 0.001810786151303674 0.01150221964980188 0 0.0030240864611237278 0.011000982499786618 0 0.0027693190797252478 0.011504507657675783 0 0.0017896634616026889 0.012670230120796943 0 0.002258219374728677 0.013714111894486561 0 0.0017761724950854994 0.013730296474129138 0 0.0018173177761466118 0.013706303709918245 0 0.002258219374728677 0.013714111894486561 0 0.0020534973406305494 0.013655228850232735 0 0.0018173177761466118 0.013706303709918245 0 0.0018976364155410769 0.013370231682977282 0 0.0017896634616026889 0.012670230120796943 0 0.0017896634616026889 0.012670230120796943 0 0.00174775006762464 0.01273494092752022 0 0.0020129135107457771 0.013508741325404474 0 0.0020534973406305494 0.013655228850232735 0 0.0018643314437281969 0.013579005492597673 0 0.0020534973406305494 0.013655228850232735 0 0.0018643314437281969 0.013579005492597673 0 0.0018173177761466118 0.013706303709918245 0 0.0017651937771356759 0.013448878659759016 0 0.001692107983939075 0.013581523323569045 0 0.0018643314437281969 0.013579005492597673 0 0.001692107983939075 0.013581523323569045 0 0.0017412220341993538 0.013731169670586886 0 0.0018173177761466118 0.013706303709918245 0 0.001692107983939075 0.013581523323569045 0 0.0018643314437281969 0.013579005492597673 0 0.0018173177761466118 0.013706303709918245 0 0.0081337080357432069 0.0063761058024138792 0 0.0077059997347671194 0.0063373528190014137 0 0.0074640509642429232 0.0059019963720659515 0 0.0080567243582418731 0.006526123175326806 0 0.0080157574025045402 0.0066943050552348456 0 0.0084387241117135168 0.0065896817284378474 0 0.0078450535193228237 0.0065134031396744708 0 0.0078073565272252926 0.0067427632508583893 0 0.0076153459619158481 0.0066991194133206051 0 0.0078450535193228237 0.0065134031396744708 0 0.0080157574025045402 0.0066943050552348456 0 0.0078073565272252926 0.0067427632508583893 0 0.0078450535193228237 0.0065134031396744708 0 0.0080567243582418731 0.006526123175326806 0 0.0080157574025045402 0.0066943050552348456 0 0.0078450535193228237 0.0065134031396744708 0 0.0081337080357432069 0.0063761058024138792 0 0.0077059997347671194 0.0063373528190014137 0 0.0070670942747208905 0.0079938462626556496 0 0.0076387006613194888 0.0069915702185542918 0 0.0078450535193228237 0.0065134031396744708 0 0.0081337080357432069 0.0063761058024138792 0 0.0080567243582418731 0.006526123175326806 0 0.0070670942747208905 0.0079938462626556496 0 0.0043739520040997626 0.009722164714770316 0 0.0081165654386209738 0.0064081940527131983 0 0.0080567243582418731 0.006526123175326806 0 0.0084387241117135168 0.0065896817284378474 0 0.0022833717936829572 0.011802050819175215 0 0.002188001363839846 0.011777098616634257 0 0.002194132657326832 0.011846060222914099 0 0.002188001363839846 0.011777098616634257 0 0.002194132657326832 0.011846060222914099 0 0.0021670858517803021 0.011877060617358029 0 0.0027693190797252478 0.011504507657675783 0 0.0043739520040997626 0.009722164714770316 0 0.0054065685082121204 0.0092946470664299462 0 0.0056231752543905921 0.0085914488225988222 0 0.0062776160602760886 0.0085962528465618696 0 0.0050678018669986832 0.0091186287831898066 0 0.0054065685082121204 0.0092946470664299462 0 0.0056231752543905921 0.0085914488225988222 0 0.0027053979630067108 0.011993063600964676 0 0.0034731913596353962 0.011247346867932211 0 0.0030240864611237278 0.011000982499786618 0 0.0027693190797252478 0.011504507657675783 0 0.0049317857928689998 0.0095552868376375614 0 0.0080157574025045402 0.0066943050552348456 0 0.0084387241117135168 0.0065896817284378474 0 0.007893543518827326 0.0071007599747718196 0 0.0043739520040997626 0.009722164714770316 0 0.0076444455036347135 0.0074391997206429633 0 0.007893543518827326 0.0071007599747718196 0 0.0078073565272252926 0.0067427632508583893 0 0.0077031008740691478 0.0068775619397917192 0 0.0080157574025045402 0.0066943050552348456 0 0.007893543518827326 0.0071007599747718196 0 0.0078073565272252926 0.0067427632508583893 0 0.0062776160602760886 0.0085962528465618696 0 0.0061310111338680022 0.0081953019037606951 0 0.0066724586400796993 0.0080275376765258106 0 0.0056231752543905921 0.0085914488225988222 0 0.0062776160602760886 0.0085962528465618696 0 0.0061310111338680022 0.0081953019037606951 0 0.0017390390181961412 0.012849183766457464 0 0.0017170013296106687 0.012735655270575059 0 0.0018559092534600988 0.012755554377202469 0 0.0049317857928689998 0.0095552868376375614 0 0.0039600553791801054 0.010524561109334765 0 0.0039600553791801054 0.010524561109334765 0 0.0020676612054697729 0.012049384376645952 0 0.0034731913596353962 0.011247346867932211 0 0.0042388161537783514 0.010508679593993132 0 0.0030240864611237278 0.011000982499786618 0 0.0015488062772046592 0.01288859969015181 0 0.0016081518221082892 0.012731223718109896 0 0.0015133194916976606 0.012766447206162429 0 0.0017390390181961412 0.012849183766457464 0 0.0015488062772046592 0.01288859969015181 0 0.0016081518221082892 0.012731223718109896 0 0.0016081518221082892 0.012731223718109896 0 0.0015133194916976606 0.012766447206162429 0 0.0015295707301142809 0.012572962264145721 0 0.0016081518221082892 0.012731223718109896 0 0.0015295707301142809 0.012572962264145721 0 0.0017258305461603203 0.01252261135426159 0 0.0017390390181961412 0.012849183766457464 0 0.0016081518221082892 0.012731223718109896 0 0.0017170013296106687 0.012735655270575059 0 0.0016081518221082892 0.012731223718109896 0 0.0017170013296106687 0.012735655270575059 0 0.0017258305461603203 0.01252261135426159 0 0.0017170013296106687 0.012735655270575059 0 0.0018668562362897326 0.012684264315850083 0 0.0017258305461603203 0.01252261135426159 0 0.0018668562362897326 0.012684264315850083 0 0.0017258305461603203 0.01252261135426159 0 0.0019588437720342252 0.012616399114173237 0 0.0017170013296106687 0.012735655270575059 0 0.0018668562362897326 0.012684264315850083 0 0.0018559092534600988 0.012755554377202469 0 0.0015033805057399416 0.012867181044647912 0 0.0015173256444168488 0.012890616835563314 0 0.0015018131124708047 0.01286603767584635 0 0.0015903043246577879 0.01289446283481053 0 0.0015033805057399416 0.012867181044647912 0 0.0015173256444168488 0.012890616835563314 0 0.0015173256444168488 0.012890616835563314 0 0.0015018131124708047 0.01286603767584635 0 0.001496445504778022 0.012876217893924609 0 0.0015488062772046592 0.01288859969015181 0 0.0015018131124708047 0.01286603767584635 0 0.0015133194916976606 0.012766447206162429 0 0.0015033805057399416 0.012867181044647912 0 0.0015488062772046592 0.01288859969015181 0 0.0015018131124708047 0.01286603767584635 0 0.0015133194916976606 0.012766447206162429 0 0.001496445504778022 0.012876217893924609 0 0.0014505515360222535 0.012775436060135122 0 0.0015018131124708047 0.01286603767584635 0 0.0015133194916976606 0.012766447206162429 0 0.001496445504778022 0.012876217893924609 0 0.0015607438121377942 0.013013104068348018 0 0.0015173256444168488 0.012890616835563314 0 0.001496445504778022 0.012876217893924609 0 0.0015607438121377942 0.013013104068348018 0 0.001496445504778022 0.012876217893924609 0 0.0014505515360222535 0.012775436060135122 0 0.0014053355134216736 0.012849575188331975 0 0.0014505515360222535 0.012775436060135122 0 0.0013765467665305786 0.012550276960522491 0 0.0014505515360222535 0.012775436060135122 0 0.0014502288397247804 0.012531370539386941 0 0.0013765467665305786 0.012550276960522491 0 0.0014505515360222535 0.012775436060135122 0 0.0014502288397247804 0.012531370539386941 0 0.0015295707301142809 0.012572962264145721 0 0.0015133194916976606 0.012766447206162429 0 0.0014505515360222535 0.012775436060135122 0 0.0015295707301142809 0.012572962264145721 0 0.0015295707301142809 0.012572962264145721 0 0.0017258305461603203 0.01252261135426159 0 0.0016637970489523097 0.012367980023997725 0 0.0017258305461603203 0.01252261135426159 0 0.0016637970489523097 0.012367980023997725 0 0.0018094830455981498 0.012364969381961284 0 0.0016637970489523097 0.012367980023997725 0 0.0017631556734397323 0.012227838878119906 0 0.0018094830455981498 0.012364969381961284 0 0.0016637970489523097 0.012367980023997725 0 0.0016608352794938198 0.012175411021101624 0 0.0017631556734397323 0.012227838878119906 0 0.0016637970489523097 0.012367980023997725 0 0.0016608352794938198 0.012175411021101624 0 0.0015228610627860037 0.01231672166297044 0 0.0015295707301142809 0.012572962264145721 0 0.0016637970489523097 0.012367980023997725 0 0.0015228610627860037 0.01231672166297044 0 0.0014502288397247804 0.012531370539386941 0 0.0015295707301142809 0.012572962264145721 0 0.0015228610627860037 0.01231672166297044 0 0.0014502288397247804 0.012531370539386941 0 0.0015228610627860037 0.01231672166297044 0 0.0014270124703867841 0.012185603036645601 0 0.0015228610627860037 0.01231672166297044 0 0.0014270124703867841 0.012185603036645601 0 0.0015543452795401063 0.012102303674750346 0 0.0014270124703867841 0.012185603036645601 0 0.0015543452795401063 0.012102303674750346 0 0.0015257467401843764 0.011882121367869914 0 0.0016608352794938198 0.012175411021101624 0 0.0015543452795401063 0.012102303674750346 0 0.0016801901690622306 0.011947965848929607 0 0.0016608352794938198 0.012175411021101624 0 0.0015228610627860037 0.01231672166297044 0 0.0015543452795401063 0.012102303674750346 0 0.0015543452795401063 0.012102303674750346 0 0.0015257467401843764 0.011882121367869914 0 0.0016801901690622306 0.011947965848929607 0 0.0015257467401843764 0.011882121367869914 0 0.001691540965884394 0.011650749527021524 0 0.0016801901690622306 0.011947965848929607 0 0.0015257467401843764 0.011882121367869914 0 0.0014805619694428361 0.011655654308551595 0 0.001397181780525368 0.011870918100974624 0 0.0015257467401843764 0.011882121367869914 0 0.0014805619694428361 0.011655654308551595 0 0.001691540965884394 0.011650749527021524 0 0.0014270124703867841 0.012185603036645601 0 0.0015257467401843764 0.011882121367869914 0 0.001397181780525368 0.011870918100974624 0 0.0013012588349119913 0.012158423730035214 0 0.0014270124703867841 0.012185603036645601 0 0.001397181780525368 0.011870918100974624 0 0.0013012588349119913 0.012158423730035214 0 0.0014270124703867841 0.012185603036645601 0 0.0013765467665305786 0.012550276960522491 0 0.0013012588349119913 0.012158423730035214 0 0.0013228899618837663 0.012749303564192519 0 0.0013765467665305786 0.012550276960522491 0 0.0013012588349119913 0.012158423730035214 0 0.0013116916967522855 0.012671879470402712 0 0.0013228899618837663 0.012749303564192519 0 0.0013228899618837663 0.012749303564192519 0 0.0014053355134216736 0.012849575188331975 0 0.0013765467665305786 0.012550276960522491 0 0.0014502288397247804 0.012531370539386941 0 0.0014270124703867841 0.012185603036645601 0 0.0013765467665305786 0.012550276960522491 0 0.0022090441111542866 0.011535140523170964 0 0.00241395598666735 0.011639044494317796 0 0.0025479407079065717 0.011288473720758065 0 0.0022090441111542866 0.011535140523170964 0 0.0021907707521013758 0.011750458552241065 0 0.00241395598666735 0.011639044494317796 0 0.00241395598666735 0.011639044494317796 0 0.0026873885353405724 0.011434431159289089 0 0.0025479407079065717 0.011288473720758065 0 0.0026873885353405724 0.011434431159289089 0 0.0027571354893715268 0.011239557092475436 0 0.0025479407079065717 0.011288473720758065 0 0.002865022545233179 0.011008832575052214 0 0.002742753233663367 0.010854665578144389 0 0.0025479407079065717 0.011288473720758065 0 0.002865022545233179 0.011008832575052214 0 0.0027571354893715268 0.011239557092475436 0 0.0025479407079065717 0.011288473720758065 0 0.002742753233663367 0.010854665578144389 0 0.0024409644203235272 0.011039590927124435 0 0.0025479407079065717 0.011288473720758065 0 0.0024409644203235272 0.011039590927124435 0 0.0025479407079065717 0.011288473720758065 0 0.002339842473272733 0.011284216069816758 0 0.0024409644203235272 0.011039590927124435 0 0.002339842473272733 0.011284216069816758 0 0.0021588921269586263 0.01126952306395693 0 0.0022090441111542866 0.011535140523170964 0 0.0025479407079065717 0.011288473720758065 0 0.002339842473272733 0.011284216069816758 0 0.0022090441111542866 0.011535140523170964 0 0.002339842473272733 0.011284216069816758 0 0.0021588921269586263 0.01126952306395693 0 0.001872781898720923 0.011214270073876582 0 0.0021588921269586263 0.01126952306395693 0 0.0019666477749450862 0.011557440233394589 0 0.0022090441111542866 0.011535140523170964 0 0.0021588921269586263 0.01126952306395693 0 0.0019666477749450862 0.011557440233394589 0 0.001872781898720923 0.011214270073876582 0 0.0019666477749450862 0.011557440233394589 0 0.001691540965884394 0.011650749527021524 0 0.0015771783286433838 0.011388967403409887 0 0.0014805619694428361 0.011655654308551595 0 0.001691540965884394 0.011650749527021524 0 0.0019666477749450862 0.011557440233394589 0 0.001691540965884394 0.011650749527021524 0 0.0018560042636741447 0.011827192565768599 0 0.001691540965884394 0.011650749527021524 0 0.0016801901690622306 0.011947965848929607 0 0.0018560042636741447 0.011827192565768599 0 0.0018560042636741447 0.011827192565768599 0 0.0020112849813841505 0.011917208905929635 0 0.0018049237202954458 0.012051308122639135 0 0.0016801901690622306 0.011947965848929607 0 0.0018560042636741447 0.011827192565768599 0 0.0018049237202954458 0.012051308122639135 0 0.0016608352794938198 0.012175411021101624 0 0.0016801901690622306 0.011947965848929607 0 0.0018049237202954458 0.012051308122639135 0 0.0022090441111542866 0.011535140523170964 0 0.0019666477749450862 0.011557440233394589 0 0.0020283180740886353 0.011724489470505856 0 0.0019666477749450862 0.011557440233394589 0 0.0018560042636741447 0.011827192565768599 0 0.0020283180740886353 0.011724489470505856 0 0.0018560042636741447 0.011827192565768599 0 0.0020283180740886353 0.011724489470505856 0 0.0020112849813841505 0.011917208905929635 0 0.0022090441111542866 0.011535140523170964 0 0.0021907707521013758 0.011750458552241065 0 0.0020283180740886353 0.011724489470505856 0 0.0021907707521013758 0.011750458552241065 0 0.0020283180740886353 0.011724489470505856 0 0.0020112849813841505 0.011917208905929635 0 0.0021907707521013758 0.011750458552241065 0 0.0020112849813841505 0.011917208905929635 0 0.0022308058765285318 0.011929413706000657 0 0.0020112849813841505 0.011917208905929635 0 0.0020576317738853862 0.012075499390501253 0 0.0018945198226388608 0.01216796430255972 0 0.0020112849813841505 0.011917208905929635 0 0.0020576317738853862 0.012075499390501253 0 0.0022308058765285318 0.011929413706000657 0 0.0020576317738853862 0.012075499390501253 0 0.0021615386068949286 0.012108490545327552 0 0.0022308058765285318 0.011929413706000657 0 0.0016608352794938198 0.012175411021101624 0 0.0018049237202954458 0.012051308122639135 0 0.0017631556734397323 0.012227838878119906 0 0.0020112849813841505 0.011917208905929635 0 0.0018049237202954458 0.012051308122639135 0 0.0018945198226388608 0.01216796430255972 0 0.0018049237202954458 0.012051308122639135 0 0.0018945198226388608 0.01216796430255972 0 0.0017631556734397323 0.012227838878119906 0 0.0018945198226388608 0.01216796430255972 0 0.0018094830455981498 0.012364969381961284 0 0.0020416558088686217 0.012254292021038277 0 0.0018094830455981498 0.012364969381961284 0 0.0020416558088686217 0.012254292021038277 0 0.0018881755682620613 0.012443852582170426 0 0.0017258305461603203 0.01252261135426159 0 0.0018094830455981498 0.012364969381961284 0 0.0018881755682620613 0.012443852582170426 0 0.0018945198226388608 0.01216796430255972 0 0.0017631556734397323 0.012227838878119906 0 0.0018094830455981498 0.012364969381961284 0 0.0020416558088686217 0.012254292021038277 0 0.0023268426168437475 0.012174649095486906 0 0.0021495096603012871 0.012448825479085122 0 0.0021615386068949286 0.012108490545327552 0 0.0020416558088686217 0.012254292021038277 0 0.0023268426168437475 0.012174649095486906 0 0.0020576317738853862 0.012075499390501253 0 0.0021615386068949286 0.012108490545327552 0 0.0020416558088686217 0.012254292021038277 0 0.0020576317738853862 0.012075499390501253 0 0.0018945198226388608 0.01216796430255972 0 0.0020416558088686217 0.012254292021038277 0 0.0023268426168437475 0.012174649095486906 0 0.0026353272213814304 0.012139246063380278 0 0.0021495096603012871 0.012448825479085122 0 0.0023268426168437475 0.012174649095486906 0 0.0022308058765285318 0.011929413706000657 0 0.0024602063800351921 0.011892483354718051 0 0.0023268426168437475 0.012174649095486906 0 0.0024602063800351921 0.011892483354718051 0 0.0025037771263494973 0.012023995040155984 0 0.0021615386068949286 0.012108490545327552 0 0.0023268426168437475 0.012174649095486906 0 0.0022308058765285318 0.011929413706000657 0 0.00241395598666735 0.011639044494317796 0 0.0022308058765285318 0.011929413706000657 0 0.0024602063800351921 0.011892483354718051 0 0.0021907707521013758 0.011750458552241065 0 0.00241395598666735 0.011639044494317796 0 0.0022308058765285318 0.011929413706000657 0 0.0028412351390480527 0.011514900538817683 0 0.0026873885353405724 0.011434431159289089 0 0.0026475771659055188 0.011680351758218481 0 0.00241395598666735 0.011639044494317796 0 0.0024602063800351921 0.011892483354718051 0 0.0026475771659055188 0.011680351758218481 0 0.00241395598666735 0.011639044494317796 0 0.0026873885353405724 0.011434431159289089 0 0.0026475771659055188 0.011680351758218481 0 0.0024602063800351921 0.011892483354718051 0 0.0026475771659055188 0.011680351758218481 0 0.0026044754508062866 0.011895499455757611 0 0.0027888165538464352 0.011745846643900833 0 0.0026475771659055188 0.011680351758218481 0 0.0026044754508062866 0.011895499455757611 0 0.0027888165538464352 0.011745846643900833 0 0.0028412351390480527 0.011514900538817683 0 0.0026475771659055188 0.011680351758218481 0 0.0027888165538464352 0.011745846643900833 0 0.0026044754508062866 0.011895499455757611 0 0.0026353272213814304 0.012139246063380278 0 0.0023268426168437475 0.012174649095486906 0 0.0025037771263494973 0.012023995040155984 0 0.0026353272213814304 0.012139246063380278 0 0.0026044754508062866 0.011895499455757611 0 0.0025037771263494973 0.012023995040155984 0 0.0026353272213814304 0.012139246063380278 0 0.0024602063800351921 0.011892483354718051 0 0.0026044754508062866 0.011895499455757611 0 0.0025037771263494973 0.012023995040155984 0 0.0061755255974603592 0.0079033587205618733 0 0.0061512750333731327 0.0084521322408880623 0 0.0068556744837384642 0.0080494988003223071 0 0.0054622129901375199 0.0088807780643835859 0 0.0054432898003780117 0.008881721190873694 0 0.00540303394103233 0.0089796388061119774 0 0.0057653107297599574 0.0086955691733110463 0 0.0061535071177089224 0.0081937579962995319 0 0.006059301735802357 0.0078257164365070214 0 0.0061535071177089224 0.0081937579962995319 0 0.0057475613524597315 0.0082251285181287048 0 0.0063564677504638345 0.0083219605492047734 0 0.0064074061623980213 0.0081148241641953341 0 0.0039369714051939097 0.010544061293471317 0 0.0040895450270453616 0.01058337408585102 0 0.0054432898003780117 0.008881721190873694 0 0.00540303394103233 0.0089796388061119774 0 0.0052129055489422201 0.0089641938998425881 0 0.0061535071177089224 0.0081937579962995319 0 0.0040895450270453616 0.01058337408585102 0 0.0063061005432515482 0.0077476442143024557 0 0.0064820594074417974 0.0072491016614211687 0 0.0069565236661992391 0.007319402869984927 0 0.0064820594074417974 0.0072491016614211687 0 0.0069565236661992391 0.007319402869984927 0 0.0067186550296298745 0.0068820199841462346 0 0.0061535071177089224 0.0081937579962995319 0 0.0066505799814802488 0.0075319987046267882 0 0.0057475613524597315 0.0082251285181287048 0 0.0064074061623980213 0.0081148241641953341 0 0.0063397604643286457 0.0078226550877410744 0 0.0063061005432515482 0.0077476442143024557 0 0.0064820594074417974 0.0072491016614211687 0 0.0060767870022249938 0.0073534276403653398 0 0.0064820594074417974 0.0072491016614211687 0 0.0060767870022249938 0.0073534276403653398 0 0.0062681428978057403 0.0068985939299800701 0 0.005878979195950311 0.0076936822189265872 0 0.0063061005432515482 0.0077476442143024557 0 0.0060767870022249938 0.0073534276403653398 0 0.0018366712090580445 0.012510848644683518 0 0.0017815543261054429 0.01245828693413816 0 0.0017258305461603203 0.01252261135426159 0 0.0019588437720342252 0.012616399114173237 0 0.0021377606633449344 0.012507802836064962 0 0.0018668562362897326 0.012684264315850083 0 0.0018559092534600988 0.012755554377202469 0 0.0021140977446845294 0.012783122442677815 0 0.0018668562362897326 0.012684264315850083 0 0.0019588437720342252 0.012616399114173237 0 0.0021140977446845294 0.012783122442677815 0 0.0019588437720342252 0.012616399114173237 0 0.0021377606633449344 0.012507802836064962 0 0.0021140977446845294 0.012783122442677815 0 0.0020416558088686217 0.012254292021038277 0 0.0018881755682620613 0.012443852582170426 0 0.0021495096603012871 0.012448825479085122 0 0.0066724586400796993 0.0080275376765258106 0 0.0063564677504638345 0.0083219605492047734 0 0.0064074061623980213 0.0081148241641953341 0 0.0021377606633449344 0.012507802836064962 0 0.0021140977446845294 0.012783122442677815 0 0.002635667990763231 0.012577673294614877 0 0.0044425404368629382 0.010388390950158024 0 0.0040895450270453616 0.01058337408585102 0 0.0017815543261054429 0.01245828693413816 0 0.0040895450270453616 0.01058337408585102 0 0.0066505799814802488 0.0075319987046267882 0 0.0074840457819452906 0.0070420843887202276 0 0.0066724586400796993 0.0080275376765258106 0 0.0064074061623980213 0.0081148241641953341 0 0.0067098442453742291 0.0080383104418845497 0 0.0063397604643286457 0.0078226550877410744 0 0.0067098442453742291 0.0080383104418845497 0 0.0075189539761545375 0.0069985405106666966 0 0.0064074061623980213 0.0081148241641953341 0 0.0063397604643286457 0.0078226550877410744 0 0.0067098442453742291 0.0080383104418845497 0 0.0062776160602760886 0.0085962528465618696 0 0.0066724586400796993 0.0080275376765258106 0 0.0067098442453742291 0.0080383104418845497 0 0.0017390390181961412 0.012849183766457464 0 0.0018559092534600988 0.012755554377202469 0 0.0021140977446845294 0.012783122442677815 0 0.0039600553791801054 0.010524561109334765 0 0.0044425404368629382 0.010388390950158024 0 0.0076444455036347135 0.0074391997206429633 0 0.0064823627776143472 0.0082192014714664377 0 0.007893543518827326 0.0071007599747718196 0 0.0067098442453742291 0.0080383104418845497 0 0.0075189539761545375 0.0069985405106666966 0 0.0076153459619158481 0.0066991194133206051 0 0.0075189539761545375 0.0069985405106666966 0 0.007401560327412883 0.0068050328667159264 0 0.0076153459619158481 0.0066991194133206051 0 0.0077031008740691478 0.0068775619397917192 0 0.0075189539761545375 0.0069985405106666966 0 0.0078073565272252926 0.0067427632508583893 0 0.0076153459619158481 0.0066991194133206051 0 0.0077031008740691478 0.0068775619397917192 0 0.007893543518827326 0.0071007599747718196 0 0.0077031008740691478 0.0068775619397917192 0 0.0075189539761545375 0.0069985405106666966 0 0.0075189539761545375 0.0069985405106666966 0 0.007401560327412883 0.0068050328667159264 0 0.0071570859714568833 0.0069750442243265839 0 0.007401560327412883 0.0068050328667159264 0 0.0071570859714568833 0.0069750442243265839 0 0.0073346106180410767 0.0065266943987645097 0 0.0069565236661992391 0.007319402869984927 0 0.0075189539761545375 0.0069985405106666966 0 0.0071570859714568833 0.0069750442243265839 0 0.0069565236661992391 0.007319402869984927 0 0.0071570859714568833 0.0069750442243265839 0 0.0067186550296298745 0.0068820199841462346 0 0.0071570859714568833 0.0069750442243265839 0 0.0069545315468054454 0.0065465333040844297 0 0.0067186550296298745 0.0068820199841462346 0 0.0071570859714568833 0.0069750442243265839 0 0.0069545315468054454 0.0065465333040844297 0 0.0073346106180410767 0.0065266943987645097 0 0.0069545315468054454 0.0065465333040844297 0 0.0073346106180410767 0.0065266943987645097 0 0.0069884421918855917 0.0059888722201624067 0 0.0073346106180410767 0.0065266943987645097 0 0.0077059997347671194 0.0063373528190014137 0 0.0074640509642429232 0.0059019963720659515 0 0.0076153459619158481 0.0066991194133206051 0 0.007401560327412883 0.0068050328667159264 0 0.0073346106180410767 0.0065266943987645097 0 0.0076153459619158481 0.0066991194133206051 0 0.0073346106180410767 0.0065266943987645097 0 0.0077059997347671194 0.0063373528190014137 0 0.0078450535193228237 0.0065134031396744708 0 0.0076153459619158481 0.0066991194133206051 0 0.0077059997347671194 0.0063373528190014137 0 0.005810542509227681 0.0070138825669749452 0 0.0060767870022249938 0.0073534276403653398 0 0.0062681428978057403 0.0068985939299800701 0 0.005810542509227681 0.0070138825669749452 0 0.0062681428978057403 0.0068985939299800701 0 0.0060114832432550738 0.0064710453156126601 0 0.0062681428978057403 0.0068985939299800701 0 0.0067186550296298745 0.0068820199841462346 0 0.0064490632206646468 0.0062358982124467964 0 0.0064820594074417974 0.0072491016614211687 0 0.0062681428978057403 0.0068985939299800701 0 0.0067186550296298745 0.0068820199841462346 0 0.0069545315468054454 0.0065465333040844297 0 0.0067186550296298745 0.0068820199841462346 0 0.0064490632206646468 0.0062358982124467964 0 0.0069545315468054454 0.0065465333040844297 0 0.0064490632206646468 0.0062358982124467964 0 0.0069884421918855917 0.0059888722201624067 0 0.0062681428978057403 0.0068985939299800701 0 0.0064490632206646468 0.0062358982124467964 0 0.0060114832432550738 0.0064710453156126601 0 0.0064490632206646468 0.0062358982124467964 0 0.0060114832432550738 0.0064710453156126601 0 0.0058879501421423737 0.0059479911981113916 0 0.0064490632206646468 0.0062358982124467964 0 0.0061176525247595998 0.0054109670954921862 0 0.0058879501421423737 0.0059479911981113916 0 0.0064490632206646468 0.0062358982124467964 0 0.0066227315071835727 0.005448272717935093 0 0.0061176525247595998 0.0054109670954921862 0 0.0064490632206646468 0.0062358982124467964 0 0.0066227315071835727 0.005448272717935093 0 0.0069884421918855917 0.0059888722201624067 0 0.0066227315071835727 0.005448272717935093 0 0.0061176525247595998 0.0054109670954921862 0 0.0064035460251870213 0.0047434577023277597 0 0.0066227315071835727 0.005448272717935093 0 0.0073413743784560516 0.0053289643927322749 0 0.0064035460251870213 0.0047434577023277597 0 0.0074640509642429232 0.0059019963720659515 0 0.0073413743784560516 0.0053289643927322749 0 0.0079207479999465358 0.0058136369810700668 0 0.0073346106180410767 0.0065266943987645097 0 0.0074640509642429232 0.0059019963720659515 0 0.0069884421918855917 0.0059888722201624067 0 0.0074640509642429232 0.0059019963720659515 0 0.0069884421918855917 0.0059888722201624067 0 0.0073413743784560516 0.0053289643927322749 0 0.0066227315071835727 0.005448272717935093 0 0.0069884421918855917 0.0059888722201624067 0 0.0073413743784560516 0.0053289643927322749 0 0.0073413743784560516 0.0053289643927322749 0 0.0072329980280857204 0.0044657289024839699 0 0.0079576456507190665 0.0048881350765368967 0 0.006689900555357787 0.0041787664940504884 0 0.0073618381832662736 0.003972695388920631 0 0.0073413743784560516 0.0053289643927322749 0 0.0072329980280857204 0.0044657289024839699 0 0.0064035460251870213 0.0047434577023277597 0 0.0062943492939541096 0.0038197571540519938 0 0.0063742548034357539 0.0039973990817360255 0 0.0063315521530615173 0.0039102928895797763 0 0.006689900555357787 0.0041787664940504884 0 0.0064082294104040828 0.0039921597960250275 0 0.0062943492939541096 0.0038197571540519938 0 0.0063315521530615173 0.0039102928895797763 0 0.0061830154304736082 0.0038753994594631696 0 0.0062943492939541096 0.0038197571540519938 0 0.0061830154304736082 0.0038753994594631696 0 0.0061027584808919432 0.0037623068923342425 0 0.0061176525247595998 0.0054109670954921862 0 0.0064035460251870213 0.0047434577023277597 0 0.0057512002982356815 0.0047082237204915953 0 0.0064035460251870213 0.0047434577023277597 0 0.0060017304626756732 0.0042668135129825596 0 0.0057512002982356815 0.0047082237204915953 0 0.0072329980280857204 0.0044657289024839699 0 0.0064035460251870213 0.0047434577023277597 0 0.0063742548034357539 0.0039973990817360255 0 0.0064035460251870213 0.0047434577023277597 0 0.0063742548034357539 0.0039973990817360255 0 0.0060017304626756732 0.0042668135129825596 0 0.0063742548034357539 0.0039973990817360255 0 0.0060017304626756732 0.0042668135129825596 0 0.0059270506867280387 0.0039042575688061467 0 0.0063742548034357539 0.0039973990817360255 0 0.0059270506867280387 0.0039042575688061467 0 0.0060724249767752604 0.0036203991933474833 0 0.0059270506867280387 0.0039042575688061467 0 0.0060724249767752604 0.0036203991933474833 0 0.0055755752439692998 0.0036456722690887873 0 0.0060724249767752604 0.0036203991933474833 0 0.0060349863430901986 0.0030983135029961965 0 0.0057530598214928204 0.0031278635840842474 0 0.0060724249767752604 0.0036203991933474833 0 0.0060349863430901986 0.0030983135029961965 0 0.0064246945020265478 0.0032440715841150348 0 0.0060906765412882926 0.0036496665525795483 0 0.0064515006872560106 0.0036986509666001545 0 0.0060724249767752604 0.0036203991933474833 0 0.0065694605903526149 0.0035644225319819223 0 0.0064246945020265478 0.0032440715841150348 0 0.0063742548034357539 0.0039973990817360255 0 0.0060724249767752604 0.0036203991933474833 0 0.0063663650418996449 0.0038364858505294738 0 0.0063742548034357539 0.0039973990817360255 0 0.0063315521530615173 0.0039102928895797763 0 0.0063663650418996449 0.0038364858505294738 0 0.0063315521530615173 0.0039102928895797763 0 0.006284527623659792 0.0039211290276376879 0 0.0063663650418996449 0.0038364858505294738 0 0.0063315521530615173 0.0039102928895797763 0 0.0061830154304736082 0.0038753994594631696 0 0.006284527623659792 0.0039211290276376879 0 0.0061830154304736082 0.0038753994594631696 0 0.006284527623659792 0.0039211290276376879 0 0.0061628243065429446 0.0039486566103198832 0 0.006284527623659792 0.0039211290276376879 0 0.0062442217571890063 0.004039149061777097 0 0.0061628243065429446 0.0039486566103198832 0 0.0066572807423692639 0.0037999990799090035 0 0.0064515006872560106 0.0036986509666001545 0 0.006284527623659792 0.0039211290276376879 0 0.0062442217571890063 0.004039149061777097 0 0.0063663650418996449 0.0038364858505294738 0 0.0070951466508375177 0.0035608622639987358 0 0.0065694605903526149 0.0035644225319819223 0 0.0067884059227308162 0.0033854395831456226 0 0.0065694605903526149 0.0035644225319819223 0 0.0067884059227308162 0.0033854395831456226 0 0.0064246945020265478 0.0032440715841150348 0 0.0067884059227308162 0.0033854395831456226 0 0.0067213638366979992 0.0031758590665952394 0 0.0064246945020265478 0.0032440715841150348 0 0.0067884059227308162 0.0033854395831456226 0 0.0067213638366979992 0.0031758590665952394 0 0.0069549039325828184 0.0033600431178231324 0 0.0067213638366979992 0.0031758590665952394 0 0.006511738843307812 0.0029453149478851802 0 0.0064246945020265478 0.0032440715841150348 0 0.0069549039325828184 0.0033600431178231324 0 0.007152418299670075 0.0029505402570204342 0 0.0069770929738657761 0.0037289813088830438 0 0.0070951466508375177 0.0035608622639987358 0 0.0069549039325828184 0.0033600431178231324 0 0.0069770929738657761 0.0037289813088830438 0 0.0070951466508375177 0.0035608622639987358 0 0.0067884059227308162 0.0033854395831456226 0 0.0069549039325828184 0.0033600431178231324 0 0.0067213638366979992 0.0031758590665952394 0 0.0069549039325828184 0.0033600431178231324 0 0.0068911401540876936 0.003058514958569613 0 0.0068911401540876936 0.003058514958569613 0 0.007152418299670075 0.0029505402570204342 0 0.0067855995447372013 0.0027921823197700991 0 0.0069549039325828184 0.0033600431178231324 0 0.0068911401540876936 0.003058514958569613 0 0.007152418299670075 0.0029505402570204342 0 0.0067213638366979992 0.0031758590665952394 0 0.0067855995447372013 0.0027921823197700991 0 0.006511738843307812 0.0029453149478851802 0 0.0067855995447372013 0.0027921823197700991 0 0.006511738843307812 0.0029453149478851802 0 0.0064501536863523007 0.0026039922985351483 0 0.0067213638366979992 0.0031758590665952394 0 0.0068911401540876936 0.003058514958569613 0 0.0067855995447372013 0.0027921823197700991 0 0.006511738843307812 0.0029453149478851802 0 0.0062016607798119228 0.0029099179772681767 0 0.0064501536863523007 0.0026039922985351483 0 0.008006612427508452 -0.0015513076434107893 0 0.0068574864445569124 -0.00054549933012418533 0 0.0062016607798119228 0.0029099179772681767 0 0.0059383174624891375 0.0026878254413558213 0 0.0064501536863523007 0.0026039922985351483 0 0.0076190102508311855 -0.0034718110964550236 0 0.0077425574449087311 -0.0036105276280724917 0 0.0075920112087093468 -0.003505104212991069 0 0.008006612427508452 -0.0015513076434107893 0 0.009708188488727466 -0.0036095349846179546 0 0.0059383174624891375 0.0026878254413558213 0 0.0059203141002703297 0.0028003115586097559 0 0.0058227817887058324 0.0028314865050708053 0 0.0059383174624891375 0.0026878254413558213 0 0.0059203141002703297 0.0028003115586097559 0 0.0060131695963119951 0.0028748316625441268 0 0.0059203141002703297 0.0028003115586097559 0 0.0059078199768548513 0.0029117684530282689 0 0.0058227817887058324 0.0028314865050708053 0 0.0059203141002703297 0.0028003115586097559 0 0.0060131695963119951 0.0028748316625441268 0 0.0059078199768548513 0.0029117684530282689 0 0.0062016607798119228 0.0029099179772681767 0 0.0059383174624891375 0.0026878254413558213 0 0.0060131695963119951 0.0028748316625441268 0 0.0062016607798119228 0.0029099179772681767 0 0.0060131695963119951 0.0028748316625441268 0 0.0060349863430901986 0.0030983135029961965 0 0.0059078199768548513 0.0029117684530282689 0 0.0060349863430901986 0.0030983135029961965 0 0.0057794032218570221 0.0029633758348050409 0 0.0060131695963119951 0.0028748316625441268 0 0.0059078199768548513 0.0029117684530282689 0 0.0060349863430901986 0.0030983135029961965 0 0.0060349863430901986 0.0030983135029961965 0 0.0057794032218570221 0.0029633758348050409 0 0.0057530598214928204 0.0031278635840842474 0 0.0062016607798119228 0.0029099179772681767 0 0.0060349863430901986 0.0030983135029961965 0 0.0064246945020265478 0.0032440715841150348 0 0.006511738843307812 0.0029453149478851802 0 0.0062016607798119228 0.0029099179772681767 0 0.0064246945020265478 0.0032440715841150348 0 0.00529551594233779 0.0043633612891011767 0 0.0051579311428832523 0.0040254680160517267 0 0.0043594064573107116 0.0043957563016340448 0 0.00529551594233779 0.0043633612891011767 0 0.004666701768006847 0.0051403316067837697 0 0.0043594064573107116 0.0043957563016340448 0 0.00529551594233779 0.0043633612891011767 0 0.004666701768006847 0.0051403316067837697 0 0.0055087840056241852 0.0051880607832551287 0 0.004666701768006847 0.0051403316067837697 0 0.0055087840056241852 0.0051880607832551287 0 0.005254691621297632 0.0059923299224923865 0 0.00529551594233779 0.0043633612891011767 0 0.0055087840056241852 0.0051880607832551287 0 0.0060995939271890655 0.0046189601331120683 0 0.0055087840056241852 0.0051880607832551287 0 0.0060321695303807059 0.005245139515025153 0 0.0060995939271890655 0.0046189601331120683 0 0.0060321695303807059 0.005245139515025153 0 0.0064250137579529385 0.005120050730476125 0 0.0060995939271890655 0.0046189601331120683 0 0.0064250137579529385 0.005120050730476125 0 0.0060995939271890655 0.0046189601331120683 0 0.0067825935087308196 0.0042908569002989231 0 0.0069744210056235101 0.0044016009227624128 0 0.0069002262559728026 0.0043498769577956916 0 0.0069596138163168439 0.0044062602754959164 0 0.0069002262559728026 0.0043498769577956916 0 0.0067825935087308196 0.0042908569002989231 0 0.0069596138163168439 0.0044062602754959164 0 0.0070375544019016991 0.0044340129186968809 0 0.0069002262559728026 0.0043498769577956916 0 0.0069770929738657761 0.0037289813088830438 0 0.0064250137579529385 0.005120050730476125 0 0.0067825935087308196 0.0042908569002989231 0 0.0069407418107264906 0.0056879194610792777 0 0.0067844149836458669 0.0042472110832222259 0 0.0070139972293637746 0.0052342248625694369 0 0.0070375544019016991 0.0044340129186968809 0 0.0069744210056235101 0.0044016009227624128 0 0.0069002262559728026 0.0043498769577956916 0 0.0070951466508375177 0.0035608622639987358 0 0.0069770929738657761 0.0037289813088830438 0 0.0065871498440756423 0.0037916034176068117 0 0.0070597191231436167 0.0041126709124870535 0 0.0069734128630768201 0.0035233798475930653 0 0.0069002262559728026 0.0043498769577956916 0 0.0067825935087308196 0.0042908569002989231 0 0.0069770929738657761 0.0037289813088830438 0 0.0067825935087308196 0.0042908569002989231 0 0.0069770929738657761 0.0037289813088830438 0 0.0065871498440756423 0.0037916034176068117 0 0.0053736066350284703 0.0043157538252237377 0 0.0062361995309756857 0.0040169161899488558 0 0.00529551594233779 0.0043633612891011767 0 0.0059239602940512068 0.0042202692423766158 0 0.0057883945748125384 0.0040152980611596568 0 0.00529551594233779 0.0043633612891011767 0 0.0060995939271890655 0.0046189601331120683 0 0.0065871498440756423 0.0037916034176068117 0 0.0060995939271890655 0.0046189601331120683 0 0.0067825935087308196 0.0042908569002989231 0 0.0065871498440756423 0.0037916034176068117 0 0.0059239602940512068 0.0042202692423766158 0 0.0057883945748125384 0.0040152980611596568 0 0.0060482652725849118 0.0040269232226142794 0 0.0057883945748125384 0.0040152980611596568 0 0.0060482652725849118 0.0040269232226142794 0 0.0059818619153763396 0.0039010443347584642 0 0.0057883945748125384 0.0040152980611596568 0 0.0055873371049778705 0.0036665998537278926 0 0.0055171762133485779 0.0039056850761091527 0 0.0060482652725849118 0.0040269232226142794 0 0.0061628243065429446 0.0039486566103198832 0 0.0059818619153763396 0.0039010443347584642 0 0.0066572807423692639 0.0037999990799090035 0 0.0062361995309756857 0.0040169161899488558 0 0.0062442217571890063 0.004039149061777097 0 0.0059239602940512068 0.0042202692423766158 0 0.0060482652725849118 0.0040269232226142794 0 0.0062442217571890063 0.004039149061777097 0 0.0060482652725849118 0.0040269232226142794 0 0.0061628243065429446 0.0039486566103198832 0 0.0061830154304736082 0.0038753994594631696 0 0.0059818619153763396 0.0039010443347584642 0 0.0060108485905513362 0.0038635283974565171 0 0.0061830154304736082 0.0038753994594631696 0 0.0061628243065429446 0.0039486566103198832 0 0.0059818619153763396 0.0039010443347584642 0 0.0059818619153763396 0.0039010443347584642 0 0.0059370751211868271 0.003922462318509283 0 0.0060108485905513362 0.0038635283974565171 0 0.0057883945748125384 0.0040152980611596568 0 0.0059818619153763396 0.0039010443347584642 0 0.0055873371049778705 0.0036665998537278926 0 0.0059336918289100947 0.0038768337129566556 0 0.0057946713513219693 0.0038460278982402583 0 0.0059370751211868271 0.003922462318509283 0 0.0058455882645501262 0.0039262150595760249 0 0.0059439058163089139 0.0038727521739619518 0 0.0055873371049778705 0.0036665998537278926 0 0.0053305126353490849 0.0037507586612762459 0 0.0052136660219606768 0.0035256762602615373 0 0.0057946713513219693 0.0038460278982402583 0 0.0036076267758058229 0.0074252912597231159 0 0.0055873371049778705 0.0036665998537278926 0 0.0053305126353490849 0.0037507586612762459 0 0.0055171762133485779 0.0039056850761091527 0 0.00529551594233779 0.0043633612891011767 0 0.0051579311428832523 0.0040254680160517267 0 0.0055171762133485779 0.0039056850761091527 0 0.00529551594233779 0.0043633612891011767 0 0.0057883945748125384 0.0040152980611596568 0 0.0055171762133485779 0.0039056850761091527 0 0.0053305126353490849 0.0037507586612762459 0 0.0055171762133485779 0.0039056850761091527 0 0.0050006770387357458 0.0039360169823107359 0 0.005889375670566529 0.0036911656453193823 0 0.0037411982339621633 0.0053388884806763867 0 0.0051579311428832523 0.0040254680160517267 0 0.0055171762133485779 0.0039056850761091527 0 0.0047604494629529467 0.0037527555465524894 0 0.0037411982339621633 0.0053388884806763867 0 0.0047103553097117097 0.0037516800742384468 0 0.0051579311428832523 0.0040254680160517267 0 0.0047604494629529467 0.0037527555465524894 0 0.0043594064573107116 0.0043957563016340448 0 0.0019419709808879634 0.0097252737960536982 0 0.0015864259557207409 0.010418881576251239 0 0.0022783387525213625 0.010244546281092745 0 0.0037411982339621633 0.0053388884806763867 0 0.0036076267758058229 0.0074252912597231159 0 0.0053305126353490849 0.0037507586612762459 0 0.0050006770387357458 0.0039360169823107359 0 0.0052136660219606768 0.0035256762602615373 0 0.0021517373060828461 0.010997989153228855 0 0.0022614519958892086 0.01136381548495089 0 0.0020038308110055256 0.011397961014966427 0 0.0021517373060828461 0.010997989153228855 0 0.0022614519958892086 0.01136381548495089 0 0.0025549559415819398 0.011142518416511498 0 0.0015864259557207409 0.010418881576251239 0 0.0023360615899554755 0.010805180800442406 0 0.0022783387525213625 0.010244546281092745 0 0.0036076267758058229 0.0074252912597231159 0 0.0023145305247714589 0.011185962041100525 0 0.0058455882645501262 0.0039262150595760249 0 0.0058941850377103614 0.0038403785615602087 0 0.0059439058163089139 0.0038727521739619518 0 0.0036076267758058229 0.0074252912597231159 0 0.0039106650139117752 0.0076626897125358362 0 0.0058941850377103614 0.0038403785615602087 0 0.0059439058163089139 0.0038727521739619518 0 0.0059773978584755664 0.0038173597107577246 0 0.0020038308110055256 0.011397961014966427 0 0.0019626210128183791 0.011765517700682944 0 0.0020453278085816309 0.011810925906906208 0 0.0039106650139117752 0.0076626897125358362 0 0.0050724431078964533 0.0077649473708623212 0 0.0058941850377103614 0.0038403785615602087 0 0.0059773978584755664 0.0038173597107577246 0 0.0059413941582169569 0.0037593071285360585 0 0.0020038308110055256 0.011397961014966427 0 0.0021290900042219441 0.011659273817247379 0 0.0020453278085816309 0.011810925906906208 0 0.0022614519958892086 0.01136381548495089 0 0.0020038308110055256 0.011397961014966427 0 0.0021290900042219441 0.011659273817247379 0 0.0021290900042219441 0.011659273817247379 0 0.0021874345094543544 0.011911885881405043 0 0.0024388276009478841 0.011616096791700382 0 0.0022614519958892086 0.01136381548495089 0 0.0025549559415819398 0.011142518416511498 0 0.0024388276009478841 0.011616096791700382 0 0.0022614519958892086 0.01136381548495089 0 0.0021290900042219441 0.011659273817247379 0 0.0024388276009478841 0.011616096791700382 0 0.0061830154304736082 0.0038753994594631696 0 0.0060108485905513362 0.0038635283974565171 0 0.0061027584808919432 0.0037623068923342425 0 0.0060108485905513362 0.0038635283974565171 0 0.0059773978584755664 0.0038173597107577246 0 0.0061027584808919432 0.0037623068923342425 0 0.0059370751211868271 0.003922462318509283 0 0.0060108485905513362 0.0038635283974565171 0 0.0059439058163089139 0.0038727521739619518 0 0.0060108485905513362 0.0038635283974565171 0 0.0059439058163089139 0.0038727521739619518 0 0.0059773978584755664 0.0038173597107577246 0 0.0079576456507190665 0.0048881350765368967 0 0.0081200116535140431 0.005359834112186092 0 0.0086329629630980554 0.0052639488795649001 0 0.0059773978584755664 0.0038173597107577246 0 0.0061027584808919432 0.0037623068923342425 0 0.0059413941582169569 0.0037593071285360585 0 0.0073618381832662736 0.003972695388920631 0 0.0050724431078964533 0.0077649473708623212 0 0.0073413743784560516 0.0053289643927322749 0 0.0079576456507190665 0.0048881350765368967 0 0.0081200116535140431 0.005359834112186092 0 0.0081200116535140431 0.005359834112186092 0 0.0083886727893010878 0.0057728151550881903 0 0.0079207479999465358 0.0058136369810700668 0 0.0073413743784560516 0.0053289643927322749 0 0.0081200116535140431 0.005359834112186092 0 0.0079207479999465358 0.0058136369810700668 0 0.0050724431078964533 0.0077649473708623212 0 0.0050712873298128297 0.0091853143682525933 0 0.0020676697376559015 0.011817668155163143 0 0.0021769563799536253 0.01188280465366133 0 0.002102235842883366 0.011866138206048354 0 0.0081200116535140431 0.005359834112186092 0 0.0086329629630980554 0.0052639488795649001 0 0.0083886727893010878 0.0057728151550881903 0 0.0070670942747208905 0.0079938462626556496 0 0.0050712873298128297 0.0091853143682525933 0 0.0022833717936829572 0.011802050819175215 0 0.002194132657326832 0.011846060222914099 0 0.0021769563799536253 0.01188280465366133 0 0.0021769563799536253 0.01188280465366133 0 0.002102235842883366 0.011866138206048354 0 0.0021468371389625953 0.011892188705362574 0 0.002194132657326832 0.011846060222914099 0 0.0021468371389625953 0.011892188705362574 0 0.0021670858517803021 0.011877060617358029 0 0.002194132657326832 0.011846060222914099 0 0.0021769563799536253 0.01188280465366133 0 0.0021468371389625953 0.011892188705362574 0 0.0070670942747208905 0.0079938462626556496 0 0.0077528448699569737 0.0055641774900640805 0 0.0081316794070135229 0.0062916341881970837 0 0.0083886727893010878 0.0057728151550881903 0 0.0079207479999465358 0.0058136369810700668 0 0.0081316794070135229 0.0062916341881970837 0 0.0074640509642429232 0.0059019963720659515 0 0.0079207479999465358 0.0058136369810700668 0 0.0021874345094543544 0.011911885881405043 0 0.0023214608428793362 0.012185215676433717 0 0.0024388276009478841 0.011616096791700382 0 0.0021874345094543544 0.011911885881405043 0 0.0021129224789262651 0.011868418107630847 0 0.0021545718885386078 0.011938639068975399 0 0.0021874345094543544 0.011911885881405043 0 0.0021545718885386078 0.011938639068975399 0 0.0022160205148327415 0.012035099623303198 0 0.0021874345094543544 0.011911885881405043 0 0.0022160205148327415 0.012035099623303198 0 0.0023214608428793362 0.012185215676433717 0 0.0021290900042219441 0.011659273817247379 0 0.0020453278085816309 0.011810925906906208 0 0.0021129224789262651 0.011868418107630847 0 0.0021290900042219441 0.011659273817247379 0 0.0021874345094543544 0.011911885881405043 0 0.0021129224789262651 0.011868418107630847 0 0.0020676697376559015 0.011817668155163143 0 0.0020453278085816309 0.011810925906906208 0 0.002102235842883366 0.011866138206048354 0 0.0020453278085816309 0.011810925906906208 0 0.002102235842883366 0.011866138206048354 0 0.0021129224789262651 0.011868418107630847 0 0.0050724431078964533 0.0077649473708623212 0 0.0041280977057507303 0.0083446433661169047 0 0.002102235842883366 0.011866138206048354 0 0.0021129224789262651 0.011868418107630847 0 0.0021330615011201917 0.011912850998755395 0 0.0021129224789262651 0.011868418107630847 0 0.0021545718885386078 0.011938639068975399 0 0.0021330615011201917 0.011912850998755395 0 0.0021520253344513656 0.011921159846388562 0 0.0021550589953922743 0.0119515981910207 0 0.0021606118116113491 0.011958984816015469 0 0.0021545718885386078 0.011938639068975399 0 0.0021330615011201917 0.011912850998755395 0 0.0021550589953922743 0.0119515981910207 0 0.0021330615011201917 0.011912850998755395 0 0.0021520253344513656 0.011921159846388562 0 0.0021550589953922743 0.0119515981910207 0 0.002102235842883366 0.011866138206048354 0 0.0021330615011201917 0.011912850998755395 0 0.0021468371389625953 0.011892188705362574 0 0.0021330615011201917 0.011912850998755395 0 0.0021520253344513656 0.011921159846388562 0 0.0021468371389625953 0.011892188705362574 0 0.0021520253344513656 0.011921159846388562 0 0.0021468371389625953 0.011892188705362574 0 0.0021670858517803021 0.011877060617358029 0 0.0021520253344513656 0.011921159846388562 0 0.0021670858517803021 0.011877060617358029 0 0.0021606118116113491 0.011958984816015469 0 0.0021606118116113491 0.011958984816015469 0 0.002148458201590109 0.011900351957951315 0 0.0022160205148327415 0.012035099623303198 0 0.0017408746341031193 0.012699304271224324 0 0.0023885246048169695 0.01209391223916702 0 0.002148458201590109 0.011900351957951315 0 0.0022160205148327415 0.012035099623303198 0 0.0023214608428793362 0.012185215676433717 0 0.0016695622225758246 0.013092871269151986 0 0.002139275370222024 0.013035741942995831 0 0.0023214608428793362 0.012185215676433717 0 0.0021550589953922743 0.0119515981910207 0 0.0021606118116113491 0.011958984816015469 0 0.0022160205148327415 0.012035099623303198 0 0.0021545718885386078 0.011938639068975399 0 0.0021550589953922743 0.0119515981910207 0 0.0022160205148327415 0.012035099623303198 0 0.0023460092357696846 0.013516172547244751 0 0.002139275370222024 0.013035741942995831 0 0.0028949224135985151 0.01242773398548642 0 0.002139275370222024 0.013035741942995831 0 0.0023214608428793362 0.012185215676433717 0 0.0028949224135985151 0.01242773398548642 0 0.0023214608428793362 0.012185215676433717 0 0.0028851387564475151 0.01178670074173024 0 0.0024388276009478841 0.011616096791700382 0 0.0023214608428793362 0.012185215676433717 0 0.0028851387564475151 0.01178670074173024 0 0.0028949224135985151 0.01242773398548642 0 0.0028851387564475151 0.01178670074173024 0 0.0028949224135985151 0.01242773398548642 0 0.0033918395727105546 0.011928546605806976 0 0.0028949224135985151 0.01242773398548642 0 0.0034837700506746738 0.01235966428416189 0 0.0033918395727105546 0.011928546605806976 0 0.0028949224135985151 0.01242773398548642 0 0.0033529848575474214 0.012959102093115942 0 0.0034837700506746738 0.01235966428416189 0 0.0023460092357696846 0.013516172547244751 0 0.0028949224135985151 0.01242773398548642 0 0.0033529848575474214 0.012959102093115942 0 0.0028686484742197161 0.013286775911343588 0 0.0028696499881911597 0.013644361036484708 0 0.0033529848575474214 0.012959102093115942 0 0.0036986794265426227 0.012498658768367683 0 0.0040798557501810634 0.012533927447486184 0 0.0023060821539557437 0.013800764067724451 0 0.0022307664092031981 0.013769369174637291 0 0.0023691968357796279 0.013700812291432662 0 0.0021223122346050909 0.014321194659923391 0 0.0028696499881911597 0.013644361036484708 0 0.0036986794265426227 0.012498658768367683 0 0.0040798557501810634 0.012533927447486184 0 0.003872684751175894 0.012161979619372152 0 0.0033529848575474214 0.012959102093115942 0 0.0036986794265426227 0.012498658768367683 0 0.0034837700506746738 0.01235966428416189 0 0.001782528806326557 0.014959297863524424 0 0.0017223121863004895 0.014870096805478976 0 0.0016880839938603024 0.01500790406202639 0 0.001782528806326557 0.014959297863524424 0 0.0017223121863004895 0.014870096805478976 0 0.0018069418716942615 0.014764380944302364 0 0.0016960235890727429 0.014716392168457363 0 0.0017223121863004895 0.014870096805478976 0 0.0018069418716942615 0.014764380944302364 0 0.001782528806326557 0.014959297863524424 0 0.0018069418716942615 0.014764380944302364 0 0.0018803149710741158 0.014961075467600188 0 0.0021304430496101828 0.014563461765781842 0 0.0019378384105320421 0.014774138455324248 0 0.0019980006675828789 0.015034636664482697 0 0.0019378384105320421 0.014774138455324248 0 0.0019980006675828789 0.015034636664482697 0 0.0018803149710741158 0.014961075467600188 0 0.0018069418716942615 0.014764380944302364 0 0.0019378384105320421 0.014774138455324248 0 0.0018803149710741158 0.014961075467600188 0 0.0027081539927320511 0.01383946569805487 0 0.0029836946232409574 0.013707751632962931 0 0.0030606555217408465 0.013243453151624516 0 0.0028696499881911597 0.013644361036484708 0 0.0025579971181121158 0.014060692389710538 0 0.0019980006675828789 0.015034636664482697 0 0.0018863238265161236 0.015095433717929613 0 0.0018803149710741158 0.014961075467600188 0 0.0018863238265161236 0.015095433717929613 0 0.0017694503799483494 0.015071996252986178 0 0.0016457303789232177 0.015228751245536581 0 0.001782528806326557 0.014959297863524424 0 0.0018803149710741158 0.014961075467600188 0 0.0017694503799483494 0.015071996252986178 0 0.0018863238265161236 0.015095433717929613 0 0.0018803149710741158 0.014961075467600188 0 0.0017694503799483494 0.015071996252986178 0 0.001782528806326557 0.014959297863524424 0 0.0017694503799483494 0.015071996252986178 0 0.0016880839938603024 0.01500790406202639 0 0.0032743311658266334 0.013037481808039318 0 0.0039132462471252322 0.012058113596092743 0 0.0027295184084829265 0.013889382114626266 0 0.0027103297477147868 0.014004668337148477 0 0.0024674587312356667 0.01402277042882623 0 0.0025579971181121158 0.014060692389710538 0 0.0032743311658266334 0.013037481808039318 0 0.0028696499881911597 0.013644361036484708 0 0.0032743311658266334 0.013037481808039318 0 0.0040798557501810634 0.012533927447486184 0 0.0043020282936469985 0.012155938105946493 0 0.003872684751175894 0.012161979619372152 0 0.0043020282936469985 0.012155938105946493 0 0.003872684751175894 0.012161979619372152 0 0.003906564565233612 0.01165120106286192 0 0.0032743311658266334 0.013037481808039318 0 0.0029365109451213677 0.013600897774343899 0 0.0036986794265426227 0.012498658768367683 0 0.0034837700506746738 0.01235966428416189 0 0.003872684751175894 0.012161979619372152 0 0.0034837700506746738 0.01235966428416189 0 0.003872684751175894 0.012161979619372152 0 0.0033918395727105546 0.011928546605806976 0 0.003872684751175894 0.012161979619372152 0 0.0033918395727105546 0.011928546605806976 0 0.003906564565233612 0.01165120106286192 0 0.0033918395727105546 0.011928546605806976 0 0.003906564565233612 0.01165120106286192 0 0.003119634977456081 0.011232526438357964 0 0.003906564565233612 0.01165120106286192 0 0.0038588408946138696 0.011053788871801765 0 0.003119634977456081 0.011232526438357964 0 0.0033361305042948156 0.012913957565527098 0 0.0033317926623820577 0.012924340742148615 0 0.0033255944254839127 0.012923728295188532 0 0.0043020282936469985 0.012155938105946493 0 0.003906564565233612 0.01165120106286192 0 0.0044261718766699766 0.011462448055574552 0 0.003906564565233612 0.01165120106286192 0 0.0044261718766699766 0.011462448055574552 0 0.0038588408946138696 0.011053788871801765 0 0.0044261718766699766 0.011462448055574552 0 0.0045576402596691689 0.010749599300196875 0 0.0038588408946138696 0.011053788871801765 0 0.0037655734206840695 0.012021612087524397 0 0.0039284853529998453 0.010168866896255417 0 0.0039132462471252322 0.012058113596092743 0 0.0037655734206840695 0.012021612087524397 0 0.0033317926623820577 0.012924340742148615 0 0.0033289482790856751 0.012941255964579922 0 0.0033243697450814728 0.012932882120617797 0 0.0045576402596691689 0.010749599300196875 0 0.0038588408946138696 0.011053788871801765 0 0.0037170167785160945 0.010349201583041298 0 0.003438177529799137 0.010764530307332182 0 0.0038588408946138696 0.011053788871801765 0 0.0037170167785160945 0.010349201583041298 0 0.003438177529799137 0.010764530307332182 0 0.0038588408946138696 0.011053788871801765 0 0.003119634977456081 0.011232526438357964 0 0.003438177529799137 0.010764530307332182 0 0.003119634977456081 0.011232526438357964 0 0.0030465284047935469 0.010429419939456258 0 0.0023360615899554755 0.010805180800442406 0 0.003119634977456081 0.011232526438357964 0 0.0030465284047935469 0.010429419939456258 0 0.0023145305247714589 0.011185962041100525 0 0.0031096881048895907 0.011200212229426467 0 0.0025549559415819398 0.011142518416511498 0 0.0024388276009478841 0.011616096791700382 0 0.003119634977456081 0.011232526438357964 0 0.0028851387564475151 0.01178670074173024 0 0.0024388276009478841 0.011616096791700382 0 0.003119634977456081 0.011232526438357964 0 0.0028851387564475151 0.01178670074173024 0 0.0033918395727105546 0.011928546605806976 0 0.003119634977456081 0.011232526438357964 0 0.0012098865515822951 0.015621905197974018 0 0.00121162785911361 0.015692355393361106 0 0.0012431210680946653 0.015800415220439609 0 0.0012098865515822951 0.015621905197974018 0 0.0012334920780476709 0.015715548162204676 0 0.0012431210680946653 0.015800415220439609 0 0.0012098865515822951 0.015621905197974018 0 0.0012629365410247021 0.01562962823157189 0 0.0012334920780476709 0.015715548162204676 0 0.0010931021121824208 0.015502221947710296 0 0.0011209449910617841 0.015388847736248479 0 0.00121162785911361 0.015692355393361106 0 0.0012098865515822951 0.015621905197974018 0 0.001176324824974046 0.015492073666669617 0 0.00121162785911361 0.015692355393361106 0 0.0011209449910617841 0.015388847736248479 0 0.001176324824974046 0.015492073666669617 0 0.00121162785911361 0.015692355393361106 0 0.0011209449910617841 0.015388847736248479 0 0.001176324824974046 0.015492073666669617 0 0.0011747806921399602 0.015294804708330502 0 0.0012098865515822951 0.015621905197974018 0 0.001176324824974046 0.015492073666669617 0 0.0012184810215863609 0.015423019877600367 0 0.001176324824974046 0.015492073666669617 0 0.0012184810215863609 0.015423019877600367 0 0.0011747806921399602 0.015294804708330502 0 0.0012184810215863609 0.015423019877600367 0 0.0011747806921399602 0.015294804708330502 0 0.0012875487008805378 0.015286178264193921 0 0.0011747806921399602 0.015294804708330502 0 0.0012535804228979831 0.015147806800556858 0 0.0012875487008805378 0.015286178264193921 0 0.0012184810215863609 0.015423019877600367 0 0.0012875487008805378 0.015286178264193921 0 0.0012758020649160358 0.015428963038710315 0 0.0012875487008805378 0.015286178264193921 0 0.0012758020649160358 0.015428963038710315 0 0.0013475900775245459 0.015357254890496615 0 0.0012758020649160358 0.015428963038710315 0 0.0012452582105640176 0.015546050656562034 0 0.001302200926972336 0.015519627794874471 0 0.0012758020649160358 0.015428963038710315 0 0.001302200926972336 0.015519627794874471 0 0.0013475900775245459 0.015357254890496615 0 0.0012184810215863609 0.015423019877600367 0 0.0012758020649160358 0.015428963038710315 0 0.0012452582105640176 0.015546050656562034 0 0.0012098865515822951 0.015621905197974018 0 0.0012184810215863609 0.015423019877600367 0 0.0012452582105640176 0.015546050656562034 0 0.0012452582105640176 0.015546050656562034 0 0.0012629365410247021 0.01562962823157189 0 0.001302200926972336 0.015519627794874471 0 0.0012098865515822951 0.015621905197974018 0 0.0012452582105640176 0.015546050656562034 0 0.0012629365410247021 0.01562962823157189 0 0.001302200926972336 0.015519627794874471 0 0.0013689362957461219 0.015511879992941346 0 0.001311154360492846 0.015621950627558823 0 0.0012629365410247021 0.01562962823157189 0 0.001302200926972336 0.015519627794874471 0 0.001311154360492846 0.015621950627558823 0 0.0013689362957461219 0.015511879992941346 0 0.0015296291371537289 0.015405559903911663 0 0.001311154360492846 0.015621950627558823 0 0.0015565848887851323 0.01525060886239522 0 0.0012826811669599939 0.015653630838146911 0 0.0013689362957461219 0.015511879992941346 0 0.0014513039155908309 0.015429320907428967 0 0.0013684349219250716 0.015446172955438153 0 0.001302200926972336 0.015519627794874471 0 0.0013689362957461219 0.015511879992941346 0 0.0013684349219250716 0.015446172955438153 0 0.0013689362957461219 0.015511879992941346 0 0.0014513039155908309 0.015429320907428967 0 0.0015296291371537289 0.015405559903911663 0 0.0014109241560511005 0.015364175561867734 0 0.0013475900775245459 0.015357254890496615 0 0.0014315767732314951 0.015247083774477829 0 0.0014513039155908309 0.015429320907428967 0 0.0014109241560511005 0.015364175561867734 0 0.0013684349219250716 0.015446172955438153 0 0.0014513039155908309 0.015429320907428967 0 0.0014924241154631185 0.015376208724744343 0 0.0015296291371537289 0.015405559903911663 0 0.0014513039155908309 0.015429320907428967 0 0.0014731382820565317 0.015327675361702315 0 0.0014924241154631185 0.015376208724744343 0 0.0014513039155908309 0.015429320907428967 0 0.0014731382820565317 0.015327675361702315 0 0.0014109241560511005 0.015364175561867734 0 0.0014731382820565317 0.015327675361702315 0 0.0014109241560511005 0.015364175561867734 0 0.0014315767732314951 0.015247083774477829 0 0.001302200926972336 0.015519627794874471 0 0.0013684349219250716 0.015446172955438153 0 0.0013475900775245459 0.015357254890496615 0 0.0014109241560511005 0.015364175561867734 0 0.0013684349219250716 0.015446172955438153 0 0.0013475900775245459 0.015357254890496615 0 0.0013475900775245459 0.015357254890496615 0 0.0013835159016784069 0.015188323049148075 0 0.0014315767732314951 0.015247083774477829 0 0.0012875487008805378 0.015286178264193921 0 0.0013475900775245459 0.015357254890496615 0 0.0013835159016784069 0.015188323049148075 0 0.0012535804228979831 0.015147806800556858 0 0.0012875487008805378 0.015286178264193921 0 0.0013396671025416938 0.015066507616803332 0 0.0012875487008805378 0.015286178264193921 0 0.0013835159016784069 0.015188323049148075 0 0.0013396671025416938 0.015066507616803332 0 0.0013835159016784069 0.015188323049148075 0 0.0013396671025416938 0.015066507616803332 0 0.0014475410720321605 0.015022345542169297 0 0.0013835159016784069 0.015188323049148075 0 0.0014475410720321605 0.015022345542169297 0 0.0014712079961600611 0.015132570267163876 0 0.0014475410720321605 0.015022345542169297 0 0.0014712079961600611 0.015132570267163876 0 0.0015140471178236674 0.015037586871944095 0 0.0013835159016784069 0.015188323049148075 0 0.0014712079961600611 0.015132570267163876 0 0.0014315767732314951 0.015247083774477829 0 0.0014712079961600611 0.015132570267163876 0 0.0014315767732314951 0.015247083774477829 0 0.0014907613284310302 0.015227246195634453 0 0.0014731382820565317 0.015327675361702315 0 0.0014315767732314951 0.015247083774477829 0 0.0014907613284310302 0.015227246195634453 0 0.0014907613284310302 0.015227246195634453 0 0.0015376050524929586 0.015126888800213019 0 0.0015481669934121979 0.015247054474183598 0 0.0015376050524929586 0.015126888800213019 0 0.0016160593751735255 0.015127145857085755 0 0.0015481669934121979 0.015247054474183598 0 0.0015376050524929586 0.015126888800213019 0 0.0015894184566406253 0.015008517172511719 0 0.0016160593751735255 0.015127145857085755 0 0.0014712079961600611 0.015132570267163876 0 0.0015376050524929586 0.015126888800213019 0 0.0015140471178236674 0.015037586871944095 0 0.0014712079961600611 0.015132570267163876 0 0.0014907613284310302 0.015227246195634453 0 0.0015376050524929586 0.015126888800213019 0 0.0015376050524929586 0.015126888800213019 0 0.0015140471178236674 0.015037586871944095 0 0.0015894184566406253 0.015008517172511719 0 0.001531483300029295 0.014893491385609527 0 0.0015140471178236674 0.015037586871944095 0 0.0015894184566406253 0.015008517172511719 0 0.001531483300029295 0.014893491385609527 0 0.0014475410720321605 0.015022345542169297 0 0.0015140471178236674 0.015037586871944095 0 0.0016960235890727429 0.014716392168457363 0 0.0017223121863004895 0.014870096805478976 0 0.0016430846650871537 0.014866787623171437 0 0.001531483300029295 0.014893491385609527 0 0.0015894184566406253 0.015008517172511719 0 0.0016430846650871537 0.014866787623171437 0 0.0015894184566406253 0.015008517172511719 0 0.0016430846650871537 0.014866787623171437 0 0.0016880839938603024 0.01500790406202639 0 0.0017223121863004895 0.014870096805478976 0 0.0016430846650871537 0.014866787623171437 0 0.0016880839938603024 0.01500790406202639 0 0.0016880839938603024 0.01500790406202639 0 0.0016160593751735255 0.015127145857085755 0 0.0016827575230524796 0.015117637028558019 0 0.0017694503799483494 0.015071996252986178 0 0.0016880839938603024 0.01500790406202639 0 0.0016827575230524796 0.015117637028558019 0 0.0015894184566406253 0.015008517172511719 0 0.0016880839938603024 0.01500790406202639 0 0.0016160593751735255 0.015127145857085755 0 0.0016160593751735255 0.015127145857085755 0 0.0016827575230524796 0.015117637028558019 0 0.0016457303789232177 0.015228751245536581 0 0.0016160593751735255 0.015127145857085755 0 0.0016457303789232177 0.015228751245536581 0 0.0015481669934121979 0.015247054474183598 0 0.0017694503799483494 0.015071996252986178 0 0.0016827575230524796 0.015117637028558019 0 0.0016457303789232177 0.015228751245536581 0 0.0027103297477147868 0.014004668337148477 0 0.0024674587312356667 0.01402277042882623 0 0.0025736374550644225 0.014231714105586331 0 0.0025579971181121158 0.014060692389710538 0 0.0019074683289549755 0.014902356121183458 0 0.0018863238265161236 0.015095433717929613 0 0.0016457303789232177 0.015228751245536581 0 0.0015839638732376544 0.015357687151244271 0 0.0016457303789232177 0.015228751245536581 0 0.0015593467552717261 0.015306541935318959 0 0.0015481669934121979 0.015247054474183598 0 0.0015593467552717261 0.015306541935318959 0 0.0015481669934121979 0.015247054474183598 0 0.0015179832222160627 0.015341723224190695 0 0.0014731382820565317 0.015327675361702315 0 0.0015481669934121979 0.015247054474183598 0 0.0015179832222160627 0.015341723224190695 0 0.0014731382820565317 0.015327675361702315 0 0.0014907613284310302 0.015227246195634453 0 0.0015481669934121979 0.015247054474183598 0 0.0015593467552717261 0.015306541935318959 0 0.0015179832222160627 0.015341723224190695 0 0.0015296291371537289 0.015405559903911663 0 0.0014731382820565317 0.015327675361702315 0 0.0015179832222160627 0.015341723224190695 0 0.0014924241154631185 0.015376208724744343 0 0.0015179832222160627 0.015341723224190695 0 0.0014924241154631185 0.015376208724744343 0 0.0015296291371537289 0.015405559903911663 0 0.0016457303789232177 0.015228751245536581 0 0.0015839638732376544 0.015357687151244271 0 0.0015296291371537289 0.015405559903911663 0 0.0016457303789232177 0.015228751245536581 0 0.0015593467552717261 0.015306541935318959 0 0.0015296291371537289 0.015405559903911663 0 0.0019074683289549755 0.014902356121183458 0 0.0015565848887851323 0.01525060886239522 0 0.0015354190112385269 0.015485687120205371 0 0.0015035742252467925 0.015501452019072883 0 0.001441156317301319 0.015617311636329846 0 0.0015354190112385269 0.015485687120205371 0 0.0014874024147934013 0.01575173143764385 0 0.001441156317301319 0.015617311636329846 0 0.0024674587312356667 0.01402277042882623 0 0.0025736374550644225 0.014231714105586331 0 0.002396783371158488 0.014439769731911866 0 0.0019074683289549755 0.014902356121183458 0 0.0021251849453381507 0.014823732159403961 0 0.0025736374550644225 0.014231714105586331 0 0.002396783371158488 0.014439769731911866 0 0.0024392992939926872 0.014457423734363178 0 0.0029365109451213677 0.013600897774343899 0 0.0026745018855210156 0.013972938957923668 0 0.0033255944254839127 0.012923728295188532 0 0.0033243697450814728 0.012932882120617797 0 0.003312328367020828 0.012941399059772029 0 0.0033317926623820577 0.012924340742148615 0 0.0033255944254839127 0.012923728295188532 0 0.0033243697450814728 0.012932882120617797 0 0.0033289482790856751 0.012941255964579922 0 0.0033243697450814728 0.012932882120617797 0 0.003312328367020828 0.012941399059772029 0 0.0037655734206840695 0.012021612087524397 0 0.0026745018855210156 0.013972938957923668 0 0.0026248855478079405 0.013006866855968904 0 0.0031193054582692951 0.013032481802128513 0 0.0031929517030687437 0.013263186069190623 0 0.0026248855478079405 0.013006866855968904 0 0.0029464806064012691 0.012862351973610669 0 0.0031193054582692951 0.013032481802128513 0 0.0029464806064012691 0.012862351973610669 0 0.0031193054582692951 0.013032481802128513 0 0.0033535449185128387 0.012993153074573846 0 0.0028722915580979545 0.01362480914798081 0 0.0025352784005239076 0.014459175954302019 0 0.0029464806064012691 0.012862351973610669 0 0.0033595827181682161 0.012990843953286469 0 0.0034057267688313241 0.012913367431262241 0 0.0025352784005239076 0.014459175954302019 0 0.002805599348391574 0.014204508280829226 0 0.0031193054582692951 0.013032481802128513 0 0.0033535449185128387 0.012993153074573846 0 0.0031929517030687437 0.013263186069190623 0 0.0025352784005239076 0.014459175954302019 0 0.0026745018855210156 0.013972938957923668 0 0.0022865236893839518 0.014339819549233189 0 0.0022782796447384595 0.014436124837053529 0 0.0022397650548129111 0.014418737366714601 0 0.0025352784005239076 0.014459175954302019 0 0.0021251849453381507 0.014823732159403961 0 0.0021251849453381507 0.014823732159403961 0 0.0026745018855210156 0.013972938957923668 0 0.001546447684770166 0.015773020377091617 0 0.0013653782949200313 0.015722793287813515 0 0.0013843058523759827 0.015803299567851831 0 0.0015430393850152924 0.015835385243369419 0 0.001546447684770166 0.015773020377091617 0 0.0013843058523759827 0.015803299567851831 0 0.0025352784005239076 0.014459175954302019 0 0.0018037012744209235 0.015671019936525948 0 0.0024948136390830376 0.015589208699548102 0 0.0024121116690017028 0.015623758009102406 0 0.0023568950530952191 0.015558591796778574 0 0.0024948136390830376 0.015589208699548102 0 0.0024871233952523083 0.015603072812604401 0 0.0024121116690017028 0.015623758009102406 0 0.0024121116690017028 0.015623758009102406 0 0.0023568950530952191 0.015558591796778574 0 0.0023190358002812259 0.015630783525465864 0 0.0021251849453381507 0.014823732159403961 0 0.001278716078106507 0.015749736227978098 0 0.0015035742252467925 0.015501452019072883 0 0.001441156317301319 0.015617311636329846 0 0.001311154360492846 0.015621950627558823 0 0.0014874024147934013 0.01575173143764385 0 0.0013701510911820504 0.015642683030394823 0 0.0013114845483642406 0.015673094003420908 0 0.0014874024147934013 0.01575173143764385 0 0.001441156317301319 0.015617311636329846 0 0.0013701510911820504 0.015642683030394823 0 0.0013701510911820504 0.015642683030394823 0 0.001311154360492846 0.015621950627558823 0 0.0013114845483642406 0.015673094003420908 0 0.001441156317301319 0.015617311636329846 0 0.0013701510911820504 0.015642683030394823 0 0.001311154360492846 0.015621950627558823 0 0.001278716078106507 0.015749736227978098 0 0.0012592907225904217 0.015701536325840624 0 0.0013653782949200313 0.015722793287813515 0 0.0012624158119816764 0.015771093907593247 0 0.0012437276102553224 0.015750030459846923 0 0.0012629365410247021 0.01562962823157189 0 0.0013114845483642406 0.015673094003420908 0 0.0012334920780476709 0.015715548162204676 0 0.0013653782949200313 0.015722793287813515 0 0.0012437276102553224 0.015750030459846923 0 0.0012334920780476709 0.015715548162204676 0 0.0012629365410247021 0.01562962823157189 0 0.001311154360492846 0.015621950627558823 0 0.0013114845483642406 0.015673094003420908 0 0.0018037012744209235 0.015671019936525948 0 0.0019015919826077393 0.016088835344309705 0 0.0023568950530952191 0.015558591796778574 0 0.0023190358002812259 0.015630783525465864 0 0.0022290706374759645 0.015528239025537403 0 0.0024157822210381505 0.017301774405993609 0 0.002352586086739578 0.017187454546472282 0 0.0023032226782398273 0.017283602366748876 0 0.0013653782949200313 0.015722793287813515 0 0.0013843058523759827 0.015803299567851831 0 0.0012624158119816764 0.015771093907593247 0 0.0024576505928811552 0.016583720234441414 0 0.0019015919826077393 0.016088835344309705 0 0.002352586086739578 0.017187454546472282 0 0.0022466050371065184 0.017203797066537074 0 0.0021788184024161229 0.017020300527874357 0 0.002352586086739578 0.017187454546472282 0 0.0023032226782398273 0.017283602366748876 0 0.0022466050371065184 0.017203797066537074 0 0.0023032226782398273 0.017283602366748876 0 0.0022402125461364257 0.01736634865845035 0 0.0022143537813675298 0.017300181797256883 0 0.0023032226782398273 0.017283602366748876 0 0.0022466050371065184 0.017203797066537074 0 0.0022143537813675298 0.017300181797256883 0 0.0019015919826077393 0.016088835344309705 0 0.0016889771427134658 0.016485677564968479 0 0.0012390642636331401 0.01573072703196168 0 0.0012437276102553224 0.015750030459846923 0 0.0012930907013864086 0.01584029334387406 0 0.0019015919826077393 0.016088835344309705 0 0.0016659182329519363 0.015870129268077595 0 0.0012437276102553224 0.015750030459846923 0 0.0012334920780476709 0.015715548162204676 0 0.0012431210680946653 0.015800415220439609 0 0.002271325130083394 0.017483006805218932 0 0.0022830019059372122 0.017499516974562937 0 0.0021442125537726158 0.01754456715168836 0 0.0022830019059372122 0.017499516974562937 0 0.0023252196028089259 0.017511139994352616 0 0.0021442125537726158 0.01754456715168836 0 0.002271325130083394 0.017483006805218932 0 0.0022830019059372122 0.017499516974562937 0 0.0023373532719126022 0.017472626444803897 0 0.002271325130083394 0.017483006805218932 0 0.0022671998332411633 0.017425698904134583 0 0.0023551192779823768 0.017419749192916129 0 0.002271325130083394 0.017483006805218932 0 0.0023551192779823768 0.017419749192916129 0 0.0023373532719126022 0.017472626444803897 0 0.002271325130083394 0.017483006805218932 0 0.0022671998332411633 0.017425698904134583 0 0.0022024269232449674 0.017480174379037889 0 0.0022671998332411633 0.017425698904134583 0 0.0021792272406536647 0.017443136098447474 0 0.0022024269232449674 0.017480174379037889 0 0.0022671998332411633 0.017425698904134583 0 0.0022402125461364257 0.01736634865845035 0 0.0023265963784579991 0.01736392410996691 0 0.0022671998332411633 0.017425698904134583 0 0.0022402125461364257 0.01736634865845035 0 0.0021792272406536647 0.017443136098447474 0 0.0023032226782398273 0.017283602366748876 0 0.0022402125461364257 0.01736634865845035 0 0.0023265963784579991 0.01736392410996691 0 0.0022671998332411633 0.017425698904134583 0 0.0023265963784579991 0.01736392410996691 0 0.0023551192779823768 0.017419749192916129 0 0.0024157822210381505 0.017301774405993609 0 0.0023032226782398273 0.017283602366748876 0 0.0023265963784579991 0.01736392410996691 0 0.0024157822210381505 0.017301774405993609 0 0.0023551192779823768 0.017419749192916129 0 0.0024868353702373175 0.017412565440016244 0 0.0023680134356812866 0.01738281464724999 0 0.0024717030794304674 0.016205505122733409 0 0.0024157822210381505 0.017301774405993609 0 0.0023265963784579991 0.01736392410996691 0 0.0023551192779823768 0.017419749192916129 0 0.0023551192779823768 0.017419749192916129 0 0.0023742604475464626 0.017434434739112034 0 0.0023850295094943151 0.01741300924640949 0 0.0023551192779823768 0.017419749192916129 0 0.0023373532719126022 0.017472626444803897 0 0.0023742604475464626 0.017434434739112034 0 0.0023373532719126022 0.017472626444803897 0 0.0023742604475464626 0.017434434739112034 0 0.002363459611472836 0.017479429796854639 0 0.0027696591341971701 0.014135885999461166 0 0.0024507556748069818 0.014726834159700386 0 0.0024241472872929271 0.017396879307458674 0 0.0024002772160303431 0.017405351096889392 0 0.0023948986463137104 0.01746640156247491 0 0.0023742604475464626 0.017434434739112034 0 0.0024002772160303431 0.017405351096889392 0 0.0023948986463137104 0.01746640156247491 0 0.0027696591341971701 0.014135885999461166 0 0.0031248769885800407 0.013424996744102113 0 0.002540021931258258 0.014265656056138238 0 0.0028094126488164332 0.014600637151688151 0 0.0024822618903928167 0.01458686240364886 0 0.0024241472872929271 0.017396879307458674 0 0.0024002772160303431 0.017405351096889392 0 0.002407696320129514 0.017371416506589809 0 0.0027696591341971701 0.014135885999461166 0 0.002764295675630888 0.015388954473929881 0 0.002143720546882721 0.017429875995773409 0 0.0024717030794304674 0.016205505122733409 0 0.0023742604475464626 0.017434434739112034 0 0.0024002772160303431 0.017405351096889392 0 0.0023932471738951876 0.01737147222830291 0 0.0024002772160303431 0.017405351096889392 0 0.002407696320129514 0.017371416506589809 0 0.0023932471738951876 0.01737147222830291 0 0.002805599348391574 0.014204508280829226 0 0.0031248769885800407 0.013424996744102113 0 0.0024157822210381505 0.017301774405993609 0 0.0024868353702373175 0.017412565440016244 0 0.0024942166269531201 0.017399501292343796 0 0.002805599348391574 0.014204508280829226 0 0.0026731655800800607 0.015851844725076263 0 0.0024871233952523083 0.015603072812604401 0 0.0024121116690017028 0.015623758009102406 0 0.0024097634506575196 0.015738874473716996 0 0.0030815642701438359 0.014330140960002003 0 0.0028829953837937808 0.01466462868564317 0 0.0030137076421947878 0.014702253771384247 0 0.0027448524720660337 0.015628080074361856 0 0.0030171032277284677 0.015638530928713978 0 0.0029049763830570996 0.015826946661452658 0 0.002764295675630888 0.015388954473929881 0 0.0024717030794304674 0.016205505122733409 0 0.002764295675630888 0.015388954473929881 0 0.0026731655800800607 0.015851844725076263 0 0.0024717030794304674 0.016205505122733409 0 0.0026731655800800607 0.015851844725076263 0 0.0024576505928811552 0.016583720234441414 0 0.0026731655800800607 0.015851844725076263 0 0.0024121116690017028 0.015623758009102406 0 0.0023190358002812259 0.015630783525465864 0 0.0024097634506575196 0.015738874473716996 0 0.0029125128917119152 0.01470057878116709 0 0.0028829953837937808 0.01466462868564317 0 0.0030137076421947878 0.014702253771384247 0 0.002764295675630888 0.015388954473929881 0 0.0031248769885800407 0.013424996744102113 0 0.0029464806064012691 0.012862351973610669 0 0.0031893581325242266 0.012451867139947202 0 0.0027877227006228404 0.012011263121163853 0 0.0034057267688313241 0.012913367431262241 0 0.0035624613024955944 0.012052814783693657 0 0.0031893581325242266 0.012451867139947202 0 0.0026248855478079405 0.013006866855968904 0 0.0029464806064012691 0.012862351973610669 0 0.0027877227006228404 0.012011263121163853 0 0.0035624613024955944 0.012052814783693657 0 0.0031893581325242266 0.012451867139947202 0 0.0027877227006228404 0.012011263121163853 0 0.0037655734206840695 0.012021612087524397 0 0.003115454597659593 0.0092294552624511486 0 0.0029464806064012691 0.012862351973610669 0 0.0034057267688313241 0.012913367431262241 0 0.0031893581325242266 0.012451867139947202 0 0.0031248769885800407 0.013424996744102113 0 0.003115454597659593 0.0092294552624511486 0 0.0038296992460782582 0.010776634023752897 0 0.0018403568106358399 0.011248482887840748 0 0.0022433346987459635 0.008792011993481905 0 0.0038296992460782582 0.010776634023752897 0 0.0037290886130457094 0.011331841520777311 0 0.0018403568106358399 0.011248482887840748 0 0.0027696591341971701 0.014135885999461166 0 0.0019283487380140503 0.0074014616016876726 0 0.003115454597659593 0.0092294552624511486 0 0.0019283487380140503 0.0074014616016876726 0 0.0019283487380140503 0.0074014616016876726 0 0.0013794866799548642 0.0045675468437751145 0 0.0019687673576141863 0.0051040620780445868 0 0.0013163865045282624 0.0058238911797626062 0 0.0017375798757385151 0.0057296902930045546 0 0.0019283487380140503 0.0074014616016876726 0 0.001497508599210489 0.009064772316424002 0 0.0016420479120330582 0.011917639489299605 0 0.0026754677197901892 0.011050784548468931 0 0.0018792108483426141 0.010483258710119342 0 0.0015555518341694417 0.0046092177548987647 0 0.0019687673576141863 0.0051040620780445868 0 0.0013163865045282624 0.0058238911797626062 0 0.0025228009238568464 0.015136177129067481 0 0.001497508599210489 0.009064772316424002 0 0.0025228009238568464 0.015136177129067481 0 0.0026067578294006952 0.01646259633908987 0 0.0025228009238568464 0.015136177129067481 0 0.0024507556748069818 0.014726834159700386 0 0.0016420479120330582 0.011917639489299605 0 0.0026754677197901892 0.011050784548468931 0 0.0025178542991140898 0.011933363653926506 0 0.0023617621391807501 0.012830318322273521 0 0.0016420479120330582 0.011917639489299605 0 0.0025178542991140898 0.011933363653926506 0 0.002384359596196511 0.01748396223521102 0 0.0023948986463137104 0.01746640156247491 0 0.002363459611472836 0.017479429796854639 0 0.0023742604475464626 0.017434434739112034 0 0.0023948986463137104 0.01746640156247491 0 0.002363459611472836 0.017479429796854639 0 0.002384359596196511 0.01748396223521102 0 0.002363459611472836 0.017479429796854639 0 0.0023252196028089259 0.017511139994352616 0 0.0023373532719126022 0.017472626444803897 0 0.002363459611472836 0.017479429796854639 0 0.0023252196028089259 0.017511139994352616 0 0.0029706382853724221 0.019440313114004706 0 0.002979414392088593 0.019641370027370087 0 0.0033381593669562855 0.019757168533062044 0 0.0018687331755002179 0.01807117754378466 0 0.0021954202731835695 0.018188633770958213 0 0.0021750516604231319 0.018314083317074424 0 0.0018687331755002179 0.01807117754378466 0 0.0021954202731835695 0.018188633770958213 0 0.0019068169518940514 0.017870081860268647 0 0.0026897582511232346 0.019228930508738265 0 0.0026067578294006952 0.01646259633908987 0 0.0025228009238568464 0.015136177129067481 0 0.0022840911870020551 0.018320207399350277 0 0.0029706382853724221 0.019440313114004706 0 0.002979414392088593 0.019641370027370087 0 0.0028137409115121092 0.019499444536684188 0 0.002979414392088593 0.019641370027370087 0 0.0028137409115121092 0.019499444536684188 0 0.0027846501404971942 0.01968232642593477 0 0.0029706382853724221 0.019440313114004706 0 0.0028137409115121092 0.019499444536684188 0 0.0027368536787262987 0.019328779320056874 0 0.0021954202731835695 0.018188633770958213 0 0.0021750516604231319 0.018314083317074424 0 0.0023260697592621411 0.018435556244487606 0 0.0022840911870020551 0.018320207399350277 0 0.002200368538565979 0.017935268665934062 0 0.0026897582511232346 0.019228930508738265 0 0.002412761555404356 0.018651110857695146 0 0.0029706382853724221 0.019440313114004706 0 0.0026074795908753207 0.019061211167809334 0 0.0027368536787262987 0.019328779320056874 0 0.0022830019059372122 0.017499516974562937 0 0.0023373532719126022 0.017472626444803897 0 0.0023252196028089259 0.017511139994352616 0 0.0037379602574482045 0.0037208191550848623 0 0.0029793451028591626 0.0042779883931957901 0 0.0036114271709682161 0.0044245029392657948 0 0.0032054288002244602 0.0068986608128651615 0 0.0032673738335804265 0.0065611380850900264 0 0.0037379602574482045 0.0037208191550848623 0 0.0036114271709682161 0.0044245029392657948 0 0.0043594064573107116 0.0043957563016340448 0 0.0037411982339621633 0.0053388884806763867 0 0.0032054288002244602 0.0068986608128651615 0 0.0046766981765393647 0.0037527635138407222 0 0.0037379602574482045 0.0037208191550848623 0 0.0043594064573107116 0.0043957563016340448 0 0.0023360615899554755 0.010805180800442406 0 0.0022783387525213625 0.010244546281092745 0 0.0030465284047935469 0.010429419939456258 0 0.0019419709808879634 0.0097252737960536982 0 0.0028459128075377683 0.0097862000290844103 0 0.0022783387525213625 0.010244546281092745 0 0.0028459128075377683 0.0097862000290844103 0 0.0022783387525213625 0.010244546281092745 0 0.0030465284047935469 0.010429419939456258 0 0.0028459128075377683 0.0097862000290844103 0 0.0030465284047935469 0.010429419939456258 0 0.003758014890066246 0.0098476104376472376 0 0.0030465284047935469 0.010429419939456258 0 0.0037170167785160945 0.010349201583041298 0 0.003758014890066246 0.0098476104376472376 0 0.003438177529799137 0.010764530307332182 0 0.0030465284047935469 0.010429419939456258 0 0.0037170167785160945 0.010349201583041298 0 0.0037170167785160945 0.010349201583041298 0 0.0041584559667112572 0.010169446853953148 0 0.003758014890066246 0.0098476104376472376 0 0.0046044144951654506 0.0099005303520346283 0 0.0041584559667112572 0.010169446853953148 0 0.003758014890066246 0.0098476104376472376 0 0.0044776944363937744 0.01067397096540551 0 0.0046044144951654506 0.0099005303520346283 0 0.0041584559667112572 0.010169446853953148 0 0.0044776944363937744 0.01067397096540551 0 0.0037170167785160945 0.010349201583041298 0 0.0041584559667112572 0.010169446853953148 0 0.003115454597659593 0.0092294552624511486 0 0.0032673738335804265 0.0065611380850900264 0 0.0017603225598703492 0.0037459381079839797 0 0.0027331549567098132 0.0037272262064732328 0 0.0022720576356897232 0.0043701015586268621 0 0.0017603225598703492 0.0037459381079839797 0 0.00159473477516215 0.0046151340332784988 0 0.0022720576356897232 0.0043701015586268621 0 0.0027331549567098132 0.0037272262064732328 0 0.0029793451028591626 0.0042779883931957901 0 0.0022720576356897232 0.0043701015586268621 0 0.0037379602574482045 0.0037208191550848623 0 0.0027331549567098132 0.0037272262064732328 0 0.0029793451028591626 0.0042779883931957901 0 0.0029793451028591626 0.0042779883931957901 0 0.0026336257101281053 0.0047905120991251823 0 0.0022720576356897232 0.0043701015586268621 0 0.0029793451028591626 0.0042779883931957901 0 0.0026336257101281053 0.0047905120991251823 0 0.0031371777564929942 0.0048572352389784556 0 0.0026336257101281053 0.0047905120991251823 0 0.0022720576356897232 0.0043701015586268621 0 0.0019687673576141863 0.0051040620780445868 0 0.00159473477516215 0.0046151340332784988 0 0.0022720576356897232 0.0043701015586268621 0 0.0019687673576141863 0.0051040620780445868 0 0.0026336257101281053 0.0047905120991251823 0 0.0019687673576141863 0.0051040620780445868 0 0.0025791111086995088 0.0053219055109329193 0 0.0019687673576141863 0.0051040620780445868 0 0.0025791111086995088 0.0053219055109329193 0 0.0021183308770134556 0.005662083335612576 0 0.0019687673576141863 0.0051040620780445868 0 0.0021183308770134556 0.005662083335612576 0 0.0017375798757385151 0.0057296902930045546 0 0.0031371777564929942 0.0048572352389784556 0 0.0025791111086995088 0.0053219055109329193 0 0.003251628279199554 0.0056616342509470128 0 0.0026336257101281053 0.0047905120991251823 0 0.0031371777564929942 0.0048572352389784556 0 0.0025791111086995088 0.0053219055109329193 0 0.0031371777564929942 0.0048572352389784556 0 0.0038397706481936812 0.0048816128458233953 0 0.003251628279199554 0.0056616342509470128 0 0.0038397706481936812 0.0048816128458233953 0 0.0039903948331725426 0.0055214563839209594 0 0.003251628279199554 0.0056616342509470128 0 0.0031371777564929942 0.0048572352389784556 0 0.0036114271709682161 0.0044245029392657948 0 0.0038397706481936812 0.0048816128458233953 0 0.0029793451028591626 0.0042779883931957901 0 0.0031371777564929942 0.0048572352389784556 0 0.0036114271709682161 0.0044245029392657948 0 0.0036114271709682161 0.0044245029392657948 0 0.0038397706481936812 0.0048816128458233953 0 0.0043594064573107116 0.0043957563016340448 0 0.004666701768006847 0.0051403316067837697 0 0.0038397706481936812 0.0048816128458233953 0 0.0043594064573107116 0.0043957563016340448 0 0.004666701768006847 0.0051403316067837697 0 0.0038397706481936812 0.0048816128458233953 0 0.0039903948331725426 0.0055214563839209594 0 0.004666701768006847 0.0051403316067837697 0 0.0039903948331725426 0.0055214563839209594 0 0.0043897337021519831 0.0062136120501207828 0 0.0039903948331725426 0.0055214563839209594 0 0.0043897337021519831 0.0062136120501207828 0 0.0033996385704186827 0.0064898008547880845 0 0.0043897337021519831 0.0062136120501207828 0 0.0033996385704186827 0.0064898008547880845 0 0.004078172634608814 0.0071400490749728351 0 0.0033332395236127148 0.006422421831253541 0 0.0043841780168983879 0.0074988345728642068 0 0.0039903948331725426 0.0055214563839209594 0 0.0033996385704186827 0.0064898008547880845 0 0.003251628279199554 0.0056616342509470128 0 0.0033996385704186827 0.0064898008547880845 0 0.003251628279199554 0.0056616342509470128 0 0.0025098244951253842 0.00605442593331225 0 0.0025791111086995088 0.0053219055109329193 0 0.003251628279199554 0.0056616342509470128 0 0.0025098244951253842 0.00605442593331225 0 0.0025791111086995088 0.0053219055109329193 0 0.0025098244951253842 0.00605442593331225 0 0.0021183308770134556 0.005662083335612576 0 0.0021183308770134556 0.005662083335612576 0 0.0018671241163057673 0.0060299980806499971 0 0.0017375798757385151 0.0057296902930045546 0 0.0025098244951253842 0.00605442593331225 0 0.0021183308770134556 0.005662083335612576 0 0.0018671241163057673 0.0060299980806499971 0 0.0025098244951253842 0.00605442593331225 0 0.0018671241163057673 0.0060299980806499971 0 0.0019104979045933572 0.0064642134419069051 0 0.0025098244951253842 0.00605442593331225 0 0.0019104979045933572 0.0064642134419069051 0 0.002619757792086634 0.0067715106539511872 0 0.0019104979045933572 0.0064642134419069051 0 0.002619757792086634 0.0067715106539511872 0 0.0021275174087805097 0.0074206568533462499 0 0.0033996385704186827 0.0064898008547880845 0 0.002619757792086634 0.0067715106539511872 0 0.0031417586178357046 0.0077131786058425153 0 0.0033996385704186827 0.0064898008547880845 0 0.0025098244951253842 0.00605442593331225 0 0.002619757792086634 0.0067715106539511872 0 0.002619757792086634 0.0067715106539511872 0 0.0031417586178357046 0.0077131786058425153 0 0.0021275174087805097 0.0074206568533462499 0 0.0031417586178357046 0.0077131786058425153 0 0.0021275174087805097 0.0074206568533462499 0 0.0018822380459177239 0.0083510019617058801 0 0.0031417586178357046 0.0077131786058425153 0 0.0018822380459177239 0.0083510019617058801 0 0.0027090484366457876 0.0090045211624277047 0 0.0031417586178357046 0.0077131786058425153 0 0.0037889392904914385 0.0085443456031705865 0 0.0027090484366457876 0.0090045211624277047 0 0.0031417586178357046 0.0077131786058425153 0 0.0041453738206839669 0.0073233140727849881 0 0.0037889392904914385 0.0085443456031705865 0 0.0021344895318093277 0.0075558588058196275 0 0.003453672942669525 0.0067814186973249807 0 0.0041453738206839669 0.0073233140727849881 0 0.0037889392904914385 0.0085443456031705865 0 0.004858118067115471 0.0080914804551213085 0 0.00083187606802463026 0.0064581817399199052 0 0.00072125952339731239 0.006430778028496331 0 0.00094487738567956175 0.0063191621889701483 0 0.0043841780168983879 0.0074988345728642068 0 0.003453672942669525 0.0067814186973249807 0 0.0033996385704186827 0.0064898008547880845 0 0.0031417586178357046 0.0077131786058425153 0 0.0041453738206839669 0.0073233140727849881 0 0.0029197275977443735 0.02015569133460084 0 0.0029716561506544516 0.019849463450476373 0 0.0031212238513776457 0.019998890596963557 0 0.0029197275977443735 0.02015569133460084 0 0.0029716561506544516 0.019849463450476373 0 0.00259133158022846 0.019949796845785468 0 0.0027846501404971942 0.01968232642593477 0 0.0029716561506544516 0.019849463450476373 0 0.00259133158022846 0.019949796845785468 0 0.002979414392088593 0.019641370027370087 0 0.0027846501404971942 0.01968232642593477 0 0.0029716561506544516 0.019849463450476373 0 0.002979414392088593 0.019641370027370087 0 0.0029716561506544516 0.019849463450476373 0 0.0033381593669562855 0.019757168533062044 0 0.0029716561506544516 0.019849463450476373 0 0.0031212238513776457 0.019998890596963557 0 0.0033381593669562855 0.019757168533062044 0 0.0031212238513776457 0.019998890596963557 0 0.0033381593669562855 0.019757168533062044 0 0.0032483109955360853 0.02023178334531121 0 0.0029197275977443735 0.02015569133460084 0 0.0031212238513776457 0.019998890596963557 0 0.0032483109955360853 0.02023178334531121 0 0.0026067578294006952 0.01646259633908987 0 0.0024841607435935557 0.01728263989921992 0 0.0018642237563325417 0.013603996446223053 0 0.0021981627113000879 0.013868105631914294 0 0.0017348791274268709 0.014218188698094303 0 0.0032063582001120887 0.01240980651914781 0 0.0007928697864756154 0.012751652765120405 0 0.0011515875395145168 0.010598312338844165 0 0.0028791547187070415 0.01420993725664293 0 0.0032063582001120887 0.01240980651914781 0 0.0007928697864756154 0.012751652765120405 0 0.0026067578294006952 0.01646259633908987 0 0.0013123447078602262 0.0094287610334764377 0 0.001497508599210489 0.009064772316424002 0 0.0013123447078602262 0.0094287610334764377 0 0.0013112857521579825 0.0058279203748141618 0 0.0015131302099437507 0.0062441953783221411 0 0.0011742677972035847 0.0065280668205429625 0 0.0013112857521579825 0.0058279203748141618 0 0.0014471590369645878 0.0059158170688331391 0 0.0015131302099437507 0.0062441953783221411 0 0.001497508599210489 0.009064772316424002 0 0.0010506646198244285 0.0083556668021924369 0 0.0013163865045282624 0.0058238911797626062 0 0.0017375798757385151 0.0057296902930045546 0 0.0014471590369645878 0.0059158170688331391 0 0.0018671241163057673 0.0060299980806499971 0 0.0017375798757385151 0.0057296902930045546 0 0.0014471590369645878 0.0059158170688331391 0 0.0018671241163057673 0.0060299980806499971 0 0.0019104979045933572 0.0064642134419069051 0 0.0015131302099437507 0.0062441953783221411 0 0.0018671241163057673 0.0060299980806499971 0 0.0014471590369645878 0.0059158170688331391 0 0.0015131302099437507 0.0062441953783221411 0 0.0019104979045933572 0.0064642134419069051 0 0.0015131302099437507 0.0062441953783221411 0 0.0011742677972035847 0.0065280668205429625 0 0.0013123447078602262 0.0094287610334764377 0 0.0015579690139189862 0.011178307004913214 0 0.0019104979045933572 0.0064642134419069051 0 0.0021275174087805097 0.0074206568533462499 0 0.0011742677972035847 0.0065280668205429625 0 0.0018119086891827769 0.0063933171883576471 0 0.0013123447078602262 0.0094287610334764377 0 0.0021275174087805097 0.0074206568533462499 0 0.0018822380459177239 0.0083510019617058801 0 0.00095077733358870514 0.0076983887689840184 0 0.0021275174087805097 0.0074206568533462499 0 0.0011439071895480778 0.0066527755408991949 0 0.00095077733358870514 0.0076983887689840184 0 0.0018822380459177239 0.0083510019617058801 0 0.00095077733358870514 0.0076983887689840184 0 0.00074831145025858583 0.0088091745714518974 0 0.0015579690139189862 0.011178307004913214 0 0.0014326929896693078 0.012234333085889226 0 0.0018892489972078764 0.014713588125369433 0 0.0021194698043848132 0.014434080836878365 0 0.0020261306985446563 0.015101124386370476 0 0.0018892489972078764 0.014713588125369433 0 0.0015814467922905455 0.014902948967165739 0 0.0020261306985446563 0.015101124386370476 0 0.0021981627113000879 0.013868105631914294 0 0.0021194698043848132 0.014434080836878365 0 0.0017348791274268709 0.014218188698094303 0 0.0018892489972078764 0.014713588125369433 0 0.0021194698043848132 0.014434080836878365 0 0.0017348791274268709 0.014218188698094303 0 0.0029197275977443735 0.02015569133460084 0 0.0032483109955360853 0.02023178334531121 0 0.0029991309893569848 0.020420344186096642 0 0.0032483109955360853 0.02023178334531121 0 0.0031913946881965312 0.020706441493943146 0 0.0029991309893569848 0.020420344186096642 0 0.0018892489972078764 0.014713588125369433 0 0.0017348791274268709 0.014218188698094303 0 0.0015814467922905455 0.014902948967165739 0 0.0024841607435935557 0.01728263989921992 0 0.0024101921866239123 0.017769145102719902 0 0.0031913946881965312 0.020706441493943146 0 0.0028565610767868131 0.020944054222694707 0 0.0026996294138609471 0.020542503732942641 0 0.0031913946881965312 0.020706441493943146 0 0.0029991309893569848 0.020420344186096642 0 0.0026996294138609471 0.020542503732942641 0 0.0029063041884582171 0.020182346827558345 0 0.0026875876266272236 0.02062499151145545 0 0.0029197275977443735 0.02015569133460084 0 0.0029991309893569848 0.020420344186096642 0 0.0026996294138609471 0.020542503732942641 0 0.0028565610767868131 0.020944054222694707 0 0.0031251400538405377 0.021283687027110223 0 0.002654141910158296 0.021590531558191885 0 0.0015814467922905455 0.014902948967165739 0 0.0017926947925657312 0.015274232591048298 0 0.0016138151627571827 0.015670044263660983 0 0.0031913946881965312 0.020706441493943146 0 0.0028565610767868131 0.020944054222694707 0 0.0031251400538405377 0.021283687027110223 0 0.0024101921866239123 0.017769145102719902 0 0.0021041399107660985 0.018669931724263036 0 0.0015814467922905455 0.014902948967165739 0 0.0016138151627571827 0.015670044263660983 0 0.0013946965488223647 0.015792611837176673 0 0.0017926947925657312 0.015274232591048298 0 0.0016138151627571827 0.015670044263660983 0 0.0014856081688390253 0.016142034170998996 0 0.0017926947925657312 0.015274232591048298 0 0.0018929430336582518 0.015584883104701325 0 0.0016266968834453463 0.015687646768872118 0 0.0018210589747340307 0.015329720045263503 0 0.0013730697969348187 0.015836628279534314 0 0.0022402465939291827 0.017221080433163647 0 0.0021041399107660985 0.018669931724263036 0 0.0016138151627571827 0.015670044263660983 0 0.0013780648528995724 0.015804967173831178 0 0.0014856081688390253 0.016142034170998996 0 0.00055485431071853556 0.0099281628504896725 0 0.00074831145025858583 0.0088091745714518974 0 0.0016350119652060529 0.0094654887537740148 0 0.0005104942081445719 0.011200577261859688 0 0.0014326929896693078 0.012234333085889226 0 0.0017926947925657312 0.015274232591048298 0 0.0018929430336582518 0.015584883104701325 0 0.0020261306985446563 0.015101124386370476 0 0.0015814467922905455 0.014902948967165739 0 0.0017926947925657312 0.015274232591048298 0 0.0020261306985446563 0.015101124386370476 0 0.0018822380459177239 0.0083510019617058801 0 0.00074831145025858583 0.0088091745714518974 0 0.0016350119652060529 0.0094654887537740148 0 0.0005104942081445719 0.011200577261859688 0 0.0010622566772113503 0.0077289767668850193 0 0.00018701219460586508 0.0068118901959088604 0 0.00034346263779490624 0.0066916196366009336 0 0.00035281679063217772 0.0068114746968536439 0 0.00018701219460586508 0.0068118901959088604 0 0.00035281679063217772 0.0068114746968536439 0 0.00029008121409711219 0.0069081714527842583 0 0.00035281679063217772 0.0068114746968536439 0 0.00029008121409711219 0.0069081714527842583 0 0.0004016459136317556 0.0069082931318372133 0 0.00029008121409711219 0.0069081714527842583 0 0.00027197198869529792 0.0070039520869109887 0 0.00034213057889125249 0.0070116132741325872 0 0.00029008121409711219 0.0069081714527842583 0 0.0004016459136317556 0.0069082931318372133 0 0.00034213057889125249 0.0070116132741325872 0 0.00029008121409711219 0.0069081714527842583 0 0.00027197198869529792 0.0070039520869109887 0 0.00017821226919879308 0.0069876076081655343 0 0.00018701219460586508 0.0068118901959088604 0 0.00029008121409711219 0.0069081714527842583 0 0.00017821226919879308 0.0069876076081655343 0 0.0005104942081445719 0.011200577261859688 0 -0.00031745434519494815 0.0092978427039685715 0 0.0010473679854540276 0.017540879849974506 0 0.001053506789340511 0.017537181409055958 0 0.0010351683058974826 0.01755578565866351 0 -0.00085294763334220903 0.013514254106812017 0 -0.00064337791513117775 0.01204652059170444 0 -1.2032256221967948e-05 0.013194182058994922 0 0.0005104942081445719 0.011200577261859688 0 0.0013730697969348187 0.015836628279534314 0 0.0013780648528995724 0.015804967173831178 0 0.0013045467234950952 0.016223078663831964 0 0.0014856081688390253 0.016142034170998996 0 0.0021041399107660985 0.018669931724263036 0 0.0012780869539333714 0.01962373919055976 0 0.0012780869539333714 0.01962373919055976 0 0.0013730697969348187 0.015836628279534314 0 0.0013730697969348187 0.015836628279534314 0 0.0011144562250050886 0.017439000065816706 0 -0.00064337791513117775 0.01204652059170444 0 -1.2032256221967948e-05 0.013194182058994922 0 0.00048506706041714101 0.011916854403226467 0 0.0012780869539333714 0.01962373919055976 0 0.0011144562250050886 0.017439000065816706 0 0.0012431671615074273 0.022805737924197364 0 0.0011982212682522656 0.022982498008436849 0 0.0010805717801507639 0.022943494647264608 0 0.0012780869539333714 0.01962373919055976 0 0.0014766528060214752 0.022455983364439883 0 0.0021041399107660985 0.018669931724263036 0 0.0022952284892786318 0.02172037544142516 0 0.0024440028471638072 0.020894678832812166 0 0.0023918353174204074 0.021201477528882951 0 0.0018722031792981328 0.021243197143180965 0 0.0023918353174204074 0.021201477528882951 0 0.0018722031792981328 0.021243197143180965 0 0.0018372980712808716 0.02145915605638516 0 0.00062035094953883328 0.0066200583415042744 0 0.00074857790592266452 0.0065968948870755032 0 0.00065455696476789647 0.0067250989309070161 0 0.00074857790592266452 0.0065968948870755032 0 0.0007765513184003638 0.0067473949837021053 0 0.00090308341030956839 0.006603562103296678 0 0.00074857790592266452 0.0065968948870755032 0 0.00083187606802463026 0.0064581817399199052 0 0.00090308341030956839 0.006603562103296678 0 0.00074857790592266452 0.0065968948870755032 0 0.00083187606802463026 0.0064581817399199052 0 0.00072125952339731239 0.006430778028496331 0 0.0021344895318093277 0.0075558588058196275 0 0.0016149478309064129 0.0078155556165611789 0 0.00062035094953883328 0.0066200583415042744 0 0.00074857790592266452 0.0065968948870755032 0 0.00072125952339731239 0.006430778028496331 0 0.00062035094953883328 0.0066200583415042744 0 0.00072125952339731239 0.006430778028496331 0 0.000517052181853763 0.0065607467975412103 0 0.0010622566772113503 0.0077289767668850193 0 0.0016149478309064129 0.0078155556165611789 0 0.0018822380459177239 0.0083510019617058801 0 0.0016350119652060529 0.0094654887537740148 0 0.0027090484366457876 0.0090045211624277047 0 0.00034346263779490624 0.0066916196366009336 0 0.000517052181853763 0.0065607467975412103 0 0.0004830352342165558 0.0067683766899467573 0 0.00034346263779490624 0.0066916196366009336 0 0.00035281679063217772 0.0068114746968536439 0 0.0004830352342165558 0.0067683766899467573 0 0.00062035094953883328 0.0066200583415042744 0 0.000517052181853763 0.0065607467975412103 0 0.0004830352342165558 0.0067683766899467573 0 0.00062035094953883328 0.0066200583415042744 0 0.0004830352342165558 0.0067683766899467573 0 0.00065455696476789647 0.0067250989309070161 0 0.00035281679063217772 0.0068114746968536439 0 0.0004830352342165558 0.0067683766899467573 0 0.0004016459136317556 0.0069082931318372133 0 0.0004016459136317556 0.0069082931318372133 0 0.00050666851248843498 0.0069270754798020865 0 0.00043127809567763644 0.0070175183390298749 0 0.0004016459136317556 0.0069082931318372133 0 0.00043127809567763644 0.0070175183390298749 0 0.00034213057889125249 0.0070116132741325872 0 0.0004830352342165558 0.0067683766899467573 0 0.0004016459136317556 0.0069082931318372133 0 0.00050666851248843498 0.0069270754798020865 0 0.0004830352342165558 0.0067683766899467573 0 0.00050666851248843498 0.0069270754798020865 0 0.0006279533254757658 0.0068636631367764442 0 0.0006279533254757658 0.0068636631367764442 0 0.00073668752132166116 0.0069162648128203944 0 0.00059915655824129054 0.0069751409316199187 0 0.00050666851248843498 0.0069270754798020865 0 0.0006279533254757658 0.0068636631367764442 0 0.00059915655824129054 0.0069751409316199187 0 0.0006279533254757658 0.0068636631367764442 0 0.00065455696476789647 0.0067250989309070161 0 0.0007765513184003638 0.0067473949837021053 0 0.0004830352342165558 0.0067683766899467573 0 0.0006279533254757658 0.0068636631367764442 0 0.00065455696476789647 0.0067250989309070161 0 0.00074857790592266452 0.0065968948870755032 0 0.00065455696476789647 0.0067250989309070161 0 0.0007765513184003638 0.0067473949837021053 0 0.0007765513184003638 0.0067473949837021053 0 0.00073668752132166116 0.0069162648128203944 0 0.00094396691922063892 0.006786198226828793 0 0.0006279533254757658 0.0068636631367764442 0 0.0007765513184003638 0.0067473949837021053 0 0.00073668752132166116 0.0069162648128203944 0 0.00073668752132166116 0.0069162648128203944 0 0.00089965488085453965 0.0069218483200207404 0 0.00094396691922063892 0.006786198226828793 0 0.00094396691922063892 0.006786198226828793 0 0.0010798482090301545 0.0067480584820634459 0 0.0011287209137331884 0.0069085147584723597 0 0.00089965488085453965 0.0069218483200207404 0 0.00094396691922063892 0.006786198226828793 0 0.0011287209137331884 0.0069085147584723597 0 0.0010798482090301545 0.0067480584820634459 0 0.0010457237059062841 0.0066403843523490918 0 0.0012012842582242904 0.0066590774982154587 0 0.00094396691922063892 0.006786198226828793 0 0.0010798482090301545 0.0067480584820634459 0 0.0010457237059062841 0.0066403843523490918 0 0.00094396691922063892 0.006786198226828793 0 0.0010457237059062841 0.0066403843523490918 0 0.00090308341030956839 0.006603562103296678 0 0.0007765513184003638 0.0067473949837021053 0 0.00094396691922063892 0.006786198226828793 0 0.00090308341030956839 0.006603562103296678 0 0.0010457237059062841 0.0066403843523490918 0 0.00090308341030956839 0.006603562103296678 0 0.0010230720431200569 0.0065350691848760157 0 0.00090308341030956839 0.006603562103296678 0 0.0010230720431200569 0.0065350691848760157 0 0.00094829664494396157 0.0064980352785236114 0 0.0010457237059062841 0.0066403843523490918 0 0.0011404741833939388 0.0065538508303483603 0 0.0012012842582242904 0.0066590774982154587 0 0.0010457237059062841 0.0066403843523490918 0 0.0010230720431200569 0.0065350691848760157 0 0.0011404741833939388 0.0065538508303483603 0 0.0010977670982103452 0.0064584609414746067 0 0.0011660999440287682 0.0064480078742450257 0 0.0011404741833939388 0.0065538508303483603 0 0.0010230720431200569 0.0065350691848760157 0 0.0010977670982103452 0.0064584609414746067 0 0.0011404741833939388 0.0065538508303483603 0 0.0010144282755200121 0.0064630380187875756 0 0.0010977670982103452 0.0064584609414746067 0 0.00099925541635919376 0.0064014092616241341 0 0.0010230720431200569 0.0065350691848760157 0 0.0010144282755200121 0.0064630380187875756 0 0.0010977670982103452 0.0064584609414746067 0 0.0010977670982103452 0.0064584609414746067 0 0.0011391109285878549 0.0063739854771009824 0 0.0011660999440287682 0.0064480078742450257 0 0.0035780589176725927 0.0050125209511285573 0 0.0032670461209006615 0.0049326830349378384 0 0.0034602281839754339 0.0048154573941746786 0 0.0010977670982103452 0.0064584609414746067 0 0.0011391109285878549 0.0063739854771009824 0 0.00098690355510365545 0.0063256331805499055 0 0.0010866521699683977 0.0064110540073197327 0 0.0015101465481983812 0.0059976140343263196 0 0.0025636955089283586 0.0056646952392761128 0 0.0015101465481983812 0.0059976140343263196 0 0.0010144282755200121 0.0064630380187875756 0 0.00095396703019863505 0.0064331103430308213 0 0.00099925541635919376 0.0064014092616241341 0 0.00095396703019863505 0.0064331103430308213 0 0.00099925541635919376 0.0064014092616241341 0 0.00093966791517399652 0.0063847196134409513 0 0.00083187606802463026 0.0064581817399199052 0 0.00090308341030956839 0.006603562103296678 0 0.00094829664494396157 0.0064980352785236114 0 0.00083187606802463026 0.0064581817399199052 0 0.00095396703019863505 0.0064331103430308213 0 0.00093966791517399652 0.0063847196134409513 0 0.00083187606802463026 0.0064581817399199052 0 0.00095396703019863505 0.0064331103430308213 0 0.00094829664494396157 0.0064980352785236114 0 0.0010230720431200569 0.0065350691848760157 0 0.0010144282755200121 0.0064630380187875756 0 0.00094829664494396157 0.0064980352785236114 0 0.0010144282755200121 0.0064630380187875756 0 0.00095396703019863505 0.0064331103430308213 0 0.00094829664494396157 0.0064980352785236114 0 0.0032441562331483832 0.00088342667016167093 0 0.0041091807459417108 0.0011557031598427832 0 0.0034087621364270832 0.0020047943912556805 0 0.0023643343924879905 -0.0005514811938277383 0 0.0043891447686113345 0.00027200864303272859 0 0.0025404107294426386 0.0030876039809307901 0 0.0039648094617561721 0.0033470281455059065 0 0.0023643343924879905 -0.0005514811938277383 0 0.0025404107294426386 0.0030876039809307901 0 0.0025636955089283586 0.0056646952392761128 0 0.0025404107294426386 0.0030876039809307901 0 0.0035780589176725927 0.0050125209511285573 0 0.0038830758607972223 0.0050915949888178614 0 0.0037273298354097719 0.0048416213915596518 0 0.0011391109285878549 0.0063739854771009824 0 0.0011660999440287682 0.0064480078742450257 0 0.0012852563220722515 0.0064006775604724406 0 0.0025404107294426386 0.0030876039809307901 0 0.00080233899519580444 0.0030798421333136207 0 0.0012852563220722515 0.0064006775604724406 0 0.0011404741833939388 0.0065538508303483603 0 0.0012012842582242904 0.0066590774982154587 0 0.00083137450123874784 -0.00069238179561015745 0 0.0008676804662666322 -0.00058873251149036147 0 0.0007210045574145167 -0.00049905476400766472 0 0.0011660999440287682 0.0064480078742450257 0 0.0012852563220722515 0.0064006775604724406 0 0.0011404741833939388 0.0065538508303483603 0 0.00093561799082163082 -0.0006704016926666951 0 0.0008676804662666322 -0.00058873251149036147 0 0.00099660826958773013 -0.00055103197016669026 0 0.00093561799082163082 -0.0006704016926666951 0 0.00083137450123874784 -0.00069238179561015745 0 0.0008676804662666322 -0.00058873251149036147 0 0.0008676804662666322 -0.00058873251149036147 0 0.0007210045574145167 -0.00049905476400766472 0 0.0008612276848652537 -0.00041231827473937259 0 0.0008676804662666322 -0.00058873251149036147 0 0.0008612276848652537 -0.00041231827473937259 0 0.00099660826958773013 -0.00055103197016669026 0 0.0008612276848652537 -0.00041231827473937259 0 0.0010676143434019626 -0.0003380254246214008 0 0.00099660826958773013 -0.00055103197016669026 0 0.00080233899519580444 0.0030798421333136207 0 0.00063909311747957704 0.0032707078721895275 0 0.0007210045574145167 -0.00049905476400766472 0 0.0008612276848652537 -0.00041231827473937259 0 0.00062446759741763703 -0.00017355939721224841 0 0.0010798482090301545 0.0067480584820634459 0 0.0012012842582242904 0.0066590774982154587 0 0.0011287209137331884 0.0069085147584723597 0 0.001038539093727097 -0.0014333927339310213 0 0.00063909311747957704 0.0032707078721895275 0 0.0008612276848652537 -0.00041231827473937259 0 0.00075736217819140589 -0.00011267114828623681 0 0.00026267633980913031 -0.00018682806196933358 0 0.0010676143434019626 -0.0003380254246214008 0 0.0010622403633173461 -7.3021578346804005e-05 0 0.00075736217819140589 -0.00011267114828623681 0 0.0008612276848652537 -0.00041231827473937259 0 0.0010676143434019626 -0.0003380254246214008 0 0.00075736217819140589 -0.00011267114828623681 0 0.0014176501483666925 -0.00061748240304884238 0 0.0013427335539350012 -0.00060853209342357861 0 0.0010676143434019626 -0.0003380254246214008 0 0.0013661992768495277 -0.00036264917231160752 0 0.0010622403633173461 -7.3021578346804005e-05 0 0.0010676143434019626 -0.0003380254246214008 0 0.0013661992768495277 -0.00036264917231160752 0 0.0011814886159290919 -0.00047933673990189319 0 0.0021601802548734772 -0.0020230848713440599 0 0.0025739902085017562 -0.0010639941741016135 0 0.001439272746659987 -0.00092797751184151055 0 0.0021601802548734772 -0.0020230848713440599 0 0.0033245751155740731 -0.0017422918278523053 0 0.0025739902085017562 -0.0010639941741016135 0 0.0014176501483666925 -0.00061748240304884238 0 0.0035914244663135565 -0.0052222803432552672 0 0.0013661992768495277 -0.00036264917231160752 0 0.0015140080143428985 -0.00074486154580554354 0 0.0013198952271715114 -0.00069779212977267213 0 0.0013661992768495277 -0.00036264917231160752 0 0.0015140080143428985 -0.00074486154580554354 0 0.0017655260576683826 -0.00080034163696249879 0 0.0021601802548734772 -0.0020230848713440599 0 0.0033245751155740731 -0.0017422918278523053 0 0.0029556423654392848 -0.0031221486601098426 0 0.0015140080143428985 -0.00074486154580554354 0 0.0013198952271715114 -0.00069779212977267213 0 0.0014488396694176634 -0.00089924644896386514 0 0.0013198952271715114 -0.00069779212977267213 0 0.00099660826958773013 -0.00055103197016669026 0 0.0012038255386300283 -0.00089680104665541111 0 0.0010676143434019626 -0.0003380254246214008 0 0.00099660826958773013 -0.00055103197016669026 0 0.0011814886159290919 -0.00047933673990189319 0 0.0013661992768495277 -0.00036264917231160752 0 0.0013198952271715114 -0.00069779212977267213 0 0.0011814886159290919 -0.00047933673990189319 0 0.0013198952271715114 -0.00069779212977267213 0 0.00099660826958773013 -0.00055103197016669026 0 0.0011814886159290919 -0.00047933673990189319 0 0.0041797829293501116 -0.011523022051602834 0 0.0043163969708152027 -0.011532311833686387 0 0.0042555438973363325 -0.011439292326118013 0 0.0041797829293501116 -0.011523022051602834 0 0.0041999921926075962 -0.01160245363068715 0 0.0043163969708152027 -0.011532311833686387 0 0.0041797829293501116 -0.011523022051602834 0 0.0041577484362126946 -0.01158732705151644 0 0.0041268187558566463 -0.011586273645970976 0 0.0041797829293501116 -0.011523022051602834 0 0.0041577484362126946 -0.01158732705151644 0 0.0041999921926075962 -0.01160245363068715 0 0.0041577484362126946 -0.01158732705151644 0 0.0041999921926075962 -0.01160245363068715 0 0.0041261819613846147 -0.011635452637927295 0 0.0043116928508782227 -0.011375560235552232 0 0.0041553507006042217 -0.011407577226306538 0 0.0043707886317968792 -0.011250927015071481 0 0.0037436751619919465 -0.0070796659952175123 0 0.0035914244663135565 -0.0052222803432552672 0 0.0043163969708152027 -0.011532311833686387 0 0.004415475090740687 -0.011308191886408721 0 0.0043116928508782227 -0.011375560235552232 0 0.0043163969708152027 -0.011532311833686387 0 0.0043116928508782227 -0.011375560235552232 0 0.0042555438973363325 -0.011439292326118013 0 0.004415475090740687 -0.011308191886408721 0 0.0043116928508782227 -0.011375560235552232 0 0.0043707886317968792 -0.011250927015071481 0 0.0043116928508782227 -0.011375560235552232 0 0.0042555438973363325 -0.011439292326118013 0 0.0041553507006042217 -0.011407577226306538 0 0.0041797829293501116 -0.011523022051602834 0 0.0042555438973363325 -0.011439292326118013 0 0.0041553507006042217 -0.011407577226306538 0 0.0053558106993937243 -0.011537170892015582 0 0.0057780169315956907 -0.0076670785468162823 0 0.0066425107043867381 -0.010852566354652092 0 0.0069966331173092981 -0.010473920275167557 0 0.0076148215048152754 -0.010488375660448879 0 0.0066923303128356695 -0.010372869456212535 0 0.0069966331173092981 -0.010473920275167557 0 0.0068715568826643236 -0.0099828747894854814 0 0.0066923303128356695 -0.010372869456212535 0 0.0068715568826643236 -0.0099828747894854814 0 0.0063959422139781277 -0.010088471847684802 0 0.0066425107043867381 -0.010852566354652092 0 0.0066963100616183472 -0.010594538590343724 0 0.0069966331173092981 -0.010473920275167557 0 0.0066923303128356695 -0.010372869456212535 0 0.0066963100616183472 -0.010594538590343724 0 0.006448227131259367 -0.01067868360183377 0 0.0066923303128356695 -0.010372869456212535 0 0.0066963100616183472 -0.010594538590343724 0 0.0069966331173092981 -0.010473920275167557 0 0.0066425107043867381 -0.010852566354652092 0 0.0066963100616183472 -0.010594538590343724 0 0.006448227131259367 -0.01067868360183377 0 0.0069966331173092981 -0.010473920275167557 0 0.0074549979876924024 -0.010282457785958859 0 0.0068715568826643236 -0.0099828747894854814 0 0.0075540777553622998 -0.0063467368253789748 0 0.0075089293267619943 -0.0074423824597873714 0 0.0069966331173092981 -0.010473920275167557 0 0.0074549979876924024 -0.010282457785958859 0 0.0076148215048152754 -0.010488375660448879 0 0.0072865232941833691 -0.0063545555610145668 0 0.006566961867833788 -0.0054080544014621645 0 0.005859511258686171 -0.0056181201763947728 0 0.0044362733543414044 -0.0055839946341693049 0 0.0047183155027120307 -0.0059532134695270914 0 0.0044639900989417829 -0.0060259478112993075 0 0.0035914244663135565 -0.0052222803432552672 0 0.0057780169315956907 -0.0076670785468162823 0 0.0057780169315956907 -0.0076670785468162823 0 0.0056803960619969751 -0.0050150408177189491 0 0.0078296028916189538 -0.0042277929956776516 0 0.007861057547851177 -0.0042502732716632307 0 0.0078559310531178643 -0.0041947598858410066 0 0.007861057547851177 -0.0042502732716632307 0 0.0078559310531178643 -0.0041947598858410066 0 0.0078735478561529019 -0.0042463223339862912 0 0.0075540777553622998 -0.0063467368253789748 0 0.0056803960619969751 -0.0050150408177189491 0 0.0075540777553622998 -0.0063467368253789748 0 0.0057780169315956907 -0.0076670785468162823 0 0.0078559310531178643 -0.0041947598858410066 0 0.0079225940796515664 -0.0041398683267591082 0 0.0078405218140764812 -0.0041268329057881185 0 0.0078559310531178643 -0.0041947598858410066 0 0.0078118998886751037 -0.0041717705001148384 0 0.0078405218140764812 -0.0041268329057881185 0 0.0078118998886751037 -0.0041717705001148384 0 0.0078049169168900373 -0.0041339223375116019 0 0.0078405218140764812 -0.0041268329057881185 0 0.0078296028916189538 -0.0042277929956776516 0 0.0078559310531178643 -0.0041947598858410066 0 0.0078118998886751037 -0.0041717705001148384 0 0.0078296028916189538 -0.0042277929956776516 0 0.0078118998886751037 -0.0041717705001148384 0 0.0077717368833765217 -0.0041408270720506082 0 0.0075540777553622998 -0.0063467368253789748 0 0.0078175003748021353 -0.0036177355096379989 0 0.0084651809326707402 -0.0050765001035411065 0 0.007760664105569976 -0.0042512334418161202 0 0.0077995579093430301 -0.0047209522686027768 0 0.0084651809326707402 -0.0050765001035411065 0 0.007760664105569976 -0.0042512334418161202 0 0.0077717368833765217 -0.0041408270720506082 0 0.0078118998886751037 -0.0041717705001148384 0 0.0077935302582602048 -0.0041425753244011048 0 0.0077717368833765217 -0.0041408270720506082 0 0.0078118998886751037 -0.0041717705001148384 0 0.0077935302582602048 -0.0041425753244011048 0 0.0078049169168900373 -0.0041339223375116019 0 0.007760664105569976 -0.0042512334418161202 0 0.0077995579093430301 -0.0047209522686027768 0 0.0071101797792507849 -0.0043800788120020055 0 0.00091392635249636491 -0.0012359014990550032 0 0.00099660826958773013 -0.00055103197016669026 0 0.0012038255386300283 -0.00089680104665541111 0 0.0023643343924879905 -0.0005514811938277383 0 0.00069378110629029154 -0.00077437670878323503 0 0.00091392635249636491 -0.0012359014990550032 0 0.0013175089540013603 -0.0011122373292828669 0 0.0012038255386300283 -0.00089680104665541111 0 0.0023643343924879905 -0.0005514811938277383 0 0.0028359970928695617 -0.0016545488783414281 0 0.0013175089540013603 -0.0011122373292828669 0 0.0012038255386300283 -0.00089680104665541111 0 0.0014488396694176634 -0.00089924644896386514 0 0.0013198952271715114 -0.00069779212977267213 0 0.0012038255386300283 -0.00089680104665541111 0 0.0014488396694176634 -0.00089924644896386514 0 0.0013175089540013603 -0.0011122373292828669 0 0.0014488396694176634 -0.00089924644896386514 0 0.0017083053685588887 -0.0010133380967269384 0 0.0046127194988698312 -0.0019924034815278304 0 0.0040470288575495186 -0.0021763854609033826 0 0.0042679832474942711 -0.0014009106658732558 0 0.0014488396694176634 -0.00089924644896386514 0 0.0017083053685588887 -0.0010133380967269384 0 0.0017214169142759103 -0.000963573990966077 0 0.0015140080143428985 -0.00074486154580554354 0 0.0014488396694176634 -0.00089924644896386514 0 0.0017214169142759103 -0.000963573990966077 0 0.0015140080143428985 -0.00074486154580554354 0 0.0017655260576683826 -0.00080034163696249879 0 0.0017214169142759103 -0.000963573990966077 0 0.0044362733543414044 -0.0055839946341693049 0 0.0044639900989417829 -0.0060259478112993075 0 0.0043325222031734001 -0.0059569905996091597 0 0.0035914244663135565 -0.0052222803432552672 0 0.004798430320742654 -0.0042776394150544966 0 0.0049826277917836611 -0.0037598735984315881 0 0.004798430320742654 -0.0042776394150544966 0 0.0047315997733401094 -0.0045963256886436448 0 0.0048334124361404532 -0.004563906526689393 0 0.0048122883017279227 -0.0046376683761809928 0 0.0056803960619969751 -0.0050150408177189491 0 0.0049826277917836611 -0.0037598735984315881 0 0.0056803960619969751 -0.0050150408177189491 0 0.004798430320742654 -0.0042776394150544966 0 0.0028359970928695617 -0.0016545488783414281 0 0.0049826277917836611 -0.0037598735984315881 0 0.0046127194988698312 -0.0019924034815278304 0 0.0042679832474942711 -0.0014009106658732558 0 0.0047730361443396561 -0.0013601215274938617 0 0.0049826277917836611 -0.0037598735984315881 0 0.0061901354589917156 -0.0025969222371319996 0 0.0078559310531178643 -0.0041947598858410066 0 0.0078735478561529019 -0.0042463223339862912 0 0.0079225940796515664 -0.0041398683267591082 0 0.0051799597755203134 -0.0018104138381028149 0 0.0046127194988698312 -0.0019924034815278304 0 0.0047730361443396561 -0.0013601215274938617 0 0.0051799597755203134 -0.0018104138381028149 0 0.0047730361443396561 -0.0013601215274938617 0 0.0053079184556041039 -0.00096725360009488638 0 0.0047730361443396561 -0.0013601215274938617 0 0.0044961928910536002 -0.00062375715496949444 0 0.0053079184556041039 -0.00096725360009488638 0 0.0079225940796515664 -0.0041398683267591082 0 0.0078946007878658124 -0.0040646020953816666 0 0.0078405218140764812 -0.0041268329057881185 0 0.0042679832474942711 -0.0014009106658732558 0 0.0047730361443396561 -0.0013601215274938617 0 0.0044961928910536002 -0.00062375715496949444 0 0.0061901354589917156 -0.0025969222371319996 0 0.0061784400161879281 -0.0025188012151705851 0 0.0079225940796515664 -0.0041398683267591082 0 0.0078946007878658124 -0.0040646020953816666 0 0.0079766142890129108 -0.0040063830994806742 0 0.0078946007878658124 -0.0040646020953816666 0 0.0079766142890129108 -0.0040063830994806742 0 0.0079043564111158267 -0.0039951993219769204 0 0.0079766142890129108 -0.0040063830994806742 0 0.0079043564111158267 -0.0039951993219769204 0 0.0079433960799882644 -0.0038907255208977154 0 0.0079766142890129108 -0.0040063830994806742 0 0.0079433960799882644 -0.0038907255208977154 0 0.0080261199661154671 -0.0038393371303073603 0 0.0079043564111158267 -0.0039951993219769204 0 0.0079433960799882644 -0.0038907255208977154 0 0.007879213809707698 -0.0039162889504642546 0 0.0044961928910536002 -0.00062375715496949444 0 0.0047293530724306261 0.00015124201920600644 0 0.0054296161967240008 -0.00011816818999520284 0 0.0044961928910536002 -0.00062375715496949444 0 0.0053079184556041039 -0.00096725360009488638 0 0.0054296161967240008 -0.00011816818999520284 0 0.0061784400161879281 -0.0025188012151705851 0 0.0065723844964975476 -0.00093225370657589205 0 0.0077230834479596376 -0.0040546709350718912 0 0.007743501482991297 -0.0040803861327117479 0 0.0077058467816838588 -0.0040981911036964492 0 0.0077230834479596376 -0.0040546709350718912 0 0.007743501482991297 -0.0040803861327117479 0 0.0077666792678453981 -0.0040448250129017753 0 0.007743501482991297 -0.0040803861327117479 0 0.0077456898154940777 -0.0041169660827071125 0 0.0077745744127572037 -0.0040933262990363994 0 0.007743501482991297 -0.0040803861327117479 0 0.0077745744127572037 -0.0040933262990363994 0 0.0077666792678453981 -0.0040448250129017753 0 0.007743501482991297 -0.0040803861327117479 0 0.0077456898154940777 -0.0041169660827071125 0 0.0077058467816838588 -0.0040981911036964492 0 0.0077456898154940777 -0.0041169660827071125 0 0.0076994577536800661 -0.0041656617284154141 0 0.0077058467816838588 -0.0040981911036964492 0 0.007760664105569976 -0.0042512334418161202 0 0.0077717368833765217 -0.0041408270720506082 0 0.0076994577536800661 -0.0041656617284154141 0 0.0077456898154940777 -0.0041169660827071125 0 0.0077717368833765217 -0.0041408270720506082 0 0.0076994577536800661 -0.0041656617284154141 0 0.0077456898154940777 -0.0041169660827071125 0 0.0077717368833765217 -0.0041408270720506082 0 0.007769740935305137 -0.004119283485976559 0 0.0077456898154940777 -0.0041169660827071125 0 0.007769740935305137 -0.004119283485976559 0 0.0077745744127572037 -0.0040933262990363994 0 0.007769740935305137 -0.004119283485976559 0 0.0077852934414161462 -0.0041224328207134951 0 0.0077745744127572037 -0.0040933262990363994 0 0.0077717368833765217 -0.0041408270720506082 0 0.007769740935305137 -0.004119283485976559 0 0.0077852934414161462 -0.0041224328207134951 0 0.0077935302582602048 -0.0041425753244011048 0 0.0077717368833765217 -0.0041408270720506082 0 0.0077852934414161462 -0.0041224328207134951 0 0.0077852934414161462 -0.0041224328207134951 0 0.0078049169168900373 -0.0041339223375116019 0 0.0078044615428193949 -0.0041014507607085634 0 0.0077935302582602048 -0.0041425753244011048 0 0.0077852934414161462 -0.0041224328207134951 0 0.0078049169168900373 -0.0041339223375116019 0 0.0077852934414161462 -0.0041224328207134951 0 0.0078044615428193949 -0.0041014507607085634 0 0.0077745744127572037 -0.0040933262990363994 0 0.0078044615428193949 -0.0041014507607085634 0 0.007796212368081327 -0.0040649294528879616 0 0.0077745744127572037 -0.0040933262990363994 0 0.007796212368081327 -0.0040649294528879616 0 0.0077745744127572037 -0.0040933262990363994 0 0.0077666792678453981 -0.0040448250129017753 0 0.007796212368081327 -0.0040649294528879616 0 0.0077666792678453981 -0.0040448250129017753 0 0.0077992589652926244 -0.0040269610997561061 0 0.007796212368081327 -0.0040649294528879616 0 0.0078381468313205079 -0.0040473538530428222 0 0.0077992589652926244 -0.0040269610997561061 0 0.0078044615428193949 -0.0041014507607085634 0 0.007796212368081327 -0.0040649294528879616 0 0.0078381468313205079 -0.0040473538530428222 0 0.0078049169168900373 -0.0041339223375116019 0 0.0078044615428193949 -0.0041014507607085634 0 0.0078405218140764812 -0.0041268329057881185 0 0.0078044615428193949 -0.0041014507607085634 0 0.0078381468313205079 -0.0040473538530428222 0 0.0078405218140764812 -0.0041268329057881185 0 0.0078946007878658124 -0.0040646020953816666 0 0.0078381468313205079 -0.0040473538530428222 0 0.0078405218140764812 -0.0041268329057881185 0 0.0078946007878658124 -0.0040646020953816666 0 0.0079043564111158267 -0.0039951993219769204 0 0.0078381468313205079 -0.0040473538530428222 0 0.0079043564111158267 -0.0039951993219769204 0 0.0078537514504450415 -0.0039792560200473861 0 0.007879213809707698 -0.0039162889504642546 0 0.0079043564111158267 -0.0039951993219769204 0 0.0078381468313205079 -0.0040473538530428222 0 0.0078537514504450415 -0.0039792560200473861 0 0.0078537514504450415 -0.0039792560200473861 0 0.007879213809707698 -0.0039162889504642546 0 0.0078283401974716532 -0.0039128330499172458 0 0.0078283401974716532 -0.0039128330499172458 0 0.0078135706806163434 -0.0039843947235265907 0 0.0077781289418445291 -0.0039392010614577328 0 0.0078537514504450415 -0.0039792560200473861 0 0.0078283401974716532 -0.0039128330499172458 0 0.0078135706806163434 -0.0039843947235265907 0 0.0078381468313205079 -0.0040473538530428222 0 0.0078537514504450415 -0.0039792560200473861 0 0.0078135706806163434 -0.0039843947235265907 0 0.0078381468313205079 -0.0040473538530428222 0 0.0078135706806163434 -0.0039843947235265907 0 0.0077992589652926244 -0.0040269610997561061 0 0.0077666792678453981 -0.0040448250129017753 0 0.0077992589652926244 -0.0040269610997561061 0 0.0077738989513948644 -0.003992675809433556 0 0.0078135706806163434 -0.0039843947235265907 0 0.0077992589652926244 -0.0040269610997561061 0 0.0077738989513948644 -0.003992675809433556 0 0.0078135706806163434 -0.0039843947235265907 0 0.0077738989513948644 -0.003992675809433556 0 0.0077781289418445291 -0.0039392010614577328 0 0.0077738989513948644 -0.003992675809433556 0 0.0077363838182661774 -0.0039535232593067952 0 0.0077289881347855846 -0.004005577669155571 0 0.0077738989513948644 -0.003992675809433556 0 0.0077781289418445291 -0.0039392010614577328 0 0.0077363838182661774 -0.0039535232593067952 0 0.0077666792678453981 -0.0040448250129017753 0 0.0077738989513948644 -0.003992675809433556 0 0.0077289881347855846 -0.004005577669155571 0 0.0077230834479596376 -0.0040546709350718912 0 0.0077666792678453981 -0.0040448250129017753 0 0.0077289881347855846 -0.004005577669155571 0 0.0077418033571516401 -0.0038403578801102034 0 0.0077479877452434438 -0.0039090432975452767 0 0.0077855611806412527 -0.0038724013570766982 0 0.0077781289418445291 -0.0039392010614577328 0 0.0077363838182661774 -0.0039535232593067952 0 0.0077479877452434438 -0.0039090432975452767 0 0.0077418033571516401 -0.0038403578801102034 0 0.0077479877452434438 -0.0039090432975452767 0 0.0076981439438646672 -0.0039431407293533081 0 0.0077363838182661774 -0.0039535232593067952 0 0.0077479877452434438 -0.0039090432975452767 0 0.0076981439438646672 -0.0039431407293533081 0 0.0078283401974716532 -0.0039128330499172458 0 0.0077781289418445291 -0.0039392010614577328 0 0.0077855611806412527 -0.0038724013570766982 0 0.0077781289418445291 -0.0039392010614577328 0 0.0077479877452434438 -0.0039090432975452767 0 0.0077855611806412527 -0.0038724013570766982 0 0.0077855611806412527 -0.0038724013570766982 0 0.0078297111095051251 -0.0038339139164069364 0 0.0077950215036386239 -0.0038145385418851068 0 0.0077418033571516401 -0.0038403578801102034 0 0.0077855611806412527 -0.0038724013570766982 0 0.0077950215036386239 -0.0038145385418851068 0 0.0078297111095051251 -0.0038339139164069364 0 0.0078225935793327737 -0.0037987314501730092 0 0.0077950215036386239 -0.0038145385418851068 0 0.0078297111095051251 -0.0038339139164069364 0 0.0078500480634768229 -0.0037829839271680409 0 0.0078225935793327737 -0.0037987314501730092 0 0.0078283401974716532 -0.0039128330499172458 0 0.0078297111095051251 -0.0038339139164069364 0 0.0078605337568477263 -0.0038650569770946647 0 0.0078283401974716532 -0.0039128330499172458 0 0.0077855611806412527 -0.0038724013570766982 0 0.0078297111095051251 -0.0038339139164069364 0 0.007879213809707698 -0.0039162889504642546 0 0.0078283401974716532 -0.0039128330499172458 0 0.0078605337568477263 -0.0038650569770946647 0 0.007879213809707698 -0.0039162889504642546 0 0.0078605337568477263 -0.0038650569770946647 0 0.0078901070059216264 -0.0038544440069106858 0 0.0078605337568477263 -0.0038650569770946647 0 0.0078703926939792303 -0.0038067856743274381 0 0.0078901070059216264 -0.0038544440069106858 0 0.0078297111095051251 -0.0038339139164069364 0 0.0078703926939792303 -0.0038067856743274381 0 0.0078500480634768229 -0.0037829839271680409 0 0.0078703926939792303 -0.0038067856743274381 0 0.0078500480634768229 -0.0037829839271680409 0 0.0079022398878994919 -0.0037259224618870655 0 0.0078297111095051251 -0.0038339139164069364 0 0.0078605337568477263 -0.0038650569770946647 0 0.0078703926939792303 -0.0038067856743274381 0 0.0074209438579975334 -0.0035807802697907136 0 0.0080316521806105337 -0.0037824427365394184 0 0.0078500480634768229 -0.0037829839271680409 0 0.0078166033106662272 -0.0037755181781354784 0 0.0079022398878994919 -0.0037259224618870655 0 0.0076190102508311855 -0.0034718110964550236 0 0.007826125929300376 -0.0036202102209528602 0 0.0077425574449087311 -0.0036105276280724917 0 0.007826125929300376 -0.0036202102209528602 0 0.0077425574449087311 -0.0036105276280724917 0 0.0079022398878994919 -0.0037259224618870655 0 0.0078166033106662272 -0.0037755181781354784 0 0.0078225935793327737 -0.0037987314501730092 0 0.0077950215036386239 -0.0038145385418851068 0 0.0078500480634768229 -0.0037829839271680409 0 0.0078166033106662272 -0.0037755181781354784 0 0.0078225935793327737 -0.0037987314501730092 0 0.0077418033571516401 -0.0038403578801102034 0 0.0077739563879219908 -0.0037922645119574331 0 0.0077389692093194993 -0.0037395528461464014 0 0.0078166033106662272 -0.0037755181781354784 0 0.0077739563879219908 -0.0037922645119574331 0 0.0077389692093194993 -0.0037395528461464014 0 0.0074209438579975334 -0.0035807802697907136 0 0.009708188488727466 -0.0036095349846179546 0 0.0078166033106662272 -0.0037755181781354784 0 0.0077739563879219908 -0.0037922645119574331 0 0.0077950215036386239 -0.0038145385418851068 0 0.0077418033571516401 -0.0038403578801102034 0 0.0077739563879219908 -0.0037922645119574331 0 0.0077950215036386239 -0.0038145385418851068 0 0.0065723844964975476 -0.00093225370657589205 0 0.0056265510682624083 0.0029335098943657377 0 0.0069467503617720071 0.0040866427203855096 0 0.0067799394280782287 0.0040480228828401205 0 0.0070825057112091829 0.0039385498109869395 0 0.0068682382101910534 0.0042357038167711953 0 0.0069467503617720071 0.0040866427203855096 0 0.0069859442032926856 0.004378599464503528 0 0.0068411639169189339 0.0042450888900594638 0 0.0068682382101910534 0.0042357038167711953 0 0.0067799394280782287 0.0040480228828401205 0 0.0077493948375064641 0.0010597994596485455 0 0.0065723844964975476 -0.00093225370657589205 0 0.0080399702408030689 -0.0037337916024047331 0 0.0080053455363573792 -0.0037959854815934791 0 0.0079678820874509622 -0.0037650383839044808 0 0.0077493948375064641 0.0010597994596485455 0 0.0075914493677417521 0.001199655811939005 0 0.0068682382101910534 0.0042357038167711953 0 0.0069467503617720071 0.0040866427203855096 0 0.0067799394280782287 0.0040480228828401205 0 0.0080399702408030689 -0.0037337916024047331 0 0.0079678820874509622 -0.0037650383839044808 0 0.0079022398878994919 -0.0037259224618870655 0 0.0065723844964975476 -0.00093225370657589205 0 0.0086568698933341542 -0.0040166518694122258 0 0.0079433960799882644 -0.0038907255208977154 0 0.0080261199661154671 -0.0038393371303073603 0 0.0079045400114411621 -0.0037950132507739718 0 0.0079433960799882644 -0.0038907255208977154 0 0.0078901070059216264 -0.0038544440069106858 0 0.0079045400114411621 -0.0037950132507739718 0 0.0079433960799882644 -0.0038907255208977154 0 0.007879213809707698 -0.0039162889504642546 0 0.0078901070059216264 -0.0038544440069106858 0 0.0079045400114411621 -0.0037950132507739718 0 0.0079678820874509622 -0.0037650383839044808 0 0.0079022398878994919 -0.0037259224618870655 0 0.0078703926939792303 -0.0038067856743274381 0 0.0078901070059216264 -0.0038544440069106858 0 0.0079045400114411621 -0.0037950132507739718 0 0.0078703926939792303 -0.0038067856743274381 0 0.0079045400114411621 -0.0037950132507739718 0 0.0079022398878994919 -0.0037259224618870655 0 0.0080053455363573792 -0.0037959854815934791 0 0.0079045400114411621 -0.0037950132507739718 0 0.0079678820874509622 -0.0037650383839044808 0 0.0068574864445569124 -0.00054549933012418533 0 0.0077493948375064641 0.0010597994596485455 0 0.007826125929300376 -0.0036202102209528602 0 0.0080399702408030689 -0.0037337916024047331 0 0.0079022398878994919 -0.0037259224618870655 0 0.0067855995447372013 0.0027921823197700991 0 0.0064501536863523007 0.0026039922985351483 0 0.0070108460279728569 0.0023720945507834192 0 0.007152418299670075 0.0029505402570204342 0 0.0067855995447372013 0.0027921823197700991 0 0.0070108460279728569 0.0023720945507834192 0 0.0070597191231436167 0.0041126709124870535 0 0.0077493948375064641 0.0010597994596485455 0 0.0070375544019016991 0.0044340129186968809 0 0.0068511483959589553 0.0042531231047999345 0 0.0069859442032926856 0.004378599464503528 0 0.0068511483959589553 0.0042531231047999345 0 0.0068682382101910534 0.0042357038167711953 0 0.0069859442032926856 0.004378599464503528 0 0.0069859442032926856 0.004378599464503528 0 0.0069596138163168439 0.0044062602754959164 0 0.0069555288450123534 0.0044688325455501257 0 0.0069744210056235101 0.0044016009227624128 0 0.0069859442032926856 0.004378599464503528 0 0.0069596138163168439 0.0044062602754959164 0 0.0070375544019016991 0.0044340129186968809 0 0.0069744210056235101 0.0044016009227624128 0 0.0069859442032926856 0.004378599464503528 0 0.0069407418107264906 0.0056879194610792777 0 0.0067219966922746942 0.0062592213464717156 0 0.0063652806759305928 0.0057624118507606722 0 0.0069467503617720071 0.0040866427203855096 0 0.0069859442032926856 0.004378599464503528 0 0.0070935056665235533 0.004020815709780268 0 0.0070139972293637746 0.0052342248625694369 0 0.0062860733704719063 0.0047099029203300155 0 0.0069407418107264906 0.0056879194610792777 0 0.0067219966922746942 0.0062592213464717156 0 0.0070123044296043465 0.006770154232565247 0 0.0071422192974349924 0.0041486767330759346 0 0.0062860733704719063 0.0047099029203300155 0 0.0067219966922746942 0.0062592213464717156 0 0.0066648327895206328 0.0066343916307842797 0 0.0070123044296043465 0.006770154232565247 0 0.0066648327895206328 0.0066343916307842797 0 0.0069481671256900329 0.0070207786598512406 0 0.0063111402475869377 0.0068609695934540513 0 0.0066648327895206328 0.0066343916307842797 0 0.0070123044296043465 0.006770154232565247 0 0.0069481671256900329 0.0070207786598512406 0 0.0069467503617720071 0.0040866427203855096 0 0.0070935056665235533 0.004020815709780268 0 0.0070825057112091829 0.0039385498109869395 0 0.0061483556874781737 0.0063389846112617103 0 0.0057130286190732616 0.0067174076241546211 0 0.0063111402475869377 0.0068609695934540513 0 0.0066648327895206328 0.0066343916307842797 0 0.0061483556874781737 0.0063389846112617103 0 0.0063111402475869377 0.0068609695934540513 0 0.0067219966922746942 0.0062592213464717156 0 0.0066648327895206328 0.0066343916307842797 0 0.0061483556874781737 0.0063389846112617103 0 0.0061483556874781737 0.0063389846112617103 0 0.0063652806759305928 0.0057624118507606722 0 0.0058100627133634971 0.0057997390760811708 0 0.0067219966922746942 0.0062592213464717156 0 0.0061483556874781737 0.0063389846112617103 0 0.0063652806759305928 0.0057624118507606722 0 0.0060321695303807059 0.005245139515025153 0 0.0064250137579529385 0.005120050730476125 0 0.0063652806759305928 0.0057624118507606722 0 0.0064250137579529385 0.005120050730476125 0 0.0069407418107264906 0.0056879194610792777 0 0.0063652806759305928 0.0057624118507606722 0 0.0060321695303807059 0.005245139515025153 0 0.0063652806759305928 0.0057624118507606722 0 0.0058100627133634971 0.0057997390760811708 0 0.0061483556874781737 0.0063389846112617103 0 0.005254691621297632 0.0059923299224923865 0 0.0058100627133634971 0.0057997390760811708 0 0.0055087840056241852 0.0051880607832551287 0 0.005254691621297632 0.0059923299224923865 0 0.0058100627133634971 0.0057997390760811708 0 0.0055087840056241852 0.0051880607832551287 0 0.0060321695303807059 0.005245139515025153 0 0.0058100627133634971 0.0057997390760811708 0 0.004666701768006847 0.0051403316067837697 0 0.0043897337021519831 0.0062136120501207828 0 0.005254691621297632 0.0059923299224923865 0 0.0043897337021519831 0.0062136120501207828 0 0.005254691621297632 0.0059923299224923865 0 0.0050235700694837328 0.006927348189158444 0 0.0043897337021519831 0.0062136120501207828 0 0.004078172634608814 0.0071400490749728351 0 0.0050235700694837328 0.006927348189158444 0 0.005254691621297632 0.0059923299224923865 0 0.0057130286190732616 0.0067174076241546211 0 0.0050235700694837328 0.006927348189158444 0 0.0061483556874781737 0.0063389846112617103 0 0.005254691621297632 0.0059923299224923865 0 0.0057130286190732616 0.0067174076241546211 0 0.0057130286190732616 0.0067174076241546211 0 0.0058365548326117971 0.0074600560226083185 0 0.0050235700694837328 0.006927348189158444 0 0.0058365548326117971 0.0074600560226083185 0 0.0050235700694837328 0.006927348189158444 0 0.0047698368037294974 0.0078716114027828736 0 0.004078172634608814 0.0071400490749728351 0 0.0050235700694837328 0.006927348189158444 0 0.0047698368037294974 0.0078716114027828736 0 0.0032670461209006615 0.0049326830349378384 0 0.0030783280896309784 0.0047425545546816161 0 0.0034602281839754339 0.0048154573941746786 0 0.0010447144476672084 0.0064096099673163426 0 0.00094487738567956175 0.0063191621889701483 0 0.00093966791517399652 0.0063847196134409513 0 0.0015101465481983812 0.0059976140343263196 0 0.0010096598825066411 0.006161730841118639 0 0.0015101465481983812 0.0059976140343263196 0 0.003453672942669525 0.0067814186973249807 0 0.00083187606802463026 0.0064581817399199052 0 0.00094487738567956175 0.0063191621889701483 0 0.00093966791517399652 0.0063847196134409513 0 0.0048470443669501101 0.0060977780509414202 0 0.003453672942669525 0.0067814186973249807 0 0.0035860361034590867 0.0045201191288501488 0 0.0030783280896309784 0.0047425545546816161 0 0.0034602281839754339 0.0048154573941746786 0 0.0035860361034590867 0.0045201191288501488 0 0.0034602281839754339 0.0048154573941746786 0 0.0037273298354097719 0.0048416213915596518 0 0.0035780589176725927 0.0050125209511285573 0 0.0034602281839754339 0.0048154573941746786 0 0.0037273298354097719 0.0048416213915596518 0 0.0038830758607972223 0.0050915949888178614 0 0.0037273298354097719 0.0048416213915596518 0 0.0039948511859982973 0.0047045233017784264 0 0.0035860361034590867 0.0045201191288501488 0 0.0037273298354097719 0.0048416213915596518 0 0.0039948511859982973 0.0047045233017784264 0 0.0041091807459417108 0.0011557031598427832 0 0.0038921695021752398 0.0021195228664267129 0 0.0034087621364270832 0.0020047943912556805 0 0.0038921695021752398 0.0021195228664267129 0 0.0034087621364270832 0.0020047943912556805 0 0.0036844769387292427 0.0030925897051616975 0 0.0043891447686113345 0.00027200864303272859 0 0.0056265510682624083 0.0029335098943657377 0 0.0034087621364270832 0.0020047943912556805 0 0.0035840874140171792 0.0031332060664990735 0 0.0036844769387292427 0.0030925897051616975 0 0.0039648094617561721 0.0033470281455059065 0 0.0051183002932735705 0.0040664269117124336 0 0.0059971832400690164 0.004322259514247479 0 0.0058913267316555804 0.0035438123722727559 0 0.0062117268500464454 0.0034145095688121879 0 0.0062860733704719063 0.0047099029203300155 0 0.0056265510682624083 0.0029335098943657377 0 0.0062860733704719063 0.0047099029203300155 0 0.0051183002932735705 0.0040664269117124336 0 0.0056265510682624083 0.0029335098943657377 0 0.0051183002932735705 0.0040664269117124336 0 0.0035860361034590867 0.0045201191288501488 0 0.0039948511859982973 0.0047045233017784264 0 0.0041053522411456864 0.0043010991637334696 0 0.0057130286190732616 0.0067174076241546211 0 0.0058365548326117971 0.0074600560226083185 0 0.0063111402475869377 0.0068609695934540513 0 0.0048470443669501101 0.0060977780509414202 0 0.0051183002932735705 0.0040664269117124336 0 0.0058365548326117971 0.0074600560226083185 0 0.0069481671256900329 0.0070207786598512406 0 0.0063111402475869377 0.0068609695934540513 0 -1.6871552199178173e-05 0.024980798833140441 0 -6.7698564490007065e-06 0.024992216076827712 0 -8.4087205883778887e-06 0.024991285817689494 0 -6.7295871525500407e-05 0.024781394393937159 0 -5.2223731295087093e-05 0.024701599915931273 0 -1.6871552199178173e-05 0.024980798833140441 0 -6.7698564490007065e-06 0.024992216076827712 0 -4.4002656669236706e-06 0.024994615671326496 0 -9.840315531512149e-09 0.024999978684349576 0 -6.7698564490007065e-06 0.024992216076827712 0 -8.4087205883778887e-06 0.024991285817689494 0 -9.840315531512149e-09 0.024999978684349576 0 -6.7698564490007065e-06 0.024992216076827712 0 -4.4002656669236706e-06 0.024994615671326496 0 -5.2223731295087093e-05 0.024701599915931273 0 -3.8215751179310528e-08 0.024999881321955332 0 -9.840315531512149e-09 0.024999978684349576 0 -4.4002656669236706e-06 0.024994615671326496 0 2.2890389539893476e-09 0.024999999945354217 0 -0.0001631012969496113 0.024097657094955743 0 -0.0001768915826841627 0.024504645143543311 0 -8.7610591830307414e-05 0.024301196393896857 0 -0.0001768915826841627 0.024504645143543311 0 -8.7610591830307414e-05 0.024301196393896857 0 -7.6280314449070482e-05 0.02458809268809654 0 -8.7610591830307414e-05 0.024301196393896857 0 -2.5979389067392534e-05 0.0241890449839164 0 -3.6911315310355279e-05 0.024016204749731641 0 -2.5979389067392534e-05 0.0241890449839164 0 -3.0004333032818213e-06 0.023931468070202785 0 -3.6911315310355279e-05 0.024016204749731641 0 -3.0004333032818213e-06 0.023931468070202785 0 -3.6911315310355279e-05 0.024016204749731641 0 8.3028721010901616e-06 0.023832402994116132 0 -0.0001631012969496113 0.024097657094955743 0 -8.7610591830307414e-05 0.024301196393896857 0 -3.6911315310355279e-05 0.024016204749731641 0 -0.0012618068930654366 0.022323324600058314 0 -0.0010120048839575013 0.022529954919676718 0 -6.7295871525500407e-05 0.024781394393937159 0 -0.0012618068930654366 0.022323324600058314 0 -0.0001631012969496113 0.024097657094955743 0 -3.6911315310355279e-05 0.024016204749731641 0 -9.5678234935107217e-05 0.023898565922798598 0 -1.6871552199178173e-05 0.024980798833140441 0 -3.539529612129244e-05 0.024963586159703365 0 -2.4279683169564958e-05 0.024978744961916235 0 -0.0012618068930654366 0.022323324600058314 0 -0.0014470281842678448 0.022103037030216391 0 -3.6911315310355279e-05 0.024016204749731641 0 -9.5678234935107217e-05 0.023898565922798598 0 8.3028721010901616e-06 0.023832402994116132 0 -0.002742086262684885 0.020306662077370551 0 -0.0027947061888289747 0.020319079394870449 0 -0.0028593341261758049 0.0204056935935596 0 -0.002742086262684885 0.020306662077370551 0 -0.0027947061888289747 0.020319079394870449 0 -0.0027202455855546664 0.020384359401988978 0 -0.0012618068930654366 0.022323324600058314 0 -0.0028643156644940011 0.019779412256058827 0 -0.0023027558397252885 0.019973046059520431 0 -0.0024110093873589123 0.020269540777941495 0 -0.0027202455855546664 0.020384359401988978 0 -0.0023027558397252885 0.019973046059520431 0 -0.0020681594436232861 0.020399865625532546 0 -0.0018692881655605347 0.020088196614403343 0 -0.0020681594436232861 0.020399865625532546 0 -0.0024110093873589123 0.020269540777941495 0 -0.002677887962809667 0.020482023606619815 0 -0.0023027558397252885 0.019973046059520431 0 -0.0020681594436232861 0.020399865625532546 0 -0.0024110093873589123 0.020269540777941495 0 -0.0010120048839575013 0.022529954919676718 0 -0.00039607802959823219 0.023531049766199071 0 -5.8058571084298854e-05 0.024940359032355364 0 -1.427512843402739e-05 0.024970785863758917 0 -1.1751555847731592e-05 0.024986284822042369 0 -0.0010934475442178717 0.022576163302245385 0 -0.00039607802959823219 0.023531049766199071 0 -0.0020681594436232861 0.020399865625532546 0 -0.0018692881655605347 0.020088196614403343 0 -0.0014066819836986461 0.020241440261918955 0 -2.4279683169564958e-05 0.024978744961916235 0 -1.3902734095377402e-05 0.02498744914089171 0 -1.0278737510099461e-05 0.024993703291720678 0 -1.6871552199178173e-05 0.024980798833140441 0 -2.4279683169564958e-05 0.024978744961916235 0 -1.3902734095377402e-05 0.02498744914089171 0 -1.6871552199178173e-05 0.024980798833140441 0 -8.4087205883778887e-06 0.024991285817689494 0 -1.3902734095377402e-05 0.02498744914089171 0 -9.840315531512149e-09 0.024999978684349576 0 -8.4087205883778887e-06 0.024991285817689494 0 -1.5633833612002417e-08 0.024999979189634012 0 -8.4087205883778887e-06 0.024991285817689494 0 -1.3902734095377402e-05 0.02498744914089171 0 -1.5633833612002417e-08 0.024999979189634012 0 -0.00039607802959823219 0.023531049766199071 0 3.2802298815981244e-07 0.024999172827179318 0 -3.3281272631742963e-10 0.024999989945184337 0 -5.5631107538133876e-06 0.024991708960843174 0 -2.1598211614036365e-09 0.025000001962334917 0 -3.4928923661002011e-07 0.024999117378666082 0 -0.00039607802959823219 0.023531049766199071 0 -1.3902734095377402e-05 0.02498744914089171 0 -1.5633833612002417e-08 0.024999979189634012 0 -1.0278737510099461e-05 0.024993703291720678 0 -1.427512843402739e-05 0.024970785863758917 0 -1.3386868466102438e-08 0.024999883445982495 0 -1.1751555847731592e-05 0.024986284822042369 0 -1.1751555847731592e-05 0.024986284822042369 0 -3.1371051854155154e-05 0.024986817914600487 0 -9.1094691793367948e-09 0.02500003788387696 0 -1.3386868466102438e-08 0.024999883445982495 0 -1.1751555847731592e-05 0.024986284822042369 0 -9.1094691793367948e-09 0.02500003788387696 0 -5.8058571084298854e-05 0.024940359032355364 0 -1.1751555847731592e-05 0.024986284822042369 0 -3.1371051854155154e-05 0.024986817914600487 0 -3.5765296527445767e-05 0.024958425217239042 0 -6.9436216288160739e-05 0.024920522155560482 0 -3.3134436904710264e-05 0.024929331270529487 0 -1.9190212640743261e-05 0.024964419894643458 0 -6.1679355944702454e-05 0.024917424395060912 0 -7.3153152454265946e-09 0.024999877037334119 0 -7.8980276814589264e-09 0.024999977692641492 0 -1.9190212640743261e-05 0.024964419894643458 0 -3.5765296527445767e-05 0.024958425217239042 0 -1.7590764730571048e-08 0.02499997926034378 0 -3.3134436904710264e-05 0.024929331270529487 0 -7.3153152454265946e-09 0.024999877037334119 0 -1.9190212640743261e-05 0.024964419894643458 0 -7.8980276814589264e-09 0.024999977692641492 0 -1.9190212640743261e-05 0.024964419894643458 0 -1.4631677180379699e-05 0.024987293311738414 0 -1.9190212640743261e-05 0.024964419894643458 0 -4.304917196774768e-05 0.024947962135923981 0 -1.4631677180379699e-05 0.024987293311738414 0 -1.9190212640743261e-05 0.024964419894643458 0 -4.304917196774768e-05 0.024947962135923981 0 -6.1679355944702454e-05 0.024917424395060912 0 -4.304917196774768e-05 0.024947962135923981 0 -1.4631677180379699e-05 0.024987293311738414 0 -4.1779448402388768e-05 0.024971822359143629 0 -1.5668889138703717e-05 0.024999007694259397 0 -1.4631677180379699e-05 0.024987293311738414 0 -2.5138049687197789e-05 0.02499208617760288 0 -1.4631677180379699e-05 0.024987293311738414 0 -4.1779448402388768e-05 0.024971822359143629 0 -2.5138049687197789e-05 0.02499208617760288 0 -4.1779448402388768e-05 0.024971822359143629 0 -4.1885685011535501e-05 0.024992408458844692 0 -2.5138049687197789e-05 0.02499208617760288 0 -2.7464720066429243e-05 0.024997870774069796 0 -4.1885685011535501e-05 0.024992408458844692 0 -2.5138049687197789e-05 0.02499208617760288 0 -1.5668889138703717e-05 0.024999007694259397 0 -2.7464720066429243e-05 0.024997870774069796 0 -2.5138049687197789e-05 0.02499208617760288 0 -6.6315751169424271e-09 0.025000003102482248 0 -7.8980276814589264e-09 0.024999977692641492 0 -1.4631677180379699e-05 0.024987293311738414 0 -6.6315751169424271e-09 0.025000003102482248 0 -1.5668889138703717e-05 0.024999007694259397 0 -1.4631677180379699e-05 0.024987293311738414 0 -9.0384490299700085e-05 0.024798038580233352 0 -7.8135889772390556e-05 0.024806190275356549 0 -8.1340902101448802e-05 0.024785604853409596 0 -9.0384490299700085e-05 0.024798038580233352 0 -7.8135889772390556e-05 0.024806190275356549 0 -8.8778349895399502e-05 0.024827766762856987 0 -7.168343784282486e-05 0.024780913208963355 0 -7.8135889772390556e-05 0.024806190275356549 0 -8.1340902101448802e-05 0.024785604853409596 0 -7.168343784282486e-05 0.024780913208963355 0 -7.8135889772390556e-05 0.024806190275356549 0 -6.2051375895041811e-05 0.024817334894298982 0 -8.5587439164013768e-05 0.024791983290968565 0 -0.00014952789289169907 0.024776052374061858 0 -7.168343784282486e-05 0.024780913208963355 0 -0.00012299541893546765 0.024742926767657377 0 -4.8151638988456542e-05 0.024749741906477957 0 -9.0384490299700085e-05 0.024798038580233352 0 -6.9620083016655956e-05 0.024778446570887697 0 -8.9627326457265139e-05 0.024764465500405841 0 -0.00014952789289169907 0.024776052374061858 0 -0.00013275988039191804 0.024632719616416811 0 -0.00011392625212721347 0.024770131085429786 0 -0.00014952789289169907 0.024776052374061858 0 -7.8726544331824574e-05 0.024744221769155538 0 -0.00014244515239248491 0.024783168412476634 0 -0.00012424505971844334 0.024809537580245504 0 -0.00013275988039191804 0.024632719616416811 0 -0.00014386722442877143 0.02480056771605494 0 -5.1486306266125221e-05 0.025038510073479094 0 -4.1885685011535501e-05 0.024992408458844692 0 -7.2701092511508417e-05 0.024985533902256055 0 -9.0384490299700085e-05 0.024798038580233352 0 -8.9627326457265139e-05 0.024764465500405841 0 -0.00012424505971844334 0.024809537580245504 0 -0.00017143327566828209 0.024681975687155022 0 -7.8726544331824574e-05 0.024744221769155538 0 -0.00014244515239248491 0.024783168412476634 0 -0.00014244515239248491 0.024783168412476634 0 -0.00012424505971844334 0.024809537580245504 0 -9.265606183566242e-05 0.024894688921971858 0 -4.1779448402388768e-05 0.024971822359143629 0 -7.2701092511508417e-05 0.024985533902256055 0 -9.265606183566242e-05 0.024894688921971858 0 -4.1779448402388768e-05 0.024971822359143629 0 -4.1885685011535501e-05 0.024992408458844692 0 -7.2701092511508417e-05 0.024985533902256055 0 -9.0384490299700085e-05 0.024798038580233352 0 -0.00012424505971844334 0.024809537580245504 0 -8.8778349895399502e-05 0.024827766762856987 0 -0.00012424505971844334 0.024809537580245504 0 -9.265606183566242e-05 0.024894688921971858 0 -8.8778349895399502e-05 0.024827766762856987 0 -0.00010357703013891731 0.024891425387277157 0 -9.7527676094280567e-05 0.024890896285447037 0 -4.304917196774768e-05 0.024947962135923981 0 -4.1779448402388768e-05 0.024971822359143629 0 -9.265606183566242e-05 0.024894688921971858 0 -4.304917196774768e-05 0.024947962135923981 0 -9.265606183566242e-05 0.024894688921971858 0 -6.1679355944702454e-05 0.024917424395060912 0 -9.265606183566242e-05 0.024894688921971858 0 -8.0999120946343044e-05 0.024868281387065917 0 -7.7008179048072327e-05 0.024838592641090888 0 -9.265606183566242e-05 0.024894688921971858 0 -8.8778349895399502e-05 0.024827766762856987 0 -7.7008179048072327e-05 0.024838592641090888 0 -7.8135889772390556e-05 0.024806190275356549 0 -8.8778349895399502e-05 0.024827766762856987 0 -7.7008179048072327e-05 0.024838592641090888 0 -7.8135889772390556e-05 0.024806190275356549 0 -7.7008179048072327e-05 0.024838592641090888 0 -6.2051375895041811e-05 0.024817334894298982 0 -8.0999120946343044e-05 0.024868281387065917 0 -7.7008179048072327e-05 0.024838592641090888 0 -6.4649921879486916e-05 0.024848742870910694 0 -7.7008179048072327e-05 0.024838592641090888 0 -6.4649921879486916e-05 0.024848742870910694 0 -6.2051375895041811e-05 0.024817334894298982 0 -8.2572045687286008e-05 0.02488214672756555 0 -7.5560452901010777e-05 0.024891866212508149 0 -7.4284693122635522e-05 0.024889276237432575 0 -8.0999120946343044e-05 0.024868281387065917 0 -8.2572045687286008e-05 0.02488214672756555 0 -7.1500667271594468e-05 0.02487241264644283 0 -8.0999120946343044e-05 0.024868281387065917 0 -6.4649921879486916e-05 0.024848742870910694 0 -7.1500667271594468e-05 0.02487241264644283 0 -9.265606183566242e-05 0.024894688921971858 0 -8.0999120946343044e-05 0.024868281387065917 0 -8.2572045687286008e-05 0.02488214672756555 0 -8.2572045687286008e-05 0.02488214672756555 0 -7.1500667271594468e-05 0.02487241264644283 0 -7.4284693122635522e-05 0.024889276237432575 0 -3.3134436904710264e-05 0.024929331270529487 0 -6.1679355944702454e-05 0.024917424395060912 0 -7.5560452901010777e-05 0.024891866212508149 0 -9.265606183566242e-05 0.024894688921971858 0 -8.2572045687286008e-05 0.02488214672756555 0 -6.1679355944702454e-05 0.024917424395060912 0 -8.2572045687286008e-05 0.02488214672756555 0 -6.1679355944702454e-05 0.024917424395060912 0 -7.5560452901010777e-05 0.024891866212508149 0 -0.0010934475442178717 0.022576163302245385 0 -0.0013528986759025461 0.022685018315150528 0 -5.8058571084298854e-05 0.024940359032355364 0 -3.1371051854155154e-05 0.024986817914600487 0 -7.1469906158314877e-05 0.024948396406657209 0 -5.8058571084298854e-05 0.024940359032355364 0 -7.1469906158314877e-05 0.024948396406657209 0 -8.4222395552685598e-05 0.024911979321872495 0 -7.1469906158314877e-05 0.024948396406657209 0 -7.4284693122635522e-05 0.024889276237432575 0 -8.4222395552685598e-05 0.024911979321872495 0 -6.9436216288160739e-05 0.024920522155560482 0 -7.1442461915434828e-05 0.024897578586267281 0 -0.0024110093873589123 0.020269540777941495 0 -0.002677887962809667 0.020482023606619815 0 -0.0027202455855546664 0.020384359401988978 0 -0.002677887962809667 0.020482023606619815 0 -0.0027202455855546664 0.020384359401988978 0 -0.0028001684142058749 0.020397861743342134 0 -0.0013528986759025461 0.022685018315150528 0 -0.001490508987522907 0.022854834087799984 0 -7.4284693122635522e-05 0.024889276237432575 0 -8.4222395552685598e-05 0.024911979321872495 0 -3.5151142457888066e-05 0.024863379713097673 0 -0.002677887962809667 0.020482023606619815 0 -0.0028001684142058749 0.020397861743342134 0 -0.0028733098350659336 0.020489760281394848 0 -0.0028001684142058749 0.020397861743342134 0 -0.0029079013465602354 0.02039333856499663 0 -0.0028733098350659336 0.020489760281394848 0 -0.0029079013465602354 0.02039333856499663 0 -0.0030422817312170114 0.02055916797356622 0 -0.0029992505836458606 0.020357586952606227 0 -0.0029079013465602354 0.02039333856499663 0 -0.0028733098350659336 0.020489760281394848 0 -0.0030422817312170114 0.02055916797356622 0 -1.5549900262720603e-05 0.024821813480722967 0 1.8054182302196122e-05 0.024785177113232353 0 3.0567065276960053e-05 0.024802328753230116 0 -0.001490508987522907 0.022854834087799984 0 -0.001624456502557392 0.021086626652651558 0 -3.5151142457888066e-05 0.024863379713097673 0 -1.5549900262720603e-05 0.024821813480722967 0 3.0567065276960053e-05 0.024802328753230116 0 -7.4284693122635522e-05 0.024889276237432575 0 -3.5151142457888066e-05 0.024863379713097673 0 -5.2715349428991397e-05 0.024857048381794644 0 -7.1500667271594468e-05 0.02487241264644283 0 -7.4284693122635522e-05 0.024889276237432575 0 -5.2715349428991397e-05 0.024857048381794644 0 -3.5151142457888066e-05 0.024863379713097673 0 -1.5549900262720603e-05 0.024821813480722967 0 -5.2715349428991397e-05 0.024857048381794644 0 -1.5549900262720603e-05 0.024821813480722967 0 -5.2715349428991397e-05 0.024857048381794644 0 -4.1096315280226128e-05 0.024825656843826122 0 -6.4649921879486916e-05 0.024848742870910694 0 -5.2715349428991397e-05 0.024857048381794644 0 -4.1096315280226128e-05 0.024825656843826122 0 -6.4649921879486916e-05 0.024848742870910694 0 -7.1500667271594468e-05 0.02487241264644283 0 -5.2715349428991397e-05 0.024857048381794644 0 -6.4649921879486916e-05 0.024848742870910694 0 -6.2051375895041811e-05 0.024817334894298982 0 -4.1096315280226128e-05 0.024825656843826122 0 -7.168343784282486e-05 0.024780913208963355 0 -6.2051375895041811e-05 0.024817334894298982 0 -3.5561244905951707e-05 0.024791540661391297 0 -6.2051375895041811e-05 0.024817334894298982 0 -3.5561244905951707e-05 0.024791540661391297 0 -4.1096315280226128e-05 0.024825656843826122 0 -3.5561244905951707e-05 0.024791540661391297 0 -4.1096315280226128e-05 0.024825656843826122 0 -1.10230927863949e-05 0.024798396740649993 0 -1.5549900262720603e-05 0.024821813480722967 0 -4.1096315280226128e-05 0.024825656843826122 0 -1.10230927863949e-05 0.024798396740649993 0 -1.10230927863949e-05 0.024798396740649993 0 2.6886016653317905e-05 0.024739327644848444 0 1.8054182302196122e-05 0.024785177113232353 0 -1.10230927863949e-05 0.024798396740649993 0 -6.8142841755777646e-06 0.024767833302171156 0 2.6886016653317905e-05 0.024739327644848444 0 -1.5549900262720603e-05 0.024821813480722967 0 -1.10230927863949e-05 0.024798396740649993 0 1.8054182302196122e-05 0.024785177113232353 0 -3.5561244905951707e-05 0.024791540661391297 0 -1.10230927863949e-05 0.024798396740649993 0 -6.8142841755777646e-06 0.024767833302171156 0 3.8944349498653204e-06 0.024703002921778714 0 -1.2833285535809903e-05 0.024740695400785277 0 2.6886016653317905e-05 0.024739327644848444 0 0.00074562488327976765 0.020783658727143377 0 0.00080018680947581584 0.020784692437147381 0 0.00076179538833180769 0.020726553942774759 0 -6.8142841755777646e-06 0.024767833302171156 0 -1.2833285535809903e-05 0.024740695400785277 0 2.6886016653317905e-05 0.024739327644848444 0 0.00023253373771724156 0.022979914045280866 0 0.00057938293734474211 0.022968667137241768 0 0.00023253373771724156 0.022979914045280866 0 -0.00034146762871877352 0.024837489138667058 0 -2.8260158116995727e-05 0.02469210507302062 0 3.0342238926236257e-05 0.02468260290211358 0 -1.2833285535809903e-05 0.024740695400785277 0 -2.8260158116995727e-05 0.02469210507302062 0 -1.2833285535809903e-05 0.024740695400785277 0 -4.8151638988456542e-05 0.024749741906477957 0 -2.8260158116995727e-05 0.02469210507302062 0 -0.00012299541893546765 0.024742926767657377 0 -4.8151638988456542e-05 0.024749741906477957 0 -7.168343784282486e-05 0.024780913208963355 0 -3.5561244905951707e-05 0.024791540661391297 0 -4.8151638988456542e-05 0.024749741906477957 0 -3.5561244905951707e-05 0.024791540661391297 0 -1.2833285535809903e-05 0.024740695400785277 0 -4.8151638988456542e-05 0.024749741906477957 0 -3.5561244905951707e-05 0.024791540661391297 0 -6.8142841755777646e-06 0.024767833302171156 0 -1.2833285535809903e-05 0.024740695400785277 0 0.0010635959331934521 0.016193192982495171 0 0.0010539128200683014 0.016193545155179762 0 0.0010231944806195954 0.016215313028847315 0 0.0010180044824752851 0.017666863829367826 0 0.00039398034615799094 0.020305218251025964 0 0.0010539128200683014 0.016193545155179762 0 0.0010444504034738968 0.016179798524221162 0 0.0010484938024589326 0.016174820723787762 0 0.0010274945838785611 0.016226903999195939 0 0.0010539128200683014 0.016193545155179762 0 0.0010484938024589326 0.016174820723787762 0 0.0010274945838785611 0.016226903999195939 0 0.0010795722283383426 0.016253166066759188 0 0.0010539128200683014 0.016193545155179762 0 0.0010180044824752851 0.017666863829367826 0 0.00099678016440467613 0.015817536224096811 0 0.00068750944315630863 0.020761713544924485 0 0.00076179538833180769 0.020726553942774759 0 0.00071888151095704988 0.020668490410422579 0 2.6886016653317905e-05 0.024739327644848444 0 1.8054182302196122e-05 0.024785177113232353 0 4.7100173491566443e-05 0.024754852202516119 0 0.00057938293734474211 0.022968667137241768 0 0.00039398034615799094 0.020305218251025964 0 1.8054182302196122e-05 0.024785177113232353 0 4.7100173491566443e-05 0.024754852202516119 0 3.0567065276960053e-05 0.024802328753230116 0 0.00039398034615799094 0.020305218251025964 0 -7.0377422997653269e-05 0.017720690607327633 0 0.0010231944806195954 0.016215313028847315 0 0.0010444504034738968 0.016179798524221162 0 0.0010235516593236802 0.01623238425460698 0 0.0010539128200683014 0.016193545155179762 0 0.0010231944806195954 0.016215313028847315 0 0.0010444504034738968 0.016179798524221162 0 -7.0377422997653269e-05 0.017720690607327633 0 -0.00012437771530638713 0.018263807176370543 0 -0.00091064061631425039 0.018669750099419128 0 -0.0015518852246033069 0.01890674527684362 0 -0.0011160727264168705 0.019690072702160513 0 0.00039398034615799094 0.020305218251025964 0 -0.001624456502557392 0.021086626652651558 0 -7.0377422997653269e-05 0.017720690607327633 0 -0.001624456502557392 0.021086626652651558 0 -0.00046565266357675251 0.01936748072328864 0 -0.00012805099409215817 0.019771296757888069 0 -0.00067845898972793551 0.019976756722078329 0 -0.001624456502557392 0.021086626652651558 0 -0.0023363310679171533 0.019740783014152462 0 -0.0015518852246033069 0.01890674527684362 0 -0.0011160727264168705 0.019690072702160513 0 -0.0019233358520002858 0.019990170688821862 0 -0.00098782145598975773 0.01908719584650401 0 -0.0023363310679171533 0.019740783014152462 0 -0.00092381574332608279 0.018474637696860422 0 -2.9850186584444649e-05 0.01863847397789159 0 0.00010695782654006397 0.018131589084554919 0 -0.00098782145598975773 0.01908719584650401 0 -0.00012437771530638713 0.018263807176370543 0 -0.00091064061631425039 0.018669750099419128 0 -0.0011160727264168705 0.019690072702160513 0 -0.00031100866214510105 0.019385845358593289 0 -0.00092381574332608279 0.018474637696860422 0 -0.0001996817223042784 0.019173241817663802 0 -2.9850186584444649e-05 0.01863847397789159 0 -0.00092381574332608279 0.018474637696860422 0 -0.0001996817223042784 0.019173241817663802 0 -0.0011450964309362393 0.019280743290460797 0 -0.0001996817223042784 0.019173241817663802 0 -0.0011813500834095083 0.020055730136648044 0 -0.0011450964309362393 0.019280743290460797 0 -0.0001996817223042784 0.019173241817663802 0 -0.00011738125813947803 0.020701292772349413 0 -0.0011813500834095083 0.020055730136648044 0 -0.00011738125813947803 0.020701292772349413 0 -0.0011813500834095083 0.020055730136648044 0 -0.002228040005085483 0.021107788434024458 0 -0.0011813500834095083 0.020055730136648044 0 -0.0021018730517946582 0.020285627905667306 0 -0.002228040005085483 0.021107788434024458 0 -0.0021018730517946582 0.020285627905667306 0 -0.0017376650943533888 0.019774351401892716 0 -0.0024076324505044088 0.020059820032633409 0 -0.0011813500834095083 0.020055730136648044 0 -0.0021018730517946582 0.020285627905667306 0 -0.0017376650943533888 0.019774351401892716 0 -0.00092381574332608279 0.018474637696860422 0 -0.0011450964309362393 0.019280743290460797 0 -0.0021900404797816206 0.019013869523436661 0 -0.0017376650943533888 0.019774351401892716 0 -0.0021900404797816206 0.019013869523436661 0 -0.0024076324505044088 0.020059820032633409 0 -0.0011813500834095083 0.020055730136648044 0 -0.0017376650943533888 0.019774351401892716 0 -0.0011450964309362393 0.019280743290460797 0 -0.0017376650943533888 0.019774351401892716 0 -0.0011450964309362393 0.019280743290460797 0 -0.0021900404797816206 0.019013869523436661 0 -0.0029079013465602354 0.02039333856499663 0 -0.0029992505836458606 0.020357586952606227 0 -0.0028054898242387423 0.020241100981978337 0 -0.0023278189333166815 0.019813225981744509 0 -0.0024076324505044088 0.020059820032633409 0 -0.0028054898242387423 0.020241100981978337 0 -0.0023363310679171533 0.019740783014152462 0 -0.0029322408793334997 0.020309592448127724 0 -0.0023363310679171533 0.019740783014152462 0 -0.0023630675645328596 0.019850011116577561 0 -0.0024076324505044088 0.020059820032633409 0 -0.0028054898242387423 0.020241100981978337 0 -0.0025830924602493533 0.020373252714558719 0 -0.0027202455855546664 0.020384359401988978 0 -0.0028001684142058749 0.020397861743342134 0 -0.0028054898242387423 0.020241100981978337 0 -0.0027947061888289747 0.020319079394870449 0 -0.0027202455855546664 0.020384359401988978 0 -0.0028054898242387423 0.020241100981978337 0 -0.0028001684142058749 0.020397861743342134 0 -0.0029079013465602354 0.02039333856499663 0 -0.0028054898242387423 0.020241100981978337 0 -0.0027947061888289747 0.020319079394870449 0 -0.0028054898242387423 0.020241100981978337 0 -0.0028593341261758049 0.0204056935935596 0 -0.0028054898242387423 0.020241100981978337 0 -0.0028593341261758049 0.0204056935935596 0 -0.0025830924602493533 0.020373252714558719 0 -0.0028593341261758049 0.0204056935935596 0 -0.0025830924602493533 0.020373252714558719 0 -0.002228040005085483 0.021107788434024458 0 -0.0014470281842678448 0.022103037030216391 0 -0.0010114401377700867 0.022298187705687797 0 -0.0021018730517946582 0.020285627905667306 0 -0.0024076324505044088 0.020059820032633409 0 -0.0025830924602493533 0.020373252714558719 0 -0.0021018730517946582 0.020285627905667306 0 -0.0025830924602493533 0.020373252714558719 0 -0.002228040005085483 0.021107788434024458 0 8.3028721010901616e-06 0.023832402994116132 0 1.0438667079722841e-05 0.023791266288113601 0 -1.8459986195944085e-05 0.023503313601459134 0 1.0438667079722841e-05 0.023791266288113601 0 1.3997854732320496e-05 0.023583797095483305 0 -1.8459986195944085e-05 0.023503313601459134 0 -3.0004333032818213e-06 0.023931468070202785 0 8.3028721010901616e-06 0.023832402994116132 0 1.0438667079722841e-05 0.023791266288113601 0 -2.5979389067392534e-05 0.0241890449839164 0 1.0438667079722841e-05 0.023791266288113601 0 5.2646395277859032e-05 0.024076061110906877 0 -2.5979389067392534e-05 0.0241890449839164 0 -3.0004333032818213e-06 0.023931468070202785 0 1.0438667079722841e-05 0.023791266288113601 0 1.3997854732320496e-05 0.023583797095483305 0 0.00010808284228963845 0.023684219012626462 0 5.2646395277859032e-05 0.024076061110906877 0 1.0438667079722841e-05 0.023791266288113601 0 1.3997854732320496e-05 0.023583797095483305 0 5.2646395277859032e-05 0.024076061110906877 0 1.3997854732320496e-05 0.023583797095483305 0 0.00010808284228963845 0.023684219012626462 0 -4.0338371543972942e-06 0.02317093395825072 0 -4.0338371543972942e-06 0.02317093395825072 0 0.00056231868645273831 0.023176266631550379 0 0.0004481531097183476 0.023615189738310418 0 0.00010808284228963845 0.023684219012626462 0 -4.0338371543972942e-06 0.02317093395825072 0 0.0004481531097183476 0.023615189738310418 0 5.7313140512051869e-05 0.022347555303675999 0 -4.0338371543972942e-06 0.02317093395825072 0 0.00056231868645273831 0.023176266631550379 0 -0.00011738125813947803 0.020701292772349413 0 5.7313140512051869e-05 0.022347555303675999 0 -0.002228040005085483 0.021107788434024458 0 1.3997854732320496e-05 0.023583797095483305 0 -4.0338371543972942e-06 0.02317093395825072 0 -1.8459986195944085e-05 0.023503313601459134 0 5.9213784267529795e-05 0.022400422552918586 0 -0.0010114401377700867 0.022298187705687797 0 5.7313140512051869e-05 0.022347555303675999 0 -4.0338371543972942e-06 0.02317093395825072 0 -1.8459986195944085e-05 0.023503313601459134 0 0.00069276306952607304 0.019488440607975575 0 0.0010171969075562803 0.019519492570526185 0 0.00067023542270893994 0.019501167564459802 0 0.00094137484175228845 0.019504312781919771 0 0.00075439819219839022 0.019270262232530675 0 0.0006880329082672381 0.019475634586362426 0 0.00067023542270893994 0.019501167564459802 0 0.00084377564780209078 0.019634638185676786 0 0.00067023542270893994 0.019501167564459802 0 0.00084377564780209078 0.019634638185676786 0 0.0010956890236151243 0.0195176297030333 0 -0.00011738125813947803 0.020701292772349413 0 5.7313140512051869e-05 0.022347555303675999 0 0.0013066338348203625 0.022774774593544038 0 5.7313140512051869e-05 0.022347555303675999 0 0.0013066338348203625 0.022774774593544038 0 0.00056231868645273831 0.023176266631550379 0 0.0006880329082672381 0.019475634586362426 0 0.00067023542270893994 0.019501167564459802 0 0.00067578323222494891 0.019743912983129573 0 0.00095761858179387884 0.021084351263239494 0 0.00070937153093756885 0.019830948751744019 0 0.00056231868645273831 0.023176266631550379 0 0.0010650710391236051 0.023831552290207267 0 0.0004481531097183476 0.023615189738310418 0 0.0013066338348203625 0.022774774593544038 0 0.00056231868645273831 0.023176266631550379 0 0.0010650710391236051 0.023831552290207267 0 0.0006880329082672381 0.019475634586362426 0 0.00084377564780209078 0.019634638185676786 0 0.00070564629347458208 0.019928536138317181 0 0.00095761858179387884 0.021084351263239494 0 0.00089835925491590419 0.021862010574816553 0 0.00084377564780209078 0.019634638185676786 0 0.0010956890236151243 0.0195176297030333 0 0.0011003684088623171 0.019919924413176679 0 0.00094137484175228845 0.019504312781919771 0 0.0012617860018893474 0.019266302799182129 0 0.0015192535024281006 0.019667865067315604 0 0.0010956890236151243 0.0195176297030333 0 0.001605557950882351 0.019659856168377392 0 0.0011003684088623171 0.019919924413176679 0 0.0010171969075562803 0.019519492570526185 0 0.0015687321111285994 0.019662489757498635 0 0.00094137484175228845 0.019504312781919771 0 0.0012617860018893474 0.019266302799182129 0 0.001058226138531247 0.018988900550681885 0 0.00094137484175228845 0.019504312781919771 0 0.001058226138531247 0.018988900550681885 0 0.00075439819219839022 0.019270262232530675 0 0.001058226138531247 0.018988900550681885 0 0.00082983856707217086 0.018691206234531375 0 0.00075439819219839022 0.019270262232530675 0 0.0012617860018893474 0.019266302799182129 0 0.001058226138531247 0.018988900550681885 0 0.0014334946033024484 0.018746307149469042 0 0.001058226138531247 0.018988900550681885 0 0.0011143730430162469 0.018424903794268872 0 0.0014334946033024484 0.018746307149469042 0 0.0011143730430162469 0.018424903794268872 0 0.00082983856707217086 0.018691206234531375 0 0.00097154322689032852 0.017968577913587004 0 0.001058226138531247 0.018988900550681885 0 0.0011143730430162469 0.018424903794268872 0 0.00082983856707217086 0.018691206234531375 0 0.00082983856707217086 0.018691206234531375 0 0.00070629808464742422 0.01908208718888868 0 0.00075439819219839022 0.019270262232530675 0 0.00082983856707217086 0.018691206234531375 0 0.00070629808464742422 0.01908208718888868 0 0.00064326043896929569 0.018523350536384899 0 0.00070629808464742422 0.01908208718888868 0 0.00041220016020794445 0.018926185370074518 0 0.00064326043896929569 0.018523350536384899 0 0.00067023542270893994 0.019501167564459802 0 0.00075439819219839022 0.019270262232530675 0 0.00067578323222494891 0.019743912983129573 0 0.00070629808464742422 0.01908208718888868 0 0.00075439819219839022 0.019270262232530675 0 0.00067578323222494891 0.019743912983129573 0 -0.00011738125813947803 0.020701292772349413 0 0.0013066338348203625 0.022774774593544038 0 0.00067578323222494891 0.019743912983129573 0 -0.0001996817223042784 0.019173241817663802 0 -0.00011738125813947803 0.020701292772349413 0 0.00067578323222494891 0.019743912983129573 0 -0.0001996817223042784 0.019173241817663802 0 0.00067578323222494891 0.019743912983129573 0 0.00041220016020794445 0.018926185370074518 0 0.00070629808464742422 0.01908208718888868 0 0.00067578323222494891 0.019743912983129573 0 0.00041220016020794445 0.018926185370074518 0 -0.0001996817223042784 0.019173241817663802 0 0.00041220016020794445 0.018926185370074518 0 -2.9850186584444649e-05 0.01863847397789159 0 0.00030367020822272002 0.018443883434802522 0 0.00018905827242861266 0.018306428850254956 0 0.0006669941819227263 0.017881021958107778 0 0.00041220016020794445 0.018926185370074518 0 -2.9850186584444649e-05 0.01863847397789159 0 0.00030367020822272002 0.018443883434802522 0 -2.9850186584444649e-05 0.01863847397789159 0 0.00030367020822272002 0.018443883434802522 0 0.00010695782654006397 0.018131589084554919 0 0.00041220016020794445 0.018926185370074518 0 0.00030367020822272002 0.018443883434802522 0 0.00064326043896929569 0.018523350536384899 0 0.00011878118022298547 0.018419977316164102 0 -0.00012437771530638713 0.018263807176370543 0 0.00030367020822272002 0.018443883434802522 0 0.00064326043896929569 0.018523350536384899 0 0.0006669941819227263 0.017881021958107778 0 0.00064326043896929569 0.018523350536384899 0 0.0006669941819227263 0.017881021958107778 0 0.00077391052841076615 0.018202694573149134 0 0.00082983856707217086 0.018691206234531375 0 0.00064326043896929569 0.018523350536384899 0 0.00077391052841076615 0.018202694573149134 0 -2.4288764168690937e-05 0.016943964561324524 0 0.000406699447283026 0.016765557490513946 0 0.00022266004846891333 0.016686468913087928 0 -0.00012437771530638713 0.018263807176370543 0 0.00061251347686460203 0.017216924134792835 0 0.000406699447283026 0.016765557490513946 0 0.00022266004846891333 0.016686468913087928 0 0.00047296636603711757 0.016543303460182124 0 -0.00025115642541442135 0.016670425094597218 0 3.9776065215771755e-05 0.016697196886892213 0 0.0002159337813936757 0.016482893325436152 0 -0.00025115642541442135 0.016670425094597218 0 -2.4288764168690937e-05 0.016943964561324524 0 3.9776065215771755e-05 0.016697196886892213 0 -2.4288764168690937e-05 0.016943964561324524 0 0.00022266004846891333 0.016686468913087928 0 3.9776065215771755e-05 0.016697196886892213 0 0.00022266004846891333 0.016686468913087928 0 3.9776065215771755e-05 0.016697196886892213 0 0.0002159337813936757 0.016482893325436152 0 -7.0377422997653269e-05 0.017720690607327633 0 0.00079146745034605593 0.016129010090291936 0 0.0010444504034738968 0.016179798524221162 0 0.0010235516593236802 0.01623238425460698 0 0.0010938533381637985 0.016176038553500843 0 0.0010444504034738968 0.016179798524221162 0 0.0010668377643692384 0.016126949382660519 0 0.0010938533381637985 0.016176038553500843 0 0.0010668377643692384 0.016126949382660519 0 0.0010938533381637985 0.016176038553500843 0 0.0011002211512022959 0.016133588209343023 0 0.00079146745034605593 0.016129010090291936 0 0.00090358717948842919 0.016218972495873424 0 0.0002159337813936757 0.016482893325436152 0 0.00067312936824261995 0.016287825175947731 0 0.00047296636603711757 0.016543303460182124 0 0.00022266004846891333 0.016686468913087928 0 0.0002159337813936757 0.016482893325436152 0 0.00047296636603711757 0.016543303460182124 0 0.0010938533381637985 0.016176038553500843 0 0.0011374445724471121 0.016111223957458436 0 0.0012100813822075315 0.016085270714901193 0 0.0010938533381637985 0.016176038553500843 0 0.0011002211512022959 0.016133588209343023 0 0.0011374445724471121 0.016111223957458436 0 0.0011032642184566253 0.016128745262804153 0 0.0011374445724471121 0.016111223957458436 0 0.0011319780253799862 0.016106494797579449 0 0.0011002211512022959 0.016133588209343023 0 0.0011032642184566253 0.016128745262804153 0 0.0011374445724471121 0.016111223957458436 0 0.001173409720248397 0.016049026675019871 0 0.0011374445724471121 0.016111223957458436 0 0.0011813124125554257 0.016065818501614999 0 0.001173409720248397 0.016049026675019871 0 0.0011374445724471121 0.016111223957458436 0 0.0011319780253799862 0.016106494797579449 0 0.0011032642184566253 0.016128745262804153 0 0.0011319780253799862 0.016106494797579449 0 0.0011095728612827902 0.016181246815867769 0 0.0011547047048986589 0.016057201655826619 0 0.0011319780253799862 0.016106494797579449 0 0.0011095728612827902 0.016181246815867769 0 0.0012697399058284129 0.016301037438720092 0 0.0010668377643692384 0.016126949382660519 0 0.0011095728612827902 0.016181246815867769 0 0.0010274945838785611 0.016226903999195939 0 0.0010668377643692384 0.016126949382660519 0 0.0010484938024589326 0.016174820723787762 0 0.0011162791225112572 0.016164020641570132 0 0.0011002713745525885 0.01618845305285849 0 0.0010444504034738968 0.016179798524221162 0 0.0010668377643692384 0.016126949382660519 0 0.0010484938024589326 0.016174820723787762 0 0.0010668377643692384 0.016126949382660519 0 0.0011032642184566253 0.016128745262804153 0 0.0011095728612827902 0.016181246815867769 0 0.0010668377643692384 0.016126949382660519 0 0.0011002211512022959 0.016133588209343023 0 0.0011032642184566253 0.016128745262804153 0 0.0012314171198978682 0.015986593638690805 0 0.0012100813822075315 0.016085270714901193 0 0.0012639267197675015 0.015954818908016321 0 0.00090358717948842919 0.016218972495873424 0 0.0012106353148888809 0.015991865899011665 0 0.00067312936824261995 0.016287825175947731 0 0.00098660102344152491 0.016337212125619578 0 0.0011511542812824825 0.01605978631883178 0 0.0011374445724471121 0.016111223957458436 0 0.0012100813822075315 0.016085270714901193 0 0.0011813124125554257 0.016065818501614999 0 0.0012059426049385324 0.016012484101891857 0 0.0012314171198978682 0.015986593638690805 0 0.0012100813822075315 0.016085270714901193 0 0.0012059426049385324 0.016012484101891857 0 0.0012100813822075315 0.016085270714901193 0 0.0011813124125554257 0.016065818501614999 0 0.0012059426049385324 0.016012484101891857 0 0.001173409720248397 0.016049026675019871 0 0.0011813124125554257 0.016065818501614999 0 0.00067312936824261995 0.016287825175947731 0 0.00047296636603711757 0.016543303460182124 0 0.00083390242339928902 0.016588261973004028 0 0.00067312936824261995 0.016287825175947731 0 0.00098660102344152491 0.016337212125619578 0 0.00083390242339928902 0.016588261973004028 0 0.0010049641673108237 0.017224451923723589 0 0.00097154322689032852 0.017968577913587004 0 0.0014144291526287074 0.017692654256283236 0 0.00061251347686460203 0.017216924134792835 0 0.00093069312242736373 0.016897663566579468 0 0.000406699447283026 0.016765557490513946 0 0.00047296636603711757 0.016543303460182124 0 0.00083390242339928902 0.016588261973004028 0 0.0006669941819227263 0.017881021958107778 0 0.0010049641673108237 0.017224451923723589 0 0.00097154322689032852 0.017968577913587004 0 0.0006669941819227263 0.017881021958107778 0 0.00097154322689032852 0.017968577913587004 0 0.00077391052841076615 0.018202694573149134 0 0.00082983856707217086 0.018691206234531375 0 0.00097154322689032852 0.017968577913587004 0 0.00077391052841076615 0.018202694573149134 0 0.0011143730430162469 0.018424903794268872 0 0.00097154322689032852 0.017968577913587004 0 0.0014144291526287074 0.017692654256283236 0 0.0014144291526287074 0.017692654256283236 0 0.0017192096417313291 0.017421230208167486 0 0.0017819908014133352 0.01748938288461856 0 0.0014144291526287074 0.017692654256283236 0 0.0017192096417313291 0.017421230208167486 0 0.0016645211824930085 0.017143072809527499 0 0.0014264571999818159 0.01767845923859843 0 0.0019781139118998032 0.017965885378291198 0 0.0015537076517680819 0.016561223205438031 0 0.0013589449314613128 0.017053339411278057 0 0.0013052979435623081 0.016414931803281775 0 0.0014144291526287074 0.017692654256283236 0 0.0016645211824930085 0.017143072809527499 0 0.0013589449314613128 0.017053339411278057 0 0.0016645211824930085 0.017143072809527499 0 0.0015537076517680819 0.016561223205438031 0 0.0013589449314613128 0.017053339411278057 0 0.0010049641673108237 0.017224451923723589 0 0.0014144291526287074 0.017692654256283236 0 0.0013589449314613128 0.017053339411278057 0 0.00093069312242736373 0.016897663566579468 0 0.0013362002220468558 0.016465839359457238 0 0.00098660102344152491 0.016337212125619578 0 0.00083390242339928902 0.016588261973004028 0 0.0013052979435623081 0.016414931803281775 0 0.00098660102344152491 0.016337212125619578 0 0.0013052979435623081 0.016414931803281775 0 0.0011511542812824825 0.01605978631883178 0 0.0010049641673108237 0.017224451923723589 0 0.0013589449314613128 0.017053339411278057 0 0.0013052979435623081 0.016414931803281775 0 0.0013052979435623081 0.016414931803281775 0 0.0012905701045263275 0.016064477031967891 0 0.0013741883441192747 0.016054145305177247 0 0.0015537076517680819 0.016561223205438031 0 0.0013052979435623081 0.016414931803281775 0 0.0013741883441192747 0.016054145305177247 0 0.0012878567933809148 0.015797572653866644 0 0.0012905701045263275 0.016064477031967891 0 0.0013741883441192747 0.016054145305177247 0 0.0012878567933809148 0.015797572653866644 0 0.0012905701045263275 0.016064477031967891 0 0.0011511542812824825 0.01605978631883178 0 0.0013052979435623081 0.016414931803281775 0 0.0012905701045263275 0.016064477031967891 0 0.0011511542812824825 0.01605978631883178 0 0.0012922132760079352 0.015827882435683161 0 0.0012106353148888809 0.015991865899011665 0 0.00121162785911361 0.015692355393361106 0 0.0012683074632340555 0.015796017655368005 0 0.0013465395832869323 0.01598503905967523 0 0.0010931021121824208 0.015502221947710296 0 0.00121162785911361 0.015692355393361106 0 0.0012683074632340555 0.015796017655368005 0 0.0012683074632340555 0.015796017655368005 0 0.0013741883441192747 0.016054145305177247 0 0.0013465395832869323 0.01598503905967523 0 0.0012878567933809148 0.015797572653866644 0 0.0012683074632340555 0.015796017655368005 0 0.0013741883441192747 0.016054145305177247 0 0.0015537076517680819 0.016561223205438031 0 0.0013741883441192747 0.016054145305177247 0 0.0013465395832869323 0.01598503905967523 0 0.00121162785911361 0.015692355393361106 0 0.0013465395832869323 0.01598503905967523 0 0.0012431210680946653 0.015800415220439609 0 0.0013465395832869323 0.01598503905967523 0 0.0012431210680946653 0.015800415220439609 0 0.0012930907013864086 0.01584029334387406 0 0.0012437276102553224 0.015750030459846923 0 0.0012431210680946653 0.015800415220439609 0 0.0012930907013864086 0.01584029334387406 0 0.0015537076517680819 0.016561223205438031 0 0.0013465395832869323 0.01598503905967523 0 0.0012930907013864086 0.01584029334387406 0 0.0015285100680168077 0.01650439443134525 0 0.0016889771427134658 0.016485677564968479 0 0.0016645211824930085 0.017143072809527499 0 0.0015537076517680819 0.016561223205438031 0 0.0021788184024161229 0.017020300527874357 0 0.0016645211824930085 0.017143072809527499 0 0.0021788184024161229 0.017020300527874357 0 0.0019337194101730064 0.017282231638695512 0 0.0017192096417313291 0.017421230208167486 0 0.0016645211824930085 0.017143072809527499 0 0.0019337194101730064 0.017282231638695512 0 0.0019337194101730064 0.017282231638695512 0 0.0021281793699774142 0.017264444051696956 0 0.0020123858955086531 0.017372078976877814 0 0.0019337194101730064 0.017282231638695512 0 0.0020123858955086531 0.017372078976877814 0 0.0018762237216598046 0.017404927729369607 0 0.0017192096417313291 0.017421230208167486 0 0.0019337194101730064 0.017282231638695512 0 0.0018762237216598046 0.017404927729369607 0 0.0017192096417313291 0.017421230208167486 0 0.0018762237216598046 0.017404927729369607 0 0.0018078434385521672 0.017442964036056878 0 0.0022466050371065184 0.017203797066537074 0 0.0021788184024161229 0.017020300527874357 0 0.0021281793699774142 0.017264444051696956 0 0.0021788184024161229 0.017020300527874357 0 0.0019337194101730064 0.017282231638695512 0 0.0021281793699774142 0.017264444051696956 0 0.0021281793699774142 0.017264444051696956 0 0.0021332327226709375 0.017379974874949865 0 0.0020123858955086531 0.017372078976877814 0 0.0022466050371065184 0.017203797066537074 0 0.0021281793699774142 0.017264444051696956 0 0.0022143537813675298 0.017300181797256883 0 0.0021281793699774142 0.017264444051696956 0 0.0022143537813675298 0.017300181797256883 0 0.0021332327226709375 0.017379974874949865 0 0.0022402125461364257 0.01736634865845035 0 0.0021332327226709375 0.017379974874949865 0 0.0021792272406536647 0.017443136098447474 0 0.0022402125461364257 0.01736634865845035 0 0.0022143537813675298 0.017300181797256883 0 0.0021332327226709375 0.017379974874949865 0 0.0021332327226709375 0.017379974874949865 0 0.0020309069286630721 0.017438523415122593 0 0.0020123858955086531 0.017372078976877814 0 0.0021332327226709375 0.017379974874949865 0 0.0021032479450786858 0.017457747388024299 0 0.0020309069286630721 0.017438523415122593 0 0.0021032479450786858 0.017457747388024299 0 0.0020252112495032413 0.017480696679025996 0 0.0020309069286630721 0.017438523415122593 0 0.0021032479450786858 0.017457747388024299 0 0.0021446612181484663 0.017498751946045724 0 0.0020959843960106457 0.017496624645360313 0 0.0021032479450786858 0.017457747388024299 0 0.0020959843960106457 0.017496624645360313 0 0.0020252112495032413 0.017480696679025996 0 0.0021332327226709375 0.017379974874949865 0 0.0021032479450786858 0.017457747388024299 0 0.0021792272406536647 0.017443136098447474 0 0.0021032479450786858 0.017457747388024299 0 0.0021792272406536647 0.017443136098447474 0 0.0021446612181484663 0.017498751946045724 0 0.002271325130083394 0.017483006805218932 0 0.0022024269232449674 0.017480174379037889 0 0.0021442125537726158 0.01754456715168836 0 0.0022024269232449674 0.017480174379037889 0 0.0021446612181484663 0.017498751946045724 0 0.0021442125537726158 0.01754456715168836 0 0.0021750516604231319 0.018314083317074424 0 0.0023166685476001441 0.018464847050482725 0 0.0023260697592621411 0.018435556244487606 0 0.0021792272406536647 0.017443136098447474 0 0.0022024269232449674 0.017480174379037889 0 0.0021446612181484663 0.017498751946045724 0 0.0020959843960106457 0.017496624645360313 0 0.0021442125537726158 0.01754456715168836 0 0.0020252112495032413 0.017480696679025996 0 0.0021446612181484663 0.017498751946045724 0 0.0020959843960106457 0.017496624645360313 0 0.0021442125537726158 0.01754456715168836 0 0.0026074795908753207 0.019061211167809334 0 0.0023234565604438547 0.018919458288685818 0 0.0022075245678733002 0.018497881781039532 0 0.002412761555404356 0.018651110857695146 0 0.0022315347695280588 0.018536120457232016 0 0.0023166685476001441 0.018464847050482725 0 0.0023260697592621411 0.018435556244487606 0 0.0022075245678733002 0.018497881781039532 0 0.0023234565604438547 0.018919458288685818 0 0.0021779595439393594 0.018970563576791017 0 0.002296817094278693 0.019117587042117416 0 0.0023234565604438547 0.018919458288685818 0 0.0021779595439393594 0.018970563576791017 0 0.0021528247630620916 0.018773778980700248 0 0.0026074795908753207 0.019061211167809334 0 0.0023234565604438547 0.018919458288685818 0 0.0024550899722654762 0.01913522978569486 0 0.0023234565604438547 0.018919458288685818 0 0.0022075245678733002 0.018497881781039532 0 0.0021528247630620916 0.018773778980700248 0 0.0021442125537726158 0.01754456715168836 0 0.0019080433550302059 0.017484788708274388 0 0.0017819908014133352 0.01748938288461856 0 0.0023166685476001441 0.018464847050482725 0 0.0022075245678733002 0.018497881781039532 0 0.002211645268911371 0.018450231439151667 0 0.002200368538565979 0.017935268665934062 0 0.0019781139118998032 0.017965885378291198 0 0.0021442125537726158 0.01754456715168836 0 0.0019080433550302059 0.017484788708274388 0 0.0020252112495032413 0.017480696679025996 0 0.0019080433550302059 0.017484788708274388 0 0.0020252112495032413 0.017480696679025996 0 0.001951895775603665 0.017440417788496695 0 0.0020252112495032413 0.017480696679025996 0 0.0020309069286630721 0.017438523415122593 0 0.001951895775603665 0.017440417788496695 0 0.001951895775603665 0.017440417788496695 0 0.0020123858955086531 0.017372078976877814 0 0.0018762237216598046 0.017404927729369607 0 0.0020309069286630721 0.017438523415122593 0 0.001951895775603665 0.017440417788496695 0 0.0020123858955086531 0.017372078976877814 0 0.0019080433550302059 0.017484788708274388 0 0.0018583231877181599 0.01745366489512019 0 0.0017819908014133352 0.01748938288461856 0 0.0018583231877181599 0.01745366489512019 0 0.0018078434385521672 0.017442964036056878 0 0.0017819908014133352 0.01748938288461856 0 0.0019080433550302059 0.017484788708274388 0 0.001951895775603665 0.017440417788496695 0 0.0018583231877181599 0.01745366489512019 0 0.0018583231877181599 0.01745366489512019 0 0.0018762237216598046 0.017404927729369607 0 0.0018078434385521672 0.017442964036056878 0 0.001951895775603665 0.017440417788496695 0 0.0018583231877181599 0.01745366489512019 0 0.0018762237216598046 0.017404927729369607 0 0.0017192096417313291 0.017421230208167486 0 0.0018078434385521672 0.017442964036056878 0 0.0017819908014133352 0.01748938288461856 0 0.0014144291526287074 0.017692654256283236 0 0.002211645268911371 0.018450231439151667 0 0.0018508301833322503 0.01860958758167558 0 0.002211645268911371 0.018450231439151667 0 0.0018508301833322503 0.01860958758167558 0 0.0020523134954494654 0.018617516166879119 0 0.0022075245678733002 0.018497881781039532 0 0.002211645268911371 0.018450231439151667 0 0.0020523134954494654 0.018617516166879119 0 0.0014144291526287074 0.017692654256283236 0 0.0018508301833322503 0.01860958758167558 0 0.0014334946033024484 0.018746307149469042 0 0.0011143730430162469 0.018424903794268872 0 0.0014144291526287074 0.017692654256283236 0 0.0014334946033024484 0.018746307149469042 0 0.0018508301833322503 0.01860958758167558 0 0.0014334946033024484 0.018746307149469042 0 0.0016713929746153538 0.019088206256759065 0 0.0012617860018893474 0.019266302799182129 0 0.0014334946033024484 0.018746307149469042 0 0.0016713929746153538 0.019088206256759065 0 0.0018508301833322503 0.01860958758167558 0 0.0019904083602981298 0.018879238475417684 0 0.0016713929746153538 0.019088206256759065 0 0.0022075245678733002 0.018497881781039532 0 0.0020523134954494654 0.018617516166879119 0 0.0021528247630620916 0.018773778980700248 0 0.0020523134954494654 0.018617516166879119 0 0.0021528247630620916 0.018773778980700248 0 0.0019904083602981298 0.018879238475417684 0 0.0018508301833322503 0.01860958758167558 0 0.0020523134954494654 0.018617516166879119 0 0.0019904083602981298 0.018879238475417684 0 0.0021779595439393594 0.018970563576791017 0 0.0021528247630620916 0.018773778980700248 0 0.0019904083602981298 0.018879238475417684 0 0.0021779595439393594 0.018970563576791017 0 0.0019904083602981298 0.018879238475417684 0 0.0020136268856670342 0.019233517663784734 0 0.0019904083602981298 0.018879238475417684 0 0.0020136268856670342 0.019233517663784734 0 0.0016713929746153538 0.019088206256759065 0 0.0012617860018893474 0.019266302799182129 0 0.0016713929746153538 0.019088206256759065 0 0.0015192535024281006 0.019667865067315604 0 0.0020136268856670342 0.019233517663784734 0 0.0016713929746153538 0.019088206256759065 0 0.0015192535024281006 0.019667865067315604 0 0.0015192535024281006 0.019667865067315604 0 0.0022144050605620506 0.019502778393246184 0 0.0021269578193711803 0.019809670518774955 0 0.0020136268856670342 0.019233517663784734 0 0.0015192535024281006 0.019667865067315604 0 0.0022144050605620506 0.019502778393246184 0 0.0015687321111285994 0.019662489757498635 0 0.0020944474538621572 0.019808096539855592 0 0.0022144050605620506 0.019502778393246184 0 0.0025580680164873104 0.019523692707412263 0 0.0024476192329247596 0.019297108807176493 0 0.0022144050605620506 0.019502778393246184 0 0.0025580680164873104 0.019523692707412263 0 0.0021269578193711803 0.019809670518774955 0 0.0028137409115121092 0.019499444536684188 0 0.0027846501404971942 0.01968232642593477 0 0.0025580680164873104 0.019523692707412263 0 0.0028137409115121092 0.019499444536684188 0 0.0025580680164873104 0.019523692707412263 0 0.0027368536787262987 0.019328779320056874 0 0.0025580680164873104 0.019523692707412263 0 0.0025829487817721915 0.019255212513229217 0 0.0024476192329247596 0.019297108807176493 0 0.0025829487817721915 0.019255212513229217 0 0.0024550899722654762 0.01913522978569486 0 0.0024476192329247596 0.019297108807176493 0 0.0025580680164873104 0.019523692707412263 0 0.0025829487817721915 0.019255212513229217 0 0.0027368536787262987 0.019328779320056874 0 0.0026074795908753207 0.019061211167809334 0 0.0025829487817721915 0.019255212513229217 0 0.0027368536787262987 0.019328779320056874 0 0.0026074795908753207 0.019061211167809334 0 0.0025829487817721915 0.019255212513229217 0 0.0024550899722654762 0.01913522978569486 0 0.0023234565604438547 0.018919458288685818 0 0.0024550899722654762 0.01913522978569486 0 0.002296817094278693 0.019117587042117416 0 0.0024550899722654762 0.01913522978569486 0 0.002296817094278693 0.019117587042117416 0 0.0024476192329247596 0.019297108807176493 0 0.0022144050605620506 0.019502778393246184 0 0.002296817094278693 0.019117587042117416 0 0.0024476192329247596 0.019297108807176493 0 0.0020136268856670342 0.019233517663784734 0 0.0022144050605620506 0.019502778393246184 0 0.002296817094278693 0.019117587042117416 0 0.0021779595439393594 0.018970563576791017 0 0.0020136268856670342 0.019233517663784734 0 0.002296817094278693 0.019117587042117416 0 0.00259133158022846 0.019949796845785468 0 0.0021269578193711803 0.019809670518774955 0 0.0021835392930112754 0.020378514086390995 0 0.0029197275977443735 0.02015569133460084 0 0.00259133158022846 0.019949796845785468 0 0.0025805580579672431 0.020293815156643878 0 0.00259133158022846 0.019949796845785468 0 0.0021835392930112754 0.020378514086390995 0 0.0025805580579672431 0.020293815156643878 0 0.0027846501404971942 0.01968232642593477 0 0.0025580680164873104 0.019523692707412263 0 0.00259133158022846 0.019949796845785468 0 0.0025580680164873104 0.019523692707412263 0 0.00259133158022846 0.019949796845785468 0 0.0021269578193711803 0.019809670518774955 0 0.001605557950882351 0.019659856168377392 0 0.0021269578193711803 0.019809670518774955 0 0.0018302785001223152 0.020125378518037453 0 0.001605557950882351 0.019659856168377392 0 0.0018302785001223152 0.020125378518037453 0 0.0014108147996799614 0.020264713783235917 0 0.0018302785001223152 0.020125378518037453 0 0.0017466161214796908 0.020539456798126694 0 0.0014108147996799614 0.020264713783235917 0 0.0021269578193711803 0.019809670518774955 0 0.0018302785001223152 0.020125378518037453 0 0.0021835392930112754 0.020378514086390995 0 0.0018302785001223152 0.020125378518037453 0 0.0017466161214796908 0.020539456798126694 0 0.0021835392930112754 0.020378514086390995 0 0.0017466161214796908 0.020539456798126694 0 0.0021269506415718506 0.020846119396337924 0 0.0021835392930112754 0.020378514086390995 0 0.0017466161214796908 0.020539456798126694 0 0.001668433487458971 0.020918277526149966 0 0.001273353416959928 0.020707062487755813 0 0.0017466161214796908 0.020539456798126694 0 0.001668433487458971 0.020918277526149966 0 0.0021269506415718506 0.020846119396337924 0 0.0021269506415718506 0.020846119396337924 0 0.0021835392930112754 0.020378514086390995 0 0.0026738119433965695 0.020717874769247104 0 0.0021269506415718506 0.020846119396337924 0 0.0026738119433965695 0.020717874769247104 0 0.0024179341227871837 0.021213974738028354 0 0.0029197275977443735 0.02015569133460084 0 0.0025805580579672431 0.020293815156643878 0 0.0026738119433965695 0.020717874769247104 0 0.0021835392930112754 0.020378514086390995 0 0.0025805580579672431 0.020293815156643878 0 0.0026738119433965695 0.020717874769247104 0 0.0028565610767868131 0.020944054222694707 0 0.0026996294138609471 0.020542503732942641 0 0.0024266253291490834 0.021057560924519991 0 0.0026875876266272236 0.02062499151145545 0 0.002421556313205564 0.0211431148685516 0 0.0021269506415718506 0.020846119396337924 0 0.0024179341227871837 0.021213974738028354 0 0.0020118921701242527 0.021315313759714554 0 0.0024179341227871837 0.021213974738028354 0 0.0021763583034694598 0.021663803482619339 0 0.0020118921701242527 0.021315313759714554 0 0.002421556313205564 0.0211431148685516 0 0.0021894946422838209 0.021632849394385815 0 0.0028565610767868131 0.020944054222694707 0 0.0024266253291490834 0.021057560924519991 0 0.002654141910158296 0.021590531558191885 0 0.0024266253291490834 0.021057560924519991 0 0.002654141910158296 0.021590531558191885 0 0.0021763583034694598 0.021663803482619339 0 0.0018722031792981328 0.021243197143180965 0 0.0018372980712808716 0.02145915605638516 0 0.001372630628163623 0.021572655306665949 0 0.002654141910158296 0.021590531558191885 0 0.0021763583034694598 0.021663803482619339 0 0.0021699962913667241 0.021898764665509142 0 0.0022952284892786318 0.02172037544142516 0 0.001778629914694575 0.021698932978195376 0 0.0021763583034694598 0.021663803482619339 0 0.0021699962913667241 0.021898764665509142 0 0.0019642633979010068 0.021785009392158348 0 0.0018372980712808716 0.02145915605638516 0 0.0013538459348092836 0.021698274869348215 0 0.001372630628163623 0.021572655306665949 0 0.0014766528060214752 0.022455983364439883 0 0.0012193932867043589 0.022357900478293266 0 0.0010805717801507639 0.022943494647264608 0 0.0010494742998618408 0.023087197462495684 0 0.0010676461716524954 0.023037014127496421 0 0.0011982212682522656 0.022982498008436849 0 0.0010805717801507639 0.022943494647264608 0 0.0010676461716524954 0.023037014127496421 0 0.0017001536355944846 0.022186171412656584 0 0.0017753706257491691 0.021659649645921774 0 0.0013356251504540791 0.021771311248473525 0 0.0021699962913667241 0.021898764665509142 0 0.0017001536355944846 0.022186171412656584 0 0.0019642633979010068 0.021785009392158348 0 0.0012193932867043589 0.022357900478293266 0 0.0010006057967085092 0.022541121936652586 0 0.0013538459348092836 0.021698274869348215 0 0.001372630628163623 0.021572655306665949 0 0.00095518307219077524 0.021862321314477556 0 0.0013538459348092836 0.021698274869348215 0 0.00095518307219077524 0.021862321314477556 0 0.00094752770261570724 0.021917492728740849 0 0.0017001536355944846 0.022186171412656584 0 0.0019642633979010068 0.021785009392158348 0 0.0017753706257491691 0.021659649645921774 0 0.001778629914694575 0.021698932978195376 0 0.0013251485889958304 0.021990737570198524 0 0.0021763583034694598 0.021663803482619339 0 0.0019642633979010068 0.021785009392158348 0 0.0019852864517428469 0.021584586378858277 0 0.0019642633979010068 0.021785009392158348 0 0.0019852864517428469 0.021584586378858277 0 0.0017753706257491691 0.021659649645921774 0 0.0017753706257491691 0.021659649645921774 0 0.001543232762725216 0.021393473500257811 0 0.0014227250262060691 0.021770215341029076 0 0.0017058947609848241 0.021685369456686126 0 0.0014616371283751506 0.021693220615598443 0 0.0017753706257491691 0.021659649645921774 0 0.001543232762725216 0.021393473500257811 0 0.0020118921701242527 0.021315313759714554 0 0.0019852864517428469 0.021584586378858277 0 0.0017753706257491691 0.021659649645921774 0 0.0020118921701242527 0.021315313759714554 0 0.0021763583034694598 0.021663803482619339 0 0.0019852864517428469 0.021584586378858277 0 0.0020118921701242527 0.021315313759714554 0 0.001668433487458971 0.020918277526149966 0 0.0021269506415718506 0.020846119396337924 0 0.0020118921701242527 0.021315313759714554 0 0.001668433487458971 0.020918277526149966 0 0.001543232762725216 0.021393473500257811 0 0.0020118921701242527 0.021315313759714554 0 0.001668433487458971 0.020918277526149966 0 0.001543232762725216 0.021393473500257811 0 0.0012505708871382039 0.021153785787372842 0 0.0012505708871382039 0.021153785787372842 0 0.00096425345485674449 0.021394362404952884 0 0.00087224746206723076 0.020908279028919643 0 0.0012505708871382039 0.021153785787372842 0 0.00096425345485674449 0.021394362404952884 0 0.0012479085798746345 0.021518107594626832 0 0.001543232762725216 0.021393473500257811 0 0.0012505708871382039 0.021153785787372842 0 0.0012479085798746345 0.021518107594626832 0 0.001543232762725216 0.021393473500257811 0 0.0012479085798746345 0.021518107594626832 0 0.0014227250262060691 0.021770215341029076 0 0.0014616371283751506 0.021693220615598443 0 0.00081148616986742225 0.023141374307711942 0 0.0012479085798746345 0.021518107594626832 0 0.0014227250262060691 0.021770215341029076 0 0.0010559727767042021 0.021879156559974581 0 0.00096425345485674449 0.021394362404952884 0 0.0012479085798746345 0.021518107594626832 0 0.0010559727767042021 0.021879156559974581 0 0.00096713603913875024 0.023120018613287798 0 0.00081148616986742225 0.023141374307711942 0 0.00091270047282378665 0.024726506138603124 0 0.00094007749073426409 0.024930235487488784 0 0.00081206689723569011 0.024861647294751328 0 0.0008926957626917858 0.021889781954869628 0 0.0012260489635790739 0.022174044082413691 0 0.0010207224856443665 0.022562694601682903 0 0.0017001536355944846 0.022186171412656584 0 0.0013356251504540791 0.021771311248473525 0 0.0012260489635790739 0.022174044082413691 0 0.0013356251504540791 0.021771311248473525 0 0.0008926957626917858 0.021889781954869628 0 0.0012260489635790739 0.022174044082413691 0 0.00062560720166765114 0.023804907644437323 0 0.0005954880788074814 0.023824567441856535 0 0.0006087852771096482 0.023831264704766861 0 0.00094007749073426409 0.024930235487488784 0 0.00071248054701108154 0.02499984753268731 0 0.00081206689723569011 0.024861647294751328 0 0.00081148616986742225 0.023141374307711942 0 0.00061914684290160387 0.024573771328148194 0 0.00071248054701108154 0.02499984753268731 0 0.00081206689723569011 0.024861647294751328 0 0.00068426494624661976 0.024793387068995344 0 0.00071248054701108154 0.02499984753268731 0 0.00068426494624661976 0.024793387068995344 0 0.00054002995365983082 0.024881537181881377 0 0.00091270047282378665 0.024726506138603124 0 0.00081206689723569011 0.024861647294751328 0 0.00068426494624661976 0.024793387068995344 0 0.00091270047282378665 0.024726506138603124 0 0.00068426494624661976 0.024793387068995344 0 0.00067620070914929556 0.024596470790441246 0 0.00091270047282378665 0.024726506138603124 0 0.00067620070914929556 0.024596470790441246 0 0.00091309426745600291 0.024509788039236712 0 0.00096713603913875024 0.023120018613287798 0 0.00088885634733861971 0.022692357442176202 0 0.00068426494624661976 0.024793387068995344 0 0.00067620070914929556 0.024596470790441246 0 0.00047119662248025268 0.02468452962757085 0 0.00094251530061893187 0.024247840256403041 0 0.00091309426745600291 0.024509788039236712 0 0.00055625798482924278 0.024420099883603254 0 0.00067620070914929556 0.024596470790441246 0 0.00091309426745600291 0.024509788039236712 0 0.00055625798482924278 0.024420099883603254 0 0.00094251530061893187 0.024247840256403041 0 0.00059784346164075289 0.024117179407273391 0 0.00055625798482924278 0.024420099883603254 0 0.00086631730720488731 0.022328206600692048 0 0.00088885634733861971 0.022692357442176202 0 0.00078345525809495466 0.020417001593371856 0 0.001273353416959928 0.020707062487755813 0 0.0014108147996799614 0.020264713783235917 0 0.0012505708871382039 0.021153785787372842 0 0.00087224746206723076 0.020908279028919643 0 0.001273353416959928 0.020707062487755813 0 0.00078345525809495466 0.020417001593371856 0 0.00087224746206723076 0.020908279028919643 0 0.001273353416959928 0.020707062487755813 0 0.001668433487458971 0.020918277526149966 0 0.0012505708871382039 0.021153785787372842 0 0.001273353416959928 0.020707062487755813 0 0.0017466161214796908 0.020539456798126694 0 0.001273353416959928 0.020707062487755813 0 0.0014108147996799614 0.020264713783235917 0 0.00078345525809495466 0.020417001593371856 0 0.0014108147996799614 0.020264713783235917 0 0.0011003684088623171 0.019919924413176679 0 0.001605557950882351 0.019659856168377392 0 0.0014108147996799614 0.020264713783235917 0 0.0011003684088623171 0.019919924413176679 0 0.00084377564780209078 0.019634638185676786 0 0.0011003684088623171 0.019919924413176679 0 0.00070564629347458208 0.019928536138317181 0 0.0010650710391236051 0.023831552290207267 0 0.00059784346164075289 0.024117179407273391 0 0.0004481531097183476 0.023615189738310418 0 0.00094251530061893187 0.024247840256403041 0 0.0010650710391236051 0.023831552290207267 0 0.00059784346164075289 0.024117179407273391 0 0.00086631730720488731 0.022328206600692048 0 0.00089835925491590419 0.021862010574816553 0 0.00078345525809495466 0.020417001593371856 0 0.0011003684088623171 0.019919924413176679 0 0.00070564629347458208 0.019928536138317181 0 0.00022308109317604571 0.024254154708788708 0 0.00059784346164075289 0.024117179407273391 0 0.00036274995030461044 0.023883596394982901 0 0.00059784346164075289 0.024117179407273391 0 0.0004481531097183476 0.023615189738310418 0 0.00036274995030461044 0.023883596394982901 0 0.00010808284228963845 0.023684219012626462 0 0.0004481531097183476 0.023615189738310418 0 0.00036274995030461044 0.023883596394982901 0 0.00010808284228963845 0.023684219012626462 0 0.00022308109317604571 0.024254154708788708 0 0.00036274995030461044 0.023883596394982901 0 0.00022308109317604571 0.024254154708788708 0 5.2646395277859032e-05 0.024076061110906877 0 8.5005787083881296e-05 0.024627633812329301 0 5.2646395277859032e-05 0.024076061110906877 0 8.5005787083881296e-05 0.024627633812329301 0 -2.7047142690316306e-05 0.024542785758538428 0 0.00010808284228963845 0.023684219012626462 0 0.00022308109317604571 0.024254154708788708 0 5.2646395277859032e-05 0.024076061110906877 0 -2.5979389067392534e-05 0.0241890449839164 0 5.2646395277859032e-05 0.024076061110906877 0 -2.7047142690316306e-05 0.024542785758538428 0 0.00022642392818711946 0.024285473924615542 0 0.00011045553475805358 0.024543058217278427 0 0.00022308109317604571 0.024254154708788708 0 0.00014448980955323329 0.024472322257355777 0 0.0003097261757228889 0.024509812086435871 0 0.00014448980955323329 0.024472322257355777 0 0.0002197507578459219 0.024688493377902691 0 3.9137038082020245e-05 0.024659536614324042 0 0.00014448980955323329 0.024472322257355777 0 0.0003097261757228889 0.024509812086435871 0 0.0002197507578459219 0.024688493377902691 0 0.0003097261757228889 0.024509812086435871 0 0.00055625798482924278 0.024420099883603254 0 0.00047119662248025268 0.02468452962757085 0 0.00022308109317604571 0.024254154708788708 0 0.0003097261757228889 0.024509812086435871 0 0.00055625798482924278 0.024420099883603254 0 0.00022308109317604571 0.024254154708788708 0 0.00059784346164075289 0.024117179407273391 0 0.00055625798482924278 0.024420099883603254 0 0.0003097261757228889 0.024509812086435871 0 0.00047119662248025268 0.02468452962757085 0 0.0002197507578459219 0.024688493377902691 0 0.00067620070914929556 0.024596470790441246 0 0.00055625798482924278 0.024420099883603254 0 0.00047119662248025268 0.02468452962757085 0 0.00047119662248025268 0.02468452962757085 0 0.00036093799334165343 0.024882036800009593 0 0.0002197507578459219 0.024688493377902691 0 0.00047119662248025268 0.02468452962757085 0 0.00054002995365983082 0.024881537181881377 0 0.00036093799334165343 0.024882036800009593 0 0.00068426494624661976 0.024793387068995344 0 0.00047119662248025268 0.02468452962757085 0 0.00054002995365983082 0.024881537181881377 0 0.00054002995365983082 0.024881537181881377 0 0.00036093799334165343 0.024882036800009593 0 0.0004818810472499279 0.02504598033768685 0 0.00036093799334165343 0.024882036800009593 0 0.0004818810472499279 0.02504598033768685 0 0.00028135457090046963 0.025073707655721564 0 0.00061914684290160387 0.024573771328148194 0 0.0005427561195152236 0.024415953398336465 0 0.00071248054701108154 0.02499984753268731 0 0.00054002995365983082 0.024881537181881377 0 0.0004818810472499279 0.02504598033768685 0 0.00036093799334165343 0.024882036800009593 0 0.00020817932692800641 0.024967909686257124 0 0.00028135457090046963 0.025073707655721564 0 0.00036093799334165343 0.024882036800009593 0 0.00020817932692800641 0.024967909686257124 0 0.00020545285401372439 0.024840062218177045 0 0.00020817932692800641 0.024967909686257124 0 0.00020545285401372439 0.024840062218177045 0 0.00010226096744604304 0.024931370448384321 0 0.00020545285401372439 0.024840062218177045 0 0.0002197507578459219 0.024688493377902691 0 8.1844325344015574e-05 0.024810015399345277 0 0.00036093799334165343 0.024882036800009593 0 0.00020545285401372439 0.024840062218177045 0 0.0002197507578459219 0.024688493377902691 0 0.0002197507578459219 0.024688493377902691 0 3.9137038082020245e-05 0.024659536614324042 0 8.1844325344015574e-05 0.024810015399345277 0 1.5199977867973979e-05 0.024759671893288641 0 -2.6478625955285749e-05 0.024899600697000406 0 3.9137038082020245e-05 0.024659536614324042 0 8.1844325344015574e-05 0.024810015399345277 0 -3.3528325791558012e-05 0.024838485538768058 0 8.1844325344015574e-05 0.024810015399345277 0 1.6272947462615304e-05 0.024891244097416162 0 -3.3528325791558012e-05 0.024838485538768058 0 8.1844325344015574e-05 0.024810015399345277 0 0.00010226096744604304 0.024931370448384321 0 1.6272947462615304e-05 0.024891244097416162 0 0.00020545285401372439 0.024840062218177045 0 8.1844325344015574e-05 0.024810015399345277 0 0.00010226096744604304 0.024931370448384321 0 0.00010226096744604304 0.024931370448384321 0 1.6272947462615304e-05 0.024891244097416162 0 2.8882600916864993e-07 0.024996039115240686 0 2.0209629364517512e-05 0.024869810003470289 0 -2.076830874926035e-06 0.025061105521016563 0 0.00010226096744604304 0.024931370448384321 0 2.8882600916864993e-07 0.024996039115240686 0 0.00012066028597055552 0.025089325677969405 0 0.00020817932692800641 0.024967909686257124 0 0.00010226096744604304 0.024931370448384321 0 0.00012066028597055552 0.025089325677969405 0 -1.8031426355758326e-08 0.024999958910689436 0 -8.5851176963313728e-06 0.024980212725344834 0 -5.0876205525160711e-06 0.02499449301135959 0 -1.8031426355758326e-08 0.024999958910689436 0 -8.5851176963313728e-06 0.024980212725344834 0 -9.6190095995381632e-07 0.024996195787195492 0 2.0615483012924913e-05 0.024985325798526258 0 -1.7559991541169523e-06 0.024966515120580835 0 -9.6190095995381632e-07 0.024996195787195492 0 -8.5851176963313728e-06 0.024980212725344834 0 -1.7559991541169523e-06 0.024966515120580835 0 -9.6190095995381632e-07 0.024996195787195492 0 1.6272947462615304e-05 0.024891244097416162 0 -1.7559991541169523e-06 0.024966515120580835 0 -1.3239652464205089e-05 0.024936883451482698 0 -1.3239652464205089e-05 0.024936883451482698 0 -5.0876205525160711e-06 0.02499449301135959 0 -3.3528325791558012e-05 0.024838485538768058 0 -8.5851176963313728e-06 0.024980212725344834 0 -1.7559991541169523e-06 0.024966515120580835 0 -1.3239652464205089e-05 0.024936883451482698 0 1.6272947462615304e-05 0.024891244097416162 0 2.0615483012924913e-05 0.024985325798526258 0 -1.7559991541169523e-06 0.024966515120580835 0 -8.5851176963313728e-06 0.024980212725344834 0 -1.3239652464205089e-05 0.024936883451482698 0 -5.0876205525160711e-06 0.02499449301135959 0 -1.8031426355758326e-08 0.024999958910689436 0 -2.1999128192656815e-08 0.024999953404577922 0 -5.0876205525160711e-06 0.02499449301135959 0 -2.1999128192656815e-08 0.024999953404577922 0 -5.0876205525160711e-06 0.02499449301135959 0 -3.0057623652436721e-05 0.024961720871356504 0 -2.1999128192656815e-08 0.024999953404577922 0 -3.0057623652436721e-05 0.024961720871356504 0 -6.5651694416080186e-08 0.024999867266517335 0 -9.4150286579532845e-06 0.024979867010674527 0 -2.6478625955285749e-05 0.024899600697000406 0 1.6272947462615304e-05 0.024891244097416162 0 -1.3239652464205089e-05 0.024936883451482698 0 -3.3528325791558012e-05 0.024838485538768058 0 -7.6774850280246623e-06 0.024861655736143028 0 -3.0057623652436721e-05 0.024961720871356504 0 -4.483156012724851e-05 0.024916841730170471 0 -3.0057623652436721e-05 0.024961720871356504 0 -6.5651694416080186e-08 0.024999867266517335 0 -4.483156012724851e-05 0.024916841730170471 0 -6.5651694416080186e-08 0.024999867266517335 0 9.469992397500691e-09 0.024999942623464399 0 -4.483156012724851e-05 0.024916841730170471 0 9.469992397500691e-09 0.024999942623464399 0 -7.0359162922781327e-05 0.024799100116587012 0 -4.483156012724851e-05 0.024916841730170471 0 8.5005787083881296e-05 0.024627633812329301 0 -7.6774850280246623e-06 0.024861655736143028 0 -2.7047142690316306e-05 0.024542785758538428 0 -7.6774850280246623e-06 0.024861655736143028 0 -7.0359162922781327e-05 0.024799100116587012 0 -4.483156012724851e-05 0.024916841730170471 0 -7.6774850280246623e-06 0.024861655736143028 0 -7.0359162922781327e-05 0.024799100116587012 0 -2.7047142690316306e-05 0.024542785758538428 0 0.00011045553475805358 0.024543058217278427 0 1.5199977867973979e-05 0.024759671893288641 0 -7.0359162922781327e-05 0.024799100116587012 0 -2.7047142690316306e-05 0.024542785758538428 0 -7.6280314449070482e-05 0.02458809268809654 0 -8.7610591830307414e-05 0.024301196393896857 0 -2.5979389067392534e-05 0.0241890449839164 0 -7.6280314449070482e-05 0.02458809268809654 0 -2.5979389067392534e-05 0.0241890449839164 0 -2.7047142690316306e-05 0.024542785758538428 0 -7.6280314449070482e-05 0.02458809268809654 0 -0.0001768915826841627 0.024504645143543311 0 -7.6280314449070482e-05 0.02458809268809654 0 -7.2217280627405038e-05 0.024858059593725713 0 -0.0001768915826841627 0.024504645143543311 0 -5.082447482619231e-07 0.024998880267276723 0 -7.2217280627405038e-05 0.024858059593725713 0 9.469992397500691e-09 0.024999942623464399 0 -5.082447482619231e-07 0.024998880267276723 0 -7.2217280627405038e-05 0.024858059593725713 0 9.469992397500691e-09 0.024999942623464399 0 -7.0359162922781327e-05 0.024799100116587012 0 -7.2217280627405038e-05 0.024858059593725713 0 -7.0359162922781327e-05 0.024799100116587012 0 -7.6280314449070482e-05 0.02458809268809654 0 -7.2217280627405038e-05 0.024858059593725713 0 0.00022347861823500818 0.024703404418728744 0 0.00010622191580263215 0.024830980396438631 0 0.00017567730819371451 0.024670602464232683 0 0.00022347861823500818 0.024703404418728744 0 0.00010622191580263215 0.024830980396438631 0 1.2577459393686628e-07 0.02499968396446434 0 0.00010622191580263215 0.024830980396438631 0 1.2577459393686628e-07 0.02499968396446434 0 5.1276971969314545e-08 0.024999613430200116 0 0.00022347861823500818 0.024703404418728744 0 1.2577459393686628e-07 0.02499968396446434 0 0.00022366858775732965 0.024721292577542284 0 1.2577459393686628e-07 0.02499968396446434 0 0.00022366858775732965 0.024721292577542284 0 1.5501042760112806e-07 0.024999621473373798 0 0.00022347861823500818 0.024703404418728744 0 0.00043606650181732493 0.024486342759921106 0 0.00022366858775732965 0.024721292577542284 0 0.00022347861823500818 0.024703404418728744 0 0.0003699663078149704 0.024529396628724966 0 0.00043606650181732493 0.024486342759921106 0 0.00054480922079977749 0.024369883780012348 0 0.0003699663078149704 0.024529396628724966 0 0.00043606650181732493 0.024486342759921106 0 0.000466770766586224 0.024407459349501909 0 0.0003699663078149704 0.024529396628724966 0 0.00035972226167273744 0.024473285935419808 0 0.00054480922079977749 0.024369883780012348 0 0.000466770766586224 0.024407459349501909 0 0.0003699663078149704 0.024529396628724966 0 0.00022347861823500818 0.024703404418728744 0 0.0003699663078149704 0.024529396628724966 0 0.00017567730819371451 0.024670602464232683 0 0.00035972226167273744 0.024473285935419808 0 0.00026300021691319264 0.024500981270141806 0 0.00017567730819371451 0.024670602464232683 0 0.0003699663078149704 0.024529396628724966 0 0.00035972226167273744 0.024473285935419808 0 0.00017567730819371451 0.024670602464232683 0 0.000466770766586224 0.024407459349501909 0 0.00035972226167273744 0.024473285935419808 0 0.00049426324503799596 0.024320603744986673 0 0.00035972226167273744 0.024473285935419808 0 0.00041378002858891545 0.024338167307137941 0 0.00049426324503799596 0.024320603744986673 0 0.00035972226167273744 0.024473285935419808 0 0.00041378002858891545 0.024338167307137941 0 0.00026300021691319264 0.024500981270141806 0 0.00041378002858891545 0.024338167307137941 0 0.00026300021691319264 0.024500981270141806 0 0.0003413052009729879 0.024288543919745463 0 0.00041378002858891545 0.024338167307137941 0 0.0003413052009729879 0.024288543919745463 0 0.0004415322524374812 0.024202254249496725 0 0.00026300021691319264 0.024500981270141806 0 7.0072850039725745e-05 0.024645190829178393 0 0.00017567730819371451 0.024670602464232683 0 0.00026300021691319264 0.024500981270141806 0 7.0072850039725745e-05 0.024645190829178393 0 0.0003413052009729879 0.024288543919745463 0 7.0072850039725745e-05 0.024645190829178393 0 0.00017567730819371451 0.024670602464232683 0 5.1276971969314545e-08 0.024999613430200116 0 0.00010622191580263215 0.024830980396438631 0 0.00017567730819371451 0.024670602464232683 0 5.1276971969314545e-08 0.024999613430200116 0 7.0072850039725745e-05 0.024645190829178393 0 5.1276971969314545e-08 0.024999613430200116 0 8.4012689757067734e-08 0.024999739427270344 0 7.0072850039725745e-05 0.024645190829178393 0 8.4012689757067734e-08 0.024999739427270344 0 2.0529903079051294e-05 0.024963922167634846 0 7.0072850039725745e-05 0.024645190829178393 0 -5.5097131692982682e-05 0.024927913177874839 0 2.0529903079051294e-05 0.024963922167634846 0 5.2357558552419242e-05 0.024663172958009339 0 1.9095104900701982e-05 0.024483793835660565 0 -5.5097131692982682e-05 0.024927913177874839 0 2.0529903079051294e-05 0.024963922167634846 0 1.4536582280464937e-06 0.025005033367590166 0 8.4012689757067734e-08 0.024999739427270344 0 2.0529903079051294e-05 0.024963922167634846 0 1.7018655405576466e-08 0.025000041944403265 0 6.37746446112343e-09 0.025000021918212888 0 1.3919751549392067e-06 0.025001423496497161 0 -9.6190095995381632e-07 0.024996195787195492 0 2.0529903079051294e-05 0.024963922167634846 0 1.7018655405576466e-08 0.025000041944403265 0 1.4536582280464937e-06 0.025005033367590166 0 2.1068969689225351e-08 0.024999996437756838 0 -2.7622929456629962e-05 0.025004605732207488 0 1.9095104900701982e-05 0.024483793835660565 0 8.3210905542014242e-05 0.024735290592481897 0 1.3919751549392067e-06 0.025001423496497161 0 -9.6190095995381632e-07 0.024996195787195492 0 1.1705322934756263e-05 0.025003049958989707 0 -5.5097131692982682e-05 0.024927913177874839 0 1.4536582280464937e-06 0.025005033367590166 0 -6.0609885389022672e-05 0.025017953848702836 0 -2.7622929456629962e-05 0.025004605732207488 0 8.3210905542014242e-05 0.024735290592481897 0 2.0615483012924913e-05 0.024985325798526258 0 -9.6190095995381632e-07 0.024996195787195492 0 1.1705322934756263e-05 0.025003049958989707 0 -1.8031426355758326e-08 0.024999958910689436 0 6.37746446112343e-09 0.025000021918212888 0 -9.6190095995381632e-07 0.024996195787195492 0 -2.076830874926035e-06 0.025061105521016563 0 8.3210905542014242e-05 0.024735290592481897 0 2.8882600916864993e-07 0.024996039115240686 0 0.00012066028597055552 0.025089325677969405 0 -9.5464380056220655e-06 0.025114174271012753 0 7.6355414549873267e-05 0.024148465937695474 0 0.00011641564158359517 0.02389721170122238 0 0.00031165123604323246 0.024015570548708461 0 0.00024353651644442177 0.024440148025118451 0 8.3210905542014242e-05 0.024735290592481897 0 0.00036861436162186821 0.023848862031418359 0 0.00011641564158359517 0.02389721170122238 0 0.00031165123604323246 0.024015570548708461 0 0.00036861436162186821 0.023848862031418359 0 0.00031165123604323246 0.024015570548708461 0 0.00048462586580988627 0.02391364190369118 0 0.00031165123604323246 0.024015570548708461 0 0.0003413052009729879 0.024288543919745463 0 0.00044607433903088049 0.024077063450087755 0 7.6355414549873267e-05 0.024148465937695474 0 0.00031165123604323246 0.024015570548708461 0 0.0003413052009729879 0.024288543919745463 0 7.0072850039725745e-05 0.024645190829178393 0 7.6355414549873267e-05 0.024148465937695474 0 0.0003413052009729879 0.024288543919745463 0 0.0003413052009729879 0.024288543919745463 0 0.0004415322524374812 0.024202254249496725 0 0.00044607433903088049 0.024077063450087755 0 0.0004415322524374812 0.024202254249496725 0 0.00049826828321318951 0.024092442016374234 0 0.00048957269519470895 0.024200936463494801 0 0.0004415322524374812 0.024202254249496725 0 0.00049826828321318951 0.024092442016374234 0 0.00044607433903088049 0.024077063450087755 0 0.00052199720089377022 0.024087928990932237 0 0.00049826828321318951 0.024092442016374234 0 0.00054317634828680167 0.023992991565537691 0 0.00052199720089377022 0.024087928990932237 0 0.00049826828321318951 0.024092442016374234 0 0.00048957269519470895 0.024200936463494801 0 0.00049826828321318951 0.024092442016374234 0 0.00051924969543852291 0.02399052963847164 0 0.00054317634828680167 0.023992991565537691 0 0.00051924969543852291 0.02399052963847164 0 0.00048462586580988627 0.02391364190369118 0 0.00055091471532827025 0.023908295280226973 0 0.00051924969543852291 0.02399052963847164 0 0.00055434030746955867 0.023933209223258676 0 0.00054317634828680167 0.023992991565537691 0 0.00051924969543852291 0.02399052963847164 0 0.00055091471532827025 0.023908295280226973 0 0.00055434030746955867 0.023933209223258676 0 0.00051924969543852291 0.02399052963847164 0 0.00044607433903088049 0.024077063450087755 0 0.00048462586580988627 0.02391364190369118 0 0.00049826828321318951 0.024092442016374234 0 0.00051924969543852291 0.02399052963847164 0 0.00044607433903088049 0.024077063450087755 0 0.00031165123604323246 0.024015570548708461 0 0.00044607433903088049 0.024077063450087755 0 0.00048462586580988627 0.02391364190369118 0 0.00048462586580988627 0.02391364190369118 0 0.00055091471532827025 0.023908295280226973 0 0.0005515237547187963 0.023862665405308913 0 0.00048462586580988627 0.02391364190369118 0 0.00052268229158811434 0.02383155724738904 0 0.0005515237547187963 0.023862665405308913 0 0.00024353651644442177 0.024440148025118451 0 0.00039814599677773108 0.024459588521186581 0 0.00020817932692800641 0.024967909686257124 0 0.00012066028597055552 0.025089325677969405 0 0.00028135457090046963 0.025073707655721564 0 0.00036861436162186821 0.023848862031418359 0 0.00048462586580988627 0.02391364190369118 0 0.00052268229158811434 0.02383155724738904 0 0.0005795015536914995 0.023834289428267989 0 0.00057627814757151496 0.023863844851621754 0 0.00058585375083845261 0.023851693765334664 0 0.0005795015536914995 0.023834289428267989 0 0.00058585375083845261 0.023851693765334664 0 0.0005936139496702218 0.023841784766142304 0 0.0005427561195152236 0.024415953398336465 0 0.00039814599677773108 0.024459588521186581 0 0.0005795015536914995 0.023834289428267989 0 0.00057627814757151496 0.023863844851621754 0 0.0005515237547187963 0.023862665405308913 0 0.0005795015536914995 0.023834289428267989 0 0.00052268229158811434 0.02383155724738904 0 0.0005515237547187963 0.023862665405308913 0 0.00055091471532827025 0.023908295280226973 0 0.00057627814757151496 0.023863844851621754 0 0.0005515237547187963 0.023862665405308913 0 0.00055091471532827025 0.023908295280226973 0 0.00057627814757151496 0.023863844851621754 0 0.0005734932770444333 0.023883217207409452 0 0.00057627814757151496 0.023863844851621754 0 0.00058415095293573593 0.023856901368348674 0 0.0005734932770444333 0.023883217207409452 0 0.00058415095293573593 0.023856901368348674 0 0.00058608865758749185 0.02384847858878178 0 0.00058155998055614143 0.02383305976030126 0 0.00057627814757151496 0.023863844851621754 0 0.00058415095293573593 0.023856901368348674 0 0.00058585375083845261 0.023851693765334664 0 0.00058585375083845261 0.023851693765334664 0 0.00058608865758749185 0.02384847858878178 0 0.00058976517815221023 0.023849742902384292 0 0.00058415095293573593 0.023856901368348674 0 0.00058585375083845261 0.023851693765334664 0 0.00058608865758749185 0.02384847858878178 0 0.00058415095293573593 0.023856901368348674 0 0.00058013461895759909 0.023859743641889083 0 0.00058155998055614143 0.02383305976030126 0 0.00058013461895759909 0.023859743641889083 0 0.00058155998055614143 0.02383305976030126 0 0.00057911124297315136 0.023831886808476227 0 0.00058155998055614143 0.02383305976030126 0 0.00057911124297315136 0.023831886808476227 0 0.00057070755366582418 0.023790295630704589 0 0.00058013461895759909 0.023859743641889083 0 0.00057911124297315136 0.023831886808476227 0 0.00056912187369125087 0.02389820220186533 0 0.00057911124297315136 0.023831886808476227 0 0.00056912187369125087 0.02389820220186533 0 0.00058446161827825725 0.023848879630885368 0 0.00061639367861611677 0.023740950388597078 0 0.00057070755366582418 0.023790295630704589 0 0.00064799902122385125 0.023653976604503964 0 0.00059065099211030804 0.023793220159021064 0 0.00061639367861611677 0.023740950388597078 0 0.00057070755366582418 0.023790295630704589 0 0.00057911124297315136 0.023831886808476227 0 0.00059065099211030804 0.023793220159021064 0 0.00057070755366582418 0.023790295630704589 0 0.00055091471532827025 0.023908295280226973 0 0.0005734932770444333 0.023883217207409452 0 0.00055434030746955867 0.023933209223258676 0 0.00058415095293573593 0.023856901368348674 0 0.00058013461895759909 0.023859743641889083 0 0.0005734932770444333 0.023883217207409452 0 0.00058013461895759909 0.023859743641889083 0 0.0005734932770444333 0.023883217207409452 0 0.00056912187369125087 0.02389820220186533 0 0.0005734932770444333 0.023883217207409452 0 0.00056912187369125087 0.02389820220186533 0 0.00055434030746955867 0.023933209223258676 0 0.00056912187369125087 0.02389820220186533 0 0.00055434030746955867 0.023933209223258676 0 0.00054317634828680167 0.023992991565537691 0 0.00056912187369125087 0.02389820220186533 0 0.00056331802351643461 0.023938995094389404 0 0.00058446161827825725 0.023848879630885368 0 0.00056912187369125087 0.02389820220186533 0 0.00054317634828680167 0.023992991565537691 0 0.00056331802351643461 0.023938995094389404 0 0.00056331802351643461 0.023938995094389404 0 0.00054890318990481551 0.024014469140085471 0 0.00057046760350199172 0.023941683053181308 0 0.00052199720089377022 0.024087928990932237 0 0.00054317634828680167 0.023992991565537691 0 0.00054890318990481551 0.024014469140085471 0 0.00054317634828680167 0.023992991565537691 0 0.00056331802351643461 0.023938995094389404 0 0.00054890318990481551 0.024014469140085471 0 0.00059065099211030804 0.023793220159021064 0 0.00058446161827825725 0.023848879630885368 0 0.00062849460070724084 0.02376707379576443 0 0.00058446161827825725 0.023848879630885368 0 0.00061657316939191806 0.023854781371277629 0 0.00062849460070724084 0.02376707379576443 0 0.00059065099211030804 0.023793220159021064 0 0.00061639367861611677 0.023740950388597078 0 0.00062849460070724084 0.02376707379576443 0 0.00057911124297315136 0.023831886808476227 0 0.00059065099211030804 0.023793220159021064 0 0.00058446161827825725 0.023848879630885368 0 0.00056331802351643461 0.023938995094389404 0 0.00058446161827825725 0.023848879630885368 0 0.00057046760350199172 0.023941683053181308 0 0.00058446161827825725 0.023848879630885368 0 0.00057046760350199172 0.023941683053181308 0 0.00061657316939191806 0.023854781371277629 0 0.00061657316939191806 0.023854781371277629 0 0.00058322131058105879 0.023962224055286595 0 0.00061346902641687352 0.023941283086284827 0 0.00057046760350199172 0.023941683053181308 0 0.00058322131058105879 0.023962224055286595 0 0.00055922032518911362 0.024015634502568654 0 0.00057046760350199172 0.023941683053181308 0 0.00061657316939191806 0.023854781371277629 0 0.00058322131058105879 0.023962224055286595 0 0.00058322131058105879 0.023962224055286595 0 0.00061346902641687352 0.023941283086284827 0 0.00056409377443053467 0.024050804983372105 0 0.00058322131058105879 0.023962224055286595 0 0.00056409377443053467 0.024050804983372105 0 0.00055922032518911362 0.024015634502568654 0 0.00061346902641687352 0.023941283086284827 0 0.0005956209598395666 0.024029825627745253 0 0.00056409377443053467 0.024050804983372105 0 0.0005956209598395666 0.024029825627745253 0 0.00056409377443053467 0.024050804983372105 0 0.00054472840951510907 0.024135192850521823 0 0.00056409377443053467 0.024050804983372105 0 0.00053931190096916885 0.024158630781585949 0 0.00054472840951510907 0.024135192850521823 0 0.00056409377443053467 0.024050804983372105 0 0.00053931190096916885 0.024158630781585949 0 0.00053555521995542026 0.024107862060491345 0 0.00056409377443053467 0.024050804983372105 0 0.00053555521995542026 0.024107862060491345 0 0.00055922032518911362 0.024015634502568654 0 0.00054890318990481551 0.024014469140085471 0 0.00057046760350199172 0.023941683053181308 0 0.00055922032518911362 0.024015634502568654 0 0.00052199720089377022 0.024087928990932237 0 0.00054890318990481551 0.024014469140085471 0 0.00053555521995542026 0.024107862060491345 0 0.00054890318990481551 0.024014469140085471 0 0.00053555521995542026 0.024107862060491345 0 0.00055922032518911362 0.024015634502568654 0 0.00052199720089377022 0.024087928990932237 0 0.00053555521995542026 0.024107862060491345 0 0.00048957269519470895 0.024200936463494801 0 0.00053555521995542026 0.024107862060491345 0 0.00048957269519470895 0.024200936463494801 0 0.00051914643958103569 0.024210394987454694 0 0.00041378002858891545 0.024338167307137941 0 0.00048957269519470895 0.024200936463494801 0 0.00049426324503799596 0.024320603744986673 0 0.00041378002858891545 0.024338167307137941 0 0.0004415322524374812 0.024202254249496725 0 0.00048957269519470895 0.024200936463494801 0 0.00048957269519470895 0.024200936463494801 0 0.00049426324503799596 0.024320603744986673 0 0.00051914643958103569 0.024210394987454694 0 0.00049426324503799596 0.024320603744986673 0 0.00051914643958103569 0.024210394987454694 0 0.00054766906050791365 0.024228234333698657 0 0.00053931190096916885 0.024158630781585949 0 0.00051914643958103569 0.024210394987454694 0 0.00054766906050791365 0.024228234333698657 0 0.00053931190096916885 0.024158630781585949 0 0.00053555521995542026 0.024107862060491345 0 0.00051914643958103569 0.024210394987454694 0 0.00049426324503799596 0.024320603744986673 0 0.00054766906050791365 0.024228234333698657 0 0.00056287614347398337 0.02430117019834464 0 0.00054480922079977749 0.024369883780012348 0 0.000466770766586224 0.024407459349501909 0 0.00056287614347398337 0.02430117019834464 0 0.000466770766586224 0.024407459349501909 0 0.00049426324503799596 0.024320603744986673 0 0.00056287614347398337 0.02430117019834464 0 0.00054480922079977749 0.024369883780012348 0 0.00056287614347398337 0.02430117019834464 0 0.00068859629534815628 0.024171109890797463 0 0.00056287614347398337 0.02430117019834464 0 0.00058976768960575688 0.024207279044391825 0 0.00068859629534815628 0.024171109890797463 0 0.00054766906050791365 0.024228234333698657 0 0.00058976768960575688 0.024207279044391825 0 0.00052644432146869123 0.02416039397976066 0 0.00058976768960575688 0.024207279044391825 0 0.00058661355904472776 0.024095260645287133 0 0.00068859629534815628 0.024171109890797463 0 0.00054766906050791365 0.024228234333698657 0 0.00056287614347398337 0.02430117019834464 0 0.00058976768960575688 0.024207279044391825 0 0.00058976768960575688 0.024207279044391825 0 0.00052644432146869123 0.02416039397976066 0 0.00058661355904472776 0.024095260645287133 0 0.00052644432146869123 0.02416039397976066 0 0.00054472840951510907 0.024135192850521823 0 0.00053807082838978611 0.024168076300254488 0 0.00052644432146869123 0.02416039397976066 0 0.00053807082838978611 0.024168076300254488 0 0.00044723064449228551 0.023941606676025805 0 0.00054472840951510907 0.024135192850521823 0 0.00062224533524362074 0.024077252503521409 0 0.00053807082838978611 0.024168076300254488 0 0.0005956209598395666 0.024029825627745253 0 0.00054472840951510907 0.024135192850521823 0 0.00062224533524362074 0.024077252503521409 0 0.00054766906050791365 0.024228234333698657 0 0.00052644432146869123 0.02416039397976066 0 0.00054472840951510907 0.024135192850521823 0 0.00053931190096916885 0.024158630781585949 0 0.00054766906050791365 0.024228234333698657 0 0.00054472840951510907 0.024135192850521823 0 0.00078161443908481996 0.024109578034752291 0 0.00062224533524362074 0.024077252503521409 0 0.00071983382219615373 0.023981899338557999 0 0.00078161443908481996 0.024109578034752291 0 0.00062224533524362074 0.024077252503521409 0 0.00053807082838978611 0.024168076300254488 0 0.00029097083128897986 0.024090100500776705 0 0.00036696615291035591 0.023987807937973782 0 5.4019089972704077e-05 0.023824011711718732 0 9.1683238105835934e-05 0.023887322464664674 0 5.4859984609593853e-05 0.023832334520469088 0 5.4019089972704077e-05 0.023824011711718732 0 5.2869308381755595e-05 0.023819314179725663 0 5.4859984609593853e-05 0.023832334520469088 0 5.2869308381755595e-05 0.023819314179725663 0 7.3887681053066826e-05 0.02380939379932857 0 5.8573523702603076e-05 0.023809083615020061 0 5.4019089972704077e-05 0.023824011711718732 0 5.2869308381755595e-05 0.023819314179725663 0 7.3887681053066826e-05 0.02380939379932857 0 0.0013717606570900242 0.022421123642627588 0 0.00055152782373468941 0.022286871678807524 0 0.0024785575412032547 0.021218720646114367 0 0.001855365559777479 0.021163072768477557 0 0.0024405441718297156 0.020412494605553947 0 0.0013717606570900242 0.022421123642627588 0 0.0011013516022601907 0.023199219195896358 0 0.0024785575412032547 0.021218720646114367 0 0.0025221139123758605 0.022055153576160884 0 0.0019492962780301374 0.021757535311289596 0 5.4019089972704077e-05 0.023824011711718732 0 7.3887681053066826e-05 0.02380939379932857 0 8.9862588742384395e-05 0.023777657184207036 0 0.00029097083128897986 0.024090100500776705 0 0.0011013516022601907 0.023199219195896358 0 0.00078161443908481996 0.024109578034752291 0 0.00094472477361028301 0.023846450099125761 0 0.001098055061294794 0.023864677555748042 0 0.00078161443908481996 0.024109578034752291 0 0.00094472477361028301 0.023846450099125761 0 0.00083451611494146313 0.023853208347598437 0 0.00094472477361028301 0.023846450099125761 0 0.001098055061294794 0.023864677555748042 0 0.0010776378519200009 0.023651860527789805 0 0.00094472477361028301 0.023846450099125761 0 0.00095523716976887317 0.023682362185727848 0 0.00083451611494146313 0.023853208347598437 0 0.0011013516022601907 0.023199219195896358 0 0.0017149447522104423 0.022901834415396248 0 0.0010814335958151133 0.023756621702379448 0 0.0010776378519200009 0.023651860527789805 0 0.0012398082026189553 0.023506035296373521 0 0.0025221139123758605 0.022055153576160884 0 0.0019981879296410983 0.022463269038786093 0 0.0019492962780301374 0.021757535311289596 0 0.0011013516022601907 0.023199219195896358 0 0.0010959667029230501 0.023752808117473861 0 0.0010776378519200009 0.023651860527789805 0 0.0011394267291996343 0.023486478206606272 0 0.0012398082026189553 0.023506035296373521 0 0.0010776378519200009 0.023651860527789805 0 0.0010470750206641424 0.023541080732214732 0 0.0011394267291996343 0.023486478206606272 0 0.0010470750206641424 0.023541080732214732 0 0.0011394267291996343 0.023486478206606272 0 0.0011216261782941433 0.023393442806914612 0 0.00095523716976887317 0.023682362185727848 0 0.00084986726905183433 0.023713231971354141 0 0.00083451611494146313 0.023853208347598437 0 0.00094472477361028301 0.023846450099125761 0 0.0010776378519200009 0.023651860527789805 0 0.00095523716976887317 0.023682362185727848 0 0.0010776378519200009 0.023651860527789805 0 0.0010470750206641424 0.023541080732214732 0 0.00095523716976887317 0.023682362185727848 0 0.0010470750206641424 0.023541080732214732 0 0.00095523716976887317 0.023682362185727848 0 0.00095214890343925114 0.023571319309578318 0 0.00095523716976887317 0.023682362185727848 0 0.00084986726905183433 0.023713231971354141 0 0.00095214890343925114 0.023571319309578318 0 0.00084986726905183433 0.023713231971354141 0 0.00086504181531447087 0.023623559108605058 0 0.00095214890343925114 0.023571319309578318 0 0.00084986726905183433 0.023713231971354141 0 0.00086504181531447087 0.023623559108605058 0 0.0007751169674082625 0.02370800521150903 0 0.00075008390548113822 0.023835334045079856 0 0.00068184580431894753 0.023828103841371 0 0.0007751169674082625 0.02370800521150903 0 0.00084986726905183433 0.023713231971354141 0 0.00075008390548113822 0.023835334045079856 0 0.0007751169674082625 0.02370800521150903 0 0.00084986726905183433 0.023713231971354141 0 0.00075008390548113822 0.023835334045079856 0 0.00083451611494146313 0.023853208347598437 0 0.00078161443908481996 0.024109578034752291 0 0.00083451611494146313 0.023853208347598437 0 0.00071983382219615373 0.023981899338557999 0 0.00075008390548113822 0.023835334045079856 0 0.00083451611494146313 0.023853208347598437 0 0.00071983382219615373 0.023981899338557999 0 0.0005956209598395666 0.024029825627745253 0 0.00062224533524362074 0.024077252503521409 0 0.00066598967533104865 0.023930624615665735 0 0.00062224533524362074 0.024077252503521409 0 0.00071983382219615373 0.023981899338557999 0 0.00066598967533104865 0.023930624615665735 0 0.00075008390548113822 0.023835334045079856 0 0.00071983382219615373 0.023981899338557999 0 0.00066598967533104865 0.023930624615665735 0 0.00061346902641687352 0.023941283086284827 0 0.0005956209598395666 0.024029825627745253 0 0.00066598967533104865 0.023930624615665735 0 0.00061346902641687352 0.023941283086284827 0 0.00066598967533104865 0.023930624615665735 0 0.00068184580431894753 0.023828103841371 0 0.00075008390548113822 0.023835334045079856 0 0.00066598967533104865 0.023930624615665735 0 0.00068184580431894753 0.023828103841371 0 0.00061657316939191806 0.023854781371277629 0 0.00061346902641687352 0.023941283086284827 0 0.00068184580431894753 0.023828103841371 0 0.00061657316939191806 0.023854781371277629 0 0.00069312646158232116 0.023738683960951613 0 0.00062849460070724084 0.02376707379576443 0 0.00061657316939191806 0.023854781371277629 0 0.00068184580431894753 0.023828103841371 0 0.00069312646158232116 0.023738683960951613 0 0.00068184580431894753 0.023828103841371 0 0.00069312646158232116 0.023738683960951613 0 0.0007751169674082625 0.02370800521150903 0 0.00069312646158232116 0.023738683960951613 0 0.00073385384444680124 0.02364314394960838 0 0.00068566879253095401 0.023691515506999189 0 0.00069312646158232116 0.023738683960951613 0 0.00073385384444680124 0.02364314394960838 0 0.0007590278943281248 0.023663113261647252 0 0.00073385384444680124 0.02364314394960838 0 0.00068566879253095401 0.023691515506999189 0 0.00071009178110625611 0.023620231498438619 0 0.00068566879253095401 0.023691515506999189 0 0.00062849460070724084 0.02376707379576443 0 0.00066500278770784365 0.023676382132585713 0 0.00069312646158232116 0.023738683960951613 0 0.00068566879253095401 0.023691515506999189 0 0.00062849460070724084 0.02376707379576443 0 0.00061639367861611677 0.023740950388597078 0 0.00062849460070724084 0.02376707379576443 0 0.00066500278770784365 0.023676382132585713 0 0.00086504181531447087 0.023623559108605058 0 0.0007751169674082625 0.02370800521150903 0 0.00083716933646069548 0.023586267627026855 0 0.00086504181531447087 0.023623559108605058 0 0.00083716933646069548 0.023586267627026855 0 0.00091347780855122651 0.023525137228192411 0 0.0007751169674082625 0.02370800521150903 0 0.0007590278943281248 0.023663113261647252 0 0.00083716933646069548 0.023586267627026855 0 0.00069312646158232116 0.023738683960951613 0 0.0007751169674082625 0.02370800521150903 0 0.0007590278943281248 0.023663113261647252 0 0.0007590278943281248 0.023663113261647252 0 0.00079499246810714388 0.023573544184120578 0 0.00083716933646069548 0.023586267627026855 0 0.00073385384444680124 0.02364314394960838 0 0.0007590278943281248 0.023663113261647252 0 0.00079499246810714388 0.023573544184120578 0 0.00079499246810714388 0.023573544184120578 0 0.00083716933646069548 0.023586267627026855 0 0.00087916339751601216 0.023484343771558246 0 0.00083716933646069548 0.023586267627026855 0 0.00087916339751601216 0.023484343771558246 0 0.00091347780855122651 0.023525137228192411 0 0.00087916339751601216 0.023484343771558246 0 0.00082738990986622803 0.02348404301752386 0 0.00089630118326386433 0.023394061766226659 0 0.00079499246810714388 0.023573544184120578 0 0.00087916339751601216 0.023484343771558246 0 0.00082738990986622803 0.02348404301752386 0 0.00082738990986622803 0.02348404301752386 0 0.00076074457241417958 0.023551051630115519 0 0.00079378187348796059 0.0234733098169068 0 0.00079499246810714388 0.023573544184120578 0 0.00082738990986622803 0.02348404301752386 0 0.00076074457241417958 0.023551051630115519 0 0.00073385384444680124 0.02364314394960838 0 0.00079499246810714388 0.023573544184120578 0 0.00076074457241417958 0.023551051630115519 0 0.00076074457241417958 0.023551051630115519 0 0.00075600477954772542 0.023486535189018037 0 0.00073420415619062512 0.02355598900588866 0 0.00076074457241417958 0.023551051630115519 0 0.00075600477954772542 0.023486535189018037 0 0.00079378187348796059 0.0234733098169068 0 0.00075600477954772542 0.023486535189018037 0 0.00071212881029260658 0.023562273727628143 0 0.00076942574963664422 0.023320956514292564 0 0.00075600477954772542 0.023486535189018037 0 0.00080319174210951672 0.023405588132761421 0 0.00076942574963664422 0.023320956514292564 0 0.00075600477954772542 0.023486535189018037 0 0.00080319174210951672 0.023405588132761421 0 0.00079378187348796059 0.0234733098169068 0 0.00080319174210951672 0.023405588132761421 0 0.00085256995572758243 0.023365460575009416 0 0.00081938089575342606 0.023352499290231851 0 0.00080319174210951672 0.023405588132761421 0 0.00079378187348796059 0.0234733098169068 0 0.00083002460103116576 0.023424280929014579 0 0.00082738990986622803 0.02348404301752386 0 0.00079378187348796059 0.0234733098169068 0 0.00083002460103116576 0.023424280929014579 0 0.00082738990986622803 0.02348404301752386 0 0.00083002460103116576 0.023424280929014579 0 0.00089630118326386433 0.023394061766226659 0 0.00083002460103116576 0.023424280929014579 0 0.00085256995572758243 0.023365460575009416 0 0.00089630118326386433 0.023394061766226659 0 0.00080319174210951672 0.023405588132761421 0 0.00083002460103116576 0.023424280929014579 0 0.00085256995572758243 0.023365460575009416 0 0.00089630118326386433 0.023394061766226659 0 0.00088721701981773452 0.023320054299463874 0 0.00093394815079218135 0.023314650102795122 0 0.00085256995572758243 0.023365460575009416 0 0.00089630118326386433 0.023394061766226659 0 0.00088721701981773452 0.023320054299463874 0 0.00057070755366582418 0.023790295630704589 0 0.00064799902122385125 0.023653976604503964 0 0.00076942574963664422 0.023320956514292564 0 0.00058155998055614143 0.02383305976030126 0 0.00057070755366582418 0.023790295630704589 0 0.00053263890000866871 0.023804410495916303 0 0.00057070755366582418 0.023790295630704589 0 0.00053263890000866871 0.023804410495916303 0 0.00053608892453499478 0.023807726507897885 0 0.00057489089045353024 0.02374873808395055 0 0.000680258734502972 0.023591340190379881 0 0.00064799902122385125 0.023653976604503964 0 0.00066500278770784365 0.023676382132585713 0 0.00071212881029260658 0.023562273727628143 0 0.00061639367861611677 0.023740950388597078 0 0.00064799902122385125 0.023653976604503964 0 0.00066500278770784365 0.023676382132585713 0 0.00068566879253095401 0.023691515506999189 0 0.00066500278770784365 0.023676382132585713 0 0.00071009178110625611 0.023620231498438619 0 0.00066500278770784365 0.023676382132585713 0 0.00071009178110625611 0.023620231498438619 0 0.00071212881029260658 0.023562273727628143 0 0.00073385384444680124 0.02364314394960838 0 0.00076074457241417958 0.023551051630115519 0 0.00071009178110625611 0.023620231498438619 0 0.00075600477954772542 0.023486535189018037 0 0.00073420415619062512 0.02355598900588866 0 0.00071212881029260658 0.023562273727628143 0 0.00071009178110625611 0.023620231498438619 0 0.00073420415619062512 0.02355598900588866 0 0.00071212881029260658 0.023562273727628143 0 0.00076074457241417958 0.023551051630115519 0 0.00071009178110625611 0.023620231498438619 0 0.00073420415619062512 0.02355598900588866 0 0.00064799902122385125 0.023653976604503964 0 0.00071212881029260658 0.023562273727628143 0 0.00076942574963664422 0.023320956514292564 0 0.00060451714759534496 0.023804631033484368 0 0.0005265527914469567 0.023909651705548672 0 0.00058608865758749185 0.02384847858878178 0 0.00058155998055614143 0.02383305976030126 0 0.00059548556544306692 0.023856941479185937 0 0.00058608865758749185 0.02384847858878178 0 0.00059112797576210956 0.023851521237010925 0 0.00059548556544306692 0.023856941479185937 0 0.00058608865758749185 0.02384847858878178 0 0.00058976517815221023 0.023849742902384292 0 0.00059112797576210956 0.023851521237010925 0 0.00058585375083845261 0.023851693765334664 0 0.00058976517815221023 0.023849742902384292 0 0.0005936139496702218 0.023841784766142304 0 0.00058976517815221023 0.023849742902384292 0 0.00059455180894243411 0.023848962588243424 0 0.0005936139496702218 0.023841784766142304 0 0.00059455180894243411 0.023848962588243424 0 0.00059112797576210956 0.023851521237010925 0 0.00059548556544306692 0.023856941479185937 0 0.00058976517815221023 0.023849742902384292 0 0.00059455180894243411 0.023848962588243424 0 0.00059112797576210956 0.023851521237010925 0 0.0005265527914469567 0.023909651705548672 0 0.00074647140961210765 0.023284170786749603 0 0.00053263890000866871 0.023804410495916303 0 0.00053608892453499478 0.023807726507897885 0 0.00063406452793221654 0.023729510581024078 0 0.00059548556544306692 0.023856941479185937 0 0.00060400530354921117 0.023843227746787692 0 0.00063294172856452917 0.023839916512868129 0 0.00076942574963664422 0.023320956514292564 0 0.00081938089575342606 0.023352499290231851 0 0.00084717454136289734 0.023327414872951244 0 0.00080319174210951672 0.023405588132761421 0 0.00076942574963664422 0.023320956514292564 0 0.00081938089575342606 0.023352499290231851 0 0.00076942574963664422 0.023320956514292564 0 0.00084717454136289734 0.023327414872951244 0 0.00090320223737675831 0.023275754101807579 0 0.00088721701981773452 0.023320054299463874 0 0.00084717454136289734 0.023327414872951244 0 0.00090320223737675831 0.023275754101807579 0 0.00088721701981773452 0.023320054299463874 0 0.00090320223737675831 0.023275754101807579 0 0.00093394815079218135 0.023314650102795122 0 0.00085256995572758243 0.023365460575009416 0 0.00088721701981773452 0.023320054299463874 0 0.00084717454136289734 0.023327414872951244 0 0.00085256995572758243 0.023365460575009416 0 0.00081938089575342606 0.023352499290231851 0 0.00084717454136289734 0.023327414872951244 0 0.00059455180894243411 0.023848962588243424 0 0.00059548556544306692 0.023856941479185937 0 0.00060400530354921117 0.023843227746787692 0 0.00060400530354921117 0.023843227746787692 0 0.0006087852771096482 0.023831264704766861 0 0.00063294172856452917 0.023839916512868129 0 0.00060400530354921117 0.023843227746787692 0 0.0006087852771096482 0.023831264704766861 0 0.0005936139496702218 0.023841784766142304 0 0.0005954880788074814 0.023824567441856535 0 0.0006087852771096482 0.023831264704766861 0 0.0005936139496702218 0.023841784766142304 0 0.0005954880788074814 0.023824567441856535 0 0.0005795015536914995 0.023834289428267989 0 0.0005936139496702218 0.023841784766142304 0 0.00059455180894243411 0.023848962588243424 0 0.00060400530354921117 0.023843227746787692 0 0.0005936139496702218 0.023841784766142304 0 0.0010974400947160727 0.023154454951136678 0 0.001112872227656665 0.023172549114951611 0 0.0011136644657934443 0.023141870926220422 0 0.0012260489635790739 0.022174044082413691 0 0.0011793180423098082 0.02247860060563768 0 0.0010207224856443665 0.022562694601682903 0 0.0017001536355944846 0.022186171412656584 0 0.0012260489635790739 0.022174044082413691 0 0.0011793180423098082 0.02247860060563768 0 0.0010974400947160727 0.023154454951136678 0 0.0010612123004526939 0.023162312434687225 0 0.0010845838748741732 0.023171286623784967 0 0.00095851237081610754 0.022599662824485348 0 0.00074647140961210765 0.023284170786749603 0 0.00081148616986742225 0.023141374307711942 0 0.00074647140961210765 0.023284170786749603 0 0.00062560720166765114 0.023804907644437323 0 0.0006087852771096482 0.023831264704766861 0 0.00063294172856452917 0.023839916512868129 0 0.00076942574963664422 0.023320956514292564 0 0.00090320223737675831 0.023275754101807579 0 0.0010501168796621392 0.023115098236389037 0 0.00074647140961210765 0.023284170786749603 0 0.00087816059089136774 0.023218331593354784 0 0.0010612123004526939 0.023162312434687225 0 0.0010622602107639618 0.023199686559618356 0 0.0010845838748741732 0.023171286623784967 0 0.000680258734502972 0.023591340190379881 0 0.00074647140961210765 0.023284170786749603 0 0.0010501168796621392 0.023115098236389037 0 0.0010622602107639618 0.023199686559618356 0 0.0010041322271493454 0.023260203776474499 0 0.00090320223737675831 0.023275754101807579 0 0.0010501168796621392 0.023115098236389037 0 0.0010041322271493454 0.023260203776474499 0 0.00090320223737675831 0.023275754101807579 0 0.00093394815079218135 0.023314650102795122 0 0.0010041322271493454 0.023260203776474499 0 0.0010622602107639618 0.023199686559618356 0 0.0010041322271493454 0.023260203776474499 0 0.0010846312254853669 0.023233589304773521 0 0.0010041322271493454 0.023260203776474499 0 0.0010846312254853669 0.023233589304773521 0 0.0010400985172248753 0.023296961227425791 0 0.0010622602107639618 0.023199686559618356 0 0.0010846312254853669 0.023233589304773521 0 0.001112872227656665 0.023172549114951611 0 0.0010622602107639618 0.023199686559618356 0 0.0010845838748741732 0.023171286623784967 0 0.001112872227656665 0.023172549114951611 0 0.0010974400947160727 0.023154454951136678 0 0.0010845838748741732 0.023171286623784967 0 0.001112872227656665 0.023172549114951611 0 0.0010846312254853669 0.023233589304773521 0 0.001112872227656665 0.023172549114951611 0 0.0011335757890618143 0.02321330266765045 0 0.001112872227656665 0.023172549114951611 0 0.0011335757890618143 0.02321330266765045 0 0.0011338800744585557 0.023171258032226416 0 0.0011335757890618143 0.02321330266765045 0 0.0011070962232937222 0.023275904832632598 0 0.0011703105138895879 0.023234138813667978 0 0.0010846312254853669 0.023233589304773521 0 0.0011070962232937222 0.023275904832632598 0 0.0010400985172248753 0.023296961227425791 0 0.0010846312254853669 0.023233589304773521 0 0.0011335757890618143 0.02321330266765045 0 0.0011070962232937222 0.023275904832632598 0 0.0011070962232937222 0.023275904832632598 0 0.0010267545347151081 0.023359320145927665 0 0.0010666718456729162 0.023367021161744217 0 0.0011070962232937222 0.023275904832632598 0 0.0010400985172248753 0.023296961227425791 0 0.0010267545347151081 0.023359320145927665 0 0.0011070962232937222 0.023275904832632598 0 0.0011373025367665461 0.023312118506640913 0 0.0010666718456729162 0.023367021161744217 0 0.0011070962232937222 0.023275904832632598 0 0.0011373025367665461 0.023312118506640913 0 0.0011703105138895879 0.023234138813667978 0 0.00089630118326386433 0.023394061766226659 0 0.00093394815079218135 0.023314650102795122 0 0.00097825631211515191 0.023335160983507942 0 0.00089630118326386433 0.023394061766226659 0 0.00097825631211515191 0.023335160983507942 0 0.00095486723905068808 0.023424738624948656 0 0.00093394815079218135 0.023314650102795122 0 0.0010041322271493454 0.023260203776474499 0 0.00097825631211515191 0.023335160983507942 0 0.00097825631211515191 0.023335160983507942 0 0.0010400985172248753 0.023296961227425791 0 0.0010267545347151081 0.023359320145927665 0 0.0010041322271493454 0.023260203776474499 0 0.00097825631211515191 0.023335160983507942 0 0.0010400985172248753 0.023296961227425791 0 0.0010267545347151081 0.023359320145927665 0 0.00095486723905068808 0.023424738624948656 0 0.00099044223179252356 0.023465099858354474 0 0.00097825631211515191 0.023335160983507942 0 0.0010267545347151081 0.023359320145927665 0 0.00095486723905068808 0.023424738624948656 0 0.00087916339751601216 0.023484343771558246 0 0.00089630118326386433 0.023394061766226659 0 0.00095486723905068808 0.023424738624948656 0 0.00087916339751601216 0.023484343771558246 0 0.00095486723905068808 0.023424738624948656 0 0.00091347780855122651 0.023525137228192411 0 0.00095486723905068808 0.023424738624948656 0 0.00091347780855122651 0.023525137228192411 0 0.00099044223179252356 0.023465099858354474 0 0.0010267545347151081 0.023359320145927665 0 0.00099044223179252356 0.023465099858354474 0 0.0010666718456729162 0.023367021161744217 0 0.00099044223179252356 0.023465099858354474 0 0.0010666718456729162 0.023367021161744217 0 0.0010566215940795054 0.023436432866954675 0 0.00099044223179252356 0.023465099858354474 0 0.00095214890343925114 0.023571319309578318 0 0.0010566215940795054 0.023436432866954675 0 0.0010470750206641424 0.023541080732214732 0 0.00095214890343925114 0.023571319309578318 0 0.0010566215940795054 0.023436432866954675 0 0.00091347780855122651 0.023525137228192411 0 0.00099044223179252356 0.023465099858354474 0 0.00095214890343925114 0.023571319309578318 0 0.00086504181531447087 0.023623559108605058 0 0.00091347780855122651 0.023525137228192411 0 0.00095214890343925114 0.023571319309578318 0 0.0011373025367665461 0.023312118506640913 0 0.0012241965661234724 0.023240474921283831 0 0.0011703105138895879 0.023234138813667978 0 0.0011373025367665461 0.023312118506640913 0 0.0010666718456729162 0.023367021161744217 0 0.0010566215940795054 0.023436432866954675 0 0.0011373025367665461 0.023312118506640913 0 0.0010566215940795054 0.023436432866954675 0 0.0011216261782941433 0.023393442806914612 0 0.0010470750206641424 0.023541080732214732 0 0.0010566215940795054 0.023436432866954675 0 0.0011216261782941433 0.023393442806914612 0 0.0011373025367665461 0.023312118506640913 0 0.0011216261782941433 0.023393442806914612 0 0.0012241965661234724 0.023240474921283831 0 0.0011394267291996343 0.023486478206606272 0 0.0011216261782941433 0.023393442806914612 0 0.0012241965661234724 0.023240474921283831 0 0.0012241965661234724 0.023240474921283831 0 0.001234368548539471 0.023155812107302821 0 0.0013437217314211131 0.022969040694207937 0 0.0012241965661234724 0.023240474921283831 0 0.001234368548539471 0.023155812107302821 0 0.0011703105138895879 0.023234138813667978 0 0.0013437217314211131 0.022969040694207937 0 0.0011222487671223053 0.02308798469452222 0 0.0010676927229153353 0.022591615927099493 0 0.001234368548539471 0.023155812107302821 0 0.0013437217314211131 0.022969040694207937 0 0.0011222487671223053 0.02308798469452222 0 0.001234368548539471 0.023155812107302821 0 0.0011222487671223053 0.02308798469452222 0 0.001157429686276266 0.023159439155674557 0 0.0011222487671223053 0.02308798469452222 0 0.001157429686276266 0.023159439155674557 0 0.0010770126115359653 0.02315397471938576 0 0.001234368548539471 0.023155812107302821 0 0.0011703105138895879 0.023234138813667978 0 0.0011705810314239669 0.023186499367132501 0 0.001234368548539471 0.023155812107302821 0 0.001157429686276266 0.023159439155674557 0 0.0011705810314239669 0.023186499367132501 0 0.0011335757890618143 0.02321330266765045 0 0.0011703105138895879 0.023234138813667978 0 0.0011705810314239669 0.023186499367132501 0 0.0011335757890618143 0.02321330266765045 0 0.0011705810314239669 0.023186499367132501 0 0.0011338800744585557 0.023171258032226416 0 0.0011705810314239669 0.023186499367132501 0 0.0011338800744585557 0.023171258032226416 0 0.0011237732434082695 0.023157113384075806 0 0.001157429686276266 0.023159439155674557 0 0.0011705810314239669 0.023186499367132501 0 0.0011237732434082695 0.023157113384075806 0 0.0011237732434082695 0.023157113384075806 0 0.0010697787944462854 0.023127027753783828 0 0.0010770126115359653 0.02315397471938576 0 0.001157429686276266 0.023159439155674557 0 0.0011237732434082695 0.023157113384075806 0 0.0010770126115359653 0.02315397471938576 0 0.0010494742998618408 0.023087197462495684 0 0.0011136644657934443 0.023141870926220422 0 0.0010697787944462854 0.023127027753783828 0 0.0011237732434082695 0.023157113384075806 0 0.0011136644657934443 0.023141870926220422 0 0.0010697787944462854 0.023127027753783828 0 0.0013251485889958304 0.021990737570198524 0 0.00095851237081610754 0.022599662824485348 0 0.00095851237081610754 0.022599662824485348 0 0.0010006057967085092 0.022541121936652586 0 0.00095518307219077524 0.021862321314477556 0 0.00059485359934721509 0.022129198472568199 0 0.00094752770261570724 0.021917492728740849 0 0.0011338800744585557 0.023171258032226416 0 0.0011237732434082695 0.023157113384075806 0 0.0011136644657934443 0.023141870926220422 0 0.001112872227656665 0.023172549114951611 0 0.0011338800744585557 0.023171258032226416 0 0.0011136644657934443 0.023141870926220422 0 0.001050374973565473 0.023102349090662912 0 0.0010770520336364025 0.023076685708403356 0 0.0010386950531930299 0.023116508398539081 0 0.001050374973565473 0.023102349090662912 0 0.0010495857607460415 0.023134922593885207 0 0.0010386950531930299 0.023116508398539081 0 0.0010676461716524954 0.023037014127496421 0 0.001050374973565473 0.023102349090662912 0 0.0010770520336364025 0.023076685708403356 0 0.001050374973565473 0.023102349090662912 0 0.0010697787944462854 0.023127027753783828 0 0.0010495857607460415 0.023134922593885207 0 0.0010494742998618408 0.023087197462495684 0 0.001050374973565473 0.023102349090662912 0 0.0010697787944462854 0.023127027753783828 0 0.0010494742998618408 0.023087197462495684 0 0.0010676461716524954 0.023037014127496421 0 0.001050374973565473 0.023102349090662912 0 0.0010697787944462854 0.023127027753783828 0 0.0010495857607460415 0.023134922593885207 0 0.0010770126115359653 0.02315397471938576 0 0.0010495857607460415 0.023134922593885207 0 0.0010770126115359653 0.02315397471938576 0 0.0010134177041198058 0.023133607560442335 0 0.0010770126115359653 0.02315397471938576 0 0.0010134177041198058 0.023133607560442335 0 0.00098810293806957691 0.023112334239504848 0 0.0010134177041198058 0.023133607560442335 0 0.0010163000686973719 0.023128690974502045 0 0.00097187489980247457 0.023120731970859901 0 0.0010134177041198058 0.023133607560442335 0 0.0010386950531930299 0.023116508398539081 0 0.0010163000686973719 0.023128690974502045 0 0.0010495857607460415 0.023134922593885207 0 0.0010134177041198058 0.023133607560442335 0 0.0010386950531930299 0.023116508398539081 0 0.0010386950531930299 0.023116508398539081 0 0.0010163000686973719 0.023128690974502045 0 0.0010653986603838511 0.02313586672417654 0 0.0010770520336364025 0.023076685708403356 0 0.0010386950531930299 0.023116508398539081 0 0.0010653986603838511 0.02313586672417654 0 0.0010163000686973719 0.023128690974502045 0 0.00097187489980247457 0.023120731970859901 0 0.0010653986603838511 0.02313586672417654 0 0.00097187489980247457 0.023120731970859901 0 0.00081652292765166834 0.023061346969188989 0 0.0010653986603838511 0.02313586672417654 0 0.00097187489980247457 0.023120731970859901 0 0.00098810293806957691 0.023112334239504848 0 0.00081652292765166834 0.023061346969188989 0 0.00072986596166636785 0.021969565046514202 0 0.0010801954110561962 0.021826933637357323 0 0.00053804460329848647 0.021230955803176528 0 0.0011443904581616229 0.019361088181872856 0 0.0011349848537042058 0.021333379752385476 0 0.0010134177041198058 0.023133607560442335 0 0.00097187489980247457 0.023120731970859901 0 0.00098810293806957691 0.023112334239504848 0 0.00098810293806957691 0.023112334239504848 0 0.00096248104623819638 0.023029417760017434 0 0.00081652292765166834 0.023061346969188989 0 0.0011222487671223053 0.02308798469452222 0 0.0010770126115359653 0.02315397471938576 0 0.00098810293806957691 0.023112334239504848 0 0.0011222487671223053 0.02308798469452222 0 0.00098810293806957691 0.023112334239504848 0 0.00096248104623819638 0.023029417760017434 0 0.00094018990993960914 0.022819974529461131 0 0.00081652292765166834 0.023061346969188989 0 0.0007029673861152179 0.022228015957758498 0 0.0011222487671223053 0.02308798469452222 0 0.00094018990993960914 0.022819974529461131 0 0.0010676927229153353 0.022591615927099493 0 0.0011222487671223053 0.02308798469452222 0 0.00096248104623819638 0.023029417760017434 0 0.00094018990993960914 0.022819974529461131 0 0.00096248104623819638 0.023029417760017434 0 0.00094018990993960914 0.022819974529461131 0 0.00081652292765166834 0.023061346969188989 0 0.00053804460329848647 0.021230955803176528 0 0.00072019299194244282 0.0217624489930358 0 0.0011349848537042058 0.021333379752385476 0 0.00072986596166636785 0.021969565046514202 0 0.00069186830018631829 0.022244887349550893 0 0.00053804460329848647 0.021230955803176528 0 0.00072019299194244282 0.0217624489930358 0 0.0007029673861152179 0.022228015957758498 0 0.00072019299194244282 0.0217624489930358 0 0.00059795718740083409 0.022101788905381101 0 0.0011349848537042058 0.021333379752385476 0 0.00072019299194244282 0.0217624489930358 0 0.00059795718740083409 0.022101788905381101 0 0.0007029673861152179 0.022228015957758498 0 0.00067705224573345185 0.01471163115631427 0 0.00054297886795326607 0.014689915915914719 0 0.00059795718740083409 0.022101788905381101 0 0.00086661047791442892 0.021908619659748781 0 0.00045035289607948313 0.021312486639760372 0 0.00059795718740083409 0.022101788905381101 0 0.00086661047791442892 0.021908619659748781 0 0.0007029673861152179 0.022228015957758498 0 0.00086661047791442892 0.021908619659748781 0 0.0007029673861152179 0.022228015957758498 0 0.0010676927229153353 0.022591615927099493 0 0.00094018990993960914 0.022819974529461131 0 0.0007029673861152179 0.022228015957758498 0 0.0010676927229153353 0.022591615927099493 0 0.0013437217314211131 0.022969040694207937 0 0.0010676927229153353 0.022591615927099493 0 0.0014487788134491491 0.022183266752863546 0 0.0011394267291996343 0.023486478206606272 0 0.0012241965661234724 0.023240474921283831 0 0.0012398082026189553 0.023506035296373521 0 0.0013193835487795872 0.023044761323547741 0 0.0017149447522104423 0.022901834415396248 0 0.0013437217314211131 0.022969040694207937 0 0.0019981879296410983 0.022463269038786093 0 0.0014487788134491491 0.022183266752863546 0 0.0012241965661234724 0.023240474921283831 0 0.0013437217314211131 0.022969040694207937 0 0.0012398082026189553 0.023506035296373521 0 0.0019981879296410983 0.022463269038786093 0 0.0014487788134491491 0.022183266752863546 0 0.0019492962780301374 0.021757535311289596 0 0.00086661047791442892 0.021908619659748781 0 0.0010676927229153353 0.022591615927099493 0 0.0014487788134491491 0.022183266752863546 0 0.0014487788134491491 0.022183266752863546 0 0.0013735641868531157 0.021547551528309204 0 0.0019492962780301374 0.021757535311289596 0 0.00086661047791442892 0.021908619659748781 0 0.0014487788134491491 0.022183266752863546 0 0.0013735641868531157 0.021547551528309204 0 0.0013735641868531157 0.021547551528309204 0 0.0019492962780301374 0.021757535311289596 0 0.001855365559777479 0.021163072768477557 0 0.0024785575412032547 0.021218720646114367 0 0.0019492962780301374 0.021757535311289596 0 0.001855365559777479 0.021163072768477557 0 0.001855365559777479 0.021163072768477557 0 0.0010598049346718364 0.020900636220398956 0 0.0016403800449710914 0.020549621334085996 0 0.0013735641868531157 0.021547551528309204 0 0.001855365559777479 0.021163072768477557 0 0.0010598049346718364 0.020900636220398956 0 0.0010598049346718364 0.020900636220398956 0 0.00045035289607948313 0.021312486639760372 0 0.00092491632089671829 0.021405989304017051 0 0.0010598049346718364 0.020900636220398956 0 0.00045035289607948313 0.021312486639760372 0 0.00055432637091950079 0.02038861243917436 0 0.00050642297129128522 0.0073914222196422167 0 0.00046042906953470199 0.0073717602154866786 0 0.00039074704986063384 0.0073117666013997355 0 0.00054297886795326607 0.014689915915914719 0 -4.3902721738861798e-05 0.012376485323324011 0 0.00086661047791442892 0.021908619659748781 0 0.0013735641868531157 0.021547551528309204 0 0.00092491632089671829 0.021405989304017051 0 0.00086661047791442892 0.021908619659748781 0 0.00045035289607948313 0.021312486639760372 0 0.00092491632089671829 0.021405989304017051 0 0.0013735641868531157 0.021547551528309204 0 0.0010598049346718364 0.020900636220398956 0 0.00092491632089671829 0.021405989304017051 0 -0.00027202411812663699 0.014056465665850669 0 -0.00021818857078617242 0.013804422358064273 0 -0.00045949187469421465 0.013960676245369171 0 -0.00027202411812663699 0.014056465665850669 0 -0.00045949187469421465 0.013960676245369171 0 -0.00050676354423868832 0.014177309913238612 0 -3.7812605271737207e-05 0.0076975364784703732 0 3.6374499588726434e-05 0.0074574739559328833 0 0.00025821597709571169 0.0075773334302592374 0 -7.7596543232344911e-05 0.010483455633693512 0 -4.3902721738861798e-05 0.012376485323324011 0 -4.3902721738861798e-05 0.012376485323324011 0 0.00089156336521989269 0.0059718342085934451 0 0.0010598049346718364 0.020900636220398956 0 0.00055432637091950079 0.02038861243917436 0 0.0011545510219722261 0.020098741278248358 0 -4.3902721738861798e-05 0.012376485323324011 0 8.8758864688618389e-05 0.017565745785725617 0 0.0010598049346718364 0.020900636220398956 0 0.0016403800449710914 0.020549621334085996 0 0.0011545510219722261 0.020098741278248358 0 0.0016403800449710914 0.020549621334085996 0 0.001935417253536039 0.020200595808474629 0 0.0022894642044270128 0.020395739419647559 0 0.0024943810797689826 0.020042003371773684 0 0.00055152782373468941 0.022286871678807524 0 0.001855365559777479 0.021163072768477557 0 0.0016403800449710914 0.020549621334085996 0 0.0024405441718297156 0.020412494605553947 0 0.0016403800449710914 0.020549621334085996 0 0.001935417253536039 0.020200595808474629 0 0.0017129041690440675 0.019826434160484151 0 0.001935417253536039 0.020200595808474629 0 0.0017129041690440675 0.019826434160484151 0 0.0020254411773536298 0.019789159140691199 0 8.8758864688618389e-05 0.017565745785725617 0 0.00078652860963930084 0.016636610957187947 0 0.0016403800449710914 0.020549621334085996 0 0.0011545510219722261 0.020098741278248358 0 0.0017129041690440675 0.019826434160484151 0 -0.00045949187469421465 0.013960676245369171 0 -0.00050676354423868832 0.014177309913238612 0 -0.0006592434110985544 0.01410127599809405 0 -0.00050676354423868832 0.014177309913238612 0 -0.0006592434110985544 0.01410127599809405 0 -0.00068837690406711055 0.014285650241397971 0 0.00078652860963930084 0.016636610957187947 0 0.00012968734895593958 0.01915571925563803 0 -0.0006592434110985544 0.01410127599809405 0 -0.00068837690406711055 0.014285650241397971 0 -0.00088398528149091435 0.014292773016629184 0 -0.00068837690406711055 0.014285650241397971 0 -0.00073391948883092569 0.014401310126805532 0 -0.00062184210720491037 0.014368964135324316 0 -0.00068837690406711055 0.014285650241397971 0 -0.00073391948883092569 0.014401310126805532 0 -0.00088398528149091435 0.014292773016629184 0 -0.00062184210720491037 0.014368964135324316 0 -0.00051260421532252094 0.014299892589309414 0 -0.00056781290096570992 0.014375254868403829 0 -0.00050676354423868832 0.014177309913238612 0 -0.00062184210720491037 0.014368964135324316 0 -0.00032428961381073028 0.014292196037829422 0 -0.0006200399293446574 0.014973967961547291 0 -0.00070766390541938679 0.011438563240929192 0 -0.00050676354423868832 0.014177309913238612 0 -0.00068837690406711055 0.014285650241397971 0 -0.00062184210720491037 0.014368964135324316 0 -7.7596543232344911e-05 0.010483455633693512 0 -0.00070766390541938679 0.011438563240929192 0 -0.00027202411812663699 0.014056465665850669 0 -0.00050676354423868832 0.014177309913238612 0 -0.00032428961381073028 0.014292196037829422 0 -3.7812605271737207e-05 0.0076975364784703732 0 -0.00010195934408251174 0.0079827023655507333 0 0.0002247457716441588 0.00785088794864147 0 -3.7812605271737207e-05 0.0076975364784703732 0 0.00025821597709571169 0.0075773334302592374 0 0.0002247457716441588 0.00785088794864147 0 -0.0018089980313609592 0.0088360576108357531 0 -0.001225304319822703 0.0094926904668366559 0 -0.00059852840648036908 0.008549778530239421 0 -0.00070766390541938679 0.011438563240929192 0 -0.00018151022232186739 0.007829991300001695 0 -0.001225304319822703 0.0094926904668366559 0 -0.0013349103285207906 0.010119147384790399 0 -0.00072417135118707 0.010312632065306563 0 -0.001225304319822703 0.0094926904668366559 0 -0.0013349103285207906 0.010119147384790399 0 -0.0020420134500441734 0.0099593093904504233 0 -0.0018089980313609592 0.0088360576108357531 0 -0.001225304319822703 0.0094926904668366559 0 -0.0020420134500441734 0.0099593093904504233 0 -0.00051260421532252094 0.014299892589309414 0 -0.00053509274553892176 0.01442809030856022 0 -0.00056781290096570992 0.014375254868403829 0 -0.00070766390541938679 0.011438563240929192 0 -0.001343763945084075 0.012223950132490013 0 -0.0020420134500441734 0.0099593093904504233 0 -0.0014911504999754585 0.010732526885067295 0 -0.002260846812645326 0.01115634935241668 0 -0.001343763945084075 0.012223950132490013 0 -0.0012657628024837981 0.012893730706059222 0 -0.00053509274553892176 0.01442809030856022 0 -0.00055950595141278868 0.014536831952259568 0 -0.00060262568337799598 0.014496791438703822 0 -0.0013349103285207906 0.010119147384790399 0 -0.0020420134500441734 0.0099593093904504233 0 -0.0014911504999754585 0.010732526885067295 0 -0.0016102215304389942 0.010842046531387527 0 -0.0012657628024837981 0.012893730706059222 0 -0.0016102215304389942 0.010842046531387527 0 -0.00080263785888312275 0.010373159720163621 0 -0.0013349103285207906 0.010119147384790399 0 -0.0014911504999754585 0.010732526885067295 0 -0.00072417135118707 0.010312632065306563 0 -0.001679048746993525 0.010905340121711104 0 -0.0010065793257201046 0.011073392314628241 0 -0.0015864339215002274 0.011493341878889148 0 -0.001679048746993525 0.010905340121711104 0 -0.0010065793257201046 0.011073392314628241 0 -0.00072417135118707 0.010312632065306563 0 -5.7883239559259617e-05 0.012165821388784161 0 -7.4254311368495411e-05 0.012259659374765756 0 -0.00031501733434146099 0.011464565213912741 0 -0.0010065793257201046 0.011073392314628241 0 -0.0015864339215002274 0.011493341878889148 0 -0.00031501733434146099 0.011464565213912741 0 -0.00089270460678815609 0.011787265417436479 0 -0.00027714260904699597 0.011581807587995664 0 -5.7883239559259617e-05 0.012165821388784161 0 -0.00012603773036384892 0.01243737412793755 0 -7.4254311368495411e-05 0.012259659374765756 0 -5.7883239559259617e-05 0.012165821388784161 0 -0.00055116296251390593 0.012207007923940217 0 -0.00012603773036384892 0.01243737412793755 0 -0.0015864339215002274 0.011493341878889148 0 -0.0026572157723690577 0.011449494775556943 0 -0.0026730735079162921 0.011541705863454078 0 -0.001679048746993525 0.010905340121711104 0 -0.0015864339215002274 0.011493341878889148 0 -0.0026572157723690577 0.011449494775556943 0 -0.0001708706178156505 0.014808685738990709 0 -0.0001031408709979255 0.014807560050247448 0 -1.9279568569652673e-07 0.01416516371640255 0 -0.00089270460678815609 0.011787265417436479 0 -0.0010480505142898802 0.013062807632083761 0 -0.0012657628024837981 0.012893730706059222 0 -0.0010480505142898802 0.013062807632083761 0 -0.0010480505142898802 0.013062807632083761 0 -0.00079956861586104972 0.013557374629008318 0 -0.0011083128143162832 0.013263187245927028 0 -0.0010992914499200813 0.013214674207056487 0 -0.0010077177548833613 0.013211850589721548 0 -0.0012657628024837981 0.012893730706059222 0 -0.00079956861586104972 0.013557374629008318 0 -0.00055116296251390593 0.012207007923940217 0 -0.00012603773036384892 0.01243737412793755 0 -5.5288497857913732e-05 0.012969450172905064 0 -0.0010480505142898802 0.013062807632083761 0 1.6232637693797565e-07 0.014163432176311072 0 -0.00055116296251390593 0.012207007923940217 0 -5.5288497857913732e-05 0.012969450172905064 0 -1.5552806776354283e-06 0.014160898799767932 0 -5.5288497857913732e-05 0.012969450172905064 0 2.652627549407111e-07 0.01277646118182261 0 -1.5552806776354283e-06 0.014160898799767932 0 2.652627549407111e-07 0.01277646118182261 0 -7.4254311368495411e-05 0.012259659374765756 0 -0.00013601141568385041 0.011823707561499201 0 -5.5288497857913732e-05 0.012969450172905064 0 2.652627549407111e-07 0.01277646118182261 0 -7.4254311368495411e-05 0.012259659374765756 0 -0.00012603773036384892 0.01243737412793755 0 -5.5288497857913732e-05 0.012969450172905064 0 -7.4254311368495411e-05 0.012259659374765756 0 -0.00056337099926636626 0.01553678455219633 0 -0.0003452621654940412 0.016115336735680101 0 -0.0018541393414997038 0.016963221654435406 0 -0.00014810736061167978 0.016072900858680902 0 -0.00044738672708537295 0.016733343059904354 0 -3.0846732690646628e-05 0.015370582671466307 0 5.3432279883774525e-06 0.015049890256759565 0 -0.00014810736061167978 0.016072900858680902 0 -3.0846732690646628e-05 0.015370582671466307 0 1.1046359171261823e-05 0.014630629335106875 0 -4.228431686174966e-07 0.015657160999383107 0 -3.0846732690646628e-05 0.015370582671466307 0 1.1046359171261823e-05 0.014630629335106875 0 5.3432279883774525e-06 0.015049890256759565 0 -3.0846732690646628e-05 0.015370582671466307 0 -0.00014810736061167978 0.016072900858680902 0 -4.228431686174966e-07 0.015657160999383107 0 1.1046359171261823e-05 0.014630629335106875 0 -1.9279568569652673e-07 0.01416516371640255 0 -4.228431686174966e-07 0.015657160999383107 0 -0.0001031408709979255 0.014807560050247448 0 1.1046359171261823e-05 0.014630629335106875 0 -1.9279568569652673e-07 0.01416516371640255 0 -0.0001031408709979255 0.014807560050247448 0 1.1046359171261823e-05 0.014630629335106875 0 3.288007478271146e-05 0.014748513039553608 0 -9.7205065406079453e-05 0.014573061451245366 0 -0.00056337099926636626 0.01553678455219633 0 -0.00079956861586104972 0.013557374629008318 0 -0.00061481220304262227 0.015808355653650494 0 -0.00057242245190527389 0.014545329021029453 0 -0.00065035879062886812 0.014559520347629994 0 -0.00060262568337799598 0.014496791438703822 0 -0.0005353325839180268 0.014804524168627443 0 -0.00075735789772539267 0.014932314121925387 0 -0.00078811064880768462 0.014825536678619071 0 -0.00079956861586104972 0.013557374629008318 0 -0.00056337099926636626 0.01553678455219633 0 -0.00055950595141278868 0.014536831952259568 0 -0.00057242245190527389 0.014545329021029453 0 -0.00060262568337799598 0.014496791438703822 0 -0.0018541393414997038 0.016963221654435406 0 -0.0011942182102530417 0.017119178040093171 0 -0.00044738672708537295 0.016733343059904354 0 -0.0016248892745770126 0.01752066323532657 0 -0.00082634539233415413 0.017230742077444315 0 -4.7887211059111741e-05 0.01738874721239261 0 -8.1248702574676854e-05 0.016956235888067567 0 -0.00061109624905581904 0.016594693391431166 0 -0.0011225833480503641 0.017010449718937608 0 -0.00061481220304262227 0.015808355653650494 0 -0.0011988829141643179 0.017698407246755928 0 -0.0016248892745770126 0.01752066323532657 0 -0.0011942182102530417 0.017119178040093171 0 -0.00082634539233415413 0.017230742077444315 0 -0.0018541393414997038 0.016963221654435406 0 -0.0016248892745770126 0.01752066323532657 0 -0.0011942182102530417 0.017119178040093171 0 -0.00056337099926636626 0.01553678455219633 0 -0.00061481220304262227 0.015808355653650494 0 -0.0011942182102530417 0.017119178040093171 0 -0.00082634539233415413 0.017230742077444315 0 -0.00044738672708537295 0.016733343059904354 0 -8.1248702574676854e-05 0.016956235888067567 0 -0.00061109624905581904 0.016594693391431166 0 -0.00033361773442047851 0.016054702106131063 0 -0.00061481220304262227 0.015808355653650494 0 -0.00049331650377599308 0.015265151297980719 0 -0.00061109624905581904 0.016594693391431166 0 -0.00033361773442047851 0.016054702106131063 0 -0.00080484530001283174 0.016321617147974903 0 -0.00065035879062886812 0.014559520347629994 0 -0.00067978616437293317 0.01447571845931192 0 -0.00060262568337799598 0.014496791438703822 0 -0.00067978616437293317 0.01447571845931192 0 -0.00060262568337799598 0.014496791438703822 0 -0.00061881782951978578 0.014429984578701387 0 -0.00053509274553892176 0.01442809030856022 0 -0.00060262568337799598 0.014496791438703822 0 -0.00061881782951978578 0.014429984578701387 0 -0.00053509274553892176 0.01442809030856022 0 -0.00061881782951978578 0.014429984578701387 0 -0.00056781290096570992 0.014375254868403829 0 -0.00062184210720491037 0.014368964135324316 0 -0.00061881782951978578 0.014429984578701387 0 -0.00056781290096570992 0.014375254868403829 0 -0.00073391948883092569 0.014401310126805532 0 -0.00067978616437293317 0.01447571845931192 0 -0.00061881782951978578 0.014429984578701387 0 -0.00073391948883092569 0.014401310126805532 0 -0.00062184210720491037 0.014368964135324316 0 -0.00061881782951978578 0.014429984578701387 0 -0.00057586679270109527 0.015142064732848726 0 -0.00033361773442047851 0.016054702106131063 0 -0.0011530124249459813 0.015626945332031461 0 -0.00067090696251799671 0.014762111013482106 0 -0.00049331650377599308 0.015265151297980719 0 -0.0018070295845694611 0.02086210582290542 0 -0.001198648750845322 0.021181552877859344 0 -0.0017768458671018426 0.021641086789174441 0 -0.0018070295845694611 0.02086210582290542 0 -0.0017768458671018426 0.021641086789174441 0 -0.0021161273744690796 0.02128796763075223 0 -0.0026768909880981501 0.020793779048686505 0 -0.0018070295845694611 0.02086210582290542 0 -0.0021161273744690796 0.02128796763075223 0 -0.0026768909880981501 0.020793779048686505 0 -0.0018070295845694611 0.02086210582290542 0 -0.0018359744381758515 0.019762315608352007 0 -0.0018070295845694611 0.02086210582290542 0 -0.0010978167138155294 0.020174502829826305 0 -0.001198648750845322 0.021181552877859344 0 -0.0018070295845694611 0.02086210582290542 0 -0.0018359744381758515 0.019762315608352007 0 -0.0010978167138155294 0.020174502829826305 0 -0.0018359744381758515 0.019762315608352007 0 -0.00067041411338507209 0.018195098039241412 0 -0.0010978167138155294 0.020174502829826305 0 -0.00033361773442047851 0.016054702106131063 0 -0.0011530124249459813 0.015626945332031461 0 -0.00080484530001283174 0.016321617147974903 0 -0.0022773637688445585 0.018013210959425738 0 -0.0011988829141643179 0.017698407246755928 0 -0.0026768909880981501 0.020793779048686505 0 -0.0018359744381758515 0.019762315608352007 0 -0.0028313037837277167 0.01832980545587513 0 -0.0011530124249459813 0.015626945332031461 0 -0.00080484530001283174 0.016321617147974903 0 -0.0011225833480503641 0.017010449718937608 0 -0.00061109624905581904 0.016594693391431166 0 -0.00080484530001283174 0.016321617147974903 0 -0.0011225833480503641 0.017010449718937608 0 -0.00082634539233415413 0.017230742077444315 0 -0.00035780142984905965 0.017088770406506519 0 -4.7887211059111741e-05 0.01738874721239261 0 -0.00035780142984905965 0.017088770406506519 0 -0.00017059409853811347 0.017044327370510825 0 -4.7887211059111741e-05 0.01738874721239261 0 -0.00035780142984905965 0.017088770406506519 0 -0.00017059409853811347 0.017044327370510825 0 -0.00044738672708537295 0.016733343059904354 0 -0.00082634539233415413 0.017230742077444315 0 -0.00035780142984905965 0.017088770406506519 0 -0.00044738672708537295 0.016733343059904354 0 -0.00017059409853811347 0.017044327370510825 0 -0.00029719024312582461 0.017310277682002426 0 -0.00014419764558359845 0.016818129011813218 0 -0.00017059409853811347 0.017044327370510825 0 -0.00017870944920377909 0.017000379158260425 0 -0.00029719024312582461 0.017310277682002426 0 -0.00087757999585956503 0.017264524185073449 0 -0.0011988829141643179 0.017698407246755928 0 -0.0011988829141643179 0.017698407246755928 0 -0.00075565032319621639 0.018053587904882939 0 -0.00017870944920377909 0.017000379158260425 0 -0.00067041411338507209 0.018195098039241412 0 -0.00029719024312582461 0.017310277682002426 0 -0.0018359744381758515 0.019762315608352007 0 -0.0028313037837277167 0.01832980545587513 0 -0.00067041411338507209 0.018195098039241412 0 -0.00067041411338507209 0.018195098039241412 0 -0.00029719024312582461 0.017310277682002426 0 -0.00012937878806049423 0.016935458588144558 0 -0.00067041411338507209 0.018195098039241412 0 -7.0481446718882924e-07 0.017152205319521205 0 -0.00012937878806049423 0.016935458588144558 0 -7.0481446718882924e-07 0.017152205319521205 0 -0.00012937878806049423 0.016935458588144558 0 -4.228431686174966e-07 0.015657160999383107 0 -0.00012937878806049423 0.016935458588144558 0 -0.00014810736061167978 0.016072900858680902 0 -4.228431686174966e-07 0.015657160999383107 0 -0.00017059409853811347 0.017044327370510825 0 -0.00044738672708537295 0.016733343059904354 0 -0.00014419764558359845 0.016818129011813218 0 -0.00014810736061167978 0.016072900858680902 0 -0.00044738672708537295 0.016733343059904354 0 -0.00014419764558359845 0.016818129011813218 0 -0.00029719024312582461 0.017310277682002426 0 -0.00012937878806049423 0.016935458588144558 0 -0.00014419764558359845 0.016818129011813218 0 -0.00012937878806049423 0.016935458588144558 0 -0.00014810736061167978 0.016072900858680902 0 -0.00014419764558359845 0.016818129011813218 0 4.784151580303228e-07 0.018644778485564367 0 -9.4440196532351913e-05 0.018188027082441559 0 0.00014660248487341116 0.019087516193477112 0 -0.00067041411338507209 0.018195098039241412 0 -7.0481446718882924e-07 0.017152205319521205 0 -9.4440196532351913e-05 0.018188027082441559 0 -7.0481446718882924e-07 0.017152205319521205 0 4.784151580303228e-07 0.018644778485564367 0 -9.4440196532351913e-05 0.018188027082441559 0 -0.00067041411338507209 0.018195098039241412 0 -5.615214404075947e-05 0.019202629538820341 0 -0.00045060248745853754 0.019643635618363516 0 -0.00067041411338507209 0.018195098039241412 0 -9.4440196532351913e-05 0.018188027082441559 0 -5.615214404075947e-05 0.019202629538820341 0 -9.4440196532351913e-05 0.018188027082441559 0 -5.615214404075947e-05 0.019202629538820341 0 0.00014660248487341116 0.019087516193477112 0 -5.615214404075947e-05 0.019202629538820341 0 -0.00022813415722591957 0.020527018797338231 0 0.00021831815597318107 0.019704425968303917 0 -5.615214404075947e-05 0.019202629538820341 0 -0.00045060248745853754 0.019643635618363516 0 -0.00022813415722591957 0.020527018797338231 0 -0.00067041411338507209 0.018195098039241412 0 -0.00045060248745853754 0.019643635618363516 0 -0.0010978167138155294 0.020174502829826305 0 -0.00045060248745853754 0.019643635618363516 0 -0.0010978167138155294 0.020174502829826305 0 -0.00022813415722591957 0.020527018797338231 0 -0.001198648750845322 0.021181552877859344 0 -0.00022813415722591957 0.020527018797338231 0 -0.00072410045918123197 0.021648354382969869 0 -0.0010978167138155294 0.020174502829826305 0 -0.001198648750845322 0.021181552877859344 0 -0.00022813415722591957 0.020527018797338231 0 -0.00022813415722591957 0.020527018797338231 0 -0.00022220569527474663 0.021627913801737418 0 -0.00072410045918123197 0.021648354382969869 0 -0.00022220569527474663 0.021627913801737418 0 -0.00065242543554424617 0.022562815686618172 0 6.8921398060166859e-05 0.022387993552717117 0 -0.00022220569527474663 0.021627913801737418 0 -0.00065242543554424617 0.022562815686618172 0 -0.00072410045918123197 0.021648354382969869 0 -0.00065242543554424617 0.022562815686618172 0 -0.0001721252849176382 0.023065805054386802 0 6.8921398060166859e-05 0.022387993552717117 0 -0.00065242543554424617 0.022562815686618172 0 -0.0012953013926708889 0.022057540627288628 0 -0.0014940141325381195 0.022814691813677245 0 -0.00065242543554424617 0.022562815686618172 0 -0.0014940141325381195 0.022814691813677245 0 -0.0010099623623330599 0.0231249520384019 0 -0.00065242543554424617 0.022562815686618172 0 -0.0012953013926708889 0.022057540627288628 0 -0.00072410045918123197 0.021648354382969869 0 -0.001198648750845322 0.021181552877859344 0 -0.0012953013926708889 0.022057540627288628 0 -0.00072410045918123197 0.021648354382969869 0 -0.001198648750845322 0.021181552877859344 0 -0.0012953013926708889 0.022057540627288628 0 -0.0017768458671018426 0.021641086789174441 0 -0.0017768458671018426 0.021641086789174441 0 -0.0021161273744690796 0.02128796763075223 0 -0.0022177552435581884 0.021822519177896738 0 -0.0017768458671018426 0.021641086789174441 0 -0.0022177552435581884 0.021822519177896738 0 -0.0018568922478628814 0.022264344038161393 0 -0.0022177552435581884 0.021822519177896738 0 -0.0021690046490787148 0.022339532491155795 0 -0.0018568922478628814 0.022264344038161393 0 -0.0012953013926708889 0.022057540627288628 0 -0.0017768458671018426 0.021641086789174441 0 -0.0018568922478628814 0.022264344038161393 0 -0.0022773637688445585 0.018013210959425738 0 0.00012968734895593958 0.01915571925563803 0 -0.00057586679270109527 0.015142064732848726 0 -0.00093658012731388319 0.014726757021985915 0 -0.00088398528149091435 0.014292773016629184 0 -0.0011530124249459813 0.015626945332031461 0 -0.00093658012731388319 0.014726757021985915 0 -0.0010249551316660144 0.014328246798689619 0 -0.0026768909880981501 0.020793779048686505 0 -0.0022177552435581884 0.021822519177896738 0 -0.0025167165489266702 0.022402683305934857 0 -0.0026768909880981501 0.020793779048686505 0 -0.0021161273744690796 0.02128796763075223 0 -0.0022177552435581884 0.021822519177896738 0 -0.00067090696251799671 0.014762111013482106 0 -0.00084827312314258421 0.014328126011573997 0 -0.00057586679270109527 0.015142064732848726 0 -0.0011530124249459813 0.015626945332031461 0 -0.00093658012731388319 0.014726757021985915 0 0.0017129041690440675 0.019826434160484151 0 0.0022320744225706656 0.019551652885663986 0 0.0020254411773536298 0.019789159140691199 0 -0.0006592434110985544 0.01410127599809405 0 -0.00088398528149091435 0.014292773016629184 0 -0.0010249551316660144 0.014328246798689619 0 -0.00093658012731388319 0.014726757021985915 0 -0.00088398528149091435 0.014292773016629184 0 -0.0010249551316660144 0.014328246798689619 0 -0.0025167165489266702 0.022402683305934857 0 -0.0021690046490787148 0.022339532491155795 0 -0.0020441066044908605 0.022654058646919429 0 -0.0022177552435581884 0.021822519177896738 0 -0.0025167165489266702 0.022402683305934857 0 -0.0021690046490787148 0.022339532491155795 0 -0.0012953013926708889 0.022057540627288628 0 -0.0018568922478628814 0.022264344038161393 0 -0.0014940141325381195 0.022814691813677245 0 -0.0021690046490787148 0.022339532491155795 0 -0.0018568922478628814 0.022264344038161393 0 -0.0020441066044908605 0.022654058646919429 0 -0.0025167165489266702 0.022402683305934857 0 -0.0020441066044908605 0.022654058646919429 0 -0.0020533856175992183 0.02312121200530649 0 -0.0020441066044908605 0.022654058646919429 0 -0.0014940141325381195 0.022814691813677245 0 -0.0020533856175992183 0.02312121200530649 0 -0.0018568922478628814 0.022264344038161393 0 -0.0020441066044908605 0.022654058646919429 0 -0.0014940141325381195 0.022814691813677245 0 -0.0020533856175992183 0.02312121200530649 0 -0.0023605751352822595 0.023815968792198019 0 -0.0014020945222824536 0.0236287198926067 0 -0.0014940141325381195 0.022814691813677245 0 -0.0020533856175992183 0.02312121200530649 0 -0.0014020945222824536 0.0236287198926067 0 -0.0025167165489266702 0.022402683305934857 0 -0.0020533856175992183 0.02312121200530649 0 -0.0023605751352822595 0.023815968792198019 0 0.0022320744225706656 0.019551652885663986 0 0.0020254411773536298 0.019789159140691199 0 0.0022894642044270128 0.020395739419647559 0 0.001935417253536039 0.020200595808474629 0 0.0020254411773536298 0.019789159140691199 0 0.0022894642044270128 0.020395739419647559 0 0.00012968734895593958 0.01915571925563803 0 0.00055152782373468941 0.022286871678807524 0 0.00055152782373468941 0.022286871678807524 0 -0.0010611105698780899 0.023880470415722586 0 5.2869308381755595e-05 0.023819314179725663 0 5.8573523702603076e-05 0.023809083615020061 0 3.7707821012708946e-05 0.023810100217972419 0 5.2869308381755595e-05 0.023819314179725663 0 5.4859984609593853e-05 0.023832334520469088 0 3.7707821012708946e-05 0.023810100217972419 0 5.4859984609593853e-05 0.023832334520469088 0 7.0385520833934599e-05 0.023744248566416645 0 3.7707821012708946e-05 0.023810100217972419 0 9.1683238105835934e-05 0.023887322464664674 0 5.4859984609593853e-05 0.023832334520469088 0 0.00015785791853131621 0.023814174084174366 0 5.4859984609593853e-05 0.023832334520469088 0 7.0385520833934599e-05 0.023744248566416645 0 0.00015785791853131621 0.023814174084174366 0 -0.00065242543554424617 0.022562815686618172 0 -0.00049547264476790405 0.023484795623376773 0 -0.0001721252849176382 0.023065805054386802 0 -0.00065242543554424617 0.022562815686618172 0 -0.00049547264476790405 0.023484795623376773 0 -0.0010099623623330599 0.0231249520384019 0 -0.00049547264476790405 0.023484795623376773 0 -0.0010099623623330599 0.0231249520384019 0 -0.0014020945222824536 0.0236287198926067 0 -0.0014940141325381195 0.022814691813677245 0 -0.0010099623623330599 0.0231249520384019 0 -0.0014020945222824536 0.0236287198926067 0 -0.00010726248601912707 0.023591007824037068 0 -0.0010611105698780899 0.023880470415722586 0 0.00028431781378139527 0.023534129557684892 0 0.00066704612069231641 0.023916744927635795 0 0.00079860835534417132 0.023624997480820593 0 0.00028431781378139527 0.023534129557684892 0 0.00079860835534417132 0.023624997480820593 0 0.0005000628610782519 0.023073017377016995 0 0.00028431781378139527 0.023534129557684892 0 0.00044723064449228551 0.023941606676025805 0 0.00066704612069231641 0.023916744927635795 0 -0.00049547264476790405 0.023484795623376773 0 0.00028431781378139527 0.023534129557684892 0 -0.0001721252849176382 0.023065805054386802 0 -0.00010726248601912707 0.023591007824037068 0 0.00023496204516826346 0.02353973364145345 0 7.0385520833934599e-05 0.023744248566416645 0 0.00028431781378139527 0.023534129557684892 0 0.00015785791853131621 0.023814174084174366 0 0.00028431781378139527 0.023534129557684892 0 0.0005000628610782519 0.023073017377016995 0 -0.0001721252849176382 0.023065805054386802 0 0.00036696615291035591 0.023987807937973782 0 0.0004429937018517734 0.023944072357666907 0 0.00028431781378139527 0.023534129557684892 0 0.00015785791853131621 0.023814174084174366 0 0.00044723064449228551 0.023941606676025805 0 9.1683238105835934e-05 0.023887322464664674 0 0.00015785791853131621 0.023814174084174366 0 0.00044723064449228551 0.023941606676025805 0 0.00052644432146869123 0.02416039397976066 0 0.00044723064449228551 0.023941606676025805 0 0.00058661355904472776 0.024095260645287133 0 0.00044723064449228551 0.023941606676025805 0 0.00058661355904472776 0.024095260645287133 0 0.00066704612069231641 0.023916744927635795 0 0.00058661355904472776 0.024095260645287133 0 0.00066704612069231641 0.023916744927635795 0 0.00068859629534815628 0.024171109890797463 0 0.00066704612069231641 0.023916744927635795 0 0.00068859629534815628 0.024171109890797463 0 0.00087732447371076936 0.023976283171110686 0 0.00054480922079977749 0.024369883780012348 0 0.00068859629534815628 0.024171109890797463 0 0.00069450403923981743 0.024226530221424694 0 0.00068859629534815628 0.024171109890797463 0 0.00087732447371076936 0.023976283171110686 0 0.00069450403923981743 0.024226530221424694 0 0.00087732447371076936 0.023976283171110686 0 0.00079860835534417132 0.023624997480820593 0 0.0012399823801601303 0.023771039547590272 0 0.00066704612069231641 0.023916744927635795 0 0.00087732447371076936 0.023976283171110686 0 0.00079860835534417132 0.023624997480820593 0 0.00079860835534417132 0.023624997480820593 0 0.00085629432576895355 0.023016163967091149 0 0.0012399823801601303 0.023771039547590272 0 0.00079860835534417132 0.023624997480820593 0 0.00085629432576895355 0.023016163967091149 0 0.0005000628610782519 0.023073017377016995 0 0.00087732447371076936 0.023976283171110686 0 0.0012399823801601303 0.023771039547590272 0 0.00078583237785609763 0.024134383523784761 0 0.0013022034670979504 0.023681532806864029 0 0.0014552077942989608 0.023208150258178135 0 0.0012399823801601303 0.023771039547590272 0 0.0011064734368508345 0.022112495132934663 0 0.002034295876720963 0.021769640816132994 0 0.00085629432576895355 0.023016163967091149 0 0.0012399823801601303 0.023771039547590272 0 0.0011064734368508345 0.022112495132934663 0 0.00085629432576895355 0.023016163967091149 0 0.0011064734368508345 0.022112495132934663 0 0.00057492717507986687 0.022295966467344094 0 0.0011064734368508345 0.022112495132934663 0 0.00057492717507986687 0.022295966467344094 0 0.00069431465134105327 0.021430537090496398 0 0.00057492717507986687 0.022295966467344094 0 0.00021607200417697204 0.021457160724807581 0 0.00069431465134105327 0.021430537090496398 0 0.00085629432576895355 0.023016163967091149 0 0.00057492717507986687 0.022295966467344094 0 0.0005000628610782519 0.023073017377016995 0 0.00057492717507986687 0.022295966467344094 0 0.0005000628610782519 0.023073017377016995 0 6.8921398060166859e-05 0.022387993552717117 0 0.0005000628610782519 0.023073017377016995 0 -0.0001721252849176382 0.023065805054386802 0 6.8921398060166859e-05 0.022387993552717117 0 -0.00022220569527474663 0.021627913801737418 0 6.8921398060166859e-05 0.022387993552717117 0 0.00021607200417697204 0.021457160724807581 0 0.00057492717507986687 0.022295966467344094 0 6.8921398060166859e-05 0.022387993552717117 0 0.00021607200417697204 0.021457160724807581 0 -0.00022813415722591957 0.020527018797338231 0 -0.00022220569527474663 0.021627913801737418 0 0.00021607200417697204 0.021457160724807581 0 -0.00022813415722591957 0.020527018797338231 0 0.00021607200417697204 0.021457160724807581 0 0.00041336078054060837 0.020507880160593218 0 0.00021607200417697204 0.021457160724807581 0 0.00069431465134105327 0.021430537090496398 0 0.00041336078054060837 0.020507880160593218 0 0.00069431465134105327 0.021430537090496398 0 0.00041336078054060837 0.020507880160593218 0 0.001183590511623752 0.020800923472936855 0 0.00041336078054060837 0.020507880160593218 0 0.00047251457011903932 0.019638439441939229 0 0.00084742018750647908 0.020081826524529327 0 0.00041336078054060837 0.020507880160593218 0 0.00084742018750647908 0.020081826524529327 0 0.001183590511623752 0.020800923472936855 0 -0.00022813415722591957 0.020527018797338231 0 0.00041336078054060837 0.020507880160593218 0 0.00021831815597318107 0.019704425968303917 0 0.00041336078054060837 0.020507880160593218 0 0.00021831815597318107 0.019704425968303917 0 0.00047251457011903932 0.019638439441939229 0 -5.615214404075947e-05 0.019202629538820341 0 0.00021831815597318107 0.019704425968303917 0 0.00014660248487341116 0.019087516193477112 0 0.00047251457011903932 0.019638439441939229 0 0.00040153001441014299 0.019316097013343497 0 0.00014660248487341116 0.019087516193477112 0 0.00021831815597318107 0.019704425968303917 0 0.00047251457011903932 0.019638439441939229 0 0.00014660248487341116 0.019087516193477112 0 0.00047251457011903932 0.019638439441939229 0 0.00084742018750647908 0.020081826524529327 0 0.00080917421134759032 0.01953035416923839 0 0.00047251457011903932 0.019638439441939229 0 0.00080917421134759032 0.01953035416923839 0 0.00040153001441014299 0.019316097013343497 0 0.00040153001441014299 0.019316097013343497 0 2.2026426585247143e-05 0.019260437188396932 0 0.00097206033636154697 0.019010851030262364 0 1.3569880496525628e-07 0.02013964071638712 0 2.2026426585247143e-05 0.019260437188396932 0 1.1087944437788538e-05 0.020567117949494781 0 0.00011044005161196545 0.019403545916862507 0 0.00064820177856053673 0.019640027164568932 0 0.00080917421134759032 0.01953035416923839 0 0.00040153001441014299 0.019316097013343497 0 0.00097206033636154697 0.019010851030262364 0 4.784151580303228e-07 0.018644778485564367 0 1.3569880496525628e-07 0.02013964071638712 0 2.2026426585247143e-05 0.019260437188396932 0 4.784151580303228e-07 0.018644778485564367 0 2.2026426585247143e-05 0.019260437188396932 0 0.00014660248487341116 0.019087516193477112 0 0.00040153001441014299 0.019316097013343497 0 2.2026426585247143e-05 0.019260437188396932 0 0.00014660248487341116 0.019087516193477112 0 -2.1135721951333246e-05 0.021420584514286075 0 -1.1765305219694177e-07 0.021632216243512119 0 1.1087944437788538e-05 0.020567117949494781 0 0.00043791098256999635 0.022056754906911748 0 2.8098627121757762e-07 0.021633368148294113 0 1.3569880496525628e-07 0.02013964071638712 0 -1.1765305219694177e-07 0.021632216243512119 0 1.1087944437788538e-05 0.020567117949494781 0 0.0020645729157104365 0.019181465770869568 0 0.00097206033636154697 0.019010851030262364 0 0.0013942419487153908 0.019731927746941193 0 0.00080917421134759032 0.01953035416923839 0 0.00097206033636154697 0.019010851030262364 0 0.0013942419487153908 0.019731927746941193 0 0.00043791098256999635 0.022056754906911748 0 0.00064820177856053673 0.019640027164568932 0 0.00084742018750647908 0.020081826524529327 0 0.00080917421134759032 0.01953035416923839 0 0.0013942419487153908 0.019731927746941193 0 0.0020645729157104365 0.019181465770869568 0 0.0013942419487153908 0.019731927746941193 0 0.002098801865815994 0.020342963113451892 0 0.00074283314314515592 0.025169624105851152 0 0.00078431540824180446 0.024966467026133941 0 0.00060565889458468912 0.025038948723392386 0 0.00043791098256999635 0.022056754906911748 0 0.0015457273190870072 0.022679718625052414 0 0.0015457273190870072 0.022679718625052414 0 0.0014552077942989608 0.023208150258178135 0 0.002098801865815994 0.020342963113451892 0 0.001183590511623752 0.020800923472936855 0 0.002034295876720963 0.021769640816132994 0 0.00078431540824180446 0.024966467026133941 0 0.00097329585838817456 0.024711756804310297 0 0.00059852204335026553 0.024951548716252592 0 0.0013942419487153908 0.019731927746941193 0 0.002098801865815994 0.020342963113451892 0 0.001183590511623752 0.020800923472936855 0 0.00084742018750647908 0.020081826524529327 0 0.0013942419487153908 0.019731927746941193 0 0.001183590511623752 0.020800923472936855 0 0.0011064734368508345 0.022112495132934663 0 0.001183590511623752 0.020800923472936855 0 0.002034295876720963 0.021769640816132994 0 0.0011064734368508345 0.022112495132934663 0 0.00069431465134105327 0.021430537090496398 0 0.001183590511623752 0.020800923472936855 0 -7.0267697039122542e-07 0.021636255686585892 0 1.3970994140957391e-05 0.023299026438470739 0 4.3984234464533485e-07 0.024998809731156681 0 0.00097329585838817456 0.024711756804310297 0 0.00042933109552580138 0.024807309228811969 0 0.00059852204335026553 0.024951548716252592 0 0.00042933109552580138 0.024807309228811969 0 0.00037646893439158578 0.024974972799831057 0 0.00017498433122683157 0.024945349696079339 0 0.00042933109552580138 0.024807309228811969 0 0.00037646893439158578 0.024974972799831057 0 0.00059852204335026553 0.024951548716252592 0 0.00037646893439158578 0.024974972799831057 0 0.00059852204335026553 0.024951548716252592 0 0.00047934973248438739 0.025022890510043583 0 0.00078431540824180446 0.024966467026133941 0 0.00059852204335026553 0.024951548716252592 0 0.00060565889458468912 0.025038948723392386 0 0.00074283314314515592 0.025169624105851152 0 0.00060565889458468912 0.025038948723392386 0 0.00042557091239447904 0.025118229643663149 0 0.00059852204335026553 0.024951548716252592 0 0.00060565889458468912 0.025038948723392386 0 0.00047934973248438739 0.025022890510043583 0 0.00042888533783680345 0.024994777596668516 0 0.00017825316047573729 0.024925054964267321 0 0.00047934973248438739 0.025022890510043583 0 0.00042557091239447904 0.025118229643663149 0 0.00010542071601248009 0.02472338758842068 0 0.00037646893439158578 0.024974972799831057 0 0.00047934973248438739 0.025022890510043583 0 0.00022602443795766161 0.025073679719757064 0 0.00060565889458468912 0.025038948723392386 0 0.00047934973248438739 0.025022890510043583 0 0.00042557091239447904 0.025118229643663149 0 0.00043791098256999635 0.022056754906911748 0 0.000293044918739863 0.024432991216803621 0 -0.00011170571911300431 0.022096360691738162 0 -7.0267697039122542e-07 0.021636255686585892 0 1.3970994140957391e-05 0.023299026438470739 0 1.3970994140957391e-05 0.023299026438470739 0 4.3984234464533485e-07 0.024998809731156681 0 4.2355420692260396e-05 0.024698511346107295 0 4.3984234464533485e-07 0.024998809731156681 0 4.2355420692260396e-05 0.024698511346107295 0 -8.4988077141363652e-08 0.024999669395596728 0 0.00042557091239447904 0.025118229643663149 0 0.00010542071601248009 0.02472338758842068 0 4.2355420692260396e-05 0.024698511346107295 0 0.000293044918739863 0.024432991216803621 0 0.0001339187536682912 0.024575737943909531 0 0.00017825316047573729 0.024925054964267321 0 1.0082927453369359e-07 0.024999952789415494 0 0.00010542071601248009 0.02472338758842068 0 4.2355420692260396e-05 0.024698511346107295 0 -8.4988077141363652e-08 0.024999669395596728 0 0.00022602443795766161 0.025073679719757064 0 9.4842314007820639e-08 0.025000265766424702 0 0.00017498433122683157 0.024945349696079339 0 0.00037646893439158578 0.024974972799831057 0 0.00022602443795766161 0.025073679719757064 0 0.00017498433122683157 0.024945349696079339 0 0.00042933109552580138 0.024807309228811969 0 0.00017498433122683157 0.024945349696079339 0 0.00021039577719054808 0.024765044343776712 0 9.4842314007820639e-08 0.025000265766424702 0 0.00017498433122683157 0.024945349696079339 0 7.2798693322952553e-08 0.02499977484017199 0 0.00017498433122683157 0.024945349696079339 0 7.2798693322952553e-08 0.02499977484017199 0 0.00021039577719054808 0.024765044343776712 0 7.2798693322952553e-08 0.02499977484017199 0 1.2047969269954572e-07 0.024999666944632907 0 0.00021039577719054808 0.024765044343776712 0 1.2047969269954572e-07 0.024999666944632907 0 0.00021039577719054808 0.024765044343776712 0 0.00016843520933627613 0.024774089468085354 0 0.00021039577719054808 0.024765044343776712 0 0.00045091176423463192 0.024452668092664519 0 0.00016843520933627613 0.024774089468085354 0 0.00042933109552580138 0.024807309228811969 0 0.00021039577719054808 0.024765044343776712 0 0.00054659650124332776 0.024439918669055077 0 0.00097329585838817456 0.024711756804310297 0 0.00042933109552580138 0.024807309228811969 0 0.00054659650124332776 0.024439918669055077 0 0.0012399823801601303 0.023771039547590272 0 0.00097329585838817456 0.024711756804310297 0 0.00054659650124332776 0.024439918669055077 0 0.0012399823801601303 0.023771039547590272 0 0.00054659650124332776 0.024439918669055077 0 0.00078583237785609763 0.024134383523784761 0 0.00021039577719054808 0.024765044343776712 0 0.00054659650124332776 0.024439918669055077 0 0.00045091176423463192 0.024452668092664519 0 0.00054659650124332776 0.024439918669055077 0 0.00078583237785609763 0.024134383523784761 0 0.00045091176423463192 0.024452668092664519 0 0.00078583237785609763 0.024134383523784761 0 0.00045091176423463192 0.024452668092664519 0 0.00069450403923981743 0.024226530221424694 0 0.00087732447371076936 0.023976283171110686 0 0.00078583237785609763 0.024134383523784761 0 0.00069450403923981743 0.024226530221424694 0 0.00054480922079977749 0.024369883780012348 0 0.00069450403923981743 0.024226530221424694 0 0.00043606650181732493 0.024486342759921106 0 0.00045091176423463192 0.024452668092664519 0 0.00043606650181732493 0.024486342759921106 0 0.00022366858775732965 0.024721292577542284 0 0.00045091176423463192 0.024452668092664519 0 0.00069450403923981743 0.024226530221424694 0 0.00043606650181732493 0.024486342759921106 0 0.00022366858775732965 0.024721292577542284 0 1.5501042760112806e-07 0.024999621473373798 0 0.00016843520933627613 0.024774089468085354 0 1.2047969269954572e-07 0.024999666944632907 0 1.5501042760112806e-07 0.024999621473373798 0 0.00016843520933627613 0.024774089468085354 0 0.00045091176423463192 0.024452668092664519 0 0.00022366858775732965 0.024721292577542284 0 0.00016843520933627613 0.024774089468085354 0 0.00079998633265200016 0.0024641310064956478 0 8.7763208554465533e-06 0.0030893583086290537 0 0.00054427840312777696 0.0024798095927164657 0 -0.00012612235173350007 0.0030574460824137036 0 0.00028176041244416128 0.0034518602943027833 0 0.00099127195741547671 0.0025180235155747789 0 0.00021918309337286081 0.0021272143280007551 0 0.00015726819385868294 0.0031048228078763437 0 0.00099127195741547671 0.0025180235155747789 0 0.00021918309337286081 0.0021272143280007551 0 0.0012222420944825155 0.0014878769623306409 0 0.00021918309337286081 0.0021272143280007551 0 -0.00060506348646771179 0.0023066655911670076 0 -0.00035361175982018907 0.0028676413959242892 0 0.00021918309337286081 0.0021272143280007551 0 -0.00060506348646771179 0.0023066655911670076 0 -0.00036077593887732156 0.0013523196970755384 0 0.00029492376462121882 0.0069043229579416072 0 0.00034726620127099975 0.0068720337816149902 0 0.00035336938270657658 0.0069271576414171683 0 0.00029492376462121882 0.0069043229579416072 0 0.00036322769554636463 0.0069517285440520689 0 0.00035336938270657658 0.0069271576414171683 0 0.00034726620127099975 0.0068720337816149902 0 0.00027177814795407404 0.0067248197161460001 0 0.00039768208206281358 0.0067494562151399137 0 -0.00060506348646771179 0.0023066655911670076 0 -0.00035361175982018907 0.0028676413959242892 0 -0.00080870358992023497 0.0032062089430575096 0 -0.00015743104680596942 0.0046311092302071368 0 -0.0002615529806565981 0.0048176819289377669 0 0.00029492376462121882 0.0069043229579416072 0 0.00034726620127099975 0.0068720337816149902 0 0.00027177814795407404 0.0067248197161460001 0 0.00021918309337286081 0.0021272143280007551 0 -0.00035361175982018907 0.0028676413959242892 0 0.00015726819385868294 0.0031048228078763437 0 -0.00064910246076858218 0.0036102908202101706 0 -0.00027217075266543726 0.003697073501431938 0 -0.00012612235173350007 0.0030574460824137036 0 -0.00035361175982018907 0.0028676413959242892 0 -0.00064910246076858218 0.0036102908202101706 0 0.00015726819385868294 0.0031048228078763437 0 -0.00060217321338662468 0.0035669267566769097 0 8.7763208554465533e-06 0.0030893583086290537 0 -0.00080870358992023497 0.0032062089430575096 0 -0.00064910246076858218 0.0036102908202101706 0 -0.00094805626472978135 0.0039521349702136823 0 -0.0002615529806565981 0.0048176819289377669 0 -0.00016125140990640632 0.0058895780114483799 0 -0.00035361175982018907 0.0028676413959242892 0 -0.00080870358992023497 0.0032062089430575096 0 -0.00064910246076858218 0.0036102908202101706 0 0.00027177814795407404 0.0067248197161460001 0 0.00032095141323883089 0.0064450719164081379 0 0.00039768208206281358 0.0067494562151399137 0 -0.00064910246076858218 0.0036102908202101706 0 -0.00061133116353093305 0.0038966467027353306 0 -0.00094805626472978135 0.0039521349702136823 0 -0.00061133116353093305 0.0038966467027353306 0 -0.00094805626472978135 0.0039521349702136823 0 -0.00061758937717299508 0.0041561671632929639 0 -0.00016125140990640632 0.0058895780114483799 0 -0.0002440702587473088 0.0064149607674432833 0 -0.00013320676066827685 0.0068967792109746453 0 -3.2005645135655241e-05 0.0068621716913406707 0 -0.00017603410928911819 0.0067833870798703127 0 -0.00027217075266543726 0.003697073501431938 0 -0.00038796534406670204 0.0040531059289497561 0 4.034254040274534e-05 0.0040539511043153724 0 -0.00064910246076858218 0.0036102908202101706 0 -0.00061133116353093305 0.0038966467027353306 0 -0.00027217075266543726 0.003697073501431938 0 -0.00061133116353093305 0.0038966467027353306 0 -0.00027217075266543726 0.003697073501431938 0 -0.00038796534406670204 0.0040531059289497561 0 -0.00061133116353093305 0.0038966467027353306 0 -0.00038796534406670204 0.0040531059289497561 0 -0.00061758937717299508 0.0041561671632929639 0 -0.00027217075266543726 0.003697073501431938 0 4.034254040274534e-05 0.0040539511043153724 0 0.00028176041244416128 0.0034518602943027833 0 -0.00027217075266543726 0.003697073501431938 0 -0.00012612235173350007 0.0030574460824137036 0 0.00028176041244416128 0.0034518602943027833 0 0.00054427840312777696 0.0024798095927164657 0 0.00028176041244416128 0.0034518602943027833 0 0.00085463499554641804 0.0032904184126443703 0 4.034254040274534e-05 0.0040539511043153724 0 0.00028176041244416128 0.0034518602943027833 0 0.00070718759673018097 0.0041231841819381826 0 0.00028176041244416128 0.0034518602943027833 0 0.00085463499554641804 0.0032904184126443703 0 0.00070718759673018097 0.0041231841819381826 0 0.0011475128014830195 0.0037774491849192726 0 0.00085463499554641804 0.0032904184126443703 0 0.00070718759673018097 0.0041231841819381826 0 0.0011475128014830195 0.0037774491849192726 0 0.0016651166545905822 0.0035183068482228619 0 0.00085463499554641804 0.0032904184126443703 0 0.0011475128014830195 0.0037774491849192726 0 0.0016651166545905822 0.0035183068482228619 0 0.0013671122566954097 0.004230877013671838 0 0.0016651166545905822 0.0035183068482228619 0 0.00085463499554641804 0.0032904184126443703 0 0.0012230455136597481 0.0025110433903643352 0 0.0013118078480346379 0.002283205403137051 0 0.0012555714494658604 0.0023753788444414855 0 0.0012230455136597481 0.0025110433903643352 0 0.0016210989366589111 0.0029899218030966126 0 0.0011918837556361844 0.0024692937080008914 0 0.0012295883781108527 0.0022110227827083166 0 0.0012075998818679157 0.0021255310342068326 0 0.001112435971097821 0.0022051265593137043 0 0.0012295883781108527 0.0022110227827083166 0 0.0012323274154719596 0.0023117088022520833 0 0.001112435971097821 0.0022051265593137043 0 0.0016210989366589111 0.0029899218030966126 0 0.00081711970980013755 0.0029198130061070726 0 0.0013118078480346379 0.002283205403137051 0 0.0012295883781108527 0.0022110227827083166 0 0.0012323274154719596 0.0023117088022520833 0 0.0013118078480346379 0.002283205403137051 0 0.0012295883781108527 0.0022110227827083166 0 0.0012736102184314172 0.0020843575929828427 0 0.0013118078480346379 0.002283205403137051 0 0.0012323274154719596 0.0023117088022520833 0 0.0012555714494658604 0.0023753788444414855 0 0.0012323274154719596 0.0023117088022520833 0 0.001112435971097821 0.0022051265593137043 0 0.0012236932330002253 0.0023166489898125641 0 0.0012660191749476425 0.0023142811397756347 0 0.0013157389506956399 0.0022331607525035877 0 0.0012236932330002253 0.0023166489898125641 0 0.0012323274154719596 0.0023117088022520833 0 0.0012660191749476425 0.0023142811397756347 0 0.0012236932330002253 0.0023166489898125641 0 0.0012660191749476425 0.0023142811397756347 0 0.0012555714494658604 0.0023753788444414855 0 0.0012608916489398115 0.0023071456936902307 0 0.0012323274154719596 0.0023117088022520833 0 0.0012660191749476425 0.0023142811397756347 0 0.0012555714494658604 0.0023753788444414855 0 0.0012660191749476425 0.0023142811397756347 0 0.0012608916489398115 0.0023071456936902307 0 0.0012879627544311284 0.0022447723421184654 0 0.0012660191749476425 0.0023142811397756347 0 0.0012879627544311284 0.0022447723421184654 0 0.0013157389506956399 0.0022331607525035877 0 0.0010189559114358836 -0.0030761781378492647 0 0.00036298922276812668 -0.0061159791627851939 0 0.0010189559114358836 -0.0030761781378492647 0 0.00094746233802297977 0.00028608789922724781 0 0.00060235455818700621 -0.0077909279903064501 0 0.00064830331029920834 -0.0076336858850048744 0 0.00031619480809629469 -0.0079938685831201159 0 0.00054427840312777696 0.0024798095927164657 0 0.00085463499554641804 0.0032904184126443703 0 0.0012230455136597481 0.0025110433903643352 0 0.0012555714494658604 0.0023753788444414855 0 0.0012608916489398115 0.0023071456936902307 0 0.0012230455136597481 0.0025110433903643352 0 0.0012608916489398115 0.0023071456936902307 0 0.0012230455136597481 0.0025110433903643352 0 0.0011076521934773652 0.0021947591966879534 0 0.00079998633265200016 0.0024641310064956478 0 0.0013689115948452206 0.002305984708542349 0 0.00054427840312777696 0.0024798095927164657 0 0.0012230455136597481 0.0025110433903643352 0 0.0011076521934773652 0.0021947591966879534 0 0.00099127195741547671 0.0025180235155747789 0 0.0018282901712838666 0.001914524559121347 0 0.0012222420944825155 0.0014878769623306409 0 0.0018282901712838666 0.001914524559121347 0 0.0020961364173658166 0.001048283448831144 0 0.0012222420944825155 0.0014878769623306409 0 0.0013689115948452206 0.002305984708542349 0 0.0019878474875008813 7.1918801307215512e-05 0 0.0018282901712838666 0.001914524559121347 0 0.0020961364173658166 0.001048283448831144 0 0.0026680038832433838 0.0012939824826737952 0 0.0012608916489398115 0.0023071456936902307 0 0.0011076521934773652 0.0021947591966879534 0 0.0012535141261832011 0.0021312051198488723 0 0.002331322928267549 0.001092702685165176 0 0.0031141193504677788 0.0013952676606681488 0 0.0030634476904689298 0.00050691377462913569 0 0.002331322928267549 0.001092702685165176 0 0.0015289609276659007 0.00079461716324842461 0 0.0024056352080887669 -0.0001160903458820857 0 0.0024007377945614162 0.0011230154457171544 0 0.0019878474875008813 7.1918801307215512e-05 0 0.0024007377945614162 0.0011230154457171544 0 0.0015630816913621396 0.00079929873233020986 0 0.0020961364173658166 0.001048283448831144 0 0.0015289609276659007 0.00079461716324842461 0 0.0012222420944825155 0.0014878769623306409 0 0.0020858034399233545 -0.0081351021793393645 0 0.0013919612060435879 -0.0059266692289788618 0 0.0013070457915682926 -0.010510792715650707 0 0.0013739638998941299 -0.010026335026961777 0 0.0017158716741292586 -0.010718992955211379 0 0.0010189559114358836 -0.0030761781378492647 0 0.0013919612060435879 -0.0059266692289788618 0 0.0012879627544311284 0.0022447723421184654 0 0.0013182394686368957 0.0021908725461885735 0 0.0012979667051631867 0.0021752500580808944 0 0.0013919612060435879 -0.0059266692289788618 0 0.0018495555543095617 -0.0034495583919642299 0 0.0012879627544311284 0.0022447723421184654 0 0.0013157389506956399 0.0022331607525035877 0 0.0013182394686368957 0.0021908725461885735 0 0.0018976627909860506 -0.0060281797167664056 0 0.0019762646077051515 -0.0053357901523005472 0 0.0014013705912971541 -0.0055824660895919653 0 0.0020858034399233545 -0.0081351021793393645 0 0.0018495555543095617 -0.0034495583919642299 0 0.0012879627544311284 0.0022447723421184654 0 0.0012979667051631867 0.0021752500580808944 0 0.0012535141261832011 0.0021312051198488723 0 0.0012608916489398115 0.0023071456936902307 0 0.0012879627544311284 0.0022447723421184654 0 0.0012535141261832011 0.0021312051198488723 0 0.0018495555543095617 -0.0034495583919642299 0 0.0019878474875008813 7.1918801307215512e-05 0 0.0025392422519109541 -0.0037434740234900035 0 0.0015617844757644266 -0.0041505111096484856 0 0.0027041213377540564 -0.0050071174549526452 0 0.0031141193504677788 0.0013952676606681488 0 0.0030634476904689298 0.00050691377462913569 0 0.003958098189750266 0.0007545245781310346 0 0.0019878474875008813 7.1918801307215512e-05 0 0.0031587056696294456 -0.0063917168555135111 0 0.0017786109649768997 -0.010758135285720841 0 0.0022850239760566914 -0.010775324436123909 0 0.002764602745476723 -0.01149006385564331 0 0.0030528008114277532 -0.0042076141520344416 0 0.0025392422519109541 -0.0037434740234900035 0 0.0027041213377540564 -0.0050071174549526452 0 0.0020163835023018009 -0.010176687417378816 0 0.0017786109649768997 -0.010758135285720841 0 0.001981760773803869 -0.010394888099410022 0 0.0020858034399233545 -0.0081351021793393645 0 0.0031587056696294456 -0.0063917168555135111 0 0.0020266245771110311 -0.010177254391575975 0 0.0022850239760566914 -0.010775324436123909 0 0.001981760773803869 -0.010394888099410022 0 0.0017786109649768997 -0.010758135285720841 0 0.0022850239760566914 -0.010775324436123909 0 0.001981760773803869 -0.010394888099410022 0 0.0020858034399233545 -0.0081351021793393645 0 0.0019469021344968743 -0.0091454371702313318 0 0.0041495472128892999 -0.011644767850658762 0 0.004146164973149874 -0.01167642403018092 0 0.0041141699835428851 -0.011704207990073887 0 0.0031587056696294456 -0.0063917168555135111 0 0.0040614479686096336 -0.00574841928503918 0 0.0041495472128892999 -0.011644767850658762 0 0.004146164973149874 -0.01167642403018092 0 0.004203113064827407 -0.011648573601797075 0 0.0031587056696294456 -0.0063917168555135111 0 0.0036637143028124372 -0.012248342944683063 0 0.0030634476904689298 0.00050691377462913569 0 0.0036399005689271712 -0.00044685329160695759 0 0.0024056352080887669 -0.0001160903458820857 0 0.0030634476904689298 0.00050691377462913569 0 0.003958098189750266 0.0007545245781310346 0 0.0036399005689271712 -0.00044685329160695759 0 0.0037436751619919465 -0.0070796659952175123 0 0.0040614479686096336 -0.00574841928503918 0 0.0041999921926075962 -0.01160245363068715 0 0.0043163969708152027 -0.011532311833686387 0 0.004203113064827407 -0.011648573601797075 0 0.0033245751155740731 -0.0017422918278523053 0 0.0036399005689271712 -0.00044685329160695759 0 0.0025739902085017562 -0.0010639941741016135 0 0.0041999921926075962 -0.01160245363068715 0 0.004203113064827407 -0.011648573601797075 0 0.0041506875174483846 -0.011663184017682722 0 0.004146164973149874 -0.01167642403018092 0 0.004203113064827407 -0.011648573601797075 0 0.0041506875174483846 -0.011663184017682722 0 0.0041999921926075962 -0.01160245363068715 0 0.0041506875174483846 -0.011663184017682722 0 0.0041261819613846147 -0.011635452637927295 0 0.004146164973149874 -0.01167642403018092 0 0.0041506875174483846 -0.011663184017682722 0 0.0041172879302646031 -0.011691993306122951 0 0.0015289609276659007 0.00079461716324842461 0 0.0015527145214898203 1.6992198155014427e-05 0 0.0024056352080887669 -0.0001160903458820857 0 0.0015289609276659007 0.00079461716324842461 0 0.0015527145214898203 1.6992198155014427e-05 0 0.00083034221275451125 0.0002276595240829905 0 0.002331322928267549 0.001092702685165176 0 0.0030634476904689298 0.00050691377462913569 0 0.0024056352080887669 -0.0001160903458820857 0 0.0024056352080887669 -0.0001160903458820857 0 0.0025739902085017562 -0.0010639941741016135 0 0.001439272746659987 -0.00092797751184151055 0 0.0036399005689271712 -0.00044685329160695759 0 0.0024056352080887669 -0.0001160903458820857 0 0.0025739902085017562 -0.0010639941741016135 0 0.0015527145214898203 1.6992198155014427e-05 0 0.0024056352080887669 -0.0001160903458820857 0 0.001439272746659987 -0.00092797751184151055 0 0.0015527145214898203 1.6992198155014427e-05 0 0.001439272746659987 -0.00092797751184151055 0 0.00083034221275451125 0.0002276595240829905 0 0.0013427335539350012 -0.00060853209342357861 0 0.00082314639440591035 0.00019393080918802646 0 0.00075736217819140589 -0.00011267114828623681 0 0.00046144793979628379 0.00017266066770638204 0 0.00083034221275451125 0.0002276595240829905 0 0.0010622403633173461 -7.3021578346804005e-05 0 0.00075736217819140589 -0.00011267114828623681 0 0.00083034221275451125 0.0002276595240829905 0 0.00026267633980913031 -0.00018682806196933358 0 0.00046144793979628379 0.00017266066770638204 0 -5.3452337076778005e-05 0.00045040120576806872 0 0.00075736217819140589 -0.00011267114828623681 0 0.00026267633980913031 -0.00018682806196933358 0 0.00046144793979628379 0.00017266066770638204 0 0.00046144793979628379 0.00017266066770638204 0 0.00040052468934197156 0.00067220245433830775 0 -5.3452337076778005e-05 0.00045040120576806872 0 0.00046144793979628379 0.00017266066770638204 0 0.00083034221275451125 0.0002276595240829905 0 0.00040052468934197156 0.00067220245433830775 0 0.00083034221275451125 0.0002276595240829905 0 0.00089532663669885499 0.00086109231218804022 0 0.00040052468934197156 0.00067220245433830775 0 0.00089532663669885499 0.00086109231218804022 0 0.00049357814930604262 0.0012556032118222545 0 0.0012222420944825155 0.0014878769623306409 0 0.0015289609276659007 0.00079461716324842461 0 0.00089532663669885499 0.00086109231218804022 0 0.0012222420944825155 0.0014878769623306409 0 0.0015289609276659007 0.00079461716324842461 0 0.00083034221275451125 0.0002276595240829905 0 0.00089532663669885499 0.00086109231218804022 0 0.00089532663669885499 0.00086109231218804022 0 0.00040052468934197156 0.00067220245433830775 0 0.00049357814930604262 0.0012556032118222545 0 0.00040052468934197156 0.00067220245433830775 0 0.00049357814930604262 0.0012556032118222545 0 -0.00036077593887732156 0.0013523196970755384 0 0.00021918309337286081 0.0021272143280007551 0 0.00049357814930604262 0.0012556032118222545 0 0.0012222420944825155 0.0014878769623306409 0 0.00021918309337286081 0.0021272143280007551 0 0.00049357814930604262 0.0012556032118222545 0 -0.00036077593887732156 0.0013523196970755384 0 0.0003725178878731494 0.0069906540024523706 0 0.00034685417944112267 0.0069845936775633525 0 0.00036322769554636463 0.0069517285440520689 0 0.00029492376462121882 0.0069043229579416072 0 0.00034685417944112267 0.0069845936775633525 0 0.00036322769554636463 0.0069517285440520689 0 -0.00015743104680596942 0.0046311092302071368 0 2.4640155688999617e-06 0.004156907812528381 0 2.4640155688999617e-06 0.004156907812528381 0 0.00016190826889374404 0.0037272086140728252 0 0.00034685417944112267 0.0069845936775633525 0 0.00038793491770091698 0.0069923729385829338 0 0.00043695782738517445 0.0069658856974095179 0 0.00040052468934197156 0.00067220245433830775 0 -0.00036077593887732156 0.0013523196970755384 0 -5.3452337076778005e-05 0.00045040120576806872 0 0.0003725178878731494 0.0069906540024523706 0 0.00034685417944112267 0.0069845936775633525 0 0.00038099491919889778 0.0070197193992116366 0 0.00034685417944112267 0.0069845936775633525 0 0.00038099491919889778 0.0070197193992116366 0 0.00038793491770091698 0.0069923729385829338 0 0.0003725178878731494 0.0069906540024523706 0 0.00038099491919889778 0.0070197193992116366 0 0.00039276840240808541 0.007009075160307545 0 0.00047912240652661284 0.0073679861719921688 0 0.00063311753039960422 0.0070316587288941088 0 0.00038099491919889778 0.0070197193992116366 0 0.00038793491770091698 0.0069923729385829338 0 0.00039938632246929736 0.0070406947581168776 0 0.00038793491770091698 0.0069923729385829338 0 0.00038089333528528243 0.0069138206220205316 0 0.00039938632246929736 0.0070406947581168776 0 0.00094113496477892878 0.0070482669963669985 0 0.00079644776159551131 0.0070200322950557748 0 0.00073513738127106167 0.0071530910083800114 0 0.00038793491770091698 0.0069923729385829338 0 0.00043695782738517445 0.0069658856974095179 0 0.00038089333528528243 0.0069138206220205316 0 0.00063909311747957704 0.0032707078721895275 0 0.00047912240652661284 0.0073679861719921688 0 0.00089965488085453965 0.0069218483200207404 0 0.0011287209137331884 0.0069085147584723597 0 0.00094113496477892878 0.0070482669963669985 0 0.00050772151232941374 0.0067704796446984919 0 0.00043695782738517445 0.0069658856974095179 0 0.00038089333528528243 0.0069138206220205316 0 0.00063909311747957704 0.0032707078721895275 0 0.00016190826889374404 0.0037272086140728252 0 0.00073668752132166116 0.0069162648128203944 0 0.00089965488085453965 0.0069218483200207404 0 0.00079644776159551131 0.0070200322950557748 0 0.00089965488085453965 0.0069218483200207404 0 0.00094113496477892878 0.0070482669963669985 0 0.00079644776159551131 0.0070200322950557748 0 0.00073668752132166116 0.0069162648128203944 0 0.00066421708329735484 0.0070397573095272656 0 0.00059915655824129054 0.0069751409316199187 0 0.00073668752132166116 0.0069162648128203944 0 0.00066421708329735484 0.0070397573095272656 0 0.00079644776159551131 0.0070200322950557748 0 0.00063311753039960422 0.0070316587288941088 0 0.00048977132583812076 0.007174535323272304 0 0.00073513738127106167 0.0071530910083800114 0 0.00058134402808934511 0.0071247645443519294 0 0.00049667172357526911 0.0071741017876426963 0 0.00066421708329735484 0.0070397573095272656 0 0.00079644776159551131 0.0070200322950557748 0 0.00073513738127106167 0.0071530910083800114 0 0.00066421708329735484 0.0070397573095272656 0 0.00073513738127106167 0.0071530910083800114 0 0.00058134402808934511 0.0071247645443519294 0 0.00058134402808934511 0.0071247645443519294 0 0.00049191470329157958 0.0071496594510735215 0 0.00049667172357526911 0.0071741017876426963 0 0.00066421708329735484 0.0070397573095272656 0 0.00058134402808934511 0.0071247645443519294 0 0.0005716861214684133 0.00706773258121224 0 0.00058134402808934511 0.0071247645443519294 0 0.0005716861214684133 0.00706773258121224 0 0.00049191470329157958 0.0071496594510735215 0 0.0005716861214684133 0.00706773258121224 0 0.00059915655824129054 0.0069751409316199187 0 0.00051081996379125159 0.0070291911129848391 0 0.00066421708329735484 0.0070397573095272656 0 0.0005716861214684133 0.00706773258121224 0 0.00059915655824129054 0.0069751409316199187 0 0.00050666851248843498 0.0069270754798020865 0 0.00059915655824129054 0.0069751409316199187 0 0.00051081996379125159 0.0070291911129848391 0 0.00050666851248843498 0.0069270754798020865 0 0.00051081996379125159 0.0070291911129848391 0 0.00043127809567763644 0.0070175183390298749 0 0.00051081996379125159 0.0070291911129848391 0 0.00043127809567763644 0.0070175183390298749 0 0.00045217328757824534 0.0071019965296335681 0 0.00043127809567763644 0.0070175183390298749 0 0.00038145311106818874 0.0071068101332680475 0 0.00034213057889125249 0.0070116132741325872 0 0.00043127809567763644 0.0070175183390298749 0 0.00038145311106818874 0.0071068101332680475 0 0.00045217328757824534 0.0071019965296335681 0 0.00038145311106818874 0.0071068101332680475 0 0.00042749166324312091 0.0071675254519943075 0 0.00045217328757824534 0.0071019965296335681 0 0.00038145311106818874 0.0071068101332680475 0 0.00042749166324312091 0.0071675254519943075 0 0.00038212443538137859 0.0071902955534111426 0 0.00051081996379125159 0.0070291911129848391 0 0.00045217328757824534 0.0071019965296335681 0 0.00049191470329157958 0.0071496594510735215 0 0.0005716861214684133 0.00706773258121224 0 0.00051081996379125159 0.0070291911129848391 0 0.00049191470329157958 0.0071496594510735215 0 0.00042749166324312091 0.0071675254519943075 0 0.00045217328757824534 0.0071019965296335681 0 0.00049191470329157958 0.0071496594510735215 0 0.00049191470329157958 0.0071496594510735215 0 0.00044190661349447142 0.0072040352251870957 0 0.00044944675055844915 0.0072198748145793912 0 0.00042749166324312091 0.0071675254519943075 0 0.00049191470329157958 0.0071496594510735215 0 0.00044190661349447142 0.0072040352251870957 0 0.00044190661349447142 0.0072040352251870957 0 0.00044944675055844915 0.0072198748145793912 0 0.00042350255240872014 0.0072467037171010254 0 0.00038212443538137859 0.0071902955534111426 0 0.00040795955721190433 0.007226652371202044 0 0.0003742791410973495 0.0072598584642427832 0 0.00042749166324312091 0.0071675254519943075 0 0.00038212443538137859 0.0071902955534111426 0 0.00040795955721190433 0.007226652371202044 0 0.00042749166324312091 0.0071675254519943075 0 0.00044190661349447142 0.0072040352251870957 0 0.00040795955721190433 0.007226652371202044 0 0.00044190661349447142 0.0072040352251870957 0 0.00040795955721190433 0.007226652371202044 0 0.00042350255240872014 0.0072467037171010254 0 0.00040795955721190433 0.007226652371202044 0 0.00040095909160617154 0.007268829347032219 0 0.00042350255240872014 0.0072467037171010254 0 0.00040795955721190433 0.007226652371202044 0 0.00040095909160617154 0.007268829347032219 0 0.0003742791410973495 0.0072598584642427832 0 0.00040095909160617154 0.007268829347032219 0 0.0003742791410973495 0.0072598584642427832 0 0.00038507585525952653 0.0073085702115307898 0 0.00040095909160617154 0.007268829347032219 0 0.0004067514579409051 0.0072864842232656961 0 0.00042350255240872014 0.0072467037171010254 0 0.00040095909160617154 0.007268829347032219 0 0.0004067514579409051 0.0072864842232656961 0 0.00038507585525952653 0.0073085702115307898 0 0.00044944675055844915 0.0072198748145793912 0 0.00042232604507097131 0.0072594904017581783 0 0.00044770993016122806 0.0072152097852094107 0 0.00044944675055844915 0.0072198748145793912 0 0.00042350255240872014 0.0072467037171010254 0 0.00042232604507097131 0.0072594904017581783 0 0.0004067514579409051 0.0072864842232656961 0 0.00042350255240872014 0.0072467037171010254 0 0.00042232604507097131 0.0072594904017581783 0 0.00042232604507097131 0.0072594904017581783 0 0.00044770993016122806 0.0072152097852094107 0 0.00042481782158324075 0.007258589990378506 0 0.00044770993016122806 0.0072152097852094107 0 0.00045137213133038018 0.0071851559242595009 0 0.00044467714543079966 0.0072325973010342551 0 0.00044770993016122806 0.0072152097852094107 0 0.00044467714543079966 0.0072325973010342551 0 0.00042481782158324075 0.007258589990378506 0 0.00045137213133038018 0.0071851559242595009 0 0.00044467714543079966 0.0072325973010342551 0 0.00046380052405267495 0.0072609083433004202 0 0.00044467714543079966 0.0072325973010342551 0 0.00046380052405267495 0.0072609083433004202 0 0.00042481782158324075 0.007258589990378506 0 0.00040834990483743205 0.0071042620347807122 0 0.00043914218122079066 0.0070880559007972582 0 0.00038059866614380164 0.0069319667347675241 0 0.00039276840240808541 0.007009075160307545 0 0.00043906963615504319 0.007083187899528825 0 0.00045137213133038018 0.0071851559242595009 0 0.00046380052405267495 0.0072609083433004202 0 0.00043906963615504319 0.007083187899528825 0 0.0003725178878731494 0.0069906540024523706 0 0.00036322769554636463 0.0069517285440520689 0 0.0003779937880879234 0.0069727716579096825 0 0.00038059866614380164 0.0069319667347675241 0 0.00036322769554636463 0.0069517285440520689 0 0.0003779937880879234 0.0069727716579096825 0 0.00038059866614380164 0.0069319667347675241 0 0.0003779937880879234 0.0069727716579096825 0 0.00039276840240808541 0.007009075160307545 0 0.0003725178878731494 0.0069906540024523706 0 0.0003779937880879234 0.0069727716579096825 0 0.00039276840240808541 0.007009075160307545 0 0.00039938632246929736 0.0070406947581168776 0 0.00043906963615504319 0.007083187899528825 0 0.00049667172357526911 0.0071741017876426963 0 0.00038099491919889778 0.0070197193992116366 0 0.00039276840240808541 0.007009075160307545 0 0.00043906963615504319 0.007083187899528825 0 0.00038099491919889778 0.0070197193992116366 0 0.00039938632246929736 0.0070406947581168776 0 0.00043906963615504319 0.007083187899528825 0 0.00049191470329157958 0.0071496594510735215 0 0.00044944675055844915 0.0072198748145793912 0 0.00049667172357526911 0.0071741017876426963 0 0.00044944675055844915 0.0072198748145793912 0 0.00044770993016122806 0.0072152097852094107 0 0.00049667172357526911 0.0071741017876426963 0 0.00044770993016122806 0.0072152097852094107 0 0.00045137213133038018 0.0071851559242595009 0 0.00049667172357526911 0.0071741017876426963 0 0.00045137213133038018 0.0071851559242595009 0 0.00043906963615504319 0.007083187899528825 0 0.00049667172357526911 0.0071741017876426963 0 0.0011144562250050886 0.017439000065816706 0 0.0011912699279261667 0.014198046171887902 0 0.0018770852420059165 0.0174061355352499 0 0.0015168494791164356 0.019419456061559461 0 0.0011443904581616229 0.019361088181872856 0 0.0011144562250050886 0.017439000065816706 0 0.0010801954110561962 0.021826933637357323 0 0.0011982212682522656 0.022982498008436849 0 0.0010770520336364025 0.023076685708403356 0 0.0010653986603838511 0.02313586672417654 0 0.0011982212682522656 0.022982498008436849 0 0.0010676461716524954 0.023037014127496421 0 0.0010770520336364025 0.023076685708403356 0 -0.00064337791513117775 0.01204652059170444 0 0.00048506706041714101 0.011916854403226467 0 -0.00042584402946594567 0.010481205864919796 0 0.00048506706041714101 0.011916854403226467 0 0.00076279553424372492 0.010226421451192831 0 -0.00042584402946594567 0.010481205864919796 0 -0.00031745434519494815 0.0092978427039685715 0 -0.0001084652011883354 0.0088572381313270446 0 0.00076279553424372492 0.010226421451192831 0 -0.00042584402946594567 0.010481205864919796 0 -0.00014568190982017175 0.0088992801659688939 0 0.00019146784110051304 0.0071479799003497276 0 0.00027647468549060414 0.00710281832872681 0 0.000303388430502493 0.0072096670396941632 0 0.00027197198869529792 0.0070039520869109887 0 0.00017821226919879308 0.0069876076081655343 0 0.00027647468549060414 0.00710281832872681 0 0.00017821226919879308 0.0069876076081655343 0 0.00019146784110051304 0.0071479799003497276 0 0.00027647468549060414 0.00710281832872681 0 0.00038145311106818874 0.0071068101332680475 0 0.00027647468549060414 0.00710281832872681 0 0.00034213057889125249 0.0070116132741325872 0 0.00027197198869529792 0.0070039520869109887 0 0.00027647468549060414 0.00710281832872681 0 0.00034213057889125249 0.0070116132741325872 0 0.00038145311106818874 0.0071068101332680475 0 0.00027647468549060414 0.00710281832872681 0 0.00033240313638899948 0.0071542728804292952 0 0.00027647468549060414 0.00710281832872681 0 0.00033240313638899948 0.0071542728804292952 0 0.000303388430502493 0.0072096670396941632 0 0.00038212443538137859 0.0071902955534111426 0 0.00033240313638899948 0.0071542728804292952 0 0.000303388430502493 0.0072096670396941632 0 0.00038145311106818874 0.0071068101332680475 0 0.00038212443538137859 0.0071902955534111426 0 0.00033240313638899948 0.0071542728804292952 0 0.00038212443538137859 0.0071902955534111426 0 0.0003742791410973495 0.0072598584642427832 0 0.000303388430502493 0.0072096670396941632 0 0.0003742791410973495 0.0072598584642427832 0 0.00034489169143818709 0.0073151333223852519 0 0.000303388430502493 0.0072096670396941632 0 0.0003742791410973495 0.0072598584642427832 0 0.00038507585525952653 0.0073085702115307898 0 0.00034489169143818709 0.0073151333223852519 0 0.00038507585525952653 0.0073085702115307898 0 0.00034489169143818709 0.0073151333223852519 0 0.00036887917574288608 0.0073606631828506521 0 0.00034489169143818709 0.0073151333223852519 0 0.00021326574616208023 0.0072959251148058948 0 0.00032490123701213778 0.0074252858024517364 0 0.00034489169143818709 0.0073151333223852519 0 0.00032490123701213778 0.0074252858024517364 0 0.00036887917574288608 0.0073606631828506521 0 0.00034489169143818709 0.0073151333223852519 0 0.000303388430502493 0.0072096670396941632 0 0.00021326574616208023 0.0072959251148058948 0 0.00019146784110051304 0.0071479799003497276 0 0.000303388430502493 0.0072096670396941632 0 0.00021326574616208023 0.0072959251148058948 0 -0.0001084652011883354 0.0088572381313270446 0 4.7083641141258068e-05 0.0080898725757805393 0 0.00021326574616208023 0.0072959251148058948 0 0.00026888673688400588 0.0075869701128427787 0 0.00032490123701213778 0.0074252858024517364 0 4.7083641141258068e-05 0.0080898725757805393 0 0.00023432644154675782 0.0076193372625740228 0 -0.00014568190982017175 0.0088992801659688939 0 0.00091497337846440123 0.0085576679597552524 0 0.00026888673688400588 0.0075869701128427787 0 0.00076279553424372492 0.010226421451192831 0 -0.00014568190982017175 0.0088992801659688939 0 0.00091497337846440123 0.0085576679597552524 0 0.0011912699279261667 0.014198046171887902 0 0.00098295141205550552 0.015098783286215818 0 0.0015168494791164356 0.019419456061559461 0 0.0011443904581616229 0.019361088181872856 0 0.0011349848537042058 0.021333379752385476 0 0.00072613827223267041 0.0075484012636538207 0 0.00026888673688400588 0.0075869701128427787 0 0.00047161654760330244 0.0073811688880836132 0 0.00072613827223267041 0.0075484012636538207 0 0.00091497337846440123 0.0085576679597552524 0 0.00026888673688400588 0.0075869701128427787 0 0.00067705224573345185 0.01471163115631427 0 0.00098295141205550552 0.015098783286215818 0 0.00026888673688400588 0.0075869701128427787 0 0.00034410613226457955 0.0074409845255034779 0 0.00032490123701213778 0.0074252858024517364 0 0.00026888673688400588 0.0075869701128427787 0 0.00034410613226457955 0.0074409845255034779 0 0.00047161654760330244 0.0073811688880836132 0 0.00034410613226457955 0.0074409845255034779 0 0.00036574555069117062 0.0073927648086616208 0 0.00040167721103025487 0.0073408752429290529 0 0.00034410613226457955 0.0074409845255034779 0 0.00032490123701213778 0.0074252858024517364 0 0.00036574555069117062 0.0073927648086616208 0 0.00032490123701213778 0.0074252858024517364 0 0.00036574555069117062 0.0073927648086616208 0 0.00036887917574288608 0.0073606631828506521 0 0.00036574555069117062 0.0073927648086616208 0 0.00036887917574288608 0.0073606631828506521 0 0.0003878963006432986 0.0073473996425073304 0 0.00038507585525952653 0.0073085702115307898 0 0.00036887917574288608 0.0073606631828506521 0 0.00039611367878592804 0.0073223286765076046 0 0.00036887917574288608 0.0073606631828506521 0 0.0003878963006432986 0.0073473996425073304 0 0.00039611367878592804 0.0073223286765076046 0 0.0003878963006432986 0.0073473996425073304 0 0.00040167721103025487 0.0073408752429290529 0 0.00040953316913985665 0.0073039637493659245 0 0.0003878963006432986 0.0073473996425073304 0 0.00039611367878592804 0.0073223286765076046 0 0.00040953316913985665 0.0073039637493659245 0 0.00036574555069117062 0.0073927648086616208 0 0.0003878963006432986 0.0073473996425073304 0 0.00040167721103025487 0.0073408752429290529 0 0.00043256147861323637 0.0072742061688979755 0 0.00040167721103025487 0.0073408752429290529 0 0.00040953316913985665 0.0073039637493659245 0 0.00043256147861323637 0.0072742061688979755 0 0.00048787165864055954 0.0072449267543390761 0 0.00040167721103025487 0.0073408752429290529 0 0.00048787165864055954 0.0072449267543390761 0 0.00044275535956848959 0.0071844490449668079 0 0.00044584649486978183 0.0070960910194889926 0 0.00043256147861323637 0.0072742061688979755 0 0.00048787165864055954 0.0072449267543390761 0 0.00044275535956848959 0.0071844490449668079 0 0.00048787165864055954 0.0072449267543390761 0 0.00042653817106835909 0.0073167557606026576 0 0.00046537820615608999 0.0072742532152264821 0 0.00048787165864055954 0.0072449267543390761 0 0.00046537820615608999 0.0072742532152264821 0 0.00057268651780872817 0.0072042239970608246 0 0.00048787165864055954 0.0072449267543390761 0 0.00040167721103025487 0.0073408752429290529 0 0.00042653817106835909 0.0073167557606026576 0 0.00034410613226457955 0.0074409845255034779 0 0.00040167721103025487 0.0073408752429290529 0 0.00042653817106835909 0.0073167557606026576 0 0.00042653817106835909 0.0073167557606026576 0 0.00039074704986063384 0.0073117666013997355 0 0.00047161654760330244 0.0073811688880836132 0 0.00034410613226457955 0.0074409845255034779 0 0.00042653817106835909 0.0073167557606026576 0 0.00047161654760330244 0.0073811688880836132 0 0.00042653817106835909 0.0073167557606026576 0 0.00046537820615608999 0.0072742532152264821 0 0.00039074704986063384 0.0073117666013997355 0 0.00072613827223267041 0.0075484012636538207 0 0.00050642297129128522 0.0073914222196422167 0 0.00047161654760330244 0.0073811688880836132 0 0.00050642297129128522 0.0073914222196422167 0 0.00039074704986063384 0.0073117666013997355 0 0.00047161654760330244 0.0073811688880836132 0 0.000371968676675939 0.0072662672803651676 0 0.00032395097891927527 0.0072741286669159473 0 0.00039303561001406999 0.0072794096941503784 0 0.000371968676675939 0.0072662672803651676 0 0.00039303561001406999 0.0072794096941503784 0 0.00039408898975294314 0.0072858729654364353 0 0.000371968676675939 0.0072662672803651676 0 0.00032395097891927527 0.0072741286669159473 0 0.00035582152251221967 0.0071953087004637904 0 0.00032322345640186403 0.0068768930428078218 0 0.00032235111766525007 0.0071026056325221793 0 0.00034726620127099975 0.0068720337816149902 0 0.00036292527841199371 0.0069674648172052475 0 0.00039768208206281358 0.0067494562151399137 0 0.00018607343481689696 0.0071163099737190528 0 0.00036292527841199371 0.0069674648172052475 0 0.00014872509077680079 0.007128267381107012 0 0.00040834990483743205 0.0071042620347807122 0 0.00026649221723092006 0.007182450109046945 0 0.00038059866614380164 0.0069319667347675241 0 0.00018607343481689696 0.0071163099737190528 0 0.00036292527841199371 0.0069674648172052475 0 0.00034726620127099975 0.0068720337816149902 0 0.00035336938270657658 0.0069271576414171683 0 0.00036292527841199371 0.0069674648172052475 0 0.00036322769554636463 0.0069517285440520689 0 0.00035336938270657658 0.0069271576414171683 0 0.00036292527841199371 0.0069674648172052475 0 0.00038059866614380164 0.0069319667347675241 0 0.00036322769554636463 0.0069517285440520689 0 0.00036292527841199371 0.0069674648172052475 0 0.00046380052405267495 0.0072609083433004202 0 0.00032395097891927527 0.0072741286669159473 0 0.00039303561001406999 0.0072794096941503784 0 0.00046380052405267495 0.0072609083433004202 0 0.00039303561001406999 0.0072794096941503784 0 0.00042481782158324075 0.007258589990378506 0 0.00039303561001406999 0.0072794096941503784 0 0.00042481782158324075 0.007258589990378506 0 0.00040909721299471689 0.007277021103429245 0 0.00042232604507097131 0.0072594904017581783 0 0.00042481782158324075 0.007258589990378506 0 0.00040909721299471689 0.007277021103429245 0 0.00042232604507097131 0.0072594904017581783 0 0.00040909721299471689 0.007277021103429245 0 0.00040374542812626068 0.0072932827654207276 0 0.0004067514579409051 0.0072864842232656961 0 0.00042232604507097131 0.0072594904017581783 0 0.00040374542812626068 0.0072932827654207276 0 0.00040374542812626068 0.0072932827654207276 0 0.0004015291467247713 0.0072956451168885864 0 0.00039408898975294314 0.0072858729654364353 0 0.00039303561001406999 0.0072794096941503784 0 0.00040909721299471689 0.007277021103429245 0 0.00039408898975294314 0.0072858729654364353 0 0.00040909721299471689 0.007277021103429245 0 0.00040374542812626068 0.0072932827654207276 0 0.00039408898975294314 0.0072858729654364353 0 0.0004067514579409051 0.0072864842232656961 0 0.00038507585525952653 0.0073085702115307898 0 0.00039611367878592804 0.0073223286765076046 0 0.0004067514579409051 0.0072864842232656961 0 0.00040374542812626068 0.0072932827654207276 0 0.00039611367878592804 0.0073223286765076046 0 0.00040374542812626068 0.0072932827654207276 0 0.00039611367878592804 0.0073223286765076046 0 0.0004015291467247713 0.0072956451168885864 0 0.0004015291467247713 0.0072956451168885864 0 0.00040953316913985665 0.0073039637493659245 0 0.00039750263507687975 0.0072577960159180641 0 0.00039611367878592804 0.0073223286765076046 0 0.0004015291467247713 0.0072956451168885864 0 0.00040953316913985665 0.0073039637493659245 0 0.0004015291467247713 0.0072956451168885864 0 0.00039408898975294314 0.0072858729654364353 0 0.00039750263507687975 0.0072577960159180641 0 0.000371968676675939 0.0072662672803651676 0 0.00039408898975294314 0.0072858729654364353 0 0.00039750263507687975 0.0072577960159180641 0 0.00039750263507687975 0.0072577960159180641 0 0.00038880224045326244 0.0071851810692367861 0 0.00035582152251221967 0.0071953087004637904 0 0.000371968676675939 0.0072662672803651676 0 0.00039750263507687975 0.0072577960159180641 0 0.00035582152251221967 0.0071953087004637904 0 0.00039750263507687975 0.0072577960159180641 0 0.00038880224045326244 0.0071851810692367861 0 0.00041661890749592655 0.0072278154080509995 0 0.00038880224045326244 0.0071851810692367861 0 0.00041661890749592655 0.0072278154080509995 0 0.00040325678573791283 0.0071264201536378859 0 0.00038880224045326244 0.0071851810692367861 0 0.00034263041238256231 0.0070911788853287262 0 0.00035582152251221967 0.0071953087004637904 0 0.00040953316913985665 0.0073039637493659245 0 0.00039750263507687975 0.0072577960159180641 0 0.00041661890749592655 0.0072278154080509995 0 0.00043256147861323637 0.0072742061688979755 0 0.00040953316913985665 0.0073039637493659245 0 0.00041661890749592655 0.0072278154080509995 0 0.00043256147861323637 0.0072742061688979755 0 0.00041661890749592655 0.0072278154080509995 0 0.00044275535956848959 0.0071844490449668079 0 0.00041894937208026314 0.0070806222293674052 0 0.00044275535956848959 0.0071844490449668079 0 0.00040325678573791283 0.0071264201536378859 0 0.00041661890749592655 0.0072278154080509995 0 0.00044275535956848959 0.0071844490449668079 0 0.00040325678573791283 0.0071264201536378859 0 0.00034263041238256231 0.0070911788853287262 0 0.00040325678573791283 0.0071264201536378859 0 0.00034895822218145462 0.0068866543606393828 0 0.00041894937208026314 0.0070806222293674052 0 0.00040325678573791283 0.0071264201536378859 0 0.00034895822218145462 0.0068866543606393828 0 0.00038880224045326244 0.0071851810692367861 0 0.00034263041238256231 0.0070911788853287262 0 0.00040325678573791283 0.0071264201536378859 0 0.00034263041238256231 0.0070911788853287262 0 0.00023278908413290549 0.0070103832541093944 0 0.00034895822218145462 0.0068866543606393828 0 0.00034263041238256231 0.0070911788853287262 0 0.00023278908413290549 0.0070103832541093944 0 0.00035582152251221967 0.0071953087004637904 0 0.00026649221723092006 0.007182450109046945 0 0.00023745589886310325 0.0070154046838885936 0 0.00032395097891927527 0.0072741286669159473 0 0.00023278908413290549 0.0070103832541093944 0 0.00035582152251221967 0.0071953087004637904 0 -0.00016125140990640632 0.0058895780114483799 0 0.00032235111766525007 0.0071026056325221793 0 0.00018607343481689696 0.0071163099737190528 0 0.00014872509077680079 0.007128267381107012 0 9.7884484734845403e-05 0.0070199642328040218 0 -0.00013320676066827685 0.0068967792109746453 0 0.00014872509077680079 0.007128267381107012 0 9.7884484734845403e-05 0.0070199642328040218 0 0.00018607343481689696 0.0071163099737190528 0 0.00023278908413290549 0.0070103832541093944 0 9.7884484734845403e-05 0.0070199642328040218 0 0.00023278908413290549 0.0070103832541093944 0 6.4642869192507434e-05 0.0068880911904662407 0 1.2641004507729223e-05 0.0065508670455605962 0 0.00023278908413290549 0.0070103832541093944 0 9.7884484734845403e-05 0.0070199642328040218 0 6.4642869192507434e-05 0.0068880911904662407 0 9.7884484734845403e-05 0.0070199642328040218 0 6.4642869192507434e-05 0.0068880911904662407 0 -3.2005645135655241e-05 0.0068621716913406707 0 6.4642869192507434e-05 0.0068880911904662407 0 -3.2005645135655241e-05 0.0068621716913406707 0 1.2641004507729223e-05 0.0065508670455605962 0 -0.00013320676066827685 0.0068967792109746453 0 9.7884484734845403e-05 0.0070199642328040218 0 -3.2005645135655241e-05 0.0068621716913406707 0 -3.2005645135655241e-05 0.0068621716913406707 0 1.2641004507729223e-05 0.0065508670455605962 0 -0.00017603410928911819 0.0067833870798703127 0 1.2641004507729223e-05 0.0065508670455605962 0 -5.9341365381041293e-05 0.0058378412836485273 0 0.00034393581324767799 0.0061775479983530402 0 -5.9341365381041293e-05 0.0058378412836485273 0 0.00034393581324767799 0.0061775479983530402 0 0.00017655810333064225 0.0056363097045902958 0 0.0004431596976506587 0.0059424999325951248 0 0.00034393581324767799 0.0061775479983530402 0 0.00069048395049836858 0.0062649783301096532 0 0.00034393581324767799 0.0061775479983530402 0 0.00065853248301437478 0.0066032479792511641 0 0.00069048395049836858 0.0062649783301096532 0 0.0004431596976506587 0.0059424999325951248 0 0.00069048395049836858 0.0062649783301096532 0 0.00055054519705282127 0.0056861345816387847 0 0.0004431596976506587 0.0059424999325951248 0 0.00034393581324767799 0.0061775479983530402 0 0.00017655810333064225 0.0056363097045902958 0 1.2641004507729223e-05 0.0065508670455605962 0 0.00034393581324767799 0.0061775479983530402 0 0.00065853248301437478 0.0066032479792511641 0 0.00023278908413290549 0.0070103832541093944 0 1.2641004507729223e-05 0.0065508670455605962 0 0.00034895822218145462 0.0068866543606393828 0 2.494316552930586e-05 0.0065871776595953007 0 0.00049158741244982693 0.0067457008418141838 0 0.00049158741244982693 0.0067457008418141838 0 0.00080278457446678834 0.0069937866917259778 0 0.00041894937208026314 0.0070806222293674052 0 0.00034895822218145462 0.0068866543606393828 0 0.00044584649486978183 0.0070960910194889926 0 0.00065853248301437478 0.0066032479792511641 0 0.0011766882303256804 0.0068912276031679303 0 0.0010292842868592912 0.0065721746680706258 0 0.00041894937208026314 0.0070806222293674052 0 0.00044275535956848959 0.0071844490449668079 0 0.00044584649486978183 0.0070960910194889926 0 0.0011766882303256804 0.0068912276031679303 0 0.0010292842868592912 0.0065721746680706258 0 0.0011049867380833738 0.007133965194793584 0 0.0012705942618457004 0.00818411698612782 0 0.0011049867380833738 0.007133965194793584 0 0.00096229305327020533 0.0078854996085863105 0 0.0010945783438176659 0.0070070951300289386 0 0.0010756915895685471 0.007062820548560696 0 0.0010292842868592912 0.0065721746680706258 0 0.0010729267435586054 0.0058963048947606447 0 0.0011049867380833738 0.007133965194793584 0 0.00065853248301437478 0.0066032479792511641 0 0.0010292842868592912 0.0065721746680706258 0 0.00069048395049836858 0.0062649783301096532 0 0.0010292842868592912 0.0065721746680706258 0 0.00069048395049836858 0.0062649783301096532 0 0.0010729267435586054 0.0058963048947606447 0 0.00069048395049836858 0.0062649783301096532 0 0.0010729267435586054 0.0058963048947606447 0 0.00055054519705282127 0.0056861345816387847 0 0.0010945783438176659 0.0070070951300289386 0 0.00054061072980715564 0.0066319295567258711 0 0.0010729267435586054 0.0058963048947606447 0 0.00046441757332605965 0.0051074614521093359 0 0.00055054519705282127 0.0056861345816387847 0 0.0012705942618457004 0.00818411698612782 0 0.0011483531378027804 0.0083919639468018736 0 0.00096229305327020533 0.0078854996085863105 0 0.0011483531378027804 0.0083919639468018736 0 0.00096667966122122189 0.0081740343352283574 0 0.0012640896764075406 0.009008558759173918 0 0.0012705942618457004 0.00818411698612782 0 0.0011483531378027804 0.0083919639468018736 0 0.00096667966122122189 0.0081740343352283574 0 0.00093070254408144672 0.0082622469838267831 0 0.00085534174764442025 0.0085773389485732272 0 0.0012705942618457004 0.00818411698612782 0 0.00096667966122122189 0.0081740343352283574 0 0.00059828513411885583 0.0081683502262641164 0 0.00096667966122122189 0.0081740343352283574 0 0.00059828513411885583 0.0081683502262641164 0 0.00068913993018370043 0.0079223440658620029 0 0.00046441757332605965 0.0051074614521093359 0 0.00010129481065647222 0.0051947815818215136 0 -0.00017961628894899088 0.0049077993815399568 0 0.00046441757332605965 0.0051074614521093359 0 0.00010129481065647222 0.0051947815818215136 0 0.00055054519705282127 0.0056861345816387847 0 -0.000103948662201959 0.0049740254185100304 0 0.00010129481065647222 0.0051947815818215136 0 -0.00013505418322626932 0.0052242331666311655 0 -0.000103948662201959 0.0049740254185100304 0 0.00010129481065647222 0.0051947815818215136 0 -0.00017961628894899088 0.0049077993815399568 0 -5.9341365381041293e-05 0.0058378412836485273 0 -0.00013505418322626932 0.0052242331666311655 0 0.00017655810333064225 0.0056363097045902958 0 0.00010129481065647222 0.0051947815818215136 0 -0.00013505418322626932 0.0052242331666311655 0 0.00017655810333064225 0.0056363097045902958 0 0.0004431596976506587 0.0059424999325951248 0 0.00017655810333064225 0.0056363097045902958 0 0.00055054519705282127 0.0056861345816387847 0 0.00010129481065647222 0.0051947815818215136 0 0.00017655810333064225 0.0056363097045902958 0 0.00055054519705282127 0.0056861345816387847 0 3.6374499588726434e-05 0.0074574739559328833 0 0.00039074704986063384 0.0073117666013997355 0 0.00025821597709571169 0.0075773334302592374 0 0.00039074704986063384 0.0073117666013997355 0 0.00025821597709571169 0.0075773334302592374 0 0.00043802986026052513 0.007400806629878476 0 0.00046537820615608999 0.0072742532152264821 0 0.00039074704986063384 0.0073117666013997355 0 0.00043802986026052513 0.007400806629878476 0 0.00025821597709571169 0.0075773334302592374 0 0.00043802986026052513 0.007400806629878476 0 0.00045540109381107466 0.0077613818710241941 0 0.00043802986026052513 0.007400806629878476 0 0.00062955177334921204 0.0075053095909600196 0 0.00057268651780872817 0.0072042239970608246 0 0.00043802986026052513 0.007400806629878476 0 0.00062955177334921204 0.0075053095909600196 0 0.00045540109381107466 0.0077613818710241941 0 0.00046537820615608999 0.0072742532152264821 0 0.00043802986026052513 0.007400806629878476 0 0.00057268651780872817 0.0072042239970608246 0 0.00048787165864055954 0.0072449267543390761 0 0.00044584649486978183 0.0070960910194889926 0 0.00057268651780872817 0.0072042239970608246 0 0.00080278457446678834 0.0069937866917259778 0 0.00060166581334521239 0.007166159278493271 0 0.0011766882303256804 0.0068912276031679303 0 0.00057268651780872817 0.0072042239970608246 0 0.0011049867380833738 0.007133965194793584 0 0.00062955177334921204 0.0075053095909600196 0 0.00057268651780872817 0.0072042239970608246 0 0.0011049867380833738 0.007133965194793584 0 0.00062955177334921204 0.0075053095909600196 0 0.0011049867380833738 0.007133965194793584 0 0.00096229305327020533 0.0078854996085863105 0 0.0011483531378027804 0.0083919639468018736 0 0.00096229305327020533 0.0078854996085863105 0 0.00082307109268874609 0.0087467638445677936 0 0.0011483531378027804 0.0083919639468018736 0 0.00082307109268874609 0.0087467638445677936 0 0.0012640896764075406 0.009008558759173918 0 0.00082307109268874609 0.0087467638445677936 0 0.0003626402753021776 0.0082665136312164416 0 0.00019607514891224542 0.0092392282124151293 0 0.00096433860033355557 0.0078738302420882419 0 0.00041550543412472118 0.0080613155700335632 0 0.00096229305327020533 0.0078854996085863105 0 0.00082307109268874609 0.0087467638445677936 0 0.0003626402753021776 0.0082665136312164416 0 0.00062955177334921204 0.0075053095909600196 0 0.00096229305327020533 0.0078854996085863105 0 0.00045540109381107466 0.0077613818710241941 0 0.00041550543412472118 0.0080613155700335632 0 -0.00018151022232186739 0.007829991300001695 0 0.0003626402753021776 0.0082665136312164416 0 -0.00059852840648036908 0.008549778530239421 0 0.00019607514891224542 0.0092392282124151293 0 -0.00059852840648036908 0.008549778530239421 0 -0.00046847475869844351 0.0095379160316717646 0 0.00019607514891224542 0.0092392282124151293 0 -0.001225304319822703 0.0094926904668366559 0 -0.00059852840648036908 0.008549778530239421 0 -0.00046847475869844351 0.0095379160316717646 0 0.00025821597709571169 0.0075773334302592374 0 0.00045540109381107466 0.0077613818710241941 0 0.0002247457716441588 0.00785088794864147 0 -0.0010065793257201046 0.011073392314628241 0 -0.00072417135118707 0.010312632065306563 0 -0.00031501733434146099 0.011464565213912741 0 -0.00072417135118707 0.010312632065306563 0 2.9940325279157204e-05 0.010267115139462156 0 -0.00031501733434146099 0.011464565213912741 0 -0.00072417135118707 0.010312632065306563 0 -0.00046847475869844351 0.0095379160316717646 0 2.9940325279157204e-05 0.010267115139462156 0 -0.001225304319822703 0.0094926904668366559 0 -0.00072417135118707 0.010312632065306563 0 -0.00046847475869844351 0.0095379160316717646 0 0.00019607514891224542 0.0092392282124151293 0 2.9940325279157204e-05 0.010267115139462156 0 0.00093857665335289934 0.010016996247441854 0 -0.00046847475869844351 0.0095379160316717646 0 0.00019607514891224542 0.0092392282124151293 0 2.9940325279157204e-05 0.010267115139462156 0 2.9940325279157204e-05 0.010267115139462156 0 0.00034349942028320644 0.011160124534181828 0 -0.00031501733434146099 0.011464565213912741 0 2.9940325279157204e-05 0.010267115139462156 0 0.00093857665335289934 0.010016996247441854 0 0.00034349942028320644 0.011160124534181828 0 0.00050199615885700936 0.0093860925497886803 0 9.9592136809651489e-05 0.010551654635157748 0 0.00082307109268874609 0.0087467638445677936 0 0.00019607514891224542 0.0092392282124151293 0 0.00093857665335289934 0.010016996247441854 0 0.00082307109268874609 0.0087467638445677936 0 0.00093857665335289934 0.010016996247441854 0 0.0012640896764075406 0.009008558759173918 0 0.00050199615885700936 0.0093860925497886803 0 0.00085534174764442025 0.0085773389485732272 0 5.5047400178741114e-05 0.0087152874275312001 0 0.00051904027098473456 0.0080590237430852914 0 0.00033146761228112218 0.0086600640590130101 0 5.5047400178741114e-05 0.0087152874275312001 0 8.1102173688891866e-05 0.0095445736415594937 0 0.00033146761228112218 0.0086600640590130101 0 3.0826252666048404e-07 0.010002812777187802 0 8.1102173688891866e-05 0.0095445736415594937 0 0.00033146761228112218 0.0086600640590130101 0 3.0826252666048404e-07 0.010002812777187802 0 -3.5221690021240389e-05 0.010435884749061149 0 8.1102173688891866e-05 0.0095445736415594937 0 3.0826252666048404e-07 0.010002812777187802 0 -3.5221690021240389e-05 0.010435884749061149 0 -4.5668794499575605e-07 0.011389355397102872 0 5.5047400178741114e-05 0.0087152874275312001 0 8.1102173688891866e-05 0.0095445736415594937 0 -0.00025169445860486167 0.0099201746491030911 0 -3.5221690021240389e-05 0.010435884749061149 0 8.1102173688891866e-05 0.0095445736415594937 0 -0.00025169445860486167 0.0099201746491030911 0 -3.5221690021240389e-05 0.010435884749061149 0 -0.00025169445860486167 0.0099201746491030911 0 -0.00013601141568385041 0.011823707561499201 0 9.9592136809651489e-05 0.010551654635157748 0 -0.00014533542256397425 0.011585488006378646 0 -3.5221690021240389e-05 0.010435884749061149 0 -4.5668794499575605e-07 0.011389355397102872 0 -0.00013601141568385041 0.011823707561499201 0 2.652627549407111e-07 0.01277646118182261 0 -4.5668794499575605e-07 0.011389355397102872 0 -0.00013601141568385041 0.011823707561499201 0 -7.4254311368495411e-05 0.012259659374765756 0 -0.00013601141568385041 0.011823707561499201 0 -0.00031501733434146099 0.011464565213912741 0 0.00034349942028320644 0.011160124534181828 0 -0.00013601141568385041 0.011823707561499201 0 -0.00031501733434146099 0.011464565213912741 0 0.00016813962201164506 0.0074566022337750094 0 0.00056214725819287543 0.0078206931031471437 0 0.00021030942997150311 0.0070313805470937569 0 0.00016813962201164506 0.0074566022337750094 0 0.00021030942997150311 0.0070313805470937569 0 -0.00010922217834707027 0.0057645656520717223 0 5.7885053151914699e-05 0.006202693952997297 0 -7.1328237473841758e-05 0.0058729081933772895 0 -0.000103948662201959 0.0049740254185100304 0 -0.00017961628894899088 0.0049077993815399568 0 -6.2951478956249526e-05 0.0048242761194616322 0 0.00059828513411885583 0.0081683502262641164 0 0.00016813962201164506 0.0074566022337750094 0 0.00068913993018370043 0.0079223440658620029 0 0.00054061072980715564 0.0066319295567258711 0 5.7885053151914699e-05 0.006202693952997297 0 0.00016813962201164506 0.0074566022337750094 0 0.00068913993018370043 0.0079223440658620029 0 0.00056214725819287543 0.0078206931031471437 0 0.00068913993018370043 0.0079223440658620029 0 0.00051904027098473456 0.0080590237430852914 0 0.00056214725819287543 0.0078206931031471437 0 0.00096667966122122189 0.0081740343352283574 0 0.00068913993018370043 0.0079223440658620029 0 0.00051904027098473456 0.0080590237430852914 0 0.00051904027098473456 0.0080590237430852914 0 0.00056214725819287543 0.0078206931031471437 0 0.00033146761228112218 0.0086600640590130101 0 0.00056214725819287543 0.0078206931031471437 0 0.0002547758062049942 0.0078923548926975486 0 0.00021030942997150311 0.0070313805470937569 0 0.00056214725819287543 0.0078206931031471437 0 0.0002547758062049942 0.0078923548926975486 0 0.00033146761228112218 0.0086600640590130101 0 3.0826252666048404e-07 0.010002812777187802 0 0.00033146761228112218 0.0086600640590130101 0 4.9617133967504673e-07 0.0086164036399082912 0 0.0002547758062049942 0.0078923548926975486 0 0.00033146761228112218 0.0086600640590130101 0 4.9617133967504673e-07 0.0086164036399082912 0 0.0002547758062049942 0.0078923548926975486 0 4.9617133967504673e-07 0.0086164036399082912 0 2.1584746618378604e-07 0.0072296433465535714 0 0.0002547758062049942 0.0078923548926975486 0 2.1584746618378604e-07 0.0072296433465535714 0 0.00021030942997150311 0.0070313805470937569 0 0.00021030942997150311 0.0070313805470937569 0 7.1234504113703451e-06 0.0062815792794430432 0 -0.00010922217834707027 0.0057645656520717223 0 2.1584746618378604e-07 0.0072296433465535714 0 7.1234504113703451e-06 0.0062815792794430432 0 8.8291816694778982e-09 0.0058431802973555767 0 2.1584746618378604e-07 0.0072296433465535714 0 0.00021030942997150311 0.0070313805470937569 0 7.1234504113703451e-06 0.0062815792794430432 0 7.1234504113703451e-06 0.0062815792794430432 0 8.8291816694778982e-09 0.0058431802973555767 0 5.694229074092384e-05 0.0049594500608326521 0 8.8291816694778982e-09 0.0058431802973555767 0 5.694229074092384e-05 0.0049594500608326521 0 1.825616700069033e-07 0.0044566604404376849 0 7.1234504113703451e-06 0.0062815792794430432 0 5.694229074092384e-05 0.0049594500608326521 0 -0.00010922217834707027 0.0057645656520717223 0 0.0001137543140230483 0.0038753118105956455 0 1.825616700069033e-07 0.0044566604404376849 0 2.8546794970723953e-07 0.0030700680072592444 0 5.694229074092384e-05 0.0049594500608326521 0 0.0001137543140230483 0.0038753118105956455 0 1.825616700069033e-07 0.0044566604404376849 0 5.694229074092384e-05 0.0049594500608326521 0 0.0001137543140230483 0.0038753118105956455 0 0.00025056218117305211 0.0038195200568342073 0 0.0001137543140230483 0.0038753118105956455 0 0.00025056218117305211 0.0038195200568342073 0 0.00019240490514913912 0.0028506461799245827 0 5.694229074092384e-05 0.0049594500608326521 0 0.00025056218117305211 0.0038195200568342073 0 0.00010997793218822527 0.0046547840893658779 0 0.00025056218117305211 0.0038195200568342073 0 0.00031973864760854266 0.0038530544605551932 0 0.00010997793218822527 0.0046547840893658779 0 0.00031973864760854266 0.0038530544605551932 0 0.00010997793218822527 0.0046547840893658779 0 -3.9577819054649594e-05 0.0044997591448299916 0 -0.00010922217834707027 0.0057645656520717223 0 0.00010997793218822527 0.0046547840893658779 0 -6.2951478956249526e-05 0.0048242761194616322 0 5.694229074092384e-05 0.0049594500608326521 0 -0.00010922217834707027 0.0057645656520717223 0 0.00010997793218822527 0.0046547840893658779 0 0.00010997793218822527 0.0046547840893658779 0 -6.2951478956249526e-05 0.0048242761194616322 0 -3.9577819054649594e-05 0.0044997591448299916 0 -0.00017961628894899088 0.0049077993815399568 0 -0.00010922217834707027 0.0057645656520717223 0 -6.2951478956249526e-05 0.0048242761194616322 0 -0.000103948662201959 0.0049740254185100304 0 -6.2951478956249526e-05 0.0048242761194616322 0 -0.00017831568706509139 0.0048695837861076402 0 -0.000103948662201959 0.0049740254185100304 0 -0.00013505418322626932 0.0052242331666311655 0 -0.00017831568706509139 0.0048695837861076402 0 -0.00013505418322626932 0.0052242331666311655 0 -0.00017831568706509139 0.0048695837861076402 0 -0.0004242502137570813 0.0051086029649547813 0 -5.9341365381041293e-05 0.0058378412836485273 0 -0.00013505418322626932 0.0052242331666311655 0 -0.0004242502137570813 0.0051086029649547813 0 -0.0004242502137570813 0.0051086029649547813 0 -0.00014291306513802008 0.0048295347853746142 0 -0.00014192103080424542 0.0045896472444529948 0 -0.00017831568706509139 0.0048695837861076402 0 -0.0004242502137570813 0.0051086029649547813 0 -0.00014291306513802008 0.0048295347853746142 0 -0.00017831568706509139 0.0048695837861076402 0 -3.9577819054649594e-05 0.0044997591448299916 0 -0.00014291306513802008 0.0048295347853746142 0 -6.2951478956249526e-05 0.0048242761194616322 0 -0.00017831568706509139 0.0048695837861076402 0 -3.9577819054649594e-05 0.0044997591448299916 0 -3.9577819054649594e-05 0.0044997591448299916 0 -4.8947994522464775e-06 0.0047822436087209793 0 -0.00014291306513802008 0.0048295347853746142 0 -6.6977726172975073e-06 0.0044452783457450511 0 0.00018132992806286282 0.004204484358090177 0 0.00031973864760854266 0.0038530544605551932 0 -3.9577819054649594e-05 0.0044997591448299916 0 0.00032507122385437223 0.0036192420623423339 0 0.00031973864760854266 0.0038530544605551932 0 0.00032507122385437223 0.0036192420623423339 0 0.00043557371458426131 0.0034702263872841829 0 -4.8947994522464775e-06 0.0047822436087209793 0 0.00010926963892330517 0.0044874797571806254 0 0.00035668586122807847 0.0044492559228641515 0 0.00018132992806286282 0.004204484358090177 0 0.00038945184500543186 0.0040329050945312143 0 -4.8947994522464775e-06 0.0047822436087209793 0 -0.00014291306513802008 0.0048295347853746142 0 0.00010926963892330517 0.0044874797571806254 0 -0.00014291306513802008 0.0048295347853746142 0 -0.00014192103080424542 0.0045896472444529948 0 0.00010926963892330517 0.0044874797571806254 0 7.348922838869332e-05 0.0040636240104546502 0 0.00044327967897101253 0.0041420087600675601 0 0.00010926963892330517 0.0044874797571806254 0 0.0002493027574583317 0.0041935672995577619 0 0.00028707460086604768 0.0043285937536299557 0 4.034254040274534e-05 0.0040539511043153724 0 0.00010926963892330517 0.0044874797571806254 0 0.0002493027574583317 0.0041935672995577619 0 4.034254040274534e-05 0.0040539511043153724 0 -0.00014192103080424542 0.0045896472444529948 0 -0.00038449920387664908 0.0044234661582752029 0 4.034254040274534e-05 0.0040539511043153724 0 -0.00014192103080424542 0.0045896472444529948 0 0.00010926963892330517 0.0044874797571806254 0 -0.00038796534406670204 0.0040531059289497561 0 4.034254040274534e-05 0.0040539511043153724 0 -0.00038449920387664908 0.0044234661582752029 0 -0.00038796534406670204 0.0040531059289497561 0 -0.00038449920387664908 0.0044234661582752029 0 -0.00061758937717299508 0.0041561671632929639 0 -0.00016125140990640632 0.0058895780114483799 0 -0.00061393805166165018 0.0052382529672156423 0 -0.00021348250101654444 0.006973830366370266 0 -0.00017603410928911819 0.0067833870798703127 0 -0.00046455681787795566 0.0062352416082080055 0 -0.00094805626472978135 0.0039521349702136823 0 -0.00061758937717299508 0.0041561671632929639 0 -0.00076585376180541849 0.0044611354600337825 0 1.2641004507729223e-05 0.0065508670455605962 0 -0.00017603410928911819 0.0067833870798703127 0 -0.00046455681787795566 0.0062352416082080055 0 1.2641004507729223e-05 0.0065508670455605962 0 -5.9341365381041293e-05 0.0058378412836485273 0 -0.00046455681787795566 0.0062352416082080055 0 -0.00038449920387664908 0.0044234661582752029 0 -0.00061758937717299508 0.0041561671632929639 0 -0.00076585376180541849 0.0044611354600337825 0 -0.00047740877257745835 0.0051955734354345688 0 -0.00061393805166165018 0.0052382529672156423 0 -5.9341365381041293e-05 0.0058378412836485273 0 -0.0004242502137570813 0.0051086029649547813 0 -0.00046455681787795566 0.0062352416082080055 0 -0.0004242502137570813 0.0051086029649547813 0 -0.00038449920387664908 0.0044234661582752029 0 -0.00076585376180541849 0.0044611354600337825 0 -0.0004242502137570813 0.0051086029649547813 0 -0.00014192103080424542 0.0045896472444529948 0 -0.00038449920387664908 0.0044234661582752029 0 0.00020532780618771936 0.0037934401315672579 0 0.00012047389474210853 0.0040078109205833531 0 -0.00014413968255550517 0.0034900966225319525 0 0.00020532780618771936 0.0037934401315672579 0 0.00012047389474210853 0.0040078109205833531 0 0.00023395898423559289 0.0040756455449141357 0 -0.00034818265687746176 0.0011467932061445768 0 -0.0003616681094944904 0.0011304062061012871 0 -0.0003609786724938736 0.0011150566195732921 0 0.00081711970980013755 0.0029198130061070726 0 -0.00038244557168622383 0.0022089539971480712 0 -0.00034818265687746176 0.0011467932061445768 0 -0.00031463255770604619 0.0011689186886094691 0 -0.0003616681094944904 0.0011304062061012871 0 0.0011643232588458619 0.002036607606910669 0 0.0012075998818679157 0.0021255310342068326 0 0.001112435971097821 0.0022051265593137043 0 0.0012295883781108527 0.0022110227827083166 0 0.0012075998818679157 0.0021255310342068326 0 0.0012736102184314172 0.0020843575929828427 0 0.0011643232588458619 0.002036607606910669 0 0.0012075998818679157 0.0021255310342068326 0 0.0012736102184314172 0.0020843575929828427 0 0.00039693247410478827 0.0015821591260863175 0 0.00081711970980013755 0.0029198130061070726 0 0.00012047389474210853 0.0040078109205833531 0 0.00023395898423559289 0.0040756455449141357 0 0.00035801326079490544 0.004217050354931088 0 0.00081711970980013755 0.0029198130061070726 0 0.00094807120480232385 0.0043175795114454001 0 0.0016651166545905822 0.0035183068482228619 0 0.0019999351642062289 0.0043599889000316945 0 0.0013671122566954097 0.004230877013671838 0 0.0002493027574583317 0.0041935672995577619 0 0.00035801326079490544 0.004217050354931088 0 0.00028707460086604768 0.0043285937536299557 0 0.00044327967897101253 0.0041420087600675601 0 0.00094807120480232385 0.0043175795114454001 0 0.0011475128014830195 0.0037774491849192726 0 0.00070718759673018097 0.0041231841819381826 0 0.0013671122566954097 0.004230877013671838 0 0.00035801326079490544 0.004217050354931088 0 0.00035668586122807847 0.0044492559228641515 0 0.00028707460086604768 0.0043285937536299557 0 0.00010926963892330517 0.0044874797571806254 0 0.00035668586122807847 0.0044492559228641515 0 0.00028707460086604768 0.0043285937536299557 0 0.00022936688974852364 0.0040959255147174859 0 0.00038945184500543186 0.0040329050945312143 0 0.00020532780618771936 0.0037934401315672579 0 0.00049298921245666911 0.0035898364820337288 0 0.00023653508369690125 0.003590833925696616 0 0.00020532780618771936 0.0037934401315672579 0 0.00023395898423559289 0.0040756455449141357 0 0.00049298921245666911 0.0035898364820337288 0 0.00023395898423559289 0.0040756455449141357 0 0.00035801326079490544 0.004217050354931088 0 0.00035668586122807847 0.0044492559228641515 0 0.00049298921245666911 0.0035898364820337288 0 0.00037876351684527264 0.0034611517434450824 0 0.00023653508369690125 0.003590833925696616 0 0.00037876351684527264 0.0034611517434450824 0 0.00024719603130392482 0.00313954446752954 0 0.00023653508369690125 0.003590833925696616 0 0.00049298921245666911 0.0035898364820337288 0 0.00037876351684527264 0.0034611517434450824 0 0.00043557371458426131 0.0034702263872841829 0 0.00032507122385437223 0.0036192420623423339 0 0.00049298921245666911 0.0035898364820337288 0 0.00043557371458426131 0.0034702263872841829 0 0.00037876351684527264 0.0034611517434450824 0 0.00043557371458426131 0.0034702263872841829 0 0.00024719603130392482 0.00313954446752954 0 0.00043557371458426131 0.0034702263872841829 0 0.00024719603130392482 0.00313954446752954 0 0.00034424025562602019 0.0030041391241086004 0 0.00024719603130392482 0.00313954446752954 0 0.00023653508369690125 0.003590833925696616 0 -0.00014413968255550517 0.0034900966225319525 0 0.00020532780618771936 0.0037934401315672579 0 0.00023653508369690125 0.003590833925696616 0 -0.00014413968255550517 0.0034900966225319525 0 -0.0003616681094944904 0.0011304062061012871 0 -0.00037047125797616824 0.0011593943204120554 0 -0.00037800509156784944 0.0011762303246925271 0 0.00024719603130392482 0.00313954446752954 0 -0.00014413968255550517 0.0034900966225319525 0 -0.00033762594432428151 0.0027378592134639189 0 -0.00038244557168622383 0.0022089539971480712 0 -0.00029764930202405814 0.0019710148967880393 0 0.0001080931117668823 0.0023781389580913789 0 -0.00024931347340815223 0.0012293656187976948 0 -0.00033762594432428151 0.0027378592134639189 0 0.00024719603130392482 0.00313954446752954 0 0.0001080931117668823 0.0023781389580913789 0 -0.00033762594432428151 0.0027378592134639189 0 0.00024719603130392482 0.00313954446752954 0 0.0001080931117668823 0.0023781389580913789 0 0.00034424025562602019 0.0030041391241086004 0 0.0001080931117668823 0.0023781389580913789 0 0.00034424025562602019 0.0030041391241086004 0 0.00013974900121081581 0.001687338927650491 0 0.0001080931117668823 0.0023781389580913789 0 0.00013974900121081581 0.001687338927650491 0 -0.00024931347340815223 0.0012293656187976948 0 0.00034424025562602019 0.0030041391241086004 0 0.00019240490514913912 0.0028506461799245827 0 0.00013974900121081581 0.001687338927650491 0 0.00031973864760854266 0.0038530544605551932 0 0.00043557371458426131 0.0034702263872841829 0 0.00034424025562602019 0.0030041391241086004 0 0.00025056218117305211 0.0038195200568342073 0 0.00031973864760854266 0.0038530544605551932 0 0.00034424025562602019 0.0030041391241086004 0 0.00025056218117305211 0.0038195200568342073 0 0.00034424025562602019 0.0030041391241086004 0 0.00019240490514913912 0.0028506461799245827 0 0.00019240490514913912 0.0028506461799245827 0 3.4312327135491938e-07 0.0016834447302573085 0 0.00013974900121081581 0.001687338927650491 0 0.0001137543140230483 0.0038753118105956455 0 0.00019240490514913912 0.0028506461799245827 0 2.8546794970723953e-07 0.0030700680072592444 0 0.00019240490514913912 0.0028506461799245827 0 3.4312327135491938e-07 0.0016834447302573085 0 2.8546794970723953e-07 0.0030700680072592444 0 3.4312327135491938e-07 0.0016834447302573085 0 0.00013974900121081581 0.001687338927650491 0 -4.3132290426228961e-09 0.00029713439518343492 0 0.00013974900121081581 0.001687338927650491 0 -4.3132290426228961e-09 0.00029713439518343492 0 -5.5048822192018372e-05 0.00034585720040650078 0 -4.3132290426228961e-09 0.00029713439518343492 0 -5.5048822192018372e-05 0.00034585720040650078 0 3.3697643444962232e-07 -0.0010895743422685057 0 0.00013974900121081581 0.001687338927650491 0 -5.5048822192018372e-05 0.00034585720040650078 0 -0.00024931347340815223 0.0012293656187976948 0 -5.5048822192018372e-05 0.00034585720040650078 0 -0.00022717737181971633 -0.00043174536579046479 0 -0.00024931347340815223 0.0012293656187976948 0 -0.00022717737181971633 -0.00043174536579046479 0 -0.0007258850545326295 0.0004833987625247345 0 -0.00024931347340815223 0.0012293656187976948 0 -5.5048822192018372e-05 0.00034585720040650078 0 -0.00022717737181971633 -0.00043174536579046479 0 3.3697643444962232e-07 -0.0010895743422685057 0 -0.00022717737181971633 -0.00043174536579046479 0 -0.00020783075412337848 -0.0017558551039533069 0 -0.00035149272067276177 -0.0016910000440051318 0 3.3697643444962232e-07 -0.0010895743422685057 0 -0.00020783075412337848 -0.0017558551039533069 0 -2.3419825779885573e-06 -0.0024745075893766316 0 -0.00022717737181971633 -0.00043174536579046479 0 3.3697643444962232e-07 -0.0010895743422685057 0 -0.00020783075412337848 -0.0017558551039533069 0 -0.0011063732517581544 -0.0073374247843517038 0 -0.0011418367446868283 -0.007335730514917399 0 -0.0010988555351579424 -0.00732488844503075 0 -3.0402687076932914e-07 -0.002477900104131132 0 -3.2920924323245266e-05 -0.0025862894545752783 0 -5.502218232282519e-06 -0.0040391572927165626 0 -7.1488087511881406e-07 -0.0024773033251962763 0 -0.00072821161264914223 -0.0039333548243655585 0 -0.00020783075412337848 -0.0017558551039533069 0 -2.3419825779885573e-06 -0.0024745075893766316 0 -0.00028565010786214557 -0.0017981717915886738 0 -0.00067648036350835387 -0.0038277146972372248 0 -0.00072821161264914223 -0.0039333548243655585 0 -0.0011063732517581544 -0.0073374247843517038 0 -0.0011418367446868283 -0.007335730514917399 0 -0.0010071831898229207 -0.0072368973352982639 0 -0.00072821161264914223 -0.0039333548243655585 0 -0.00083479453211912169 -0.0035130019108412501 0 -0.00022717737181971633 -0.00043174536579046479 0 -0.00035149272067276177 -0.0016910000440051318 0 -0.0007258850545326295 0.0004833987625247345 0 -0.00083479453211912169 -0.0035130019108412501 0 -0.00076103005891903013 -0.0028415979350767361 0 -0.0011418367446868283 -0.007335730514917399 0 -0.0010071831898229207 -0.0072368973352982639 0 -0.0010945816848373397 -0.0071327506368117719 0 -0.0010071831898229207 -0.0072368973352982639 0 -0.0010945816848373397 -0.0071327506368117719 0 -0.00095168654360865156 -0.00705631875715069 0 -0.0010945816848373397 -0.0071327506368117719 0 -0.00095168654360865156 -0.00705631875715069 0 -0.001028007842481032 -0.0070232696610632245 0 -0.00047736878593053402 0.0011633087498481138 0 -0.0003560746403215336 0.0011822428657829907 0 -0.00024931347340815223 0.0012293656187976948 0 -0.00030186364424543503 0.0013148920876559853 0 -0.00029764930202405814 0.0019710148967880393 0 -0.0003560746403215336 0.0011822428657829907 0 -0.00024931347340815223 0.0012293656187976948 0 -0.00037800509156784944 0.0011762303246925271 0 -0.0007258850545326295 0.0004833987625247345 0 -0.00047736878593053402 0.0011633087498481138 0 -0.00024931347340815223 0.0012293656187976948 0 -0.00044770059406075928 -0.0074879055797333477 0 -0.00070415142472870368 -0.0073281291588292103 0 -9.7847959851829759e-05 -0.0072638981008146903 0 -0.0006124591501553468 -0.0075164556200537228 0 -0.00080330183996809407 -0.007502102246843491 0 -0.00049095513804777108 -0.0077567219965381526 0 -0.00030903496143249056 -0.0064569248657032749 0 -1.0852517065891367e-05 -0.0071667017622565219 0 -0.00044770059406075928 -0.0074879055797333477 0 -0.00049095513804777108 -0.0077567219965381526 0 -0.00025870153152916022 -0.0075404799606896798 0 -0.00044770059406075928 -0.0074879055797333477 0 -0.0006124591501553468 -0.0075164556200537228 0 -0.00049095513804777108 -0.0077567219965381526 0 -0.00044770059406075928 -0.0074879055797333477 0 -0.0006124591501553468 -0.0075164556200537228 0 -0.00070415142472870368 -0.0073281291588292103 0 -4.5191865899878832e-05 -0.0064176449147049621 0 -2.419817778606533e-05 -0.0059823790503943843 0 -2.5226183351334511e-05 -0.0055726780417502137 0 -4.5191865899878832e-05 -0.0064176449147049621 0 -2.5226183351334511e-05 -0.0055726780417502137 0 -9.7847959851829759e-05 -0.0072638981008146903 0 -2.419817778606533e-05 -0.0059823790503943843 0 -9.0553021703601047e-08 -0.0052576945267799914 0 -1.1705533200953089e-07 -0.0066480200774791743 0 -4.5191865899878832e-05 -0.0064176449147049621 0 -2.419817778606533e-05 -0.0059823790503943843 0 -1.1705533200953089e-07 -0.0066480200774791743 0 -2.419817778606533e-05 -0.0059823790503943843 0 -2.5226183351334511e-05 -0.0055726780417502137 0 -9.0553021703601047e-08 -0.0052576945267799914 0 -2.5226183351334511e-05 -0.0055726780417502137 0 -9.0553021703601047e-08 -0.0052576945267799914 0 -5.502218232282519e-06 -0.0040391572927165626 0 -0.00070415142472870368 -0.0073281291588292103 0 -0.00080330183996809407 -0.007502102246843491 0 -0.00093528690297471867 -0.0074490950188501846 0 -0.0006124591501553468 -0.0075164556200537228 0 -0.00070415142472870368 -0.0073281291588292103 0 -0.00080330183996809407 -0.007502102246843491 0 -0.0010758650770517938 -0.0074747863389513338 0 -0.00093528690297471867 -0.0074490950188501846 0 -0.00096013059776694609 -0.0076442773510578318 0 -0.00080330183996809407 -0.007502102246843491 0 -0.00093528690297471867 -0.0074490950188501846 0 -0.00096013059776694609 -0.0076442773510578318 0 -0.0010758650770517938 -0.0074747863389513338 0 -0.00093528690297471867 -0.0074490950188501846 0 -0.0010988555351579424 -0.00732488844503075 0 -0.00030903496143249056 -0.0064569248657032749 0 -0.0004240474924332863 -0.005846112420141999 0 -9.0553021703601047e-08 -0.0052576945267799914 0 -5.502218232282519e-06 -0.0040391572927165626 0 7.4909580095567378e-08 -0.003867081193531836 0 -0.00070415142472870368 -0.0073281291588292103 0 -0.00093528690297471867 -0.0074490950188501846 0 -0.0010988555351579424 -0.00732488844503075 0 -3.0402687076932914e-07 -0.002477900104131132 0 -5.502218232282519e-06 -0.0040391572927165626 0 7.4909580095567378e-08 -0.003867081193531836 0 -0.00072821161264914223 -0.0039333548243655585 0 -0.0004240474924332863 -0.005846112420141999 0 -0.0011418367446868283 -0.007335730514917399 0 -0.0010758650770517938 -0.0074747863389513338 0 -0.0010988555351579424 -0.00732488844503075 0 -0.0011418367446868283 -0.007335730514917399 0 -0.0010758650770517938 -0.0074747863389513338 0 -0.0011301544198323975 -0.0077554324902665873 0 -0.0011418367446868283 -0.007335730514917399 0 -0.0010945816848373397 -0.0071327506368117719 0 -0.0011821286252588425 -0.0071847704143294605 0 -0.001139381284910134 -0.0073699540356127391 0 -0.0011389976183859975 -0.0074739911850721331 0 -0.0010945816848373397 -0.0071327506368117719 0 -0.0011575364778375055 -0.0071042093614237427 0 -0.0011143617364382007 -0.0070494790120804608 0 -0.0010945816848373397 -0.0071327506368117719 0 -0.0011575364778375055 -0.0071042093614237427 0 -0.0011821286252588425 -0.0071847704143294605 0 -0.0011389976183859975 -0.0074739911850721331 0 -0.0010183755543136347 -0.0076760549229546171 0 -0.0011575364778375055 -0.0071042093614237427 0 -0.0011821286252588425 -0.0071847704143294605 0 -0.0011836317386590264 -0.007102009701649795 0 -0.0010758650770517938 -0.0074747863389513338 0 -0.0011301544198323975 -0.0077554324902665873 0 -0.00096013059776694609 -0.0076442773510578318 0 -0.0011301544198323975 -0.0077554324902665873 0 -0.00096013059776694609 -0.0076442773510578318 0 -0.00087540994509854972 -0.0082090157799709507 0 -0.00095155619642516562 -0.0076643037873193633 0 -0.00052641736035615111 -0.0078586866809951059 0 -0.00096013059776694609 -0.0076442773510578318 0 -0.00087540994509854972 -0.0082090157799709507 0 -0.00053480546773529436 -0.0079730821840596836 0 -0.00080330183996809407 -0.007502102246843491 0 -0.00096013059776694609 -0.0076442773510578318 0 -0.00049095513804777108 -0.0077567219965381526 0 -0.00058600566078815912 -0.0082818998565698243 0 -0.00053480546773529436 -0.0079730821840596836 0 -0.00039394452017773923 -0.0082776521089465219 0 -0.00087540994509854972 -0.0082090157799709507 0 -0.00058600566078815912 -0.0082818998565698243 0 -0.00053480546773529436 -0.0079730821840596836 0 -0.00089301043595629165 -0.0076920016358040383 0 -0.0011094686459163989 -0.0087701322695624452 0 -0.0011734094691314605 -0.0070744372087138459 0 -0.0011781595712809965 -0.0070731168758626142 0 -0.0011659178696635092 -0.0070845155796249127 0 -0.0011734094691314605 -0.0070744372087138459 0 -0.0011781595712809965 -0.0070731168758626142 0 -0.0011732968300836198 -0.0070669104641281604 0 -0.0011734094691314605 -0.0070744372087138459 0 -0.0011732968300836198 -0.0070669104641281604 0 -0.0011705797871071945 -0.007064467692318401 0 -0.00058600566078815912 -0.0082818998565698243 0 -0.00062101779763123718 -0.0085398740787043705 0 -0.00038861186043796168 -0.008488443649551234 0 -0.0010183755543136347 -0.0076760549229546171 0 -0.00089301043595629165 -0.0076920016358040383 0 -0.00087540994509854972 -0.0082090157799709507 0 -0.00058600566078815912 -0.0082818998565698243 0 -0.00062101779763123718 -0.0085398740787043705 0 -0.0011836317386590264 -0.007102009701649795 0 -0.0011781595712809965 -0.0070731168758626142 0 -0.0011678933515932184 -0.0070656966632883025 0 -0.0011781595712809965 -0.0070731168758626142 0 -0.0011732968300836198 -0.0070669104641281604 0 -0.0011678933515932184 -0.0070656966632883025 0 -0.0011732968300836198 -0.0070669104641281604 0 -0.0011648160560501978 -0.0070533746792114781 0 -0.0011678933515932184 -0.0070656966632883025 0 -0.0011732968300836198 -0.0070669104641281604 0 -0.0011705797871071945 -0.007064467692318401 0 -0.0011648160560501978 -0.0070533746792114781 0 -0.0011648160560501978 -0.0070533746792114781 0 -0.0011678933515932184 -0.0070656966632883025 0 -0.0011408942181599195 -0.0070184305869192484 0 -0.0011678933515932184 -0.0070656966632883025 0 -0.0011143617364382007 -0.0070494790120804608 0 -0.0011408942181599195 -0.0070184305869192484 0 -0.0011575364778375055 -0.0071042093614237427 0 -0.0011678933515932184 -0.0070656966632883025 0 -0.0011143617364382007 -0.0070494790120804608 0 -0.0011575364778375055 -0.0071042093614237427 0 -0.0011836317386590264 -0.007102009701649795 0 -0.0011678933515932184 -0.0070656966632883025 0 -0.0011143617364382007 -0.0070494790120804608 0 -0.0011408942181599195 -0.0070184305869192484 0 -0.0010511363734606609 -0.0069680207245302762 0 -0.00038964385919293979 -0.0074566867729869112 0 -0.00026201835120682028 -0.0081580172197751512 0 0.00043966907139646253 -0.0082808929768566717 0 0.00050472152618566738 -0.0082137959453603381 0 0.00039599393274636195 -0.0081382253681591323 0 0.00043966907139646253 -0.0082808929768566717 0 0.00052994610271535098 -0.0083386545881679978 0 0.00050472152618566738 -0.0082137959453603381 0 0.00052994610271535098 -0.0083386545881679978 0 0.00050472152618566738 -0.0082137959453603381 0 0.00060556802090759273 -0.0083119394133772846 0 0.00050472152618566738 -0.0082137959453603381 0 0.00060556802090759273 -0.0083119394133772846 0 0.00066010226150436241 -0.0082845431461489889 0 -0.0011648160560501978 -0.0070533746792114781 0 -0.0011408942181599195 -0.0070184305869192484 0 -0.0011694076862640143 -0.0070633181375453118 0 -0.00038964385919293979 -0.0074566867729869112 0 -5.5177718914476104e-05 -0.0081622102302096738 0 -0.0011705797871071945 -0.007064467692318401 0 -0.0011648160560501978 -0.0070533746792114781 0 -0.0011694076862640143 -0.0070633181375453118 0 0.00064173763366244974 -0.0081494457257893869 0 -5.5177718914476104e-05 -0.0081622102302096738 0 0.00060556802090759273 -0.0083119394133772846 0 0.00067316682611583579 -0.008402944780330681 0 0.00065250530611307017 -0.0083027711150061682 0 0.00052994610271535098 -0.0083386545881679978 0 0.00060556802090759273 -0.0083119394133772846 0 0.00061150897361173309 -0.0084028204690142719 0 0.00060556802090759273 -0.0083119394133772846 0 0.00061150897361173309 -0.0084028204690142719 0 0.00067316682611583579 -0.008402944780330681 0 0.00067316682611583579 -0.008402944780330681 0 0.00065250530611307017 -0.0083027711150061682 0 0.00074324886968289553 -0.0083406218645038326 0 0.00067316682611583579 -0.008402944780330681 0 0.00073797757183560503 -0.0084752059788467289 0 0.00074324886968289553 -0.0083406218645038326 0 -0.0011440085545261888 -0.0084852939595073413 0 -0.00065139748540344721 -0.0094921060662592864 0 -5.5177718914476104e-05 -0.0081622102302096738 0 -0.00065139748540344721 -0.0094921060662592864 0 -0.00049287085556909914 -0.0087333506958844394 0 -0.00060738902336933691 -0.0087978278724670546 0 -0.00068958331689343219 -0.0087031752036826528 0 -0.0011734094691314605 -0.0070744372087138459 0 -0.0011694076862640143 -0.0070633181375453118 0 -0.0011755106604972886 -0.0070740824040315528 0 -5.5177718914476104e-05 -0.0081622102302096738 0 -0.0011440085545261888 -0.0084852939595073413 0 -0.0011734094691314605 -0.0070744372087138459 0 -0.0011705797871071945 -0.007064467692318401 0 -0.0011694076862640143 -0.0070633181375453118 0 -0.0014812754760831161 -0.0076258558101635612 0 -0.0011440085545261888 -0.0084852939595073413 0 -0.0011734094691314605 -0.0070744372087138459 0 -0.0011712154399886325 -0.007083923735223918 0 -0.0011659178696635092 -0.0070845155796249127 0 -0.00037623165218971931 0.0011542872212843658 0 -0.00036989513968247898 0.0011442184179427755 0 -0.00038870852319069463 0.0011663221550317399 0 -0.00025093913908703208 -0.003365403141338979 0 -0.00067994942972753069 0.00065486726786748097 0 -0.00037623165218971931 0.0011542872212843658 0 -0.00036989513968247898 0.0011442184179427755 0 -0.00037149637154266027 0.0011422146655493174 0 0.00028078129865159051 -0.0080428769081029826 0 0.00033720444813566065 -0.008132470391281444 0 0.00029837234623641571 -0.008110124736548173 0 -0.00011408850229045544 0.0011126730162126122 0 -0.00033269167895506006 0.0010797688257858011 0 -0.00018211222157800858 0.00072537738231405241 0 -0.00011408850229045544 0.0011126730162126122 0 -0.00033269167895506006 0.0010797688257858011 0 -0.00037149637154266027 0.0011422146655493174 0 -0.00033269167895506006 0.0010797688257858011 0 -0.00037149637154266027 0.0011422146655493174 0 -0.0003609786724938736 0.0011150566195732921 0 -0.0003616681094944904 0.0011304062061012871 0 -0.00037149637154266027 0.0011422146655493174 0 -0.0003609786724938736 0.0011150566195732921 0 -0.0003616681094944904 0.0011304062061012871 0 -0.00037149637154266027 0.0011422146655493174 0 -0.00037047125797616824 0.0011593943204120554 0 -0.00037623165218971931 0.0011542872212843658 0 -0.00037149637154266027 0.0011422146655493174 0 -0.00037047125797616824 0.0011593943204120554 0 -0.00037623165218971931 0.0011542872212843658 0 -0.00037047125797616824 0.0011593943204120554 0 -0.00038870852319069463 0.0011663221550317399 0 -0.0003560746403215336 0.0011822428657829907 0 -0.00037047125797616824 0.0011593943204120554 0 -0.00037800509156784944 0.0011762303246925271 0 -0.0003560746403215336 0.0011822428657829907 0 -0.00037047125797616824 0.0011593943204120554 0 -0.00038870852319069463 0.0011663221550317399 0 -0.00047736878593053402 0.0011633087498481138 0 -0.0003560746403215336 0.0011822428657829907 0 -0.00038870852319069463 0.0011663221550317399 0 -0.00047736878593053402 0.0011633087498481138 0 -0.00036989513968247898 0.0011442184179427755 0 -0.00038870852319069463 0.0011663221550317399 0 -0.00076103005891903013 -0.0028415979350767361 0 -0.00025093913908703208 -0.003365403141338979 0 -0.00095168654360865156 -0.00705631875715069 0 -0.00091756300677192019 -0.0069257443922066319 0 -0.001028007842481032 -0.0070232696610632245 0 -0.0010945816848373397 -0.0071327506368117719 0 -0.0011143617364382007 -0.0070494790120804608 0 -0.001028007842481032 -0.0070232696610632245 0 -0.0011143617364382007 -0.0070494790120804608 0 -0.001028007842481032 -0.0070232696610632245 0 -0.0010511363734606609 -0.0069680207245302762 0 -0.00091756300677192019 -0.0069257443922066319 0 -0.001028007842481032 -0.0070232696610632245 0 -0.0010511363734606609 -0.0069680207245302762 0 0.00028078129865159051 -0.0080428769081029826 0 0.00039599393274636195 -0.0081382253681591323 0 0.00033720444813566065 -0.008132470391281444 0 -0.00025093913908703208 -0.003365403141338979 0 -0.00026201835120682028 -0.0081580172197751512 0 0.00033720444813566065 -0.008132470391281444 0 0.00030406850930389344 -0.0081392435842583457 0 0.00029837234623641571 -0.008110124736548173 0 0.00033720444813566065 -0.008132470391281444 0 0.00037992013649372453 -0.0082222184058409961 0 0.00030961626364921463 -0.0081860511656297683 0 0.00039599393274636195 -0.0081382253681591323 0 0.00033720444813566065 -0.008132470391281444 0 0.00037992013649372453 -0.0082222184058409961 0 0.00033720444813566065 -0.008132470391281444 0 0.00030961626364921463 -0.0081860511656297683 0 0.00030406850930389344 -0.0081392435842583457 0 0.00043966907139646253 -0.0082808929768566717 0 0.00039599393274636195 -0.0081382253681591323 0 0.00037992013649372453 -0.0082222184058409961 0 0.00043966907139646253 -0.0082808929768566717 0 0.00037992013649372453 -0.0082222184058409961 0 0.00041648063483083742 -0.0082927944453497458 0 0.00037992013649372453 -0.0082222184058409961 0 0.00034284552113440547 -0.0082778323504577606 0 0.00041648063483083742 -0.0082927944453497458 0 0.00037992013649372453 -0.0082222184058409961 0 0.00030961626364921463 -0.0081860511656297683 0 0.00034284552113440547 -0.0082778323504577606 0 0.00030961626364921463 -0.0081860511656297683 0 0.00025003514529650054 -0.0082709300529709255 0 0.00034284552113440547 -0.0082778323504577606 0 0.00030961626364921463 -0.0081860511656297683 0 0.0002640192664106591 -0.0081283576638282156 0 0.00025003514529650054 -0.0082709300529709255 0 0.00036490633068726942 -0.0038538359955514983 0 0.00043964831512866058 -0.005755119216586415 0 0.00030961626364921463 -0.0081860511656297683 0 0.00030406850930389344 -0.0081392435842583457 0 0.0002640192664106591 -0.0081283576638282156 0 -0.00025093913908703208 -0.003365403141338979 0 0.00036490633068726942 -0.0038538359955514983 0 0.00028078129865159051 -0.0080428769081029826 0 0.0002640192664106591 -0.0081283576638282156 0 0.00029837234623641571 -0.008110124736548173 0 0.00030406850930389344 -0.0081392435842583457 0 0.0002640192664106591 -0.0081283576638282156 0 0.00029837234623641571 -0.008110124736548173 0 0.00039693247410478827 0.0015821591260863175 0 0.0001459224234130256 -7.0234466599050347e-06 0 -0.00034818265687746176 0.0011467932061445768 0 -0.0003609786724938736 0.0011150566195732921 0 -0.00036317034642044008 0.0011206804832997171 0 -0.00033269167895506006 0.0010797688257858011 0 -0.00018211222157800858 0.00072537738231405241 0 -0.00041847775154661476 0.00066710204880244183 0 -0.00024504998700790456 0.0012737596502986218 0 0.0001459224234130256 -7.0234466599050347e-06 0 -0.00033269167895506006 0.0010797688257858011 0 -0.0003609786724938736 0.0011150566195732921 0 -0.00036317034642044008 0.0011206804832997171 0 0.00036490633068726942 -0.0038538359955514983 0 0.0001459224234130256 -7.0234466599050347e-06 0 0.00059360251416668518 -0.0026189381341564194 0 0.00061377096078567652 -0.0027980133398970751 0 0.00058347785512926601 -0.002800678581118014 0 0.0001459224234130256 -7.0234466599050347e-06 0 0.00092000236938456423 -0.00048342398763161345 0 0.0011643232588458619 0.002036607606910669 0 0.0010390797017167154 0.0019888413811416702 0 0.001112435971097821 0.0022051265593137043 0 0.00064964165874927763 -0.0026116176325227882 0 0.00059360251416668518 -0.0026189381341564194 0 0.00061377096078567652 -0.0027980133398970751 0 0.00061377096078567652 -0.0027980133398970751 0 0.00058347785512926601 -0.002800678581118014 0 0.00061420529645685705 -0.0029439761956869615 0 0.00025003514529650054 -0.0082709300529709255 0 0.00028576806539568441 -0.0083478578470647102 0 0.00034284552113440547 -0.0082778323504577606 0 0.00025003514529650054 -0.0082709300529709255 0 0.00028576806539568441 -0.0083478578470647102 0 0.0003040309475254174 -0.0083899214780609934 0 0.00043964831512866058 -0.005755119216586415 0 0.00036298922276812668 -0.0061159791627851939 0 0.00092000236938456423 -0.00048342398763161345 0 0.00094746233802297977 0.00028608789922724781 0 0.00058347785512926601 -0.002800678581118014 0 0.00061420529645685705 -0.0029439761956869615 0 0.00060560417848595251 -0.0029444364198981479 0 0.00028576806539568441 -0.0083478578470647102 0 0.0003040309475254174 -0.0083899214780609934 0 0.00025308640689899385 -0.0083621352582585792 0 0.00066718445265462778 -0.0030513511074609693 0 0.00061420529645685705 -0.0029439761956869615 0 0.00060560417848595251 -0.0029444364198981479 0 0.0003040309475254174 -0.0083899214780609934 0 0.00023051413449847165 -0.0083235121901086197 0 0.00031619480809629469 -0.0079938685831201159 0 0.0003040309475254174 -0.0083899214780609934 0 0.00023051413449847165 -0.0083235121901086197 0 0.00025308640689899385 -0.0083621352582585792 0 0.00028576806539568441 -0.0083478578470647102 0 0.00025308640689899385 -0.0083621352582585792 0 0.00031443886551425906 -0.0084035602521809107 0 0.00023051413449847165 -0.0083235121901086197 0 0.0002561122810447971 -0.0084332383851059914 0 0.00023088431715265651 -0.0085740756749443058 0 0.00025308640689899385 -0.0083621352582585792 0 0.00031443886551425906 -0.0084035602521809107 0 0.0002561122810447971 -0.0084332383851059914 0 0.00031443886551425906 -0.0084035602521809107 0 0.00031039839085153937 -0.0084780010518225625 0 0.0002561122810447971 -0.0084332383851059914 0 0.00023051413449847165 -0.0083235121901086197 0 0.00025308640689899385 -0.0083621352582585792 0 0.0002561122810447971 -0.0084332383851059914 0 0.0002561122810447971 -0.0084332383851059914 0 0.00026597789853963883 -0.008506598746943551 0 0.00023088431715265651 -0.0085740756749443058 0 2.4680132690165222e-05 -0.0080785130654257558 0 0.00086980812221829583 -0.0088160449733708599 0 0.00031039839085153937 -0.0084780010518225625 0 0.0002561122810447971 -0.0084332383851059914 0 0.00026597789853963883 -0.008506598746943551 0 0.00031039839085153937 -0.0084780010518225625 0 0.00025933244335177004 -0.008562760103306288 0 0.00034827997765318937 -0.0085487316447595378 0 0.00031039839085153937 -0.0084780010518225625 0 0.00026597789853963883 -0.008506598746943551 0 0.00025933244335177004 -0.008562760103306288 0 0.00026597789853963883 -0.008506598746943551 0 0.00025933244335177004 -0.008562760103306288 0 0.00023088431715265651 -0.0085740756749443058 0 0.00025933244335177004 -0.008562760103306288 0 0.00021626963408224079 -0.0085832663690773078 0 0.00038326746332872122 -0.008637467400431342 0 0.00070098731825106475 -0.0088353796872961132 0 0.00086980812221829583 -0.0088160449733708599 0 0.00023051413449847165 -0.0083235121901086197 0 -1.9135670148359029e-05 -0.0079428179063909723 0 0.00031619480809629469 -0.0079938685831201159 0 0.00064830331029920834 -0.0076336858850048744 0 -1.9135670148359029e-05 -0.0079428179063909723 0 0.00031619480809629469 -0.0079938685831201159 0 0.00060235455818700621 -0.0077909279903064501 0 0.0003040309475254174 -0.0083899214780609934 0 0.00031619480809629469 -0.0079938685831201159 0 0.0013919612060435879 -0.0059266692289788618 0 0.00086980812221829583 -0.0088160449733708599 0 0.0004303147820057915 -0.008646956392410015 0 0.00045926509518219149 -0.0084413718959549505 0 0.00056086548332980827 -0.0085048084260557696 0 0.00036004709472399682 -0.0084317791459815883 0 0.00049650945757281721 -0.0086068444978133016 0 0.0004303147820057915 -0.008646956392410015 0 0.00041208615693778952 -0.0084893079032917172 0 0.00045926509518219149 -0.0084413718959549505 0 0.00065398981849647741 -0.0086981081296869898 0 0.00038326746332872122 -0.008637467400431342 0 0.00041208615693778952 -0.0084893079032917172 0 0.00025933244335177004 -0.008562760103306288 0 0.00038326746332872122 -0.008637467400431342 0 0.00034827997765318937 -0.0085487316447595378 0 0.00031039839085153937 -0.0084780010518225625 0 0.00034827997765318937 -0.0085487316447595378 0 0.00041208615693778952 -0.0084893079032917172 0 0.00038326746332872122 -0.008637467400431342 0 0.00034827997765318937 -0.0085487316447595378 0 0.00041208615693778952 -0.0084893079032917172 0 0.00031443886551425906 -0.0084035602521809107 0 0.00041208615693778952 -0.0084893079032917172 0 0.00039298720257951975 -0.0083635343971876306 0 0.00031443886551425906 -0.0084035602521809107 0 0.00031039839085153937 -0.0084780010518225625 0 0.00041208615693778952 -0.0084893079032917172 0 0.00041208615693778952 -0.0084893079032917172 0 0.00045926509518219149 -0.0084413718959549505 0 0.00039298720257951975 -0.0083635343971876306 0 0.00045926509518219149 -0.0084413718959549505 0 0.00039298720257951975 -0.0083635343971876306 0 0.00050111266437018068 -0.0083388821627110761 0 0.00028576806539568441 -0.0083478578470647102 0 0.00039298720257951975 -0.0083635343971876306 0 0.00034284552113440547 -0.0082778323504577606 0 0.00028576806539568441 -0.0083478578470647102 0 0.00031443886551425906 -0.0084035602521809107 0 0.00039298720257951975 -0.0083635343971876306 0 0.00039298720257951975 -0.0083635343971876306 0 0.00034284552113440547 -0.0082778323504577606 0 0.00041648063483083742 -0.0082927944453497458 0 0.00039298720257951975 -0.0083635343971876306 0 0.00041648063483083742 -0.0082927944453497458 0 0.00050111266437018068 -0.0083388821627110761 0 0.00043966907139646253 -0.0082808929768566717 0 0.00052994610271535098 -0.0083386545881679978 0 0.00044216336687574265 -0.008515932761143449 0 0.00043966907139646253 -0.0082808929768566717 0 0.00041648063483083742 -0.0082927944453497458 0 0.00050111266437018068 -0.0083388821627110761 0 0.00044305743130664763 -0.0082931931631595734 0 0.00047353920851480989 -0.0084282062289834266 0 0.00052994610271535098 -0.0083386545881679978 0 0.00057244786436890882 -0.0084718968330173058 0 0.00044216336687574265 -0.008515932761143449 0 0.00052994610271535098 -0.0083386545881679978 0 0.00061150897361173309 -0.0084028204690142719 0 0.00057244786436890882 -0.0084718968330173058 0 0.00044216336687574265 -0.008515932761143449 0 0.00058736115419976245 -0.0086132233621690393 0 0.00049241487347787016 -0.008685254695553743 0 0.00057244786436890882 -0.0084718968330173058 0 0.00044216336687574265 -0.008515932761143449 0 0.00058736115419976245 -0.0086132233621690393 0 0.00047353920851480989 -0.0084282062289834266 0 0.00052477716624715529 -0.0085951350441366512 0 0.00067316682611583579 -0.008402944780330681 0 0.00066597402009495137 -0.008517136001046071 0 0.00073797757183560503 -0.0084752059788467289 0 0.00066597402009495137 -0.008517136001046071 0 0.00074797122090162419 -0.0085752273450816503 0 0.00073797757183560503 -0.0084752059788467289 0 0.00061150897361173309 -0.0084028204690142719 0 0.00067316682611583579 -0.008402944780330681 0 0.00066597402009495137 -0.008517136001046071 0 0.00061150897361173309 -0.0084028204690142719 0 0.00057244786436890882 -0.0084718968330173058 0 0.00066597402009495137 -0.008517136001046071 0 0.00066597402009495137 -0.008517136001046071 0 0.00058736115419976245 -0.0086132233621690393 0 0.000703026097787582 -0.0086587149862789731 0 0.00057244786436890882 -0.0084718968330173058 0 0.00066597402009495137 -0.008517136001046071 0 0.00058736115419976245 -0.0086132233621690393 0 0.00066597402009495137 -0.008517136001046071 0 0.000703026097787582 -0.0086587149862789731 0 0.00074797122090162419 -0.0085752273450816503 0 0.000703026097787582 -0.0086587149862789731 0 0.00069440541432942325 -0.008739428376459352 0 0.00076231505188285159 -0.0087652841240486775 0 0.000703026097787582 -0.0086587149862789731 0 0.00063894613782662863 -0.008708360360177558 0 0.00069440541432942325 -0.008739428376459352 0 0.00058736115419976245 -0.0086132233621690393 0 0.000703026097787582 -0.0086587149862789731 0 0.00063894613782662863 -0.008708360360177558 0 0.00058736115419976245 -0.0086132233621690393 0 0.00063894613782662863 -0.008708360360177558 0 0.00056707871454324613 -0.0087105494028909877 0 0.00063894613782662863 -0.008708360360177558 0 0.00061509801236059368 -0.0087555143723386016 0 0.00056707871454324613 -0.0087105494028909877 0 0.00061509801236059368 -0.0087555143723386016 0 0.000665826045635323 -0.0087755208957019659 0 0.00064861543161378948 -0.0088034244029189922 0 0.00063894613782662863 -0.008708360360177558 0 0.00061509801236059368 -0.0087555143723386016 0 0.000665826045635323 -0.0087755208957019659 0 0.00063894613782662863 -0.008708360360177558 0 0.000665826045635323 -0.0087755208957019659 0 0.00069440541432942325 -0.008739428376459352 0 0.000665826045635323 -0.0087755208957019659 0 0.0007123451983533875 -0.0088021196249071076 0 0.00068972660382764727 -0.0088227369888241973 0 0.000665826045635323 -0.0087755208957019659 0 0.0007123451983533875 -0.0088021196249071076 0 0.00069440541432942325 -0.008739428376459352 0 0.00045926509518219149 -0.0084413718959549505 0 0.00050111266437018068 -0.0083388821627110761 0 0.00056086548332980827 -0.0085048084260557696 0 0.00058736115419976245 -0.0086132233621690393 0 0.00049241487347787016 -0.008685254695553743 0 0.00056707871454324613 -0.0087105494028909877 0 0.00056707871454324613 -0.0087105494028909877 0 0.00055977470922184247 -0.0087564084866759168 0 0.00058635621562712554 -0.0087592863465011366 0 0.00049241487347787016 -0.008685254695553743 0 0.00056707871454324613 -0.0087105494028909877 0 0.00055977470922184247 -0.0087564084866759168 0 0.00061509801236059368 -0.0087555143723386016 0 0.00056707871454324613 -0.0087105494028909877 0 0.00058635621562712554 -0.0087592863465011366 0 0.0004303147820057915 -0.008646956392410015 0 0.00056086548332980827 -0.0085048084260557696 0 0.00055977470922184247 -0.0087564084866759168 0 0.00052477716624715529 -0.0085951350441366512 0 0.00055630998784132811 -0.0087423037995968973 0 0.0004303147820057915 -0.008646956392410015 0 0.00055977470922184247 -0.0087564084866759168 0 0.00050716054570155457 -0.0087936824741563328 0 0.00055977470922184247 -0.0087564084866759168 0 0.00060217185750603979 -0.0088124365107907672 0 0.00050716054570155457 -0.0087936824741563328 0 0.00073304515090840718 -0.0088059862900438483 0 0.0016999267476331275 -0.010017801338369997 0 0.00058635621562712554 -0.0087592863465011366 0 0.00058982387276285359 -0.0087811887074888181 0 0.00061560464145015131 -0.0087960003577967107 0 0.00055977470922184247 -0.0087564084866759168 0 0.00058635621562712554 -0.0087592863465011366 0 0.00058982387276285359 -0.0087811887074888181 0 0.00058982387276285359 -0.0087811887074888181 0 0.00060217185750603979 -0.0088124365107907672 0 0.00061560464145015131 -0.0087960003577967107 0 0.00055977470922184247 -0.0087564084866759168 0 0.00058982387276285359 -0.0087811887074888181 0 0.00060217185750603979 -0.0088124365107907672 0 0.0016468635007849185 -0.012300619892245557 0 0.0013124398057270603 -0.011957137951982034 0 0.0021101597549357562 -0.011807127093773039 0 0.0010989058263357091 -0.0090648342620189629 0 0.0010899345102071785 -0.0090032200582234739 0 0.0017016791329527157 -0.0090418004293332504 0 0.0016468635007849185 -0.012300619892245557 0 0.0024456029904971069 -0.012275106473710769 0 0.0021101597549357562 -0.011807127093773039 0 0.0012668325229751121 -0.010520794209833781 0 0.0025693058085916758 -0.011828862447107551 0 0.0010989058263357091 -0.0090648342620189629 0 0.0017526521753207856 -0.0091178980904918598 0 0.0017016791329527157 -0.0090418004293332504 0 0.0037293044486328975 -0.013330174664562234 0 0.0037076697401983898 -0.013352397437331196 0 0.0036729690380043175 -0.013305009181372503 0 0.0025693058085916758 -0.011828862447107551 0 0.0028225552082797958 -0.01326584874280517 0 0.0037452268797411904 -0.01333688660968022 0 0.0037388482383767215 -0.013328321556111907 0 0.0037696650784055292 -0.013342025392900501 0 0.0016999267476331275 -0.010017801338369997 0 0.0025693058085916758 -0.011828862447107551 0 0.0010989058263357091 -0.0090648342620189629 0 0.00070244101842355786 -0.0088889453111980644 0 0.00071103593687624948 -0.0088725701903712706 0 0.00070244101842355786 -0.0088889453111980644 0 0.00071103593687624948 -0.0088725701903712706 0 0.00073542476528871558 -0.0088789878635044308 0 0.00070244101842355786 -0.0088889453111980644 0 0.00072017093913312273 -0.0088484420995651632 0 0.00068972660382764727 -0.0088227369888241973 0 0.00070244101842355786 -0.0088889453111980644 0 0.00072017093913312273 -0.0088484420995651632 0 0.00073542476528871558 -0.0088789878635044308 0 0.0007123451983533875 -0.0088021196249071076 0 0.00072017093913312273 -0.0088484420995651632 0 0.00068972660382764727 -0.0088227369888241973 0 0.00070244101842355786 -0.0088889453111980644 0 0.00068972660382764727 -0.0088227369888241973 0 0.00064861543161378948 -0.0088034244029189922 0 0.000665826045635323 -0.0087755208957019659 0 0.00068972660382764727 -0.0088227369888241973 0 0.00064861543161378948 -0.0088034244029189922 0 0.00070244101842355786 -0.0088889453111980644 0 0.00064861543161378948 -0.0088034244029189922 0 0.00061560464145015131 -0.0087960003577967107 0 0.00060217185750603979 -0.0088124365107907672 0 0.00070244101842355786 -0.0088889453111980644 0 0.00061560464145015131 -0.0087960003577967107 0 0.00073304515090840718 -0.0088059862900438483 0 0.00077714346969677908 -0.0089285321030933458 0 0.00061509801236059368 -0.0087555143723386016 0 0.00064861543161378948 -0.0088034244029189922 0 0.00061560464145015131 -0.0087960003577967107 0 0.00061509801236059368 -0.0087555143723386016 0 0.00058635621562712554 -0.0087592863465011366 0 0.00061560464145015131 -0.0087960003577967107 0 0.0012668325229751121 -0.010520794209833781 0 0.00077053078561853004 -0.010642984136661322 0 0.0016468635007849185 -0.012300619892245557 0 0.0013124398057270603 -0.011957137951982034 0 0.00084297275904433606 -0.012326328820086736 0 0.0010989058263357091 -0.0090648342620189629 0 0.0010899345102071785 -0.0090032200582234739 0 0.00071103593687624948 -0.0088725701903712706 0 0.0013124398057270603 -0.011957137951982034 0 0.00084297275904433606 -0.012326328820086736 0 0.00051141800455913619 -0.012110132969615347 0 0.0013981903818662718 -0.013221671048498428 0 0.000348726799422441 -0.013578003908499772 0 0.001133833986022496 -0.013539382510025275 0 2.9478387849391477e-05 -0.013122326926528545 0 0.00012672186437650342 -0.015038361413558257 0 0.001588518354578673 -0.014534317783748002 0 0.001133833986022496 -0.013539382510025275 0 0.00012672186437650342 -0.015038361413558257 0 0.001588518354578673 -0.014534317783748002 0 0.001133833986022496 -0.013539382510025275 0 0.0025184981838420849 -0.013260470031238517 0 0.001133833986022496 -0.013539382510025275 0 0.0017989840330798557 -0.012616344942034291 0 0.0010879949473964596 -0.01257445770931654 0 0.001133833986022496 -0.013539382510025275 0 0.0017989840330798557 -0.012616344942034291 0 0.0025184981838420849 -0.013260470031238517 0 0.001133833986022496 -0.013539382510025275 0 2.9478387849391477e-05 -0.013122326926528545 0 0.0010879949473964596 -0.01257445770931654 0 0.0036729690380043175 -0.013305009181372503 0 0.003733204626843848 -0.013300042635923061 0 0.0037273438625115458 -0.01331414262065142 0 0.0028225552082797958 -0.01326584874280517 0 0.0038646917323291942 -0.013326289689342078 0 0.0032139730755632282 -0.013052178459035254 0 0.0028908549526394291 -0.013571162946661006 0 0.003733204626843848 -0.013300042635923061 0 0.0037293044486328975 -0.013330174664562234 0 0.0036729690380043175 -0.013305009181372503 0 0.0037273438625115458 -0.01331414262065142 0 0.0032139730755632282 -0.013052178459035254 0 0.0028908549526394291 -0.013571162946661006 0 0.0025184981838420849 -0.013260470031238517 0 0.001588518354578673 -0.014534317783748002 0 0.0031265354046430749 -0.014109977740982676 0 0.0025184981838420849 -0.013260470031238517 0 0.0013981903818662718 -0.013221671048498428 0 0.0028225552082797958 -0.01326584874280517 0 0.0028225552082797958 -0.01326584874280517 0 0.0026999027776194646 -0.013452632092958057 0 0.0017989840330798557 -0.012616344942034291 0 0.0029409966140639724 -0.012701503255230576 0 0.0031228431094211351 -0.012064792256742184 0 0.0017989840330798557 -0.012616344942034291 0 0.0025184981838420849 -0.013260470031238517 0 0.0029409966140639724 -0.012701503255230576 0 0.0032139730755632282 -0.013052178459035254 0 0.0025184981838420849 -0.013260470031238517 0 0.0029409966140639724 -0.012701503255230576 0 0.0029409966140639724 -0.012701503255230576 0 0.0035045936287484624 -0.012334574450519505 0 0.0031228431094211351 -0.012064792256742184 0 0.0032139730755632282 -0.013052178459035254 0 0.0035045936287484624 -0.012334574450519505 0 0.003733204626843848 -0.013300042635923061 0 0.0032139730755632282 -0.013052178459035254 0 0.0029409966140639724 -0.012701503255230576 0 0.0035045936287484624 -0.012334574450519505 0 0.0035045936287484624 -0.012334574450519505 0 0.0036095306951239694 -0.012114846192494162 0 0.0035627454026941167 -0.012093820320611053 0 0.0035045936287484624 -0.012334574450519505 0 0.0036032560546807512 -0.012026865366597285 0 0.0037237128731839185 -0.011732159967038381 0 0.0035045936287484624 -0.012334574450519505 0 0.0036095306951239694 -0.012114846192494162 0 0.0036032560546807512 -0.012026865366597285 0 0.0034445874044394123 -0.012192866599468178 0 0.0039659600027189693 -0.012748869944063518 0 0.0036095306951239694 -0.012114846192494162 0 0.0036032560546807512 -0.012026865366597285 0 0.0036236501838485353 -0.012054345955236597 0 0.0036032560546807512 -0.012026865366597285 0 0.0035529734932031602 -0.011971022083862803 0 0.0036236501838485353 -0.012054345955236597 0 0.0036032560546807512 -0.012026865366597285 0 0.0035598578498181846 -0.011878149736517667 0 0.0035529734932031602 -0.011971022083862803 0 0.0035045936287484624 -0.012334574450519505 0 0.0038756012156729966 -0.013300243673230211 0 0.003733204626843848 -0.013300042635923061 0 0.0036032560546807512 -0.012026865366597285 0 0.0037237128731839185 -0.011732159967038381 0 0.0035598578498181846 -0.011878149736517667 0 0.0038756012156729966 -0.013300243673230211 0 0.003733204626843848 -0.013300042635923061 0 0.0037948968730304468 -0.013333754186470868 0 0.003733204626843848 -0.013300042635923061 0 0.0037273438625115458 -0.01331414262065142 0 0.0037948968730304468 -0.013333754186470868 0 0.0033303737375384888 -0.01142385763546621 0 0.0032385999589616505 -0.011684779950553273 0 0.0034581795709279529 -0.011733192342602804 0 0.0033303737375384888 -0.01142385763546621 0 0.0032385999589616505 -0.011684779950553273 0 0.0029627681143549341 -0.011334163420105927 0 0.0037237128731839185 -0.011732159967038381 0 0.0033303737375384888 -0.01142385763546621 0 0.0034581795709279529 -0.011733192342602804 0 0.0037237128731839185 -0.011732159967038381 0 0.0034581795709279529 -0.011733192342602804 0 0.0035598578498181846 -0.011878149736517667 0 0.0032385999589616505 -0.011684779950553273 0 0.0034581795709279529 -0.011733192342602804 0 0.0034100184948261552 -0.011888066437037987 0 0.0034581795709279529 -0.011733192342602804 0 0.0035598578498181846 -0.011878149736517667 0 0.0034100184948261552 -0.011888066437037987 0 0.0032385999589616505 -0.011684779950553273 0 0.0034100184948261552 -0.011888066437037987 0 0.0029891223668820554 -0.011884374982463626 0 0.0036236501838485353 -0.012054345955236597 0 0.0034537470742002927 -0.011975593567510458 0 0.0034650812164413679 -0.011694146985429355 0 0.0036236501838485353 -0.012054345955236597 0 0.0034537470742002927 -0.011975593567510458 0 0.0037127638512024492 -0.011970960969082295 0 0.0036170718102273964 -0.011758100206467054 0 0.0037390968167188986 -0.011978377979281311 0 0.0034100184948261552 -0.011888066437037987 0 0.0036236501838485353 -0.012054345955236597 0 0.0029891223668820554 -0.011884374982463626 0 0.0035853519410254516 -0.012043053244624638 0 0.0031832719485444813 -0.01172067019458402 0 0.0034100184948261552 -0.011888066437037987 0 0.0035529734932031602 -0.011971022083862803 0 0.0036236501838485353 -0.012054345955236597 0 0.0035598578498181846 -0.011878149736517667 0 0.0034100184948261552 -0.011888066437037987 0 0.0035529734932031602 -0.011971022083862803 0 0.0039790366593302684 -0.011759198024604142 0 0.0039873731604127384 -0.011778779700658451 0 0.0038998411707469459 -0.011806668389680662 0 0.0036170718102273964 -0.011758100206467054 0 0.0036637143028124372 -0.012248342944683063 0 0.0039873731604127384 -0.011778779700658451 0 0.0040664893134652134 -0.011718674168597822 0 0.0041141699835428851 -0.011704207990073887 0 0.0039790366593302684 -0.011759198024604142 0 0.0040193946549492944 -0.011735503833388084 0 0.0039873731604127384 -0.011778779700658451 0 0.0040193946549492944 -0.011735503833388084 0 0.0039873731604127384 -0.011778779700658451 0 0.0040664893134652134 -0.011718674168597822 0 0.0041044537585288822 -0.011682355973492884 0 0.0040680527161233602 -0.011686097953530285 0 0.0041261819613846147 -0.011635452637927295 0 0.0041506875174483846 -0.011663184017682722 0 0.0041044537585288822 -0.011682355973492884 0 0.0041261819613846147 -0.011635452637927295 0 0.0041044537585288822 -0.011682355973492884 0 0.0040680527161233602 -0.011686097953530285 0 0.0040664893134652134 -0.011718674168597822 0 0.0040193946549492944 -0.011735503833388084 0 0.0040680527161233602 -0.011686097953530285 0 0.0040664893134652134 -0.011718674168597822 0 0.0040664893134652134 -0.011718674168597822 0 0.0041172879302646031 -0.011691993306122951 0 0.0041141699835428851 -0.011704207990073887 0 0.0041044537585288822 -0.011682355973492884 0 0.0040664893134652134 -0.011718674168597822 0 0.0041172879302646031 -0.011691993306122951 0 0.0041506875174483846 -0.011663184017682722 0 0.0041044537585288822 -0.011682355973492884 0 0.0041172879302646031 -0.011691993306122951 0 0.002764602745476723 -0.01149006385564331 0 0.0034650812164413679 -0.011694146985429355 0 0.0028708503003066861 -0.011005341886733322 0 0.004146164973149874 -0.01167642403018092 0 0.0041172879302646031 -0.011691993306122951 0 0.0041141699835428851 -0.011704207990073887 0 0.0022850239760566914 -0.010775324436123909 0 0.002764602745476723 -0.01149006385564331 0 0.0028708503003066861 -0.011005341886733322 0 0.0031832719485444813 -0.01172067019458402 0 0.0025935665415373686 -0.011408403241037517 0 0.0034537470742002927 -0.011975593567510458 0 0.002764602745476723 -0.01149006385564331 0 0.0034650812164413679 -0.011694146985429355 0 0.0029891223668820554 -0.011884374982463626 0 0.0029627681143549341 -0.011334163420105927 0 0.0021854045553564103 -0.011292675702080361 0 0.0032385999589616505 -0.011684779950553273 0 0.0029891223668820554 -0.011884374982463626 0 0.0029627681143549341 -0.011334163420105927 0 0.0025977805531803601 -0.010790521847921945 0 0.0029627681143549341 -0.011334163420105927 0 0.0033338292655495385 -0.010843400766006844 0 0.0025977805531803601 -0.010790521847921945 0 0.0029627681143549341 -0.011334163420105927 0 0.0021854045553564103 -0.011292675702080361 0 0.0027211530589045223 -0.010718275774470189 0 0.0025313822103094062 -0.010991556958998399 0 0.0013070457915682926 -0.010510792715650707 0 0.0021854045553564103 -0.011292675702080361 0 0.0017158716741292586 -0.010718992955211379 0 0.0020266245771110311 -0.010177254391575975 0 0.0022850239760566914 -0.010775324436123909 0 0.0028708503003066861 -0.011005341886733322 0 0.0025977805531803601 -0.010790521847921945 0 0.0021854045553564103 -0.011292675702080361 0 0.0017158716741292586 -0.010718992955211379 0 0.0020858034399233545 -0.0081351021793393645 0 0.0025935665415373686 -0.011408403241037517 0 0.0027211530589045223 -0.010718275774470189 0 0.0017481117108352645 -0.010730791863249109 0 0.0013739638998941299 -0.010026335026961777 0 0.0025827085888677432 -0.010664011188739319 0 0.0017158716741292586 -0.010718992955211379 0 0.0013739638998941299 -0.010026335026961777 0 0.0027015098107104241 -0.0094477302203730372 0 0.0025827085888677432 -0.010664011188739319 0 0.0027015098107104241 -0.0094477302203730372 0 0.0025827085888677432 -0.010664011188739319 0 0.0034429305385836819 -0.010629188547852388 0 0.00086980812221829583 -0.0088160449733708599 0 0.0025313822103094062 -0.010991556958998399 0 0.00021626963408224079 -0.0085832663690773078 0 0.00038326746332872122 -0.008637467400431342 0 0.0004104911276149366 -0.0089694849169672068 0 0.00065398981849647741 -0.0086981081296869898 0 0.00038326746332872122 -0.008637467400431342 0 0.0004104911276149366 -0.0089694849169672068 0 0.00036004709472399682 -0.0084317791459815883 0 0.0016999267476331275 -0.010017801338369997 0 0.00065398981849647741 -0.0086981081296869898 0 0.00085494611629811923 -0.008968951599026994 0 0.0004104911276149366 -0.0089694849169672068 0 0.0037452268797411904 -0.01333688660968022 0 0.0037696650784055292 -0.013342025392900501 0 0.0037905651858188543 -0.013342448479443866 0 0.0038756012156729966 -0.013300243673230211 0 0.0037948968730304468 -0.013333754186470868 0 0.0037905651858188543 -0.013342448479443866 0 0.0037696650784055292 -0.013342025392900501 0 0.0037948968730304468 -0.013333754186470868 0 0.0037905651858188543 -0.013342448479443866 0 0.0016999267476331275 -0.010017801338369997 0 0.0025313822103094062 -0.010991556958998399 0 0.0025693058085916758 -0.011828862447107551 0 0.0040454872904509042 -0.013116571995755312 0 0.0037293044486328975 -0.013330174664562234 0 0.0037076697401983898 -0.013352397437331196 0 0.0037696650784055292 -0.013342025392900501 0 0.0037293044486328975 -0.013330174664562234 0 0.0037696650784055292 -0.013342025392900501 0 0.0037948968730304468 -0.013333754186470868 0 0.0037293044486328975 -0.013330174664562234 0 0.0037273438625115458 -0.01331414262065142 0 0.0037948968730304468 -0.013333754186470868 0 0.0039659600027189693 -0.012748869944063518 0 0.0025313822103094062 -0.010991556958998399 0 0.0037237128731839185 -0.011732159967038381 0 0.0033303737375384888 -0.01142385763546621 0 0.0033338292655495385 -0.010843400766006844 0 0.0033303737375384888 -0.01142385763546621 0 0.0029627681143549341 -0.011334163420105927 0 0.0033338292655495385 -0.010843400766006844 0 -0.0010095719044699919 -0.012936388106196711 0 -0.0033903942070742927 -0.016436079167810182 0 -0.0029290477129065157 -0.015618773522269491 0 -0.0029359055294319162 -0.015715929571378136 0 -0.0029085655384800328 -0.015660370411655283 0 -0.0029079448374154447 -0.015541498794997208 0 -0.0029290477129065157 -0.015618773522269491 0 -0.0028118675578810708 -0.015692975140064021 0 -0.0029079448374154447 -0.015541498794997208 0 -0.0029290477129065157 -0.015618773522269491 0 -0.0029085655384800328 -0.015660370411655283 0 0.0010308708978676831 -0.0089684981776757024 0 0.00093166241529674771 -0.0089562714654799046 0 0.00097862618041260501 -0.008817987641054988 0 -0.0010095719044699919 -0.012936388106196711 0 -0.00087861734977897525 -0.012244883597115484 0 -0.0031998879185099385 -0.015348490438537185 0 -0.0028868233954426718 -0.015291058175961362 0 -0.0029359055294319162 -0.015715929571378136 0 -0.0010095719044699919 -0.012936388106196711 0 -0.0010387037505301974 -0.01403853319892923 0 0.00052606730409938724 -0.012695248797681099 0 0.0010269582017730431 -0.01258895338831865 0 0.00071718950184084408 -0.012260404414100095 0 -0.0025570505957699359 -0.015179250756596057 0 -0.0027109597455326983 -0.015527946342302795 0 -0.0024279439708245238 -0.015418898486604255 0 -0.0028868233954426718 -0.015291058175961362 0 -0.0025570505957699359 -0.015179250756596057 0 -0.0027109597455326983 -0.015527946342302795 0 -0.0010387037505301974 -0.01403853319892923 0 -0.00043016245656796528 -0.013742703030363948 0 -0.0027109597455326983 -0.015527946342302795 0 -0.0027523450708178635 -0.015881038833203014 0 -0.0024709812715643384 -0.015717994848876992 0 -0.0027109597455326983 -0.015527946342302795 0 -0.0029359055294319162 -0.015715929571378136 0 -0.0027523450708178635 -0.015881038833203014 0 -0.0028868233954426718 -0.015291058175961362 0 -0.0027109597455326983 -0.015527946342302795 0 -0.0029359055294319162 -0.015715929571378136 0 -0.0029359055294319162 -0.015715929571378136 0 -0.0028874076263464836 -0.015968611869363776 0 -0.0027523450708178635 -0.015881038833203014 0 -0.0029359055294319162 -0.015715929571378136 0 -0.0028874076263464836 -0.015968611869363776 0 -0.0029065374987583756 -0.015858155694367108 0 -0.0028874076263464836 -0.015968611869363776 0 -0.0027523450708178635 -0.015881038833203014 0 -0.0028592086443438303 -0.016202423749475385 0 -0.0027523450708178635 -0.015881038833203014 0 -0.0028592086443438303 -0.016202423749475385 0 -0.0026018712962099502 -0.016117966269009115 0 -0.0028592086443438303 -0.016202423749475385 0 -0.0026018712962099502 -0.016117966269009115 0 -0.0028304607068105241 -0.0165678810080809 0 -0.0028592086443438303 -0.016202423749475385 0 -0.0028863343853848733 -0.016083670635894252 0 -0.002875410444499724 -0.016347844481408032 0 -0.0028304607068105241 -0.0165678810080809 0 -0.0028668134626457049 -0.016564277559397777 0 -0.002875410444499724 -0.016347844481408032 0 -0.0028592086443438303 -0.016202423749475385 0 -0.0028304607068105241 -0.0165678810080809 0 -0.002875410444499724 -0.016347844481408032 0 -0.0028874076263464836 -0.015968611869363776 0 -0.0028863343853848733 -0.016083670635894252 0 -0.0029065374987583756 -0.015858155694367108 0 -0.0028874076263464836 -0.015968611869363776 0 -0.0028592086443438303 -0.016202423749475385 0 -0.0028863343853848733 -0.016083670635894252 0 -0.0028863343853848733 -0.016083670635894252 0 -0.0029065374987583756 -0.015858155694367108 0 -0.0028607805390564764 -0.015853854476828785 0 -0.0029065374987583756 -0.015858155694367108 0 -0.0028750992716331963 -0.015753857836270944 0 -0.0028607805390564764 -0.015853854476828785 0 -0.0029065374987583756 -0.015858155694367108 0 -0.0029085655384800328 -0.015660370411655283 0 -0.0028750992716331963 -0.015753857836270944 0 -0.0029359055294319162 -0.015715929571378136 0 -0.0029065374987583756 -0.015858155694367108 0 -0.0029085655384800328 -0.015660370411655283 0 -0.0029085655384800328 -0.015660370411655283 0 -0.0028750992716331963 -0.015753857836270944 0 -0.0028697268219434299 -0.015623395780304498 0 -0.0029079448374154447 -0.015541498794997208 0 -0.0029085655384800328 -0.015660370411655283 0 -0.0028697268219434299 -0.015623395780304498 0 -0.0028750992716331963 -0.015753857836270944 0 -0.0028697268219434299 -0.015623395780304498 0 -0.0028726395140633177 -0.015762496469646139 0 -0.002952002484672321 -0.015682827300839107 0 -0.0028697268219434299 -0.015623395780304498 0 -0.0028726395140633177 -0.015762496469646139 0 -0.0025749975549500094 -0.014622365384347101 0 -0.0028607227990835055 -0.01525618325687322 0 -0.0022156149801934766 -0.013460782175896101 0 -0.0018820924420987692 -0.014657640812104701 0 -0.0028791844703681493 -0.01534021965476878 0 -0.0022156149801934766 -0.013460782175896101 0 -0.0018820924420987692 -0.014657640812104701 0 -0.0010120129637089363 -0.014172538265569553 0 -0.002952002484672321 -0.015682827300839107 0 -0.0028697268219434299 -0.015623395780304498 0 -0.0028791844703681493 -0.01534021965476878 0 -0.0029079448374154447 -0.015541498794997208 0 -0.0028697268219434299 -0.015623395780304498 0 -0.0028791844703681493 -0.01534021965476878 0 -0.0022156149801934766 -0.013460782175896101 0 -0.001070678756532043 -0.013005553152775667 0 -0.0010120129637089363 -0.014172538265569553 0 -0.0022156149801934766 -0.013460782175896101 0 -0.001070678756532043 -0.013005553152775667 0 -0.0014419999149408993 -0.011968503102223445 0 2.9478387849391477e-05 -0.013122326926528545 0 -0.001070678756532043 -0.013005553152775667 0 -0.0010120129637089363 -0.014172538265569553 0 -0.0018820924420987692 -0.014657640812104701 0 -0.0010120129637089363 -0.014172538265569553 0 -0.0014696157486635913 -0.015540873874264833 0 2.9478387849391477e-05 -0.013122326926528545 0 -0.0010120129637089363 -0.014172538265569553 0 0.00012672186437650342 -0.015038361413558257 0 0.00077053078561853004 -0.010642984136661322 0 0.00055845364130202395 -0.010442346999778043 0 0.00084297275904433606 -0.012326328820086736 0 0.00051141800455913619 -0.012110132969615347 0 3.9612572425253146e-05 -0.012351052482085744 0 3.9612572425253146e-05 -0.012351052482085744 0 -0.00028708840930284321 -0.01226157219717011 0 -0.00076773857877080224 -0.012352761827737285 0 0.00051141800455913619 -0.012110132969615347 0 3.9612572425253146e-05 -0.012351052482085744 0 -0.00028708840930284321 -0.01226157219717011 0 0.000348726799422441 -0.013578003908499772 0 -0.0010534495345014918 -0.013869470096644784 0 -0.0010120129637089363 -0.014172538265569553 0 0.00012672186437650342 -0.015038361413558257 0 -0.0014696157486635913 -0.015540873874264833 0 0.00055845364130202395 -0.010442346999778043 0 -0.00061305728729752222 -0.012293763215966598 0 0.00078963246719591462 -0.0089186525182862846 0 0.00075421616113509815 -0.0088471261122387776 0 0.0008062576453312535 -0.0088340320859374398 0 0.00078963246719591462 -0.0089186525182862846 0 0.00084775731578933119 -0.0088856953769559013 0 0.0008062576453312535 -0.0088340320859374398 0 0.00084775731578933119 -0.0088856953769559013 0 0.00085749496211949636 -0.0088303052319037879 0 0.0008062576453312535 -0.0088340320859374398 0 0.00071103593687624948 -0.0088725701903712706 0 0.00078963246719591462 -0.0089186525182862846 0 0.00073542476528871558 -0.0088789878635044308 0 0.00078963246719591462 -0.0089186525182862846 0 0.00075421616113509815 -0.0088471261122387776 0 0.00073542476528871558 -0.0088789878635044308 0 0.0007123451983533875 -0.0088021196249071076 0 0.00072017093913312273 -0.0088484420995651632 0 0.00075421616113509815 -0.0088471261122387776 0 0.00072017093913312273 -0.0088484420995651632 0 0.00075421616113509815 -0.0088471261122387776 0 0.00073542476528871558 -0.0088789878635044308 0 -0.0028791844703681493 -0.01534021965476878 0 -0.0023866897847800053 -0.015764579711284008 0 -0.0028118675578810708 -0.015692975140064021 0 -0.0029079448374154447 -0.015541498794997208 0 -0.0028791844703681493 -0.01534021965476878 0 -0.0028118675578810708 -0.015692975140064021 0 -0.0018820924420987692 -0.014657640812104701 0 -0.0014696157486635913 -0.015540873874264833 0 -0.0028791844703681493 -0.01534021965476878 0 -0.0014696157486635913 -0.015540873874264833 0 -0.0028791844703681493 -0.01534021965476878 0 -0.0023866897847800053 -0.015764579711284008 0 -0.0010534495345014918 -0.013869470096644784 0 -0.00061305728729752222 -0.012293763215966598 0 0.00089248726826531108 -0.0089528353009931654 0 0.00084775731578933119 -0.0088856953769559013 0 0.00090084537529230933 -0.0088721132506649706 0 0.00078963246719591462 -0.0089186525182862846 0 0.00089248726826531108 -0.0089528353009931654 0 0.00084775731578933119 -0.0088856953769559013 0 0.00084775731578933119 -0.0088856953769559013 0 0.00090084537529230933 -0.0088721132506649706 0 0.00085749496211949636 -0.0088303052319037879 0 0.00090084537529230933 -0.0088721132506649706 0 0.00093166241529674771 -0.0089562714654799046 0 0.00097862618041260501 -0.008817987641054988 0 0.00089248726826531108 -0.0089528353009931654 0 0.00090084537529230933 -0.0088721132506649706 0 0.00093166241529674771 -0.0089562714654799046 0 -0.00061305728729752222 -0.012293763215966598 0 -0.00087861734977897525 -0.012244883597115484 0 0.00090084537529230933 -0.0088721132506649706 0 0.00097862618041260501 -0.008817987641054988 0 0.00089843633154906605 -0.0087812104082748612 0 0.00090084537529230933 -0.0088721132506649706 0 0.00089843633154906605 -0.0087812104082748612 0 0.00085749496211949636 -0.0088303052319037879 0 0.00089843633154906605 -0.0087812104082748612 0 0.00085749496211949636 -0.0088303052319037879 0 0.00083107648651126198 -0.0087497833753813255 0 0.00089843633154906605 -0.0087812104082748612 0 0.00083107648651126198 -0.0087497833753813255 0 0.00091734834152231229 -0.0086610531053408248 0 0.00097862618041260501 -0.008817987641054988 0 0.00089843633154906605 -0.0087812104082748612 0 0.00091734834152231229 -0.0086610531053408248 0 0.00075398406871385294 -0.010157762894413639 0 0.00021134291260233774 -0.010179732051877491 0 8.0592310737336012e-05 -0.012163680977847367 0 -0.00042304553857930787 -0.011594882992303098 0 0.00038330186194534692 -0.011688140612585819 0 0.00075421616113509815 -0.0088471261122387776 0 0.00076231505188285159 -0.0087652841240486775 0 0.0008062576453312535 -0.0088340320859374398 0 0.0007123451983533875 -0.0088021196249071076 0 0.00069440541432942325 -0.008739428376459352 0 0.00076231505188285159 -0.0087652841240486775 0 0.0007123451983533875 -0.0088021196249071076 0 0.00075421616113509815 -0.0088471261122387776 0 0.00076231505188285159 -0.0087652841240486775 0 0.00076231505188285159 -0.0087652841240486775 0 0.0008062576453312535 -0.0088340320859374398 0 0.00083107648651126198 -0.0087497833753813255 0 0.00085749496211949636 -0.0088303052319037879 0 0.0008062576453312535 -0.0088340320859374398 0 0.00083107648651126198 -0.0087497833753813255 0 0.00076231505188285159 -0.0087652841240486775 0 0.00083107648651126198 -0.0087497833753813255 0 0.00080899722777164865 -0.008654839679365367 0 0.00083107648651126198 -0.0087497833753813255 0 0.00080899722777164865 -0.008654839679365367 0 0.00091734834152231229 -0.0086610531053408248 0 0.000703026097787582 -0.0086587149862789731 0 0.00076231505188285159 -0.0087652841240486775 0 0.00080899722777164865 -0.008654839679365367 0 0.000703026097787582 -0.0086587149862789731 0 0.00074797122090162419 -0.0085752273450816503 0 0.00080899722777164865 -0.008654839679365367 0 0.00074797122090162419 -0.0085752273450816503 0 0.00080899722777164865 -0.008654839679365367 0 0.00083992179455978145 -0.0084986989649108412 0 0.00080899722777164865 -0.008654839679365367 0 0.00083992179455978145 -0.0084986989649108412 0 0.00091734834152231229 -0.0086610531053408248 0 0.00074797122090162419 -0.0085752273450816503 0 0.00083992179455978145 -0.0084986989649108412 0 0.00073797757183560503 -0.0084752059788467289 0 -0.00042304553857930787 -0.011594882992303098 0 -6.2670555286834819e-05 -0.011092764331566437 0 0.00038330186194534692 -0.011688140612585819 0 -0.00042304553857930787 -0.011594882992303098 0 -0.00052402882620431672 -0.010986624310578258 0 -6.2670555286834819e-05 -0.011092764331566437 0 -0.00093972445587764018 -0.010978073542974802 0 -0.00042304553857930787 -0.011594882992303098 0 -0.00052402882620431672 -0.010986624310578258 0 1.3693217217892944e-06 -0.0097154884409299588 0 0.00021134291260233774 -0.010179732051877491 0 -0.00052402882620431672 -0.010986624310578258 0 -6.2670555286834819e-05 -0.011092764331566437 0 -0.00041229123644292282 -0.01058231947080801 0 -6.2670555286834819e-05 -0.011092764331566437 0 0.00046979436765457334 -0.01107733644034003 0 0.00038330186194534692 -0.011688140612585819 0 -6.2670555286834819e-05 -0.011092764331566437 0 0.00046979436765457334 -0.01107733644034003 0 0.00019988557513001261 -0.010596464498438023 0 0.00046979436765457334 -0.01107733644034003 0 0.00091029157531391069 -0.011378053085496494 0 0.00084968619795313457 -0.010894680215416699 0 0.00091029157531391069 -0.011378053085496494 0 0.00038330186194534692 -0.011688140612585819 0 0.00090691464998671331 -0.011859623140317929 0 0.00046979436765457334 -0.01107733644034003 0 0.00091029157531391069 -0.011378053085496494 0 0.00038330186194534692 -0.011688140612585819 0 8.0592310737336012e-05 -0.012163680977847367 0 0.00038330186194534692 -0.011688140612585819 0 0.00071718950184084408 -0.012260404414100095 0 0.00038330186194534692 -0.011688140612585819 0 0.00090691464998671331 -0.011859623140317929 0 0.00071718950184084408 -0.012260404414100095 0 0.00052606730409938724 -0.012695248797681099 0 8.0592310737336012e-05 -0.012163680977847367 0 0.00071718950184084408 -0.012260404414100095 0 -0.0010095719044699919 -0.012936388106196711 0 0.00075398406871385294 -0.010157762894413639 0 0.0015001105744489797 -0.012481105684893374 0 0.0012445713931763503 -0.012099051217895927 0 0.0016365065665074655 -0.012094142112130293 0 0.0010269582017730431 -0.01258895338831865 0 0.0015001105744489797 -0.012481105684893374 0 0.0012445713931763503 -0.012099051217895927 0 0.0010269582017730431 -0.01258895338831865 0 0.00071718950184084408 -0.012260404414100095 0 0.0012445713931763503 -0.012099051217895927 0 0.00090691464998671331 -0.011859623140317929 0 0.0012445713931763503 -0.012099051217895927 0 0.0012231543981552756 -0.011679903305891477 0 0.00090691464998671331 -0.011859623140317929 0 0.00071718950184084408 -0.012260404414100095 0 0.0012445713931763503 -0.012099051217895927 0 0.0012445713931763503 -0.012099051217895927 0 0.0015354729031652333 -0.011724405888998748 0 0.0016365065665074655 -0.012094142112130293 0 0.0012445713931763503 -0.012099051217895927 0 0.0015354729031652333 -0.011724405888998748 0 0.0012231543981552756 -0.011679903305891477 0 0.0015354729031652333 -0.011724405888998748 0 0.0013569591729289277 -0.01131407915774006 0 0.0016394465846106432 -0.01157290406647501 0 0.0015354729031652333 -0.011724405888998748 0 0.0012231543981552756 -0.011679903305891477 0 0.0013569591729289277 -0.01131407915774006 0 0.00091029157531391069 -0.011378053085496494 0 0.00090691464998671331 -0.011859623140317929 0 0.0012231543981552756 -0.011679903305891477 0 0.00091029157531391069 -0.011378053085496494 0 0.0012231543981552756 -0.011679903305891477 0 0.0013569591729289277 -0.01131407915774006 0 0.00091029157531391069 -0.011378053085496494 0 0.0011497788514640446 -0.01104262589806757 0 0.0013569591729289277 -0.01131407915774006 0 0.00091029157531391069 -0.011378053085496494 0 0.0011497788514640446 -0.01104262589806757 0 0.00084968619795313457 -0.010894680215416699 0 0.0011497788514640446 -0.01104262589806757 0 0.0013569591729289277 -0.01131407915774006 0 0.0014603442793542191 -0.010889057283117185 0 0.0013569591729289277 -0.01131407915774006 0 0.0016664204355110407 -0.011106870930230007 0 0.0018506631963543555 -0.011192441391212522 0 0.0013612886453465006 -0.011327285139616323 0 0.0017228519387978312 -0.011375547706871852 0 0.0013569591729289277 -0.01131407915774006 0 0.0016664204355110407 -0.011106870930230007 0 0.0014603442793542191 -0.010889057283117185 0 0.0014603442793542191 -0.010889057283117185 0 0.0015293701149359576 -0.010544262333762676 0 0.0017935743258062184 -0.010694465165771995 0 0.0015293701149359576 -0.010544262333762676 0 0.0017935743258062184 -0.010694465165771995 0 0.0018350577123138658 -0.010465934874207189 0 0.0015293701149359576 -0.010544262333762676 0 0.0014578511097184798 -0.010126730569567465 0 0.0018350577123138658 -0.010465934874207189 0 0.0011772981914364865 -0.010313199432662814 0 0.0010316954603790006 -0.009917547845746005 0 0.0014578511097184798 -0.010126730569567465 0 0.0015293701149359576 -0.010544262333762676 0 0.0011772981914364865 -0.010313199432662814 0 0.0014578511097184798 -0.010126730569567465 0 0.0015293701149359576 -0.010544262333762676 0 0.0011772981914364865 -0.010313199432662814 0 0.0011785634546868028 -0.010683175501142549 0 0.0011772981914364865 -0.010313199432662814 0 0.0011785634546868028 -0.010683175501142549 0 0.00085943265518572092 -0.010423310641401687 0 0.0014603442793542191 -0.010889057283117185 0 0.0015293701149359576 -0.010544262333762676 0 0.0011785634546868028 -0.010683175501142549 0 0.0011497788514640446 -0.01104262589806757 0 0.0014603442793542191 -0.010889057283117185 0 0.0011785634546868028 -0.010683175501142549 0 0.0011497788514640446 -0.01104262589806757 0 0.0011785634546868028 -0.010683175501142549 0 0.00084968619795313457 -0.010894680215416699 0 0.0011785634546868028 -0.010683175501142549 0 0.00084968619795313457 -0.010894680215416699 0 0.00085943265518572092 -0.010423310641401687 0 0.00046979436765457334 -0.01107733644034003 0 0.00084968619795313457 -0.010894680215416699 0 0.00058812130402514126 -0.010621029278032788 0 0.00084968619795313457 -0.010894680215416699 0 0.00058812130402514126 -0.010621029278032788 0 0.00085943265518572092 -0.010423310641401687 0 0.00046979436765457334 -0.01107733644034003 0 0.00058812130402514126 -0.010621029278032788 0 0.00019988557513001261 -0.010596464498438023 0 0.00058812130402514126 -0.010621029278032788 0 0.00019988557513001261 -0.010596464498438023 0 0.00055199532356460176 -0.010068648720877978 0 0.00019988557513001261 -0.010596464498438023 0 0.00055199532356460176 -0.010068648720877978 0 0.00014921351720828844 -0.010146018403349354 0 0.00055199532356460176 -0.010068648720877978 0 0.0003173934359184866 -0.0097269625016238089 0 0.00014921351720828844 -0.010146018403349354 0 0.00055199532356460176 -0.010068648720877978 0 0.00085943265518572092 -0.010423310641401687 0 0.0010316954603790006 -0.009917547845746005 0 0.00058812130402514126 -0.010621029278032788 0 0.00055199532356460176 -0.010068648720877978 0 0.00085943265518572092 -0.010423310641401687 0 0.0011772981914364865 -0.010313199432662814 0 0.00085943265518572092 -0.010423310641401687 0 0.0010316954603790006 -0.009917547845746005 0 0.00055199532356460176 -0.010068648720877978 0 0.0010316954603790006 -0.009917547845746005 0 0.00061619867186169376 -0.0094477923439209681 0 0.0010316954603790006 -0.009917547845746005 0 0.00061619867186169376 -0.0094477923439209681 0 0.0011192985960313947 -0.0093486915828369134 0 0.00055199532356460176 -0.010068648720877978 0 0.0003173934359184866 -0.0097269625016238089 0 0.00061619867186169376 -0.0094477923439209681 0 0.0003173934359184866 -0.0097269625016238089 0 0.00061619867186169376 -0.0094477923439209681 0 9.9401821356157491e-05 -0.0093527118096998312 0 0.00061619867186169376 -0.0094477923439209681 0 0.00037303662126285191 -0.0089570373564551026 0 9.9401821356157491e-05 -0.0093527118096998312 0 0.00061619867186169376 -0.0094477923439209681 0 0.00037303662126285191 -0.0089570373564551026 0 0.00069292671497928949 -0.0089464178566886453 0 0.00069292671497928949 -0.0089464178566886453 0 0.0011192985960313947 -0.0093486915828369134 0 0.0011403198769550712 -0.0088737466060550222 0 0.00061619867186169376 -0.0094477923439209681 0 0.00069292671497928949 -0.0089464178566886453 0 0.0011192985960313947 -0.0093486915828369134 0 0.0012619790777634731 -0.010469454610950338 0 0.00052671288120845889 -0.010070328070816471 0 0.0011192985960313947 -0.0093486915828369134 0 0.0018598438722048124 -0.009330113424289993 0 0.0011403198769550712 -0.0088737466060550222 0 0.0011192985960313947 -0.0093486915828369134 0 0.0018598438722048124 -0.009330113424289993 0 0.0014554145525777979 -0.0096531911800905416 0 -2.8846942259296834e-05 -0.011263418585151575 0 -3.220999597477767e-05 -0.011349826539349947 0 -5.0288339630377828e-05 -0.011283324259952345 0 0.0015290734351308037 -0.010871676993948424 0 0.0014756527942159368 -0.010845810150881477 0 0.001476373830001203 -0.010914173509877787 0 0.0012619790777634731 -0.010469454610950338 0 0.0010472103320324369 -0.011948468038218784 0 0.001811885033435731 -0.0093745455101789041 0 0.0017097716549795141 -0.0097886164515903606 0 0.001973138987221559 -0.0094339744575883434 0 0.0012619790777634731 -0.010469454610950338 0 0.001864167265072893 -0.010888444509981735 0 0.0012619790777634731 -0.010469454610950338 0 0.0017980498073497996 -0.0094306343386444062 0 0.001811885033435731 -0.0093745455101789041 0 0.0017097716549795141 -0.0097886164515903606 0 0.0014554145525777979 -0.0096531911800905416 0 0.0017097716549795141 -0.0097886164515903606 0 0.0014578511097184798 -0.010126730569567465 0 0.0014554145525777979 -0.0096531911800905416 0 0.0017097716549795141 -0.0097886164515903606 0 0.0014578511097184798 -0.010126730569567465 0 0.0018350577123138658 -0.010465934874207189 0 0.0017097716549795141 -0.0097886164515903606 0 0.0018350577123138658 -0.010465934874207189 0 0.001973138987221559 -0.0094339744575883434 0 0.0010316954603790006 -0.009917547845746005 0 0.0014578511097184798 -0.010126730569567465 0 0.0014554145525777979 -0.0096531911800905416 0 0.0010316954603790006 -0.009917547845746005 0 0.0011192985960313947 -0.0093486915828369134 0 0.0014554145525777979 -0.0096531911800905416 0 -0.00065139748540344721 -0.0094921060662592864 0 -0.0011282068500880762 -0.01047680083646609 0 -0.0013324752485034421 -0.01008338435836119 0 -0.0016655285462706445 -0.010290749717761888 0 -0.001066294528146482 -0.010436730637054832 0 -0.0011440085545261888 -0.0084852939595073413 0 -0.0011094686459163989 -0.0087701322695624452 0 -0.00188483874988494 -0.010013698341837282 0 -0.0016132779708093615 -0.010057784082438818 0 -0.0016655285462706445 -0.010290749717761888 0 -0.00188483874988494 -0.010013698341837282 0 -0.0016132779708093615 -0.010057784082438818 0 -0.0015695809417580386 -0.0098432203922414162 0 -0.0016132779708093615 -0.010057784082438818 0 -0.0013324752485034421 -0.01008338435836119 0 -0.0015695809417580386 -0.0098432203922414162 0 -0.0010991323023797665 -0.0098121158685520859 0 -0.0011094686459163989 -0.0087701322695624452 0 -0.0016132779708093615 -0.010057784082438818 0 -0.0013324752485034421 -0.01008338435836119 0 -0.0016655285462706445 -0.010290749717761888 0 0.00083992179455978145 -0.0084986989649108412 0 0.00073797757183560503 -0.0084752059788467289 0 0.00074324886968289553 -0.0083406218645038326 0 1.3693217217892944e-06 -0.0097154884409299588 0 -0.00065139748540344721 -0.0094921060662592864 0 -0.00093972445587764018 -0.010978073542974802 0 -0.00052402882620431672 -0.010986624310578258 0 -0.00091639121944112848 -0.010479255109273021 0 -0.00093972445587764018 -0.010978073542974802 0 -0.00142298909087618 -0.010368249196889041 0 -0.00091639121944112848 -0.010479255109273021 0 -0.0013324752485034421 -0.01008338435836119 0 -0.001066294528146482 -0.010436730637054832 0 -0.000776067889510113 -0.010072361271248208 0 -0.001066294528146482 -0.010436730637054832 0 -0.000776067889510113 -0.010072361271248208 0 -0.00041229123644292282 -0.01058231947080801 0 -0.000776067889510113 -0.010072361271248208 0 -0.00041229123644292282 -0.01058231947080801 0 -0.00023108974464672579 -0.0098639636187248161 0 -0.00052402882620431672 -0.010986624310578258 0 -0.00091639121944112848 -0.010479255109273021 0 -0.00041229123644292282 -0.01058231947080801 0 -0.0011282068500880762 -0.01047680083646609 0 -0.00041179523826584782 -0.010574952174122475 0 0.00019988557513001261 -0.010596464498438023 0 -0.00041229123644292282 -0.01058231947080801 0 0.00014921351720828844 -0.010146018403349354 0 -6.2670555286834819e-05 -0.011092764331566437 0 0.00019988557513001261 -0.010596464498438023 0 -0.00041229123644292282 -0.01058231947080801 0 -0.00041229123644292282 -0.01058231947080801 0 0.00014921351720828844 -0.010146018403349354 0 -0.00023108974464672579 -0.0098639636187248161 0 0.0003173934359184866 -0.0097269625016238089 0 -0.00023108974464672579 -0.0098639636187248161 0 9.9401821356157491e-05 -0.0093527118096998312 0 0.0003173934359184866 -0.0097269625016238089 0 0.00014921351720828844 -0.010146018403349354 0 -0.00023108974464672579 -0.0098639636187248161 0 9.9401821356157491e-05 -0.0093527118096998312 0 0.000102094699819514 -0.0087933352737049018 0 -0.0008223274293794636 -0.0093938018457309976 0 0.00037303662126285191 -0.0089570373564551026 0 9.9401821356157491e-05 -0.0093527118096998312 0 0.000102094699819514 -0.0087933352737049018 0 8.807689650340301e-05 -0.0087627846695704122 0 -0.00045341961383842073 -0.0090988030756842236 0 0.000102094699819514 -0.0087933352737049018 0 -0.0001246630368185628 -0.0086433950880087686 0 -0.00010830063626937569 -0.0084938495670487044 0 -0.00023108974464672579 -0.0098639636187248161 0 9.9401821356157491e-05 -0.0093527118096998312 0 -0.0008223274293794636 -0.0093938018457309976 0 -0.000776067889510113 -0.010072361271248208 0 -0.00023108974464672579 -0.0098639636187248161 0 -0.0008223274293794636 -0.0093938018457309976 0 -0.0013324752485034421 -0.01008338435836119 0 -0.000776067889510113 -0.010072361271248208 0 -0.0008223274293794636 -0.0093938018457309976 0 -0.00045341961383842073 -0.0090988030756842236 0 -0.0011094686459163989 -0.0087701322695624452 0 -0.0013324752485034421 -0.01008338435836119 0 -0.0008223274293794636 -0.0093938018457309976 0 -0.0015817055871854763 -0.0098374335933667234 0 -0.0001246630368185628 -0.0086433950880087686 0 -0.00038861186043796168 -0.008488443649551234 0 -0.00024158220363112529 -0.0084159649434894252 0 -0.0001246630368185628 -0.0086433950880087686 0 -0.00024158220363112529 -0.0084159649434894252 0 -0.00010830063626937569 -0.0084938495670487044 0 -0.00062101779763123718 -0.0085398740787043705 0 -0.00038861186043796168 -0.008488443649551234 0 -0.00040066486670875393 -0.0087636133961784077 0 -0.0001246630368185628 -0.0086433950880087686 0 -0.00038861186043796168 -0.008488443649551234 0 -0.00040066486670875393 -0.0087636133961784077 0 -0.00049095513804777108 -0.0077567219965381526 0 -0.00013222306949055681 -0.007697054584955669 0 -0.00025870153152916022 -0.0075404799606896798 0 -0.00052641736035615111 -0.0078586866809951059 0 -0.00010139930010390608 -0.0081193187581147519 0 -0.00049095513804777108 -0.0077567219965381526 0 -0.00013222306949055681 -0.007697054584955669 0 1.8399117739145129e-05 -0.0079591877587390746 0 -0.00053480546773529436 -0.0079730821840596836 0 -0.00039394452017773923 -0.0082776521089465219 0 -0.00022306021268791223 -0.0082451218360653829 0 -0.00058600566078815912 -0.0082818998565698243 0 -0.00038861186043796168 -0.008488443649551234 0 -0.00039394452017773923 -0.0082776521089465219 0 -0.00038861186043796168 -0.008488443649551234 0 -0.00039394452017773923 -0.0082776521089465219 0 -0.00024158220363112529 -0.0084159649434894252 0 -0.00039394452017773923 -0.0082776521089465219 0 -0.00024158220363112529 -0.0084159649434894252 0 -0.00022306021268791223 -0.0082451218360653829 0 -0.00024158220363112529 -0.0084159649434894252 0 -0.00022306021268791223 -0.0082451218360653829 0 -0.00010830063626937569 -0.0084938495670487044 0 -0.00013222306949055681 -0.007697054584955669 0 1.8399117739145129e-05 -0.0079591877587390746 0 3.8328835919457287e-05 -0.0077344372394639854 0 1.8399117739145129e-05 -0.0079591877587390746 0 3.8328835919457287e-05 -0.0077344372394639854 0 0.00012285505662631453 -0.0079364979092087333 0 0.00012285505662631453 -0.0079364979092087333 0 0.00010421675213971894 -0.0084311242059787964 0 0.00013801611576569583 -0.0082338185555817928 0 3.8328835919457287e-05 -0.0077344372394639854 0 0.00032015994345807646 -0.007848044681095772 0 0.00012285505662631453 -0.0079364979092087333 0 0.00032015994345807646 -0.007848044681095772 0 0.00012285505662631453 -0.0079364979092087333 0 0.00044255961430195628 -0.0080069157959153751 0 1.8399117739145129e-05 -0.0079591877587390746 0 0.00012285505662631453 -0.0079364979092087333 0 0.00010421675213971894 -0.0084311242059787964 0 0.00011387849915774852 -0.0079830737273242167 0 0.00027937994808600175 -0.0080909461131848433 0 -0.00022306021268791223 -0.0082451218360653829 0 -0.00010830063626937569 -0.0084938495670487044 0 0.00010421675213971894 -0.0084311242059787964 0 -0.00010139930010390608 -0.0081193187581147519 0 0.00012085397098622152 -0.0083892006668998403 0 0.00010421675213971894 -0.0084311242059787964 0 0.00024309778928530008 -0.0084137524099875648 0 0.00013801611576569583 -0.0082338185555817928 0 0.000102094699819514 -0.0087933352737049018 0 -0.00010830063626937569 -0.0084938495670487044 0 0.00010421675213971894 -0.0084311242059787964 0 0.00037303662126285191 -0.0089570373564551026 0 0.000102094699819514 -0.0087933352737049018 0 0.00020775810063873029 -0.0085846332511155671 0 0.000102094699819514 -0.0087933352737049018 0 0.00010421675213971894 -0.0084311242059787964 0 0.00020775810063873029 -0.0085846332511155671 0 0.00020775810063873029 -0.0085846332511155671 0 0.00024309778928530008 -0.0084137524099875648 0 0.00036177743031896772 -0.0084717518140279783 0 0.00010421675213971894 -0.0084311242059787964 0 0.00020775810063873029 -0.0085846332511155671 0 0.00024309778928530008 -0.0084137524099875648 0 0.00032015994345807646 -0.007848044681095772 0 0.00044255961430195628 -0.0080069157959153751 0 0.00075604704572474477 -0.0080794271028267542 0 0.00027937994808600175 -0.0080909461131848433 0 0.00055153220699237775 -0.0087017135290784076 0 0.00037528782350292484 -0.0076852456210814053 0 0.00055153220699237775 -0.0087017135290784076 0 0.0003856057456766454 -0.0077380405643625331 0 0.0005524587404404464 -0.0077524617917032451 0 0.00078896147054050014 -0.0080030633383575134 0 0.00024309778928530008 -0.0084137524099875648 0 0.00013801611576569583 -0.0082338185555817928 0 0.00044404182755493913 -0.0083408436458468176 0 0.00013741229250178549 -0.0088398524824458442 0 0.00011060805963484834 -0.0088749628948778681 0 0.00011758096076288258 -0.0087007691572421834 0 0.00013741229250178549 -0.0088398524824458442 0 0.00011060805963484834 -0.0088749628948778681 0 1.5352021791825792e-05 -0.0090163083473288972 0 0.00011758096076288258 -0.0087007691572421834 0 8.6983380455136697e-08 -0.008038007376651753 0 7.6763829507079022e-07 -0.0094286459984848463 0 0.00011060805963484834 -0.0088749628948778681 0 0.00011758096076288258 -0.0087007691572421834 0 7.6763829507079022e-07 -0.0094286459984848463 0 0.00011758096076288258 -0.0087007691572421834 0 8.6983380455136697e-08 -0.008038007376651753 0 4.9631909031929191e-05 -0.0082328744135115421 0 8.6983380455136697e-08 -0.008038007376651753 0 4.9631909031929191e-05 -0.0082328744135115421 0 1.6502769733250062e-05 -0.0078111719615705675 0 0.00037528782350292484 -0.0076852456210814053 0 1.3132049553066417e-05 -0.007482281635862331 0 0.00013741229250178549 -0.0088398524824458442 0 0.00011758096076288258 -0.0087007691572421834 0 5.1856692206394451e-05 -0.0083661608776314979 0 0.0003856057456766454 -0.0077380405643625331 0 0.0005524587404404464 -0.0077524617917032451 0 0.00023995943239095674 -0.0075455430231488674 0 0.00011758096076288258 -0.0087007691572421834 0 4.9631909031929191e-05 -0.0082328744135115421 0 5.1856692206394451e-05 -0.0083661608776314979 0 0.00033441624917910262 -0.0081596304219116213 0 0.00019505383225461856 -0.0079365783459403455 0 4.9631909031929191e-05 -0.0082328744135115421 0 5.1856692206394451e-05 -0.0083661608776314979 0 1.6502769733250062e-05 -0.0078111719615705675 0 0.0003856057456766454 -0.0077380405643625331 0 0.00023995943239095674 -0.0075455430231488674 0 1.580748223668532e-05 -0.007418884061672423 0 0.00019505383225461856 -0.0079365783459403455 0 -1.867222131369924e-05 -0.0074624952652652937 0 5.1856692206394451e-05 -0.0083661608776314979 0 1.6502769733250062e-05 -0.0078111719615705675 0 -4.5950819514943291e-05 -0.0073062371056077683 0 3.8328835919457287e-05 -0.0077344372394639854 0 0.00032015994345807646 -0.007848044681095772 0 1.580748223668532e-05 -0.007418884061672423 0 0.00023995943239095674 -0.0075455430231488674 0 1.580748223668532e-05 -0.007418884061672423 0 -4.5950819514943291e-05 -0.0073062371056077683 0 -0.00013222306949055681 -0.007697054584955669 0 3.8328835919457287e-05 -0.0077344372394639854 0 -6.7547467102046436e-05 -0.0075154979341866398 0 3.8328835919457287e-05 -0.0077344372394639854 0 1.580748223668532e-05 -0.007418884061672423 0 -6.7547467102046436e-05 -0.0075154979341866398 0 1.580748223668532e-05 -0.007418884061672423 0 -4.2933119012192134e-05 -0.0073639650340151233 0 -6.7547467102046436e-05 -0.0075154979341866398 0 1.580748223668532e-05 -0.007418884061672423 0 -4.5950819514943291e-05 -0.0073062371056077683 0 -4.2933119012192134e-05 -0.0073639650340151233 0 8.6983380455136697e-08 -0.008038007376651753 0 1.6502769733250062e-05 -0.0078111719615705675 0 -1.1705533200953089e-07 -0.0066480200774791743 0 1.6502769733250062e-05 -0.0078111719615705675 0 -1.1705533200953089e-07 -0.0066480200774791743 0 -4.5950819514943291e-05 -0.0073062371056077683 0 -4.6800556531375982e-05 -0.0068347163446587297 0 -9.7847959851829759e-05 -0.0072638981008146903 0 -4.5950819514943291e-05 -0.0073062371056077683 0 -1.1705533200953089e-07 -0.0066480200774791743 0 -4.6800556531375982e-05 -0.0068347163446587297 0 -4.5950819514943291e-05 -0.0073062371056077683 0 -4.5191865899878832e-05 -0.0064176449147049621 0 -1.1705533200953089e-07 -0.0066480200774791743 0 -4.6800556531375982e-05 -0.0068347163446587297 0 -4.5191865899878832e-05 -0.0064176449147049621 0 -4.6800556531375982e-05 -0.0068347163446587297 0 -9.7847959851829759e-05 -0.0072638981008146903 0 -0.00044770059406075928 -0.0074879055797333477 0 -9.7847959851829759e-05 -0.0072638981008146903 0 -0.00025870153152916022 -0.0075404799606896798 0 -9.7847959851829759e-05 -0.0072638981008146903 0 -4.5950819514943291e-05 -0.0073062371056077683 0 -4.2933119012192134e-05 -0.0073639650340151233 0 -9.7847959851829759e-05 -0.0072638981008146903 0 -4.2933119012192134e-05 -0.0073639650340151233 0 -6.7547467102046436e-05 -0.0075154979341866398 0 -9.7847959851829759e-05 -0.0072638981008146903 0 -6.7547467102046436e-05 -0.0075154979341866398 0 -0.00025870153152916022 -0.0075404799606896798 0 -0.00013222306949055681 -0.007697054584955669 0 -6.7547467102046436e-05 -0.0075154979341866398 0 -0.00025870153152916022 -0.0075404799606896798 0 2.1722554739458325e-05 -0.011435837975176182 0 -4.0875131857162469e-06 -0.011413464165407426 0 2.5470612750178886e-05 -0.011432081243678772 0 2.1965655196193684e-05 -0.011449340885383474 0 2.1722554739458325e-05 -0.011435837975176182 0 2.5470612750178886e-05 -0.011432081243678772 0 2.1965655196193684e-05 -0.011449340885383474 0 2.1722554739458325e-05 -0.011435837975176182 0 6.1374330202710537e-05 -0.011473649821658235 0 2.1965655196193684e-05 -0.011449340885383474 0 -7.238083929731965e-06 -0.011464542961344852 0 6.1374330202710537e-05 -0.011473649821658235 0 2.1722554739458325e-05 -0.011435837975176182 0 -4.0875131857162469e-06 -0.011413464165407426 0 6.1374330202710537e-05 -0.011473649821658235 0 -4.0490925202184519e-05 -0.011446277316691837 0 -4.0875131857162469e-06 -0.011413464165407426 0 6.1374330202710537e-05 -0.011473649821658235 0 -4.0490925202184519e-05 -0.011446277316691837 0 -6.4623165738893754e-05 -0.011401905050562971 0 -0.00013727915837963474 -0.01152167342183495 0 -0.00014013073700966364 -0.012690508448405463 0 -0.00011198268784533775 -0.012475812569831711 0 -4.0490925202184519e-05 -0.011446277316691837 0 -3.349659602233614e-05 -0.011402034565689429 0 -6.4623165738893754e-05 -0.011401905050562971 0 -4.0490925202184519e-05 -0.011446277316691837 0 -3.349659602233614e-05 -0.011402034565689429 0 -4.0875131857162469e-06 -0.011413464165407426 0 -0.00014013073700966364 -0.012690508448405463 0 0.0010472103320324369 -0.011948468038218784 0 -2.8846942259296834e-05 -0.011263418585151575 0 -3.220999597477767e-05 -0.011349826539349947 0 0.00010346606466882874 -0.011300011915511523 0 -6.4623165738893754e-05 -0.011401905050562971 0 -3.220999597477767e-05 -0.011349826539349947 0 -5.0288339630377828e-05 -0.011283324259952345 0 -3.349659602233614e-05 -0.011402034565689429 0 -4.0875131857162469e-06 -0.011413464165407426 0 -3.220999597477767e-05 -0.011349826539349947 0 -3.349659602233614e-05 -0.011402034565689429 0 -6.4623165738893754e-05 -0.011401905050562971 0 -3.220999597477767e-05 -0.011349826539349947 0 -3.220999597477767e-05 -0.011349826539349947 0 0.00010346606466882874 -0.011300011915511523 0 0.00010460606032929804 -0.011334218002143251 0 -1.7233204408454063e-05 -0.011320842442544173 0 5.0029529173117483e-06 -0.011550411083247286 0 -4.0875131857162469e-06 -0.011413464165407426 0 -3.220999597477767e-05 -0.011349826539349947 0 2.5470612750178886e-05 -0.011432081243678772 0 0.00069292671497928949 -0.0089464178566886453 0 0.0011403198769550712 -0.0088737466060550222 0 0.00051903428569197955 -0.0084279530066051645 0 5.0029529173117483e-06 -0.011550411083247286 0 0.00053310686670724903 -0.0096121519595372233 0 0.00010346606466882874 -0.011300011915511523 0 0.00010460606032929804 -0.011334218002143251 0 0.0002120880525239228 -0.011309938632377141 0 0.00052671288120845889 -0.010070328070816471 0 0.00053310686670724903 -0.0096121519595372233 0 0.00069292671497928949 -0.0089464178566886453 0 0.00041759057554920228 -0.0086733189669769509 0 0.00051903428569197955 -0.0084279530066051645 0 0.00037303662126285191 -0.0089570373564551026 0 0.00020775810063873029 -0.0085846332511155671 0 0.00041759057554920228 -0.0086733189669769509 0 0.00037303662126285191 -0.0089570373564551026 0 0.00069292671497928949 -0.0089464178566886453 0 0.00041759057554920228 -0.0086733189669769509 0 0.0006361282325455757 -0.0084686357679505768 0 0.00053310686670724903 -0.0096121519595372233 0 0.00024309778928530008 -0.0084137524099875648 0 0.00036177743031896772 -0.0084717518140279783 0 0.00044404182755493913 -0.0083408436458468176 0 0.00041759057554920228 -0.0086733189669769509 0 0.00036177743031896772 -0.0084717518140279783 0 0.00053327121109524131 -0.0083513779717671061 0 0.00020775810063873029 -0.0085846332511155671 0 0.00041759057554920228 -0.0086733189669769509 0 0.00036177743031896772 -0.0084717518140279783 0 0.00013741229250178549 -0.0088398524824458442 0 -7.0105043418088671e-05 -0.0088153277440285432 0 1.5352021791825792e-05 -0.0090163083473288972 0 0.00033441624917910262 -0.0081596304219116213 0 0.0001150203320484909 -0.009904440325919665 0 0.0005524587404404464 -0.0077524617917032451 0 0.00078896147054050014 -0.0080030633383575134 0 0.00088067658074778466 -0.0079310260707571474 0 0.00036177743031896772 -0.0084717518140279783 0 0.00044404182755493913 -0.0083408436458468176 0 0.00053327121109524131 -0.0083513779717671061 0 0.00053310686670724903 -0.0096121519595372233 0 0.0001150203320484909 -0.009904440325919665 0 0.00055153220699237775 -0.0087017135290784076 0 0.00053310686670724903 -0.0096121519595372233 0 0.00078896147054050014 -0.0080030633383575134 0 0.00084431161373953677 -0.0080167882233408445 0 0.00088067658074778466 -0.0079310260707571474 0 8.5766858775178301e-06 -0.011450892059030189 0 -7.238083929731965e-06 -0.011464542961344852 0 -8.076148116562306e-05 -0.011465907014272751 0 2.5470612750178886e-05 -0.011432081243678772 0 3.2763191454237159e-07 -0.011431353944026999 0 1.4251646435848165e-05 -0.011436764133336511 0 2.1965655196193684e-05 -0.011449340885383474 0 2.5470612750178886e-05 -0.011432081243678772 0 1.4251646435848165e-05 -0.011436764133336511 0 2.1965655196193684e-05 -0.011449340885383474 0 1.4251646435848165e-05 -0.011436764133336511 0 -7.238083929731965e-06 -0.011464542961344852 0 0.0001150203320484909 -0.009904440325919665 0 0.0002024991898360099 -0.011291989612798956 0 3.2763191454237159e-07 -0.011431353944026999 0 2.3043124546458874e-06 -0.011423088808029476 0 1.4251646435848165e-05 -0.011436764133336511 0 8.5766858775178301e-06 -0.011450892059030189 0 1.4251646435848165e-05 -0.011436764133336511 0 -7.238083929731965e-06 -0.011464542961344852 0 0.0001150203320484909 -0.009904440325919665 0 -9.1699233252616716e-05 -0.010437435653534461 0 -7.238083929731965e-06 -0.011464542961344852 0 -8.076148116562306e-05 -0.011465907014272751 0 6.1374330202710537e-05 -0.011473649821658235 0 -7.0105043418088671e-05 -0.0088153277440285432 0 -0.00013779673357577974 -0.0093735551671304089 0 1.5352021791825792e-05 -0.0090163083473288972 0 0.00011060805963484834 -0.0088749628948778681 0 1.5352021791825792e-05 -0.0090163083473288972 0 7.6763829507079022e-07 -0.0094286459984848463 0 -0.00013779673357577974 -0.0093735551671304089 0 1.5352021791825792e-05 -0.0090163083473288972 0 7.6763829507079022e-07 -0.0094286459984848463 0 -0.00013779673357577974 -0.0093735551671304089 0 7.6763829507079022e-07 -0.0094286459984848463 0 -1.3563410683920762e-06 -0.010816275097420605 0 -9.1699233252616716e-05 -0.010437435653534461 0 1.9079601817063027e-10 -0.010818340279698812 0 -8.076148116562306e-05 -0.011465907014272751 0 -5.0558013331522078e-07 -0.01082026934849002 0 9.2977218297815359e-05 -0.011437545182930135 0 -5.0558013331522078e-07 -0.01082026934849002 0 6.1818919731591285e-07 -0.011611350092986569 0 9.2977218297815359e-05 -0.011437545182930135 0 6.1818919731591285e-07 -0.011611350092986569 0 9.2977218297815359e-05 -0.011437545182930135 0 7.4120982582249521e-05 -0.011686180815815954 0 9.2977218297815359e-05 -0.011437545182930135 0 6.1374330202710537e-05 -0.011473649821658235 0 7.4120982582249521e-05 -0.011686180815815954 0 -8.076148116562306e-05 -0.011465907014272751 0 9.2977218297815359e-05 -0.011437545182930135 0 6.1374330202710537e-05 -0.011473649821658235 0 -4.0490925202184519e-05 -0.011446277316691837 0 6.1374330202710537e-05 -0.011473649821658235 0 7.4120982582249521e-05 -0.011686180815815954 0 -4.0490925202184519e-05 -0.011446277316691837 0 -0.00013727915837963474 -0.01152167342183495 0 7.4120982582249521e-05 -0.011686180815815954 0 -0.00013727915837963474 -0.01152167342183495 0 -6.9641683451998134e-07 -0.012402719203663677 0 7.4120982582249521e-05 -0.011686180815815954 0 6.1818919731591285e-07 -0.011611350092986569 0 -6.9641683451998134e-07 -0.012402719203663677 0 7.4120982582249521e-05 -0.011686180815815954 0 -0.00011198268784533775 -0.012475812569831711 0 -7.6162462231443718e-08 -0.012404270492828813 0 -9.0586419100414008e-07 -0.012405731603871454 0 0.00011559788011051674 -0.013292489546961547 0 9.6632891333262573e-07 -0.013421693070306101 0 -0.00015498440614927843 -0.013476305124834923 0 -9.0586419100414008e-07 -0.012405731603871454 0 0.00011559788011051674 -0.013292489546961547 0 9.6632891333262573e-07 -0.013421693070306101 0 0.00022161553912362379 -0.013549947089106097 0 -1.002910556732405e-06 -0.014436895272353905 0 0.00011559788011051674 -0.013292489546961547 0 9.6632891333262573e-07 -0.013421693070306101 0 0.00022161553912362379 -0.013549947089106097 0 9.473110505064334e-05 -0.012747692397632324 0 -0.00023523820045391456 -0.0155696367515487 0 0.00022161553912362379 -0.013549947089106097 0 0.00012516725789552333 -0.013631142683211542 0 0.00028041798895260344 -0.013697831795329136 0 0.00011559788011051674 -0.013292489546961547 0 0.00022161553912362379 -0.013549947089106097 0 0.00012516725789552333 -0.013631142683211542 0 -0.00015498440614927843 -0.013476305124834923 0 0.00011559788011051674 -0.013292489546961547 0 0.00012516725789552333 -0.013631142683211542 0 -3.9743820198943189e-05 -0.013736219709022666 0 -0.00015498440614927843 -0.013476305124834923 0 0.00012516725789552333 -0.013631142683211542 0 -3.9743820198943189e-05 -0.013736219709022666 0 0.00012516725789552333 -0.013631142683211542 0 0.00013959056726846182 -0.01379955418340699 0 0.00012516725789552333 -0.013631142683211542 0 0.00013959056726846182 -0.01379955418340699 0 0.00028041798895260344 -0.013697831795329136 0 0.0018715872485427448 -0.012980295430137513 0 -0.00023523820045391456 -0.0155696367515487 0 -3.9743820198943189e-05 -0.013736219709022666 0 0.00013959056726846182 -0.01379955418340699 0 -2.4210570081135142e-06 -0.013882189032102935 0 0.0018715872485427448 -0.012980295430137513 0 0.0010472103320324369 -0.011948468038218784 0 -0.0028083339962123848 -0.020552342973791781 0 -0.0024970467816482693 -0.020430987334189847 0 -0.0024274322564888308 -0.020737736633100485 0 -0.0028083339962123848 -0.020552342973791781 0 -0.0026875803796450972 -0.020126657408703227 0 -0.0024970467816482693 -0.020430987334189847 0 -0.0028083339962123848 -0.020552342973791781 0 -0.0030079911284900305 -0.020071206111863693 0 -0.0026875803796450972 -0.020126657408703227 0 -0.00039601340738272631 -0.016656068475005042 0 -0.00023523820045391456 -0.0155696367515487 0 0.0028355410704876908 -0.012665957451840164 0 0.001958961961618304 -0.012379023814359926 0 0.0022511301912359984 -0.013143453511506991 0 -0.00023523820045391456 -0.0155696367515487 0 -0.0012380186591055321 -0.016255589307354091 0 -0.0030079911284900305 -0.020071206111863693 0 -0.0026875803796450972 -0.020126657408703227 0 -0.0025979004418827628 -0.019753621842570037 0 -0.0026875803796450972 -0.020126657408703227 0 -0.002384035391126858 -0.020135287598764869 0 -0.0024970467816482693 -0.020430987334189847 0 -0.0012380186591055321 -0.016255589307354091 0 -0.0014937819744962918 -0.019506878294858945 0 -0.0026875803796450972 -0.020126657408703227 0 -0.0025979004418827628 -0.019753621842570037 0 -0.002384035391126858 -0.020135287598764869 0 -0.0012380186591055321 -0.016255589307354091 0 -2.8708450582888875e-05 -0.016062704338274062 0 0.00022161553912362379 -0.013549947089106097 0 -8.7327705740662849e-05 -0.012966164606392615 0 -0.0007278904028909138 -0.013467801677651622 0 0.00022161553912362379 -0.013549947089106097 0 -0.0007278904028909138 -0.013467801677651622 0 -1.002910556732405e-06 -0.014436895272353905 0 -8.691861164311077e-07 -0.014440789336714763 0 1.9461663826196769e-07 -0.015813405700096868 0 -2.3339729921894619e-05 -0.016245094179477854 0 -0.0012380186591055321 -0.016255589307354091 0 4.921209729991448e-08 -0.014437679962753207 0 -0.00018475402349850262 -0.016239347002209952 0 -8.691861164311077e-07 -0.014440789336714763 0 -2.3339729921894619e-05 -0.016245094179477854 0 1.9461663826196769e-07 -0.015813405700096868 0 -2.3339729921894619e-05 -0.016245094179477854 0 0.00016261533245695963 -0.016826751312230357 0 1.9461663826196769e-07 -0.015813405700096868 0 0.00016261533245695963 -0.016826751312230357 0 5.9177639106073746e-07 -0.017188651446124852 0 0.00016261533245695963 -0.016826751312230357 0 0.00019744181098137821 -0.017037063088340885 0 -2.5313295635430229e-05 -0.01701231971035563 0 -0.00040527545517258221 -0.016662007279222141 0 -3.3254498137351576e-05 -0.016710499598056892 0 -2.5313295635430229e-05 -0.01701231971035563 0 -2.3339729921894619e-05 -0.016245094179477854 0 0.00016261533245695963 -0.016826751312230357 0 -3.3254498137351576e-05 -0.016710499598056892 0 0.00016261533245695963 -0.016826751312230357 0 -3.3254498137351576e-05 -0.016710499598056892 0 -2.5313295635430229e-05 -0.01701231971035563 0 -0.00040527545517258221 -0.016662007279222141 0 -2.3339729921894619e-05 -0.016245094179477854 0 -3.3254498137351576e-05 -0.016710499598056892 0 -7.0943207813121042e-07 -0.018560875891295892 0 8.4200192682922691e-05 -0.017614141609281066 0 -0.00012014607524588973 -0.017660222743148903 0 0.00016261533245695963 -0.016826751312230357 0 8.4200192682922691e-05 -0.017614141609281066 0 5.9177639106073746e-07 -0.017188651446124852 0 -7.0943207813121042e-07 -0.018560875891295892 0 8.4200192682922691e-05 -0.017614141609281066 0 5.9177639106073746e-07 -0.017188651446124852 0 0.00016261533245695963 -0.016826751312230357 0 8.4200192682922691e-05 -0.017614141609281066 0 0.00019744181098137821 -0.017037063088340885 0 8.4200192682922691e-05 -0.017614141609281066 0 -0.00012014607524588973 -0.017660222743148903 0 0.00019744181098137821 -0.017037063088340885 0 -0.00071944984637748539 -0.018565757765784764 0 -0.00084992141562371894 -0.018321193812806735 0 -0.001395323644434738 -0.01944244399558907 0 -0.001338353940642272 -0.020254083092942934 0 -0.0020498272186545595 -0.019855891408355215 0 -0.001338353940642272 -0.020254083092942934 0 -0.0020498272186545595 -0.019855891408355215 0 -0.0018882563998309139 -0.020477549139624799 0 -0.001338353940642272 -0.020254083092942934 0 -0.0018882563998309139 -0.020477549139624799 0 -0.0014952816367556779 -0.021170275807260157 0 -0.001338353940642272 -0.020254083092942934 0 -0.0014952816367556779 -0.021170275807260157 0 -0.00074432377548169705 -0.021142527742628439 0 -0.00084992141562371894 -0.018321193812806735 0 -0.0014937819744962918 -0.019506878294858945 0 -0.0020498272186545595 -0.019855891408355215 0 -0.0026184963447276207 -0.020115828628335702 0 -0.002195037984348819 -0.020257977465724775 0 -0.0020498272186545595 -0.019855891408355215 0 -0.0018882563998309139 -0.020477549139624799 0 -0.002195037984348819 -0.020257977465724775 0 -0.0018882563998309139 -0.020477549139624799 0 -0.0022373049591413929 -0.020576466604500042 0 -0.001947830818442822 -0.020937043416237564 0 -0.0018882563998309139 -0.020477549139624799 0 -0.002195037984348819 -0.020257977465724775 0 -0.0022373049591413929 -0.020576466604500042 0 -0.0026184963447276207 -0.020115828628335702 0 -0.002195037984348819 -0.020257977465724775 0 -0.0022373049591413929 -0.020576466604500042 0 -0.0022373049591413929 -0.020576466604500042 0 -0.0024970467816482693 -0.020430987334189847 0 -0.0024274322564888308 -0.020737736633100485 0 -0.0014937819744962918 -0.019506878294858945 0 -0.0024482091810366035 -0.020625271478576544 0 -0.002384035391126858 -0.020135287598764869 0 -0.0022373049591413929 -0.020576466604500042 0 -0.0024970467816482693 -0.020430987334189847 0 -0.0022373049591413929 -0.020576466604500042 0 -0.0024274322564888308 -0.020737736633100485 0 -0.0022115446786828701 -0.02102002237920312 0 -0.0022373049591413929 -0.020576466604500042 0 -0.0022115446786828701 -0.02102002237920312 0 -0.001947830818442822 -0.020937043416237564 0 -0.0022115446786828701 -0.02102002237920312 0 -0.001947830818442822 -0.020937043416237564 0 -0.0018738917979678811 -0.021199482689385978 0 -0.0022115446786828701 -0.02102002237920312 0 -0.0023776684286479109 -0.021282275209721573 0 -0.0025904946514350232 -0.020973366130529022 0 -0.0024274322564888308 -0.020737736633100485 0 -0.0022115446786828701 -0.02102002237920312 0 -0.0025904946514350232 -0.020973366130529022 0 -0.0018882563998309139 -0.020477549139624799 0 -0.0014952816367556779 -0.021170275807260157 0 -0.001947830818442822 -0.020937043416237564 0 -0.0015484308073461283 -0.021252679668498874 0 -0.0016839326136970682 -0.021445688041481354 0 -0.0014952816367556779 -0.021170275807260157 0 -0.001947830818442822 -0.020937043416237564 0 -0.0018738917979678811 -0.021199482689385978 0 -0.0014952816367556779 -0.021170275807260157 0 -0.0013187385245968393 -0.022003098665559946 0 -0.00076119721446795763 -0.022001149262285313 0 -0.0014952816367556779 -0.021170275807260157 0 -0.001781136484422624 -0.022128592051453885 0 -0.0013187385245968393 -0.022003098665559946 0 -0.0015836702413187206 -0.022641622303338511 0 -0.0011445646251356111 -0.022985078497761935 0 -0.00097262791198585792 -0.022586946693253916 0 -0.0013187385245968393 -0.022003098665559946 0 -0.0015836702413187206 -0.022641622303338511 0 -0.00097262791198585792 -0.022586946693253916 0 -0.001781136484422624 -0.022128592051453885 0 -0.0015836702413187206 -0.022641622303338511 0 -0.0019810576808729501 -0.022737595610761597 0 -0.0016839326136970682 -0.021445688041481354 0 -0.0025124463371964841 -0.022940198949483234 0 -0.001781136484422624 -0.022128592051453885 0 -0.0013187385245968393 -0.022003098665559946 0 -0.0015836702413187206 -0.022641622303338511 0 -0.0015836702413187206 -0.022641622303338511 0 -0.0016771918286059423 -0.023036361732746473 0 -0.0011445646251356111 -0.022985078497761935 0 -0.0015836702413187206 -0.022641622303338511 0 -0.0016771918286059423 -0.023036361732746473 0 -0.0019810576808729501 -0.022737595610761597 0 -0.0016771918286059423 -0.023036361732746473 0 -0.0011445646251356111 -0.022985078497761935 0 -0.0012883675492443185 -0.023212806683302972 0 -0.0022115446786828701 -0.02102002237920312 0 -0.0018738917979678811 -0.021199482689385978 0 -0.0020950413713028567 -0.021353530082878904 0 -0.0022115446786828701 -0.02102002237920312 0 -0.0023776684286479109 -0.021282275209721573 0 -0.0020950413713028567 -0.021353530082878904 0 -0.0016771918286059423 -0.023036361732746473 0 -0.0019810576808729501 -0.022737595610761597 0 -0.0019484451258917062 -0.023174321117827801 0 -0.0025124463371964841 -0.022940198949483234 0 -0.00068544188907841772 -0.017580376949833353 0 -0.0019810576808729501 -0.022737595610761597 0 -0.002255864675852164 -0.023194304951593803 0 -0.0019484451258917062 -0.023174321117827801 0 0.0016670205568453172 -0.010912964376000868 0 0.0017297127585366647 -0.010911263725827243 0 0.0017547917612664751 -0.010968468686681202 0 -0.00035814212538159881 -0.015871931554759754 0 -0.00068544188907841772 -0.017580376949833353 0 -0.0023776684286479109 -0.021282275209721573 0 -0.0020950413713028567 -0.021353530082878904 0 -0.0022346841847336201 -0.021480907311686191 0 0.0017297127585366647 -0.010911263725827243 0 0.0017657798693324932 -0.01089309892904816 0 0.0017820393809709774 -0.010898220110386742 0 0.0017297127585366647 -0.010911263725827243 0 0.0017657798693324932 -0.01089309892904816 0 0.0017495772332672506 -0.010920811917802085 0 0.0017657798693324932 -0.01089309892904816 0 0.0018128798246858787 -0.010863877736480732 0 0.0018087079075304385 -0.010839686140719153 0 0.0017657798693324932 -0.01089309892904816 0 0.0017820393809709774 -0.010898220110386742 0 0.0018128798246858787 -0.010863877736480732 0 0.0017820393809709774 -0.010898220110386742 0 0.0018417213981424929 -0.010855955933295953 0 0.0018128798246858787 -0.010863877736480732 0 0.0016670205568453172 -0.010912964376000868 0 0.0017297127585366647 -0.010911263725827243 0 0.0017820393809709774 -0.010898220110386742 0 0.0016670205568453172 -0.010912964376000868 0 0.0017509614698465127 -0.011087913374759796 0 0.0017330291217808878 -0.011583955955605725 0 0.0017509614698465127 -0.011087913374759796 0 0.0018370635788100376 -0.010899807391170763 0 0.0018689551929097314 -0.010790541741022459 0 0.0017692541657052246 -0.011068313746739 0 0.0019713313324425199 -0.011090876880716274 0 -0.00035814212538159881 -0.015871931554759754 0 -0.00042047825464900865 -0.0162902216514983 0 0.0016670205568453172 -0.010912964376000868 0 0.0017820393809709774 -0.010898220110386742 0 0.0017509614698465127 -0.011087913374759796 0 0.0017820393809709774 -0.010898220110386742 0 0.0018370635788100376 -0.010899807391170763 0 0.0018417213981424929 -0.010855955933295953 0 0.0017820393809709774 -0.010898220110386742 0 0.0017509614698465127 -0.011087913374759796 0 0.0018370635788100376 -0.010899807391170763 0 0.0018560571020622967 -0.01078628841180004 0 0.0018370635788100376 -0.010899807391170763 0 0.0018689551929097314 -0.010790541741022459 0 0.0018560571020622967 -0.01078628841180004 0 0.0018370635788100376 -0.010899807391170763 0 0.0018417213981424929 -0.010855955933295953 0 0.0018560571020622967 -0.01078628841180004 0 0.0018417213981424929 -0.010855955933295953 0 0.0018618995213147309 -0.010797629920912715 0 0.0018417213981424929 -0.010855955933295953 0 0.0018519576414723537 -0.01083175586618914 0 0.0018618995213147309 -0.010797629920912715 0 0.0018128798246858787 -0.010863877736480732 0 0.0018519576414723537 -0.01083175586618914 0 0.0018087079075304385 -0.010839686140719153 0 0.0018417213981424929 -0.010855955933295953 0 0.0018128798246858787 -0.010863877736480732 0 0.0018519576414723537 -0.01083175586618914 0 0.0018519576414723537 -0.01083175586618914 0 0.001867580743485918 -0.010785811264064003 0 0.0018809979979791619 -0.010836844677550065 0 0.0018519576414723537 -0.01083175586618914 0 0.001867580743485918 -0.010785811264064003 0 0.0018618995213147309 -0.010797629920912715 0 0.001867580743485918 -0.010785811264064003 0 0.0018618995213147309 -0.010797629920912715 0 0.0018537317857501004 -0.010684323795404736 0 0.0014723467092934597 -0.010891890766556979 0 0.0018762899678276522 -0.01096345809873453 0 0.0014603442793542191 -0.010889057283117185 0 0.0017935743258062184 -0.010694465165771995 0 0.0018809979979791619 -0.010836844677550065 0 0.001867580743485918 -0.010785811264064003 0 0.0017935743258062184 -0.010694465165771995 0 0.0018537317857501004 -0.010684323795404736 0 0.001867580743485918 -0.010785811264064003 0 0.0017935743258062184 -0.010694465165771995 0 0.0018809979979791619 -0.010836844677550065 0 0.0017935743258062184 -0.010694465165771995 0 0.0018350577123138658 -0.010465934874207189 0 0.0018537317857501004 -0.010684323795404736 0 0.0018350577123138658 -0.010465934874207189 0 0.0018537317857501004 -0.010684323795404736 0 0.0018161180764567077 -0.010633228963473922 0 0.0018560571020622967 -0.01078628841180004 0 0.0018537317857501004 -0.010684323795404736 0 0.0018161180764567077 -0.010633228963473922 0 0.0018560571020622967 -0.01078628841180004 0 0.0018618995213147309 -0.010797629920912715 0 0.0018537317857501004 -0.010684323795404736 0 0.0024527695420133015 -0.011281916883669519 0 0.0019713313324425199 -0.011090876880716274 0 0.0027699660647718151 -0.011752086378736976 0 0.0023996134913086232 -0.011991841106959725 0 0.0021893395624144277 -0.01142864480792073 0 0.0018560571020622967 -0.01078628841180004 0 0.0018161180764567077 -0.010633228963473922 0 0.0018689551929097314 -0.010790541741022459 0 0.0018350577123138658 -0.010465934874207189 0 0.0018161180764567077 -0.010633228963473922 0 0.0018918521123156889 -0.010657771892288316 0 0.0018647668112689733 -0.010079819938458962 0 0.001864167265072893 -0.010888444509981735 0 0.0028355410704876908 -0.012665957451840164 0 0.0029545622588873287 -0.012151025849901581 0 0.003372891266222121 -0.012215349670095289 0 0.0024527695420133015 -0.011281916883669519 0 0.001864167265072893 -0.010888444509981735 0 0.0027699660647718151 -0.011752086378736976 0 0.0033670612913449679 -0.012056311244101498 0 0.0029545622588873287 -0.012151025849901581 0 0.0033670612913449679 -0.012056311244101498 0 0.0029545622588873287 -0.012151025849901581 0 0.003372891266222121 -0.012215349670095289 0 0.001864167265072893 -0.010888444509981735 0 0.0010472103320324369 -0.011948468038218784 0 0.0027699660647718151 -0.011752086378736976 0 0.0029545622588873287 -0.012151025849901581 0 0.0023996134913086232 -0.011991841106959725 0 0.0028355410704876908 -0.012665957451840164 0 0.0029545622588873287 -0.012151025849901581 0 0.0023996134913086232 -0.011991841106959725 0 0.001958961961618304 -0.012379023814359926 0 0.0023996134913086232 -0.011991841106959725 0 0.0017330291217808878 -0.011583955955605725 0 0.0028355410704876908 -0.012665957451840164 0 0.001958961961618304 -0.012379023814359926 0 0.0023996134913086232 -0.011991841106959725 0 -0.0028083339962123848 -0.020552342973791781 0 -0.0024274322564888308 -0.020737736633100485 0 -0.0025904946514350232 -0.020973366130529022 0 -0.00039601340738272631 -0.016656068475005042 0 -0.00042047825464900865 -0.0162902216514983 0 0.0017509614698465127 -0.011087913374759796 0 0.0017330291217808878 -0.011583955955605725 0 0.0021893395624144277 -0.01142864480792073 0 0.0023996134913086232 -0.011991841106959725 0 0.0017330291217808878 -0.011583955955605725 0 0.0021893395624144277 -0.01142864480792073 0 -1.9141443292656545e-07 -0.025000642200128913 0 -3.4289506921042032e-05 -0.024932630778759231 0 6.4806844151755823e-05 -0.024819582591032559 0 -2.0797421700385633e-08 -0.025000009286693388 0 5.0561769605923578e-05 -0.025059447238477174 0 -1.9141443292656545e-07 -0.025000642200128913 0 -4.1952090130270916e-05 -0.024989653761723445 0 -3.4289506921042032e-05 -0.024932630778759231 0 0.00014982904779225901 -0.02507556632487953 0 7.4235215348248873e-05 -0.025091881729622983 0 0.00016739936830928459 -0.025145089658020973 0 0.00014982904779225901 -0.02507556632487953 0 7.4235215348248873e-05 -0.025091881729622983 0 0.00011643865058974915 -0.025017809334489619 0 -4.1952090130270916e-05 -0.024989653761723445 0 -9.1516278166521781e-05 -0.024959210958318712 0 -0.00015615041690698151 -0.024982398774701015 0 5.0561769605923578e-05 -0.025059447238477174 0 0.00012687802906944856 -0.024259055701344453 0 -9.1516278166521781e-05 -0.024959210958318712 0 -3.4289506921042032e-05 -0.024932630778759231 0 -0.00017161729676719444 -0.024939967714156821 0 -4.1952090130270916e-05 -0.024989653761723445 0 -9.1516278166521781e-05 -0.024959210958318712 0 -3.4289506921042032e-05 -0.024932630778759231 0 -3.4289506921042032e-05 -0.024932630778759231 0 -0.00017161729676719444 -0.024939967714156821 0 -0.00011285390738506971 -0.024756198354236331 0 -0.00016117870137538469 -0.024999151361649326 0 0.00012687802906944856 -0.024259055701344453 0 -9.1516278166521781e-05 -0.024959210958318712 0 -0.00017161729676719444 -0.024939967714156821 0 -0.00015615041690698151 -0.024982398774701015 0 -1.9141443292656545e-07 -0.025000642200128913 0 6.4806844151755823e-05 -0.024819582591032559 0 5.750711989213238e-07 -0.024997965414420932 0 6.4806844151755823e-05 -0.024819582591032559 0 5.750711989213238e-07 -0.024997965414420932 0 -9.3971439853260056e-07 -0.023516402648671931 0 -9.3971439853260056e-07 -0.023516402648671931 0 -0.00011285390738506971 -0.024756198354236331 0 -0.00045033038501403474 -0.024593079518901925 0 6.4806844151755823e-05 -0.024819582591032559 0 -9.3971439853260056e-07 -0.023516402648671931 0 -0.00011285390738506971 -0.024756198354236331 0 -0.00017161729676719444 -0.024939967714156821 0 -0.00011285390738506971 -0.024756198354236331 0 -0.00045033038501403474 -0.024593079518901925 0 -3.4289506921042032e-05 -0.024932630778759231 0 6.4806844151755823e-05 -0.024819582591032559 0 -0.00011285390738506971 -0.024756198354236331 0 -0.00034263803240267758 -0.023597763707793977 0 0.0006187340525628187 -0.02236371294507656 0 -9.5037976411704004e-05 -0.022143197731402026 0 5.4297033162101468e-05 -0.021873322534269539 0 -2.6802824989887462e-05 -0.021771497392694527 0 -1.3569136228098801e-06 -0.023510573126968089 0 -9.5037976411704004e-05 -0.022143197731402026 0 9.3124369012091719e-07 -0.022187002835177785 0 -2.6783453885509493e-05 -0.023363701333888289 0 -0.00034263803240267758 -0.023597763707793977 0 9.3124369012091719e-07 -0.022187002835177785 0 5.4297033162101468e-05 -0.021873322534269539 0 0.00011097402782925711 -0.021472336823858688 0 -9.5037976411704004e-05 -0.022143197731402026 0 9.3124369012091719e-07 -0.022187002835177785 0 5.4297033162101468e-05 -0.021873322534269539 0 5.4297033162101468e-05 -0.021873322534269539 0 -2.6802824989887462e-05 -0.021771497392694527 0 0.00011215300628654192 -0.021731824489520067 0 0.0006187340525628187 -0.02236371294507656 0 0.00065446907188522528 -0.020522397684092336 0 0.0020496918247155009 -0.020098915950760052 0 0.0011169536300317017 -0.020542995442638438 0 0.0011557587869534087 -0.01963279203539273 0 -0.00017161729676719444 -0.024939967714156821 0 -0.00045033038501403474 -0.024593079518901925 0 -0.00051278242557534367 -0.024982346539463192 0 -0.00017161729676719444 -0.024939967714156821 0 -0.00051278242557534367 -0.024982346539463192 0 -0.00023617294543937765 -0.025117482703384101 0 0.0006187340525628187 -0.02236371294507656 0 0.00012687802906944856 -0.024259055701344453 0 0.00096116478311951675 -0.022683600397112133 0 0.0010165718839461727 -0.022645401591306319 0 0.00099361056825609693 -0.02278649140367469 0 0.00014982904779225901 -0.02507556632487953 0 0.00016739936830928459 -0.025145089658020973 0 0.00025189316025343682 -0.025039594760053945 0 0.00096116478311951675 -0.022683600397112133 0 0.00089702056973194652 -0.022724858299937839 0 0.00099361056825609693 -0.02278649140367469 0 0.00094918047876944194 -0.022606335736037986 0 0.00096116478311951675 -0.022683600397112133 0 0.0010165718839461727 -0.022645401591306319 0 0.00012687802906944856 -0.024259055701344453 0 0.00069771257246755672 -0.023821037592782954 0 0.00094918047876944194 -0.022606335736037986 0 0.00096116478311951675 -0.022683600397112133 0 0.00089702056973194652 -0.022724858299937839 0 0.0020496918247155009 -0.020098915950760052 0 0.0017229613170900199 -0.021026659819047007 0 0.0011169536300317017 -0.020542995442638438 0 0.0017229613170900199 -0.021026659819047007 0 0.0011169536300317017 -0.020542995442638438 0 0.0010914100757203854 -0.021285865466217579 0 0.0006187340525628187 -0.02236371294507656 0 0.0014327248038322618 -0.021644398758974066 0 0.0011169536300317017 -0.020542995442638438 0 0.00060449441115212311 -0.021128551925221277 0 0.0010914100757203854 -0.021285865466217579 0 0.0011169536300317017 -0.020542995442638438 0 0.00041550881721607029 -0.020245706177857679 0 0.00060449441115212311 -0.021128551925221277 0 0.00041550881721607029 -0.020245706177857679 0 -9.3611725691015942e-05 -0.021119451832747119 0 0.00060449441115212311 -0.021128551925221277 0 0.00041550881721607029 -0.020245706177857679 0 0.00024094260587281173 -0.01970088046603112 0 0.0011557587869534087 -0.01963279203539273 0 0.00041550881721607029 -0.020245706177857679 0 0.00024094260587281173 -0.01970088046603112 0 -0.00027083785601869956 -0.019688845293881752 0 0.0011169536300317017 -0.020542995442638438 0 0.00041550881721607029 -0.020245706177857679 0 0.0011557587869534087 -0.01963279203539273 0 9.3124369012091719e-07 -0.022187002835177785 0 0.00011097402782925711 -0.021472336823858688 0 -4.8500480646832778e-08 -0.020104685380450248 0 0.00011215300628654192 -0.021731824489520067 0 0.00011097402782925711 -0.021472336823858688 0 2.4929010995175949e-05 -0.021173109427576074 0 5.4297033162101468e-05 -0.021873322534269539 0 0.00011215300628654192 -0.021731824489520067 0 0.00011097402782925711 -0.021472336823858688 0 0.00065446907188522528 -0.020522397684092336 0 0.00019008167198167022 -0.020140767813671651 0 0.00011097402782925711 -0.021472336823858688 0 2.4929010995175949e-05 -0.021173109427576074 0 -4.8500480646832778e-08 -0.020104685380450248 0 0.00024094260587281173 -0.01970088046603112 0 0.0011557587869534087 -0.01963279203539273 0 0.00028437117694048609 -0.019110745646044817 0 0.00024094260587281173 -0.01970088046603112 0 0.00028437117694048609 -0.019110745646044817 0 -0.00013063787492377196 -0.019306914758453326 0 0.00028437117694048609 -0.019110745646044817 0 -0.00013063787492377196 -0.019306914758453326 0 -0.00044199187048160789 -0.01870421477212424 0 0.00024094260587281173 -0.01970088046603112 0 -0.00013063787492377196 -0.019306914758453326 0 -0.00027083785601869956 -0.019688845293881752 0 -0.00013063787492377196 -0.019306914758453326 0 -0.00046180916026054738 -0.019275365752473697 0 -0.00027083785601869956 -0.019688845293881752 0 -0.00046180916026054738 -0.019275365752473697 0 -0.00084842368505987759 -0.019453592811032424 0 -0.00027083785601869956 -0.019688845293881752 0 -0.00046180916026054738 -0.019275365752473697 0 -0.00044199187048160789 -0.01870421477212424 0 -0.00084842368505987759 -0.019453592811032424 0 -0.00013063787492377196 -0.019306914758453326 0 -0.00046180916026054738 -0.019275365752473697 0 -0.00044199187048160789 -0.01870421477212424 0 0.00019008167198167022 -0.020140767813671651 0 -0.00021100039472462691 -0.019300557731907957 0 2.4929010995175949e-05 -0.021173109427576074 0 -4.8500480646832778e-08 -0.020104685380450248 0 -7.7217686989626376e-05 -0.020046822217104982 0 0.00028437117694048609 -0.019110745646044817 0 -0.00052456455317495467 -0.018510787578285594 0 -0.00044199187048160789 -0.01870421477212424 0 -4.0306310364946743e-07 -0.018563798584633077 0 -4.8500480646832778e-08 -0.020104685380450248 0 -7.7217686989626376e-05 -0.020046822217104982 0 -7.0943207813121042e-07 -0.018560875891295892 0 -0.00012014607524588973 -0.017660222743148903 0 -0.00052456455317495467 -0.018510787578285594 0 1.6628730686794635e-08 -0.018563317738198262 0 -0.00021100039472462691 -0.019300557731907957 0 -0.001395323644434738 -0.01944244399558907 0 -0.00044199187048160789 -0.01870421477212424 0 -0.00084842368505987759 -0.019453592811032424 0 -0.00012014607524588973 -0.017660222743148903 0 -0.00052456455317495467 -0.018510787578285594 0 -0.00044199187048160789 -0.01870421477212424 0 -0.00071944984637748539 -0.018565757765784764 0 -0.00039911124444601373 -0.018641480620433016 0 -0.001338353940642272 -0.020254083092942934 0 -0.00084842368505987759 -0.019453592811032424 0 -0.00049602269687445922 -0.020369984883276848 0 -0.001395323644434738 -0.01944244399558907 0 -0.001338353940642272 -0.020254083092942934 0 -0.00084842368505987759 -0.019453592811032424 0 0.00041550881721607029 -0.020245706177857679 0 -0.00027083785601869956 -0.019688845293881752 0 -0.00049602269687445922 -0.020369984883276848 0 -0.00084842368505987759 -0.019453592811032424 0 -0.00027083785601869956 -0.019688845293881752 0 -0.00049602269687445922 -0.020369984883276848 0 0.00041550881721607029 -0.020245706177857679 0 -0.00049602269687445922 -0.020369984883276848 0 -9.3611725691015942e-05 -0.021119451832747119 0 -0.00049602269687445922 -0.020369984883276848 0 -0.00074432377548169705 -0.021142527742628439 0 -9.3611725691015942e-05 -0.021119451832747119 0 -0.001338353940642272 -0.020254083092942934 0 -0.00049602269687445922 -0.020369984883276848 0 -0.00074432377548169705 -0.021142527742628439 0 -0.0014952816367556779 -0.021170275807260157 0 -0.00074432377548169705 -0.021142527742628439 0 -0.00076119721446795763 -0.022001149262285313 0 -0.00074432377548169705 -0.021142527742628439 0 -9.3611725691015942e-05 -0.021119451832747119 0 -0.00011921348905756014 -0.021905090404752647 0 -0.00074432377548169705 -0.021142527742628439 0 -0.00011921348905756014 -0.021905090404752647 0 -0.00076119721446795763 -0.022001149262285313 0 -0.00011921348905756014 -0.021905090404752647 0 -0.00076119721446795763 -0.022001149262285313 0 -0.00019381031965540863 -0.022497283936491076 0 -0.0013187385245968393 -0.022003098665559946 0 -0.00076119721446795763 -0.022001149262285313 0 -0.00097262791198585792 -0.022586946693253916 0 -0.00076119721446795763 -0.022001149262285313 0 -0.00097262791198585792 -0.022586946693253916 0 -0.00049619904688305019 -0.022776682793935771 0 -0.0011445646251356111 -0.022985078497761935 0 -0.00097262791198585792 -0.022586946693253916 0 -0.00049582350687443484 -0.023212020937069103 0 -0.00097262791198585792 -0.022586946693253916 0 -0.00049582350687443484 -0.023212020937069103 0 -0.00049619904688305019 -0.022776682793935771 0 -0.0011445646251356111 -0.022985078497761935 0 -0.00049582350687443484 -0.023212020937069103 0 -0.00065086854470172251 -0.023466906663198419 0 -0.00049582350687443484 -0.023212020937069103 0 -0.00049619904688305019 -0.022776682793935771 0 -5.9225875738957035e-05 -0.023379729930987168 0 -0.00049582350687443484 -0.023212020937069103 0 -5.9225875738957035e-05 -0.023379729930987168 0 -0.00025674838272461665 -0.023525199174422941 0 -0.00049619904688305019 -0.022776682793935771 0 8.2215750323356884e-05 -0.023045621331192406 0 -5.9225875738957035e-05 -0.023379729930987168 0 -0.00076119721446795763 -0.022001149262285313 0 -0.00049619904688305019 -0.022776682793935771 0 -0.00019381031965540863 -0.022497283936491076 0 -0.00049619904688305019 -0.022776682793935771 0 -0.00019381031965540863 -0.022497283936491076 0 8.2215750323356884e-05 -0.023045621331192406 0 -0.00019381031965540863 -0.022497283936491076 0 8.2215750323356884e-05 -0.023045621331192406 0 0.00039777055230203493 -0.022333889073538216 0 8.2215750323356884e-05 -0.023045621331192406 0 -5.9225875738957035e-05 -0.023379729930987168 0 0.0002250433301616774 -0.02357698743327646 0 8.2215750323356884e-05 -0.023045621331192406 0 0.00046178014157807333 -0.023571001490232377 0 0.00061247142434254836 -0.023213830846479051 0 8.2215750323356884e-05 -0.023045621331192406 0 0.0002250433301616774 -0.02357698743327646 0 0.00046178014157807333 -0.023571001490232377 0 0.00046178014157807333 -0.023571001490232377 0 0.00061247142434254836 -0.023213830846479051 0 0.00066511103238559976 -0.02382156655368884 0 0.00068847410823395338 -0.023132551998287513 0 0.0010208568708478258 -0.022529550528578305 0 8.2215750323356884e-05 -0.023045621331192406 0 0.00061247142434254836 -0.023213830846479051 0 0.00039777055230203493 -0.022333889073538216 0 0.00039777055230203493 -0.022333889073538216 0 0.00070812393986916585 -0.02170582141217586 0 0.0013283248808508201 -0.022038260018178612 0 0.00061247142434254836 -0.023213830846479051 0 0.00039777055230203493 -0.022333889073538216 0 0.0013283248808508201 -0.022038260018178612 0 -0.00011921348905756014 -0.021905090404752647 0 -0.00019381031965540863 -0.022497283936491076 0 0.00039777055230203493 -0.022333889073538216 0 -0.00011921348905756014 -0.021905090404752647 0 0.00039777055230203493 -0.022333889073538216 0 0.00027683938532786019 -0.021616587097122233 0 0.00039777055230203493 -0.022333889073538216 0 0.00027683938532786019 -0.021616587097122233 0 0.00070812393986916585 -0.02170582141217586 0 -9.3611725691015942e-05 -0.021119451832747119 0 -0.00011921348905756014 -0.021905090404752647 0 0.00027683938532786019 -0.021616587097122233 0 -9.3611725691015942e-05 -0.021119451832747119 0 0.00027683938532786019 -0.021616587097122233 0 0.00060449441115212311 -0.021128551925221277 0 0.0010914100757203854 -0.021285865466217579 0 0.00070812393986916585 -0.02170582141217586 0 0.0013283248808508201 -0.022038260018178612 0 0.00060449441115212311 -0.021128551925221277 0 0.0010914100757203854 -0.021285865466217579 0 0.00070812393986916585 -0.02170582141217586 0 0.00027683938532786019 -0.021616587097122233 0 0.00060449441115212311 -0.021128551925221277 0 0.00070812393986916585 -0.02170582141217586 0 0.0014327248038322618 -0.021644398758974066 0 0.0010208568708478258 -0.022529550528578305 0 0.00089702056973194652 -0.022724858299937839 0 0.00099361056825609693 -0.02278649140367469 0 0.00080510065714937311 -0.022903048084547163 0 0.0017229613170900199 -0.021026659819047007 0 0.0010914100757203854 -0.021285865466217579 0 0.0013283248808508201 -0.022038260018178612 0 0.00025189316025343682 -0.025039594760053945 0 0.00021857370740529426 -0.024923439366112143 0 0.00011643865058974915 -0.025017809334489619 0 0.00069771257246755672 -0.023821037592782954 0 0.00068974953062000965 -0.02393698078417798 0 0.00025189316025343682 -0.025039594760053945 0 0.00021857370740529426 -0.024923439366112143 0 0.00047771370550859517 -0.024820187846332546 0 0.00021857370740529426 -0.024923439366112143 0 0.00047771370550859517 -0.024820187846332546 0 0.00019517738675263777 -0.024714861562906552 0 0.00099361056825609693 -0.02278649140367469 0 0.00096211906204527798 -0.023028820069368312 0 0.00080510065714937311 -0.022903048084547163 0 0.00047771370550859517 -0.024820187846332546 0 0.00066511103238559976 -0.02382156655368884 0 0.00036808468023487491 -0.024356345377750745 0 0.00061247142434254836 -0.023213830846479051 0 0.00096211906204527798 -0.023028820069368312 0 0.00080510065714937311 -0.022903048084547163 0 0.00061247142434254836 -0.023213830846479051 0 0.00096211906204527798 -0.023028820069368312 0 0.00066511103238559976 -0.02382156655368884 0 0.00068974953062000965 -0.02393698078417798 0 0.00068412661932496031 -0.023833871058072699 0 0.00066511103238559976 -0.02382156655368884 0 0.00043815650175938451 -0.024015568455147629 0 0.00036808468023487491 -0.024356345377750745 0 0.00046178014157807333 -0.023571001490232377 0 0.00066511103238559976 -0.02382156655368884 0 0.00040243719252325066 -0.023839021567200743 0 0.00043815650175938451 -0.024015568455147629 0 0.00019735065448643743 -0.024457795544520419 0 0.00036808468023487491 -0.024356345377750745 0 0.00043815650175938451 -0.024015568455147629 0 0.00019735065448643743 -0.024457795544520419 0 0.00024727751444609137 -0.024239211585158994 0 0.00019735065448643743 -0.024457795544520419 0 0.00036808468023487491 -0.024356345377750745 0 0.00019517738675263777 -0.024714861562906552 0 0.00047771370550859517 -0.024820187846332546 0 0.00036808468023487491 -0.024356345377750745 0 0.00019517738675263777 -0.024714861562906552 0 3.3064863836128233e-05 -0.024770707421102326 0 1.3288340708563639e-05 -0.024919384847290449 0 0.00010196380378607616 -0.024892921542779972 0 0.00019735065448643743 -0.024457795544520419 0 0.00019517738675263777 -0.024714861562906552 0 3.3064863836128233e-05 -0.024770707421102326 0 0.00019517738675263777 -0.024714861562906552 0 3.3064863836128233e-05 -0.024770707421102326 0 0.00010196380378607616 -0.024892921542779972 0 0.00019735065448643743 -0.024457795544520419 0 3.3064863836128233e-05 -0.024770707421102326 0 -4.0108372264032286e-05 -0.024673392583041975 0 0.00019735065448643743 -0.024457795544520419 0 -4.0108372264032286e-05 -0.024673392583041975 0 0.00024727751444609137 -0.024239211585158994 0 3.3064863836128233e-05 -0.024770707421102326 0 -4.0108372264032286e-05 -0.024673392583041975 0 -1.2147644226753013e-07 -0.024999829779701336 0 -4.0108372264032286e-05 -0.024673392583041975 0 -1.2147644226753013e-07 -0.024999829779701336 0 2.0457210182185464e-07 -0.024999039787703157 0 3.3064863836128233e-05 -0.024770707421102326 0 -1.2147644226753013e-07 -0.024999829779701336 0 1.3288340708563639e-05 -0.024919384847290449 0 -1.2147644226753013e-07 -0.024999829779701336 0 1.3288340708563639e-05 -0.024919384847290449 0 3.5612220569337489e-08 -0.024999847159108492 0 1.3288340708563639e-05 -0.024919384847290449 0 0.00010196380378607616 -0.024892921542779972 0 2.7623626456639343e-05 -0.024995304590298278 0 1.3288340708563639e-05 -0.024919384847290449 0 3.5612220569337489e-08 -0.024999847159108492 0 2.7623626456639343e-05 -0.024995304590298278 0 0.00021857370740529426 -0.024923439366112143 0 0.00010196380378607616 -0.024892921542779972 0 0.00011643865058974915 -0.025017809334489619 0 0.00010196380378607616 -0.024892921542779972 0 0.00011643865058974915 -0.025017809334489619 0 2.7623626456639343e-05 -0.024995304590298278 0 0.00021857370740529426 -0.024923439366112143 0 0.00019517738675263777 -0.024714861562906552 0 0.00010196380378607616 -0.024892921542779972 0 7.4235215348248873e-05 -0.025091881729622983 0 0.00011643865058974915 -0.025017809334489619 0 2.7623626456639343e-05 -0.024995304590298278 0 0.00014982904779225901 -0.02507556632487953 0 0.00025189316025343682 -0.025039594760053945 0 0.00011643865058974915 -0.025017809334489619 0 -1.4539251550978548e-09 -0.025000213056268549 0 7.4235215348248873e-05 -0.025091881729622983 0 2.7623626456639343e-05 -0.024995304590298278 0 -1.4539251550978548e-09 -0.025000213056268549 0 3.5612220569337489e-08 -0.024999847159108492 0 2.7623626456639343e-05 -0.024995304590298278 0 4.4560485247414415e-07 -0.024997299011697342 0 -7.6653566725623817e-09 -0.024999975036711915 0 2.7962665307536897e-09 -0.02499999968701198 0 0.00016192715113075949 -0.02407369226488788 0 0.00012269635239823301 -0.024059678211833649 0 0.00012197181479750245 -0.02411426615063909 0 2.9676895076183783e-05 -0.024501201016197249 0 0.00021037834739536361 -0.023893932989678492 0 0.00016192715113075949 -0.02407369226488788 0 0.00015421141401938672 -0.024034366989179518 0 0.00012269635239823301 -0.024059678211833649 0 8.8160614446642095e-05 -0.024540006202021823 0 2.9676895076183783e-05 -0.024501201016197249 0 4.4560485247414415e-07 -0.024997299011697342 0 2.7962665307536897e-09 -0.02499999968701198 0 5.7910608622433386e-07 -0.024997396695759289 0 2.7962665307536897e-09 -0.02499999968701198 0 5.7910608622433386e-07 -0.024997396695759289 0 -8.5137725697770084e-10 -0.024999995418041314 0 2.9676895076183783e-05 -0.024501201016197249 0 -2.9219681225994511e-07 -0.02500044318846974 0 -5.1340356060498766e-05 -0.024656640979549092 0 2.9676895076183783e-05 -0.024501201016197249 0 -4.0108372264032286e-05 -0.024673392583041975 0 -7.7140439041058592e-05 -0.024989612963320158 0 2.0457210182185464e-07 -0.024999039787703157 0 -4.0108372264032286e-05 -0.024673392583041975 0 -7.7703542601969138e-06 -0.023962712026166649 0 0.00019056490292138019 -0.024127130897093601 0 -4.0108372264032286e-05 -0.024673392583041975 0 0.00019056490292138019 -0.024127130897093601 0 0.00024727751444609137 -0.024239211585158994 0 -7.7703542601969138e-06 -0.023962712026166649 0 0.0002543365356575407 -0.023968208408589931 0 0.00026032015989965707 -0.023911443866260509 0 -7.7703542601969138e-06 -0.023962712026166649 0 0.00019056490292138019 -0.024127130897093601 0 0.0002543365356575407 -0.023968208408589931 0 0.0002543365356575407 -0.023968208408589931 0 0.00028263122881814112 -0.023925755965350605 0 0.00026032015989965707 -0.023911443866260509 0 0.0002543365356575407 -0.023968208408589931 0 0.00033653115363525496 -0.023986470906104024 0 0.00028263122881814112 -0.023925755965350605 0 0.00019056490292138019 -0.024127130897093601 0 0.0002543365356575407 -0.023968208408589931 0 0.00033653115363525496 -0.023986470906104024 0 0.00019056490292138019 -0.024127130897093601 0 0.00033653115363525496 -0.023986470906104024 0 0.00024727751444609137 -0.024239211585158994 0 0.00043815650175938451 -0.024015568455147629 0 0.00033653115363525496 -0.023986470906104024 0 0.00024727751444609137 -0.024239211585158994 0 0.00066511103238559976 -0.02382156655368884 0 0.00043815650175938451 -0.024015568455147629 0 0.00040243719252325066 -0.023839021567200743 0 0.00043815650175938451 -0.024015568455147629 0 0.00033653115363525496 -0.023986470906104024 0 0.00040243719252325066 -0.023839021567200743 0 0.00040243719252325066 -0.023839021567200743 0 0.00028263122881814112 -0.023925755965350605 0 0.0001795862499655057 -0.023911881026324782 0 0.00033653115363525496 -0.023986470906104024 0 0.00040243719252325066 -0.023839021567200743 0 0.00028263122881814112 -0.023925755965350605 0 0.00028263122881814112 -0.023925755965350605 0 0.00016874605461608596 -0.023961843076218379 0 0.0001795862499655057 -0.023911881026324782 0 0.00028263122881814112 -0.023925755965350605 0 0.00016874605461608596 -0.023961843076218379 0 0.00026032015989965707 -0.023911443866260509 0 0.00016874605461608596 -0.023961843076218379 0 0.00026032015989965707 -0.023911443866260509 0 8.6421434003820232e-05 -0.024080826461860473 0 0.00021037834739536361 -0.023893932989678492 0 7.8823110240518036e-05 -0.024110647475473222 0 0.00012269635239823301 -0.024059678211833649 0 8.6421434003820232e-05 -0.024080826461860473 0 0.00012197181479750245 -0.02411426615063909 0 0.00016874605461608596 -0.023961843076218379 0 8.6421434003820232e-05 -0.024080826461860473 0 3.3290817237352351e-06 -0.024017693568955646 0 8.6421434003820232e-05 -0.024080826461860473 0 3.3290817237352351e-06 -0.024017693568955646 0 -0.00011341668387781458 -0.02408994774570155 0 3.3290817237352351e-06 -0.024017693568955646 0 -1.401460726239809e-05 -0.023952245361003273 0 -0.00022196177494918857 -0.024046194297176932 0 3.3290817237352351e-06 -0.024017693568955646 0 -0.00022196177494918857 -0.024046194297176932 0 -0.00011341668387781458 -0.02408994774570155 0 -1.401460726239809e-05 -0.023952245361003273 0 -0.00019629636075544659 -0.023933659807455418 0 -0.00022196177494918857 -0.024046194297176932 0 3.3290817237352351e-06 -0.024017693568955646 0 -1.401460726239809e-05 -0.023952245361003273 0 0.0001795862499655057 -0.023911881026324782 0 0.00016874605461608596 -0.023961843076218379 0 3.3290817237352351e-06 -0.024017693568955646 0 0.0001795862499655057 -0.023911881026324782 0 -1.401460726239809e-05 -0.023952245361003273 0 0.0001795862499655057 -0.023911881026324782 0 3.6262871591165648e-05 -0.023775762067406711 0 0.00040243719252325066 -0.023839021567200743 0 0.0001795862499655057 -0.023911881026324782 0 3.6262871591165648e-05 -0.023775762067406711 0 0.0002250433301616774 -0.02357698743327646 0 0.00040243719252325066 -0.023839021567200743 0 3.6262871591165648e-05 -0.023775762067406711 0 0.0002250433301616774 -0.02357698743327646 0 0.00046178014157807333 -0.023571001490232377 0 0.00040243719252325066 -0.023839021567200743 0 -5.9225875738957035e-05 -0.023379729930987168 0 0.0002250433301616774 -0.02357698743327646 0 3.6262871591165648e-05 -0.023775762067406711 0 -5.9225875738957035e-05 -0.023379729930987168 0 3.6262871591165648e-05 -0.023775762067406711 0 -0.00025674838272461665 -0.023525199174422941 0 -1.401460726239809e-05 -0.023952245361003273 0 3.6262871591165648e-05 -0.023775762067406711 0 -0.00019629636075544659 -0.023933659807455418 0 3.6262871591165648e-05 -0.023775762067406711 0 -0.00040470610154248683 -0.02380184818152049 0 -0.00019629636075544659 -0.023933659807455418 0 3.6262871591165648e-05 -0.023775762067406711 0 -0.00040470610154248683 -0.02380184818152049 0 -0.00025674838272461665 -0.023525199174422941 0 -0.00049582350687443484 -0.023212020937069103 0 -0.00025674838272461665 -0.023525199174422941 0 -0.00065086854470172251 -0.023466906663198419 0 -0.00040470610154248683 -0.02380184818152049 0 -0.00025674838272461665 -0.023525199174422941 0 -0.00065086854470172251 -0.023466906663198419 0 -0.00065086854470172251 -0.023466906663198419 0 -0.00073196139126985641 -0.023699961606832527 0 -0.0010070017174373346 -0.023418381250181353 0 -0.00040470610154248683 -0.02380184818152049 0 -0.00073196139126985641 -0.023699961606832527 0 -0.00066359829696059094 -0.023993368461535523 0 -0.00040470610154248683 -0.02380184818152049 0 -0.00065086854470172251 -0.023466906663198419 0 -0.00073196139126985641 -0.023699961606832527 0 -0.00040470610154248683 -0.02380184818152049 0 -0.0004148288684728975 -0.0240043579496232 0 -0.00066359829696059094 -0.023993368461535523 0 -0.0004148288684728975 -0.0240043579496232 0 -0.00066359829696059094 -0.023993368461535523 0 -0.00052117656790099266 -0.023995085070632562 0 -0.0004148288684728975 -0.0240043579496232 0 -0.00019629636075544659 -0.023933659807455418 0 -0.00022196177494918857 -0.024046194297176932 0 -0.00040470610154248683 -0.02380184818152049 0 -0.0004148288684728975 -0.0240043579496232 0 -0.00019629636075544659 -0.023933659807455418 0 -0.0004148288684728975 -0.0240043579496232 0 -0.00022196177494918857 -0.024046194297176932 0 -0.00040018344926004494 -0.024029014864389502 0 -0.0004148288684728975 -0.0240043579496232 0 -0.00040018344926004494 -0.024029014864389502 0 -0.00052117656790099266 -0.023995085070632562 0 -0.00040018344926004494 -0.024029014864389502 0 -0.0002807974013691288 -0.024069861551615834 0 -0.00034622681338678185 -0.024041157653245819 0 -0.00022196177494918857 -0.024046194297176932 0 -0.00040018344926004494 -0.024029014864389502 0 -0.0002807974013691288 -0.024069861551615834 0 -0.0002807974013691288 -0.024069861551615834 0 -0.00034622681338678185 -0.024041157653245819 0 -0.00020540814352387857 -0.02412702826696897 0 -0.00040018344926004494 -0.024029014864389502 0 -0.00034622681338678185 -0.024041157653245819 0 -0.00041723287144952839 -0.023972198244344215 0 -0.00034622681338678185 -0.024041157653245819 0 -0.00033815021002831072 -0.02402178089631251 0 -0.00039457323665110589 -0.023923724897281021 0 -0.00033815021002831072 -0.02402178089631251 0 -0.00024264736448989228 -0.02415894090504599 0 -0.00025105903233162071 -0.02419546598516753 0 -0.00034622681338678185 -0.024041157653245819 0 -0.00033815021002831072 -0.02402178089631251 0 -0.00024264736448989228 -0.02415894090504599 0 -0.00034622681338678185 -0.024041157653245819 0 -0.00024264736448989228 -0.02415894090504599 0 -0.00020540814352387857 -0.02412702826696897 0 -0.00024264736448989228 -0.02415894090504599 0 -0.00012434938407381962 -0.024232776783758785 0 -0.00020540814352387857 -0.02412702826696897 0 -0.00024264736448989228 -0.02415894090504599 0 -0.00014249130730802526 -0.024358158434974183 0 -0.00025105903233162071 -0.02419546598516753 0 -0.00024264736448989228 -0.02415894090504599 0 -0.00012434938407381962 -0.024232776783758785 0 -0.00014249130730802526 -0.024358158434974183 0 -0.00012434938407381962 -0.024232776783758785 0 -5.0210451009772113e-05 -0.02434197106144758 0 -0.00014249130730802526 -0.024358158434974183 0 -0.00012434938407381962 -0.024232776783758785 0 -6.6056308539875959e-05 -0.024153990011414283 0 -0.00020540814352387857 -0.02412702826696897 0 -6.6056308539875959e-05 -0.024153990011414283 0 -0.00020540814352387857 -0.02412702826696897 0 -0.00011341668387781458 -0.02408994774570155 0 -0.00022196177494918857 -0.024046194297176932 0 -0.0002807974013691288 -0.024069861551615834 0 -0.00011341668387781458 -0.02408994774570155 0 -0.0002807974013691288 -0.024069861551615834 0 -0.00020540814352387857 -0.02412702826696897 0 -0.00011341668387781458 -0.02408994774570155 0 8.6421434003820232e-05 -0.024080826461860473 0 -6.6056308539875959e-05 -0.024153990011414283 0 -0.00011341668387781458 -0.02408994774570155 0 8.6421434003820232e-05 -0.024080826461860473 0 -6.6056308539875959e-05 -0.024153990011414283 0 2.8001634896730691e-05 -0.024222632684585205 0 8.6421434003820232e-05 -0.024080826461860473 0 2.8001634896730691e-05 -0.024222632684585205 0 0.00012197181479750245 -0.02411426615063909 0 2.8001634896730691e-05 -0.024222632684585205 0 5.4160718852089409e-05 -0.024330782514344368 0 0.00011967977323975154 -0.024236841057909651 0 2.8001634896730691e-05 -0.024222632684585205 0 0.00011967977323975154 -0.024236841057909651 0 0.00012197181479750245 -0.02411426615063909 0 -0.00012434938407381962 -0.024232776783758785 0 -6.6056308539875959e-05 -0.024153990011414283 0 2.8001634896730691e-05 -0.024222632684585205 0 -0.00012434938407381962 -0.024232776783758785 0 2.8001634896730691e-05 -0.024222632684585205 0 -5.0210451009772113e-05 -0.02434197106144758 0 -5.0210451009772113e-05 -0.02434197106144758 0 -5.5220619191796269e-05 -0.024470558000410026 0 -0.00014249130730802526 -0.024358158434974183 0 -5.5220619191796269e-05 -0.024470558000410026 0 1.3844141656199347e-05 -0.024495121186908157 0 3.6485045479435458e-05 -0.024702303914507815 0 -5.0210451009772113e-05 -0.02434197106144758 0 -5.5220619191796269e-05 -0.024470558000410026 0 1.3844141656199347e-05 -0.024495121186908157 0 -5.0210451009772113e-05 -0.02434197106144758 0 1.3844141656199347e-05 -0.024495121186908157 0 5.4160718852089409e-05 -0.024330782514344368 0 2.8001634896730691e-05 -0.024222632684585205 0 -5.0210451009772113e-05 -0.02434197106144758 0 5.4160718852089409e-05 -0.024330782514344368 0 1.3844141656199347e-05 -0.024495121186908157 0 5.4160718852089409e-05 -0.024330782514344368 0 0.00020771054871778126 -0.024381330638157742 0 5.4160718852089409e-05 -0.024330782514344368 0 0.00020771054871778126 -0.024381330638157742 0 0.00011967977323975154 -0.024236841057909651 0 0.00020771054871778126 -0.024381330638157742 0 9.4319629493495825e-05 -0.024852375549635805 0 3.6485045479435458e-05 -0.024702303914507815 0 1.3844141656199347e-05 -0.024495121186908157 0 0.00020771054871778126 -0.024381330638157742 0 3.6485045479435458e-05 -0.024702303914507815 0 -1.7372388199381173e-08 -0.024999869976886802 0 2.1595459782276118e-05 -0.02501709153998094 0 9.4319629493495825e-05 -0.024852375549635805 0 0.00011073418988174702 -0.024696985181526524 0 9.8782326211965051e-05 -0.024833111799142812 0 -1.7372388199381173e-08 -0.024999869976886802 0 2.1595459782276118e-05 -0.02501709153998094 0 3.1629593712059563e-08 -0.02500007086232009 0 2.1595459782276118e-05 -0.02501709153998094 0 3.1629593712059563e-08 -0.02500007086232009 0 5.4748898954656815e-07 -0.0249978307588056 0 0.00011073418988174702 -0.024696985181526524 0 9.5815277008502687e-05 -0.024581150243890376 0 0.00020771054871778126 -0.024381330638157742 0 0.00011967977323975154 -0.024236841057909651 0 0.00019139349804080479 -0.024160700450424615 0 0.00011967977323975154 -0.024236841057909651 0 0.00012197181479750245 -0.02411426615063909 0 0.00019139349804080479 -0.024160700450424615 0 0.00016192715113075949 -0.02407369226488788 0 0.00012197181479750245 -0.02411426615063909 0 0.00019139349804080479 -0.024160700450424615 0 -7.6653566725623817e-09 -0.024999975036711915 0 3.1629593712059563e-08 -0.02500007086232009 0 5.4748898954656815e-07 -0.0249978307588056 0 8.8160614446642095e-05 -0.024540006202021823 0 9.5815277008502687e-05 -0.024581150243890376 0 4.4560485247414415e-07 -0.024997299011697342 0 -7.6653566725623817e-09 -0.024999975036711915 0 5.4748898954656815e-07 -0.0249978307588056 0 -0.00036756756586663297 -0.015614846025000453 0 0.00027689900919622374 -0.015016512885436028 0 -0.0010967155477498293 -0.014932874289795197 0 -0.00036756756586663297 -0.015614846025000453 0 0.00027689900919622374 -0.015016512885436028 0 0.000642970259177803 -0.015655012840290652 0 0.00027689900919622374 -0.015016512885436028 0 0.000642970259177803 -0.015655012840290652 0 0.0016513841036453183 -0.015092639136722062 0 0.00030773447725843974 -0.01622857817149808 0 0.0012397017804496474 -0.016085095827638177 0 0.00082351628940189117 -0.017080191337486658 0 0.000642970259177803 -0.015655012840290652 0 0.00030773447725843974 -0.01622857817149808 0 0.0012397017804496474 -0.016085095827638177 0 0.00030773447725843974 -0.01622857817149808 0 -0.00028262323651300419 -0.016324225591074999 0 0.00011321400716666989 -0.016626279962677994 0 -0.00036756756586663297 -0.015614846025000453 0 0.000642970259177803 -0.015655012840290652 0 0.00030773447725843974 -0.01622857817149808 0 -0.00036756756586663297 -0.015614846025000453 0 0.00030773447725843974 -0.01622857817149808 0 -0.00028262323651300419 -0.016324225591074999 0 -0.00095963584245496389 -0.016267291921752129 0 -0.001079396247353292 -0.016289049965022912 0 -0.0010967155477498293 -0.014932874289795197 0 -0.00056431501509345071 -0.014807708851058811 0 -0.0003691093240642365 -0.014670927518433857 0 -0.00036756756586663297 -0.015614846025000453 0 -0.00028262323651300419 -0.016324225591074999 0 -0.00095963584245496389 -0.016267291921752129 0 -0.00043016245656796528 -0.013742703030363948 0 -0.0003691093240642365 -0.014670927518433857 0 0.0015001105744489797 -0.012481105684893374 0 0.0019474537060771725 -0.012395535904324037 0 0.0016365065665074655 -0.012094142112130293 0 0.0015354729031652333 -0.011724405888998748 0 0.0016365065665074655 -0.012094142112130293 0 0.0019430594532204983 -0.011772205127749263 0 0.0019474537060771725 -0.012395535904324037 0 0.0016365065665074655 -0.012094142112130293 0 0.0019430594532204983 -0.011772205127749263 0 -0.0003691093240642365 -0.014670927518433857 0 0.00076428224522294376 -0.012894318183424696 0 -0.00036756756586663297 -0.015614846025000453 0 -0.00095963584245496389 -0.016267291921752129 0 -0.0010967155477498293 -0.014932874289795197 0 0.0016754911609428553 -0.011693941420051007 0 0.0016394465846106432 -0.01157290406647501 0 0.0016995195160647589 -0.011749509370971412 0 0.0016768793658799616 -0.01172804924357451 0 0.0016754911609428553 -0.011693941420051007 0 0.0016995195160647589 -0.011749509370971412 0 0.00076428224522294376 -0.012894318183424696 0 0.0012070430327738204 -0.011717795828716434 0 0.0015354729031652333 -0.011724405888998748 0 0.0016754911609428553 -0.011693941420051007 0 0.0016394465846106432 -0.01157290406647501 0 0.0019338333567260047 -0.011635602204987848 0 0.00076428224522294376 -0.012894318183424696 0 0.0015354729031652333 -0.011724405888998748 0 0.001674081704842501 -0.011752406046228675 0 0.0016754911609428553 -0.011693941420051007 0 0.0016664204355110407 -0.011106870930230007 0 0.0014603442793542191 -0.010889057283117185 0 0.0019139847437162935 -0.011098371771710204 0 0.0016664204355110407 -0.011106870930230007 0 0.0018506631963543555 -0.011192441391212522 0 0.0019139847437162935 -0.011098371771710204 0 0.0017228519387978312 -0.011375547706871852 0 0.0017470791254090192 -0.011459621495274176 0 0.0018506631963543555 -0.011192441391212522 0 0.0019139847437162935 -0.011098371771710204 0 0.0019219941456772433 -0.011099584537374816 0 0.0018762899678276522 -0.01096345809873453 0 0.0018573914171090475 -0.010974043460207803 0 0.0019139847437162935 -0.011098371771710204 0 0.0019219941456772433 -0.011099584537374816 0 0.0018926836378114315 -0.011095992666456009 0 0.0017470791254090192 -0.011459621495274176 0 0.0020042208492536046 -0.011045572755719567 0 0.0019219941456772433 -0.011099584537374816 0 0.0018926836378114315 -0.011095992666456009 0 0.0018341513199574343 -0.01103425868844171 0 0.0018519576414723537 -0.01083175586618914 0 0.0018809979979791619 -0.010836844677550065 0 0.0018087079075304385 -0.010839686140719153 0 0.001688422619060661 -0.011834359800105925 0 0.0016995195160647589 -0.011749509370971412 0 0.0016856502851674059 -0.011857941189196967 0 0.0009891263079056425 -0.013249726909249122 0 0.00076428224522294376 -0.012894318183424696 0 0.001688422619060661 -0.011834359800105925 0 0.0016768793658799616 -0.01172804924357451 0 0.0016995195160647589 -0.011749509370971412 0 0.001688422619060661 -0.011834359800105925 0 0.0016856502851674059 -0.011857941189196967 0 0.0016846587232072438 -0.011903341768820748 0 0.0017657798693324932 -0.01089309892904816 0 0.0018087079075304385 -0.010839686140719153 0 0.0017495772332672506 -0.010920811917802085 0 0.0018087079075304385 -0.010839686140719153 0 0.0017495772332672506 -0.010920811917802085 0 0.0017385910947893555 -0.010993311334442141 0 0.0018573914171090475 -0.010974043460207803 0 0.0017491426022407431 -0.010998569091377138 0 0.0018926836378114315 -0.011095992666456009 0 0.0018341513199574343 -0.01103425868844171 0 0.0017321335150160566 -0.011005510436266172 0 0.0020042208492536046 -0.011045572755719567 0 0.00043361063951367711 -0.015733728816071959 0 0.0017495772332672506 -0.010920811917802085 0 0.0017385910947893555 -0.010993311334442141 0 0.0017547917612664751 -0.010968468686681202 0 0.0018087079075304385 -0.010839686140719153 0 0.0017321335150160566 -0.011005510436266172 0 0.0017385910947893555 -0.010993311334442141 0 0.0018341513199574343 -0.01103425868844171 0 0.0017321335150160566 -0.011005510436266172 0 0.0016977652793142423 -0.010990607759880894 0 0.0017297127585366647 -0.010911263725827243 0 0.0017495772332672506 -0.010920811917802085 0 0.0017547917612664751 -0.010968468686681202 0 0.0017321335150160566 -0.011005510436266172 0 0.0017154652360139252 -0.011056651615867032 0 0.0016977652793142423 -0.010990607759880894 0 -0.00068544188907841772 -0.017580376949833353 0 0.00043361063951367711 -0.015733728816071959 0 0.0017321335150160566 -0.011005510436266172 0 0.0017385910947893555 -0.010993311334442141 0 0.0017154652360139252 -0.011056651615867032 0 0.0018109268379128205 -0.013064345632103059 0 -0.00068544188907841772 -0.017580376949833353 0 0.00043361063951367711 -0.015733728816071959 0 -0.0017262841006414754 -0.022321907592926838 0 -0.002255864675852164 -0.023194304951593803 0 -0.0019484451258917062 -0.023174321117827801 0 -0.0021434243690727525 -0.023449259602937061 0 -0.0018386750445056569 -0.023355959870688059 0 -0.0021434243690727525 -0.023449259602937061 0 -0.0016902412208706628 -0.023519827163450465 0 -0.0019484451258917062 -0.023174321117827801 0 -0.0018386750445056569 -0.023355959870688059 0 -0.0017289238114453055 -0.023237694248840614 0 -0.0019484451258917062 -0.023174321117827801 0 -0.0018386750445056569 -0.023355959870688059 0 -0.0021434243690727525 -0.023449259602937061 0 -0.00044360631260099688 -0.019266554281022932 0 -0.00052317120350403969 -0.019287965761118346 0 -0.00047695848764065006 -0.019206325211527184 0 -0.00052317120350403969 -0.019287965761118346 0 -0.00049371094937144665 -0.019209207946826345 0 -0.00047695848764065006 -0.019206325211527184 0 0.00043361063951367711 -0.015733728816071959 0 0.00071584257927229979 -0.017996646498299192 0 0.0016887724908707582 -0.011924629755747741 0 0.0016914956926786468 -0.011966525999158959 0 0.0017338563912732033 -0.012018965509932433 0 0.0016887724908707582 -0.011924629755747741 0 0.0016914956926786468 -0.011966525999158959 0 0.0016868378486117812 -0.011934596333836056 0 0.0016914956926786468 -0.011966525999158959 0 0.0016694403717333365 -0.012019356641865908 0 0.0017338563912732033 -0.012018965509932433 0 0.0018729442598841733 -0.012940265040090805 0 0.0011705671212403183 -0.015196119263021954 0 0.0016846587232072438 -0.011903341768820748 0 0.0016868378486117812 -0.011934596333836056 0 0.0016847850455862271 -0.011956095994545815 0 0.0016914956926786468 -0.011966525999158959 0 0.0016868378486117812 -0.011934596333836056 0 0.0016847850455862271 -0.011956095994545815 0 0.001688422619060661 -0.011834359800105925 0 0.0016846587232072438 -0.011903341768820748 0 0.0016847850455862271 -0.011956095994545815 0 0.0016856502851674059 -0.011857941189196967 0 0.0016887724908707582 -0.011924629755747741 0 0.0016846587232072438 -0.011903341768820748 0 0.0016887724908707582 -0.011924629755747741 0 0.0016846587232072438 -0.011903341768820748 0 0.0016868378486117812 -0.011934596333836056 0 -0.0011445646251356111 -0.022985078497761935 0 -0.00065086854470172251 -0.023466906663198419 0 -0.0010070017174373346 -0.023418381250181353 0 -0.0011445646251356111 -0.022985078497761935 0 -0.0010070017174373346 -0.023418381250181353 0 -0.0012883675492443185 -0.023212806683302972 0 -0.00073196139126985641 -0.023699961606832527 0 -0.0010070017174373346 -0.023418381250181353 0 -0.0011358511427503979 -0.023600452496516714 0 -0.0010070017174373346 -0.023418381250181353 0 -0.0012883675492443185 -0.023212806683302972 0 -0.0013438851472602066 -0.023409442200084663 0 -0.0010070017174373346 -0.023418381250181353 0 -0.0013438851472602066 -0.023409442200084663 0 -0.0011358511427503979 -0.023600452496516714 0 -0.0013438851472602066 -0.023409442200084663 0 -0.0016984336512973102 -0.023613493121781917 0 -0.0011358511427503979 -0.023600452496516714 0 -0.0013438851472602066 -0.023409442200084663 0 -0.0016365012261906041 -0.023407240223442767 0 -0.0016984336512973102 -0.023613493121781917 0 -0.0013438851472602066 -0.023409442200084663 0 -0.0015333495897156618 -0.023254208064834133 0 -0.0016365012261906041 -0.023407240223442767 0 -0.0016771918286059423 -0.023036361732746473 0 -0.0012883675492443185 -0.023212806683302972 0 -0.0015333495897156618 -0.023254208064834133 0 -0.0012883675492443185 -0.023212806683302972 0 -0.0013438851472602066 -0.023409442200084663 0 -0.0015333495897156618 -0.023254208064834133 0 -0.0016771918286059423 -0.023036361732746473 0 -0.0019484451258917062 -0.023174321117827801 0 -0.0017289238114453055 -0.023237694248840614 0 -0.0016771918286059423 -0.023036361732746473 0 -0.0015333495897156618 -0.023254208064834133 0 -0.0017289238114453055 -0.023237694248840614 0 -0.0015333495897156618 -0.023254208064834133 0 -0.0017289238114453055 -0.023237694248840614 0 -0.0016365012261906041 -0.023407240223442767 0 -0.0018386750445056569 -0.023355959870688059 0 -0.0017289238114453055 -0.023237694248840614 0 -0.0016365012261906041 -0.023407240223442767 0 -0.0018448725329681189 -0.023034408553266498 0 -0.0017262841006414754 -0.022321907592926838 0 -0.0018386750445056569 -0.023355959870688059 0 -0.0016365012261906041 -0.023407240223442767 0 -0.0016902412208706628 -0.023519827163450465 0 -0.0011908743466795464 -0.023769214865823066 0 -0.00066359829696059094 -0.023993368461535523 0 -0.0015745502083498704 -0.024002914091512968 0 -0.0013826160634241287 -0.023543294837796606 0 -0.0011908743466795464 -0.023769214865823066 0 -0.0015745502083498704 -0.024002914091512968 0 -0.0017262841006414754 -0.022321907592926838 0 -0.0003032825067852818 -0.021028697991033452 0 -0.0017262841006414754 -0.022321907592926838 0 -0.0011560600269989142 -0.0233575805590539 0 -0.0013826160634241287 -0.023543294837796606 0 -0.0011908743466795464 -0.023769214865823066 0 -0.0011358511427503979 -0.023600452496516714 0 -0.0011908743466795464 -0.023769214865823066 0 -0.0011358511427503979 -0.023600452496516714 0 -0.00066359829696059094 -0.023993368461535523 0 -0.00073196139126985641 -0.023699961606832527 0 -0.0011358511427503979 -0.023600452496516714 0 -0.00066359829696059094 -0.023993368461535523 0 -0.00066359829696059094 -0.023993368461535523 0 -0.00049746543468316066 -0.023993045502095189 0 -0.00052117656790099266 -0.023995085070632562 0 -0.00066359829696059094 -0.023993368461535523 0 -0.00049746543468316066 -0.023993045502095189 0 -0.00039212307843374396 -0.024060624019543595 0 -0.00095361169362353105 -0.024827089364261146 0 -0.0003032825067852818 -0.021028697991033452 0 -0.00049746543468316066 -0.023993045502095189 0 -0.00044294106399508909 -0.023994451404096433 0 -0.00045994175211299022 -0.023984777399482328 0 -0.00049746543468316066 -0.023993045502095189 0 -0.00042274409852774842 -0.024014473553342637 0 -0.00039212307843374396 -0.024060624019543595 0 -0.00049746543468316066 -0.023993045502095189 0 -0.00042274409852774842 -0.024014473553342637 0 -0.00044294106399508909 -0.023994451404096433 0 -0.00042274409852774842 -0.024014473553342637 0 -0.00044294106399508909 -0.023994451404096433 0 -0.00041400865451979768 -0.024002468670069603 0 -0.00044294106399508909 -0.023994451404096433 0 -0.00041400865451979768 -0.024002468670069603 0 -0.00041914209236811582 -0.023990082060249194 0 -0.00041914209236811582 -0.023990082060249194 0 -0.00041005473866570442 -0.02398023949695071 0 -0.00045994175211299022 -0.023984777399482328 0 -0.00044294106399508909 -0.023994451404096433 0 -0.00041914209236811582 -0.023990082060249194 0 -0.00045994175211299022 -0.023984777399482328 0 -0.00041914209236811582 -0.023990082060249194 0 -0.00041005473866570442 -0.02398023949695071 0 -0.00040189376715897367 -0.023986239864577093 0 -0.00041005473866570442 -0.02398023949695071 0 -0.00042646223945672394 -0.023972522565750855 0 -0.00045994175211299022 -0.023984777399482328 0 -0.00041005473866570442 -0.02398023949695071 0 -0.00042646223945672394 -0.023972522565750855 0 -0.00038695338863123016 -0.023966946423764592 0 -0.00042646223945672394 -0.023972522565750855 0 -0.00045994175211299022 -0.023984777399482328 0 -0.00045887166716446513 -0.023979351455893753 0 -0.00049746543468316066 -0.023993045502095189 0 -0.00045994175211299022 -0.023984777399482328 0 -0.00052117656790099266 -0.023995085070632562 0 -0.00040018344926004494 -0.024029014864389502 0 -0.00045887166716446513 -0.023979351455893753 0 -0.00052117656790099266 -0.023995085070632562 0 -0.00045994175211299022 -0.023984777399482328 0 -0.00045887166716446513 -0.023979351455893753 0 -0.00052117656790099266 -0.023995085070632562 0 0.0009891263079056425 -0.013249726909249122 0 0.0011705671212403183 -0.015196119263021954 0 0.000642970259177803 -0.015655012840290652 0 0.0016513841036453183 -0.015092639136722062 0 0.0012397017804496474 -0.016085095827638177 0 0.00060892742093130814 -0.019655605900356345 0 0.00069190066872534069 -0.020557850326742629 0 0.00015388846215929586 -0.020849157169603342 0 0.0011705671212403183 -0.015196119263021954 0 0.00062268417183878092 -0.018742623231390011 0 0.00060892742093130814 -0.019655605900356345 0 0.001194781743815321 -0.01968496897724914 0 0.0010581156413755879 -0.019889555352303436 0 0.0011705671212403183 -0.015196119263021954 0 0.00071584257927229979 -0.017996646498299192 0 0.00060892742093130814 -0.019655605900356345 0 0.00092257317966368193 -0.020055387965903292 0 0.00069190066872534069 -0.020557850326742629 0 0.00060892742093130814 -0.019655605900356345 0 0.0010581156413755879 -0.019889555352303436 0 0.00092257317966368193 -0.020055387965903292 0 0.0010766401607531062 -0.019542252103599635 0 0.00058349607707717643 -0.019518964898210121 0 0.00087442628044921949 -0.020173992243254005 0 -0.0003032825067852818 -0.021028697991033452 0 0.00071584257927229979 -0.017996646498299192 0 0.001194781743815321 -0.01968496897724914 0 0.0010581156413755879 -0.019889555352303436 0 0.0013203221433202147 -0.019974148763911244 0 0.00071584257927229979 -0.017996646498299192 0 0.0004098130216445699 -0.02113267570578849 0 0.0010581156413755879 -0.019889555352303436 0 0.0013203221433202147 -0.019974148763911244 0 0.0010709869011962735 -0.020084987237915564 0 -0.00042274409852774842 -0.024014473553342637 0 -0.00039212307843374396 -0.024060624019543595 0 -0.00039474402666865046 -0.024017422118294437 0 -0.0003032825067852818 -0.021028697991033452 0 0.0004098130216445699 -0.02113267570578849 0 -0.00041400865451979768 -0.024002468670069603 0 -0.00039474402666865046 -0.024017422118294437 0 -0.00039119657215250133 -0.02399731562213369 0 0.0013203221433202147 -0.019974148763911244 0 0.0010709869011962735 -0.020084987237915564 0 0.00098287601155153635 -0.020418569697411723 0 -0.00042274409852774842 -0.024014473553342637 0 -0.00041400865451979768 -0.024002468670069603 0 -0.00039474402666865046 -0.024017422118294437 0 0.00092257317966368193 -0.020055387965903292 0 0.00098287601155153635 -0.020418569697411723 0 0.00069190066872534069 -0.020557850326742629 0 0.0010709869011962735 -0.020084987237915564 0 0.00092257317966368193 -0.020055387965903292 0 0.00098287601155153635 -0.020418569697411723 0 0.0010581156413755879 -0.019889555352303436 0 0.0010709869011962735 -0.020084987237915564 0 0.00092257317966368193 -0.020055387965903292 0 -0.00039119657215250133 -0.02399731562213369 0 -0.00038660237261868059 -0.02397846175695513 0 -0.00034891089037342507 -0.023962497040819625 0 0.00098287601155153635 -0.020418569697411723 0 0.00069190066872534069 -0.020557850326742629 0 0.00080370415100875284 -0.021433466457102583 0 0.0013203221433202147 -0.019974148763911244 0 0.00098287601155153635 -0.020418569697411723 0 0.00080370415100875284 -0.021433466457102583 0 -0.00039474402666865046 -0.024017422118294437 0 -0.00039119657215250133 -0.02399731562213369 0 -0.00034891089037342507 -0.023962497040819625 0 0.00069190066872534069 -0.020557850326742629 0 0.00055253567360574469 -0.021148229109589245 0 0.00080370415100875284 -0.021433466457102583 0 0.0004098130216445699 -0.02113267570578849 0 0.00021641411307098078 -0.022879136488881763 0 -0.00039119657215250133 -0.02399731562213369 0 -0.00040189376715897367 -0.023986239864577093 0 -0.00038660237261868059 -0.02397846175695513 0 -0.00041400865451979768 -0.024002468670069603 0 -0.00041914209236811582 -0.023990082060249194 0 -0.00039119657215250133 -0.02399731562213369 0 -0.00041914209236811582 -0.023990082060249194 0 -0.00039119657215250133 -0.02399731562213369 0 -0.00040189376715897367 -0.023986239864577093 0 -0.00041005473866570442 -0.02398023949695071 0 -0.00040189376715897367 -0.023986239864577093 0 -0.00038660237261868059 -0.02397846175695513 0 -0.00038660237261868059 -0.02397846175695513 0 -0.00038695338863123016 -0.023966946423764592 0 -0.00034891089037342507 -0.023962497040819625 0 -0.00041005473866570442 -0.02398023949695071 0 -0.00038660237261868059 -0.02397846175695513 0 -0.00038695338863123016 -0.023966946423764592 0 0.00069190066872534069 -0.020557850326742629 0 0.00055253567360574469 -0.021148229109589245 0 0.00015388846215929586 -0.020849157169603342 0 0.00055253567360574469 -0.021148229109589245 0 0.00015388846215929586 -0.020849157169603342 0 -0.00024477754018879751 -0.021840288246654641 0 0.00055253567360574469 -0.021148229109589245 0 0.00080370415100875284 -0.021433466457102583 0 -0.00019005815102868224 -0.021957586260029728 0 0.00080370415100875284 -0.021433466457102583 0 0.00031711787518495246 -0.02265021085692755 0 -0.00019005815102868224 -0.021957586260029728 0 0.00062268417183878092 -0.018742623231390011 0 0.00036970204847441011 -0.020131098695172028 0 0.00013463471075502744 -0.021749861345298032 0 0.00036970204847441011 -0.020131098695172028 0 -0.00038695338863123016 -0.023966946423764592 0 -0.00037173548750299928 -0.023950023675580294 0 -0.00040738716776185713 -0.0239513146926085 0 -0.00038695338863123016 -0.023966946423764592 0 -0.00034891089037342507 -0.023962497040819625 0 -0.00037173548750299928 -0.023950023675580294 0 -0.00034891089037342507 -0.023962497040819625 0 -0.00037173548750299928 -0.023950023675580294 0 -0.00034273702975255689 -0.023914370973501131 0 -0.00037173548750299928 -0.023950023675580294 0 -0.00034273702975255689 -0.023914370973501131 0 -0.00040738716776185713 -0.0239513146926085 0 -0.00034891089037342507 -0.023962497040819625 0 -0.00034273702975255689 -0.023914370973501131 0 -0.00021706151163787592 -0.023856663246371451 0 -0.00034273702975255689 -0.023914370973501131 0 -0.00039214380778600737 -0.023903465880905063 0 -0.00034173375301729407 -0.023827423454576131 0 -0.00034273702975255689 -0.023914370973501131 0 -0.00021706151163787592 -0.023856663246371451 0 -0.00034173375301729407 -0.023827423454576131 0 0.00021641411307098078 -0.022879136488881763 0 4.4528556625275411e-05 -0.023186323985747225 0 -0.00040018344926004494 -0.024029014864389502 0 -0.00045887166716446513 -0.023979351455893753 0 -0.00041723287144952839 -0.023972198244344215 0 -0.00045887166716446513 -0.023979351455893753 0 -0.00040738716776185713 -0.0239513146926085 0 -0.00041723287144952839 -0.023972198244344215 0 -0.00042646223945672394 -0.023972522565750855 0 -0.00045887166716446513 -0.023979351455893753 0 -0.00040738716776185713 -0.0239513146926085 0 -0.00042646223945672394 -0.023972522565750855 0 -0.00038695338863123016 -0.023966946423764592 0 -0.00040738716776185713 -0.0239513146926085 0 -0.00040738716776185713 -0.0239513146926085 0 -0.00039214380778600737 -0.023903465880905063 0 -0.00041723287144952839 -0.023972198244344215 0 -0.00034273702975255689 -0.023914370973501131 0 -0.00040738716776185713 -0.0239513146926085 0 -0.00039214380778600737 -0.023903465880905063 0 -0.00039214380778600737 -0.023903465880905063 0 -0.00041723287144952839 -0.023972198244344215 0 -0.00039457323665110589 -0.023923724897281021 0 -0.00034622681338678185 -0.024041157653245819 0 -0.00041723287144952839 -0.023972198244344215 0 -0.00039457323665110589 -0.023923724897281021 0 -0.00039457323665110589 -0.023923724897281021 0 -0.00037734473687922501 -0.02378070343092421 0 -0.00037714414110911825 -0.023843427761780882 0 -0.00039214380778600737 -0.023903465880905063 0 -0.00039457323665110589 -0.023923724897281021 0 -0.00037734473687922501 -0.02378070343092421 0 -0.00039214380778600737 -0.023903465880905063 0 -0.00037734473687922501 -0.02378070343092421 0 -0.00034173375301729407 -0.023827423454576131 0 -0.00037734473687922501 -0.02378070343092421 0 -0.00037714414110911825 -0.023843427761780882 0 -0.00034632706387290204 -0.023582717066604038 0 -0.00033815021002831072 -0.02402178089631251 0 -0.00039457323665110589 -0.023923724897281021 0 -0.00037714414110911825 -0.023843427761780882 0 -0.00033815021002831072 -0.02402178089631251 0 -0.00037714414110911825 -0.023843427761780882 0 -0.00032910455187051693 -0.024015741116343862 0 4.4528556625275411e-05 -0.023186323985747225 0 -0.00012718687613722478 -0.023309537432885018 0 0.00031711787518495246 -0.02265021085692755 0 -0.00015790907967695874 -0.023284996771709931 0 -0.0002491569860047518 -0.023067627950409408 0 -0.00021706151163787592 -0.023856663246371451 0 -0.00029978195445456307 -0.023611633572634964 0 -0.00015790907967695874 -0.023284996771709931 0 -0.00037734473687922501 -0.02378070343092421 0 -0.00029978195445456307 -0.023611633572634964 0 -0.00034173375301729407 -0.023827423454576131 0 -0.00021706151163787592 -0.023856663246371451 0 -0.00029978195445456307 -0.023611633572634964 0 -0.00034173375301729407 -0.023827423454576131 0 -0.00037734473687922501 -0.02378070343092421 0 -0.00029978195445456307 -0.023611633572634964 0 -0.00034632706387290204 -0.023582717066604038 0 -0.00029978195445456307 -0.023611633572634964 0 -0.00034632706387290204 -0.023582717066604038 0 -0.00015790907967695874 -0.023284996771709931 0 -0.00025212862015440966 -0.023077747576483253 0 -0.0002491569860047518 -0.023067627950409408 0 -0.00023550006713205001 -0.02301887779328252 0 -0.00015790907967695874 -0.023284996771709931 0 -0.0002491569860047518 -0.023067627950409408 0 -0.00023550006713205001 -0.02301887779328252 0 -9.9649823190563499e-06 -0.021586382812096017 0 -0.00049274057352249043 -0.021918687349257889 0 -0.00073044815640988057 -0.021575886253672048 0 -9.9649823190563499e-06 -0.021586382812096017 0 -0.00049274057352249043 -0.021918687349257889 0 -0.00019472614170692364 -0.022471989391527863 0 -0.00012764512792355227 -0.022280991789284048 0 -0.00020566468876115454 -0.022506287908811953 0 -9.9649823190563499e-06 -0.021586382812096017 0 -0.00011199410422639718 -0.020931964139244648 0 -0.00073044815640988057 -0.021575886253672048 0 -9.9649823190563499e-06 -0.021586382812096017 0 0.00024406585774001447 -0.020976615064941122 0 -0.00011199410422639718 -0.020931964139244648 0 -0.00025212862015440966 -0.023077747576483253 0 -0.0002491569860047518 -0.023067627950409408 0 -0.00037475131083510439 -0.022763724056413224 0 -0.00012764512792355227 -0.022280991789284048 0 -0.00011828122099868237 -0.022045586880051562 0 0.00031711787518495246 -0.02265021085692755 0 -0.0002491569860047518 -0.023067627950409408 0 -0.00037475131083510439 -0.022763724056413224 0 -0.00011828122099868237 -0.022045586880051562 0 0.00036970204847441011 -0.020131098695172028 0 8.6061772162412276e-06 -0.019450506963350156 0 0.00036970204847441011 -0.020131098695172028 0 0.00024406585774001447 -0.020976615064941122 0 -0.00011199410422639718 -0.020931964139244648 0 0.00049670557186624832 -0.020358092917439553 0 0.00031711787518495246 -0.02265021085692755 0 -0.00037475131083510439 -0.022763724056413224 0 -0.00019005815102868224 -0.021957586260029728 0 -9.9217622777844467e-05 -0.017921361824017493 0 -0.00039512176996500859 -0.016872824506477663 0 0.00082351628940189117 -0.017080191337486658 0 -0.00039512176996500859 -0.016872824506477663 0 0.00011321400716666989 -0.016626279962677994 0 0.00082351628940189117 -0.017080191337486658 0 -0.00028262323651300419 -0.016324225591074999 0 -0.00039512176996500859 -0.016872824506477663 0 0.00011321400716666989 -0.016626279962677994 0 0.00030773447725843974 -0.01622857817149808 0 0.00011321400716666989 -0.016626279962677994 0 0.00082351628940189117 -0.017080191337486658 0 -0.0025570505957699359 -0.015179250756596057 0 -0.0021600931300287626 -0.015082313907153746 0 -0.0024279439708245238 -0.015418898486604255 0 -0.0021600931300287626 -0.015082313907153746 0 -0.0024279439708245238 -0.015418898486604255 0 -0.0021449339426826445 -0.015542591492572914 0 -0.0003691093240642365 -0.014670927518433857 0 -0.0017534077451505428 -0.01654754277803169 0 -0.0010816426032399795 -0.016290145738784276 0 -0.00039512176996500859 -0.016872824506477663 0 -0.0010601979082998255 -0.017534934513361671 0 -0.00028262323651300419 -0.016324225591074999 0 -0.00095963584245496389 -0.016267291921752129 0 -0.00039512176996500859 -0.016872824506477663 0 -0.00095963584245496389 -0.016267291921752129 0 -0.0010816426032399795 -0.016290145738784276 0 -0.00039512176996500859 -0.016872824506477663 0 -9.9217622777844467e-05 -0.017921361824017493 0 -0.00039512176996500859 -0.016872824506477663 0 -0.0010601979082998255 -0.017534934513361671 0 -0.0027109597455326983 -0.015527946342302795 0 -0.0024279439708245238 -0.015418898486604255 0 -0.0024709812715643384 -0.015717994848876992 0 -0.0024279439708245238 -0.015418898486604255 0 -0.0021449339426826445 -0.015542591492572914 0 -0.0024709812715643384 -0.015717994848876992 0 -0.0024709812715643384 -0.015717994848876992 0 -0.0019004389273479835 -0.016053674284815213 0 -0.0026018712962099502 -0.016117966269009115 0 -0.0021449339426826445 -0.015542591492572914 0 -0.0024709812715643384 -0.015717994848876992 0 -0.0019004389273479835 -0.016053674284815213 0 -0.0027523450708178635 -0.015881038833203014 0 -0.0024709812715643384 -0.015717994848876992 0 -0.0026018712962099502 -0.016117966269009115 0 -0.0017534077451505428 -0.01654754277803169 0 -0.001334375749786123 -0.018408660300782202 0 -9.9217622777844467e-05 -0.017921361824017493 0 -0.0010601979082998255 -0.017534934513361671 0 -0.0010299313482893897 -0.018767871023267338 0 8.6061772162412276e-06 -0.019450506963350156 0 -0.001334375749786123 -0.018408660300782202 0 -0.0010384579892394983 -0.015297642350547249 0 -0.0019758643633034615 -0.01615116522585882 0 -0.00096243682859735186 -0.022074717045511054 0 -0.001334375749786123 -0.018408660300782202 0 -0.0010594537003324482 -0.017430493684359852 0 -0.0026018712962099502 -0.016117966269009115 0 -0.0024514788779148025 -0.016349869712616948 0 -0.0028304607068105241 -0.0165678810080809 0 -0.0019004389273479835 -0.016053674284815213 0 -0.0019758643633034615 -0.01615116522585882 0 -0.0024514788779148025 -0.016349869712616948 0 -0.0019004389273479835 -0.016053674284815213 0 -0.0026018712962099502 -0.016117966269009115 0 -0.0024514788779148025 -0.016349869712616948 0 -0.0019758643633034615 -0.01615116522585882 0 -0.0024514788779148025 -0.016349869712616948 0 -0.0028509501108413514 -0.017225565256986784 0 -0.0028509501108413514 -0.017225565256986784 0 -0.0028304607068105241 -0.0165678810080809 0 -0.0028668134626457049 -0.016564277559397777 0 -0.0024514788779148025 -0.016349869712616948 0 -0.0028509501108413514 -0.017225565256986784 0 -0.0028304607068105241 -0.0165678810080809 0 -0.0028509501108413514 -0.017225565256986784 0 -0.0034727300161976633 -0.021023889364934281 0 -0.00096243682859735186 -0.022074717045511054 0 -0.0028509501108413514 -0.017225565256986784 0 -0.0028668134626457049 -0.016564277559397777 0 -0.0030793815874885187 -0.016220577345950258 0 -0.002920700257920465 -0.017367882247332787 0 -0.0031696134912031653 -0.018549957723947928 0 -0.0028668134626457049 -0.016564277559397777 0 -0.0030793815874885187 -0.016220577345950258 0 -0.0029027880231403107 -0.016153556254920685 0 -0.001334375749786123 -0.018408660300782202 0 -0.00081378518178598744 -0.021947385247881722 0 -0.00049274057352249043 -0.021918687349257889 0 -0.00096243682859735186 -0.022074717045511054 0 -0.00019472614170692364 -0.022471989391527863 0 -0.0019758643633034615 -0.01615116522585882 0 -0.0028509501108413514 -0.017225565256986784 0 -0.00096243682859735186 -0.022074717045511054 0 -0.00049274057352249043 -0.021918687349257889 0 -0.00073044815640988057 -0.021575886253672048 0 -0.00096243682859735186 -0.022074717045511054 0 -0.00096243682859735186 -0.022074717045511054 0 -9.773149976723388e-05 -0.022850388600624667 0 -0.00019472614170692364 -0.022471989391527863 0 -0.00096243682859735186 -0.022074717045511054 0 -0.0034352452253946712 -0.023466861581103525 0 -9.773149976723388e-05 -0.022850388600624667 0 -0.0012691044658534535 -0.023680971949785624 0 -0.0010309681204278632 -0.023811554338634491 0 -0.0010018668217512386 -0.023713816544883439 0 -0.0027002092755819278 -0.019707290272997408 0 -0.00054186598708254297 -0.023846100657082869 0 -0.0034727300161976633 -0.021023889364934281 0 -0.00096243682859735186 -0.022074717045511054 0 -0.0034352452253946712 -0.023466861581103525 0 -0.0030793815874885187 -0.016220577345950258 0 -0.0030705118294713043 -0.015980594009453897 0 -0.0029027880231403107 -0.016153556254920685 0 -0.0031696134912031653 -0.018549957723947928 0 -0.0027002092755819278 -0.019707290272997408 0 -0.0012691044658534535 -0.023680971949785624 0 -0.0011811335450549471 -0.023923219366915785 0 -0.0013052024109807938 -0.023896244183269851 0 -0.0027002092755819278 -0.019707290272997408 0 -0.0022510430423807993 -0.019704057387933786 0 -0.0012691044658534535 -0.023680971949785624 0 -0.0011265739318681162 -0.02384735548680229 0 -0.0011811335450549471 -0.023923219366915785 0 -0.0012691044658534535 -0.023680971949785624 0 -0.0010309681204278632 -0.023811554338634491 0 -0.0011265739318681162 -0.02384735548680229 0 -0.0010309681204278632 -0.023811554338634491 0 -0.0010685509730448859 -0.023957409538498106 0 -0.00095060373912305351 -0.023892930177759505 0 -0.0010309681204278632 -0.023811554338634491 0 -0.0011265739318681162 -0.02384735548680229 0 -0.0010685509730448859 -0.023957409538498106 0 -0.0011265739318681162 -0.02384735548680229 0 -0.0010685509730448859 -0.023957409538498106 0 -0.0011811335450549471 -0.023923219366915785 0 -0.0010685509730448859 -0.023957409538498106 0 -0.0011811335450549471 -0.023923219366915785 0 -0.0011612121850188867 -0.024030116464605268 0 -0.0011811335450549471 -0.023923219366915785 0 -0.0011612121850188867 -0.024030116464605268 0 -0.0013052024109807938 -0.023896244183269851 0 -0.0011612121850188867 -0.024030116464605268 0 -0.0012485914291976341 -0.024059272666619978 0 -0.0013052024109807938 -0.023896244183269851 0 -0.00073256616499851575 -0.023976605396422639 0 -0.00095060373912305351 -0.023892930177759505 0 -0.00080887287632639706 -0.024109006707875028 0 -0.00095060373912305351 -0.023892930177759505 0 -0.00095461259429540648 -0.024074811114744608 0 -0.00080887287632639706 -0.024109006707875028 0 -0.0010685509730448859 -0.023957409538498106 0 -0.00095060373912305351 -0.023892930177759505 0 -0.00095461259429540648 -0.024074811114744608 0 -0.0010309681204278632 -0.023811554338634491 0 -0.00095060373912305351 -0.023892930177759505 0 -0.0010018668217512386 -0.023713816544883439 0 -0.00095060373912305351 -0.023892930177759505 0 -0.00082553579013472367 -0.023843317848797556 0 -0.0010018668217512386 -0.023713816544883439 0 -0.00073256616499851575 -0.023976605396422639 0 -0.00095060373912305351 -0.023892930177759505 0 -0.00082553579013472367 -0.023843317848797556 0 -0.00043478445211338662 -0.023344700766806066 0 -0.00054186598708254297 -0.023846100657082869 0 -0.00082553579013472367 -0.023843317848797556 0 -0.00074616316327639457 -0.023721651461961951 0 -0.0010018668217512386 -0.023713816544883439 0 -0.00016523709879835328 -0.023101676388414493 0 -9.773149976723388e-05 -0.022850388600624667 0 -0.00019472614170692364 -0.022471989391527863 0 -0.00025212862015440966 -0.023077747576483253 0 -0.00019472614170692364 -0.022471989391527863 0 -0.00023550006713205001 -0.02301887779328252 0 -0.00016523709879835328 -0.023101676388414493 0 -0.00019472614170692364 -0.022471989391527863 0 -0.00023550006713205001 -0.02301887779328252 0 -0.00016523709879835328 -0.023101676388414493 0 -0.00023550006713205001 -0.02301887779328252 0 -0.00024526703299757122 -0.023328588097745875 0 -0.00034632706387290204 -0.023582717066604038 0 -0.00015790907967695874 -0.023284996771709931 0 -0.00024526703299757122 -0.023328588097745875 0 -0.00015790907967695874 -0.023284996771709931 0 -0.00023550006713205001 -0.02301887779328252 0 -0.00024526703299757122 -0.023328588097745875 0 -0.00034632706387290204 -0.023582717066604038 0 -0.00024526703299757122 -0.023328588097745875 0 -0.00039546377608698556 -0.0236615945184298 0 -0.00016523709879835328 -0.023101676388414493 0 -0.00024526703299757122 -0.023328588097745875 0 -0.00039546377608698556 -0.0236615945184298 0 -0.00074616316327639457 -0.023721651461961951 0 -0.00039546377608698556 -0.0236615945184298 0 -0.00059626774064047575 -0.023877641244129989 0 -0.00043478445211338662 -0.023344700766806066 0 -0.00037393658315513947 -0.023639795884988355 0 -0.00037714414110911825 -0.023843427761780882 0 -0.00035654346897388616 -0.023780791957990113 0 -0.00032910455187051693 -0.024015741116343862 0 -0.00034632706387290204 -0.023582717066604038 0 -0.00039546377608698556 -0.0236615945184298 0 -0.00035654346897388616 -0.023780791957990113 0 -0.00037714414110911825 -0.023843427761780882 0 -0.00034632706387290204 -0.023582717066604038 0 -0.00035654346897388616 -0.023780791957990113 0 -0.00039546377608698556 -0.0236615945184298 0 -0.00035654346897388616 -0.023780791957990113 0 -0.00032404140281649404 -0.023895735194398166 0 -0.00039546377608698556 -0.0236615945184298 0 -0.00032404140281649404 -0.023895735194398166 0 -0.00041791500983662282 -0.023895610395465238 0 -0.00035654346897388616 -0.023780791957990113 0 -0.00032404140281649404 -0.023895735194398166 0 -0.00032910455187051693 -0.024015741116343862 0 -0.00032037716632325194 -0.023935867750019144 0 -0.00022701569425520734 -0.024135469489196343 0 -0.00032404140281649404 -0.023895735194398166 0 -0.00032910455187051693 -0.024015741116343862 0 -0.00031220371374443545 -0.024161672534112569 0 -0.00032404140281649404 -0.023895735194398166 0 -0.00026627476566636987 -0.024154071544875848 0 -0.00017677333792479047 -0.024192117019453528 0 -0.00032404140281649404 -0.023895735194398166 0 -0.00014503497066387222 -0.024120618849181395 0 -0.00017677333792479047 -0.024192117019453528 0 -0.00032404140281649404 -0.023895735194398166 0 -0.00036385652548266706 -0.024026370907252834 0 -0.00041791500983662282 -0.023895610395465238 0 -0.00032404140281649404 -0.023895735194398166 0 -0.00036385652548266706 -0.024026370907252834 0 -0.00026627476566636987 -0.024154071544875848 0 -0.00036385652548266706 -0.024026370907252834 0 -0.00036549816653548345 -0.024159269555016068 0 -0.00046361883645806644 -0.024038821870906137 0 -0.00036549816653548345 -0.024159269555016068 0 -0.00026627476566636987 -0.024154071544875848 0 -0.00027886177291147011 -0.024241828278636669 0 -0.00036549816653548345 -0.024159269555016068 0 -0.00027886177291147011 -0.024241828278636669 0 -0.00035238612711715122 -0.024228293189767582 0 -0.00036385652548266706 -0.024026370907252834 0 -0.00036549816653548345 -0.024159269555016068 0 -0.00026627476566636987 -0.024154071544875848 0 -0.00026627476566636987 -0.024154071544875848 0 -0.0002001219184251304 -0.024249858109996251 0 -0.00027886177291147011 -0.024241828278636669 0 -0.00026627476566636987 -0.024154071544875848 0 -0.0002001219184251304 -0.024249858109996251 0 -0.00017677333792479047 -0.024192117019453528 0 -0.00073256616499851575 -0.023976605396422639 0 -0.00082553579013472367 -0.023843317848797556 0 -0.00059626774064047575 -0.023877641244129989 0 -0.00082553579013472367 -0.023843317848797556 0 -0.00074616316327639457 -0.023721651461961951 0 -0.00059626774064047575 -0.023877641244129989 0 -0.00039546377608698556 -0.0236615945184298 0 -0.00059626774064047575 -0.023877641244129989 0 -0.00041791500983662282 -0.023895610395465238 0 -0.00059626774064047575 -0.023877641244129989 0 -0.00041791500983662282 -0.023895610395465238 0 -0.00046361883645806644 -0.024038821870906137 0 -0.00036385652548266706 -0.024026370907252834 0 -0.00041791500983662282 -0.023895610395465238 0 -0.00046361883645806644 -0.024038821870906137 0 -0.00036549816653548345 -0.024159269555016068 0 -0.00046361883645806644 -0.024038821870906137 0 -0.00049771791856841811 -0.024197406569950005 0 -0.00046361883645806644 -0.024038821870906137 0 -0.00060179514307412657 -0.024082933433303807 0 -0.00049771791856841811 -0.024197406569950005 0 -0.00059626774064047575 -0.023877641244129989 0 -0.00046361883645806644 -0.024038821870906137 0 -0.00060179514307412657 -0.024082933433303807 0 -0.00073256616499851575 -0.023976605396422639 0 -0.00059626774064047575 -0.023877641244129989 0 -0.00060179514307412657 -0.024082933433303807 0 -0.00073256616499851575 -0.023976605396422639 0 -0.00060179514307412657 -0.024082933433303807 0 -0.00080887287632639706 -0.024109006707875028 0 -0.00060179514307412657 -0.024082933433303807 0 -0.00064448461347597094 -0.024255514265168573 0 -0.00049771791856841811 -0.024197406569950005 0 -0.00060179514307412657 -0.024082933433303807 0 -0.00064448461347597094 -0.024255514265168573 0 -0.00080887287632639706 -0.024109006707875028 0 -0.00064448461347597094 -0.024255514265168573 0 -0.00049771791856841811 -0.024197406569950005 0 -0.00035684775257915528 -0.024287469203355384 0 -0.00064448461347597094 -0.024255514265168573 0 -0.00051280242020163599 -0.024384302296910153 0 -0.00042935994029341597 -0.024352195875484071 0 -0.00063494622335157167 -0.024266181865421444 0 -0.00039919667111879372 -0.024319785169195841 0 -0.00051280242020163599 -0.024384302296910153 0 -0.00059823790474660017 -0.024426177166573297 0 -0.00044512114942121865 -0.024492121336810533 0 -0.00064448461347597094 -0.024255514265168573 0 -0.00051280242020163599 -0.024384302296910153 0 -0.00059823790474660017 -0.024426177166573297 0 -0.00064448461347597094 -0.024255514265168573 0 -0.00059823790474660017 -0.024426177166573297 0 -0.00085357813839110708 -0.024277873498540853 0 -0.0002001219184251304 -0.024249858109996251 0 -0.00027886177291147011 -0.024241828278636669 0 -0.0001601206003449271 -0.024337688702994596 0 -0.00042935994029341597 -0.024352195875484071 0 -0.00040904681827495798 -0.024413078006342067 0 -0.00019226548968927381 -0.024472571709062241 0 -0.00039919667111879372 -0.024319785169195841 0 -0.00017899709860144449 -0.024406369684428351 0 -0.00027886177291147011 -0.024241828278636669 0 -0.00035684775257915528 -0.024287469203355384 0 -0.0001601206003449271 -0.024337688702994596 0 -0.00027886177291147011 -0.024241828278636669 0 -0.00035238612711715122 -0.024228293189767582 0 -0.00035684775257915528 -0.024287469203355384 0 -0.00035238612711715122 -0.024228293189767582 0 -0.00039274796699908344 -0.024218805077897771 0 -0.00035684775257915528 -0.024287469203355384 0 -0.00036549816653548345 -0.024159269555016068 0 -0.00049771791856841811 -0.024197406569950005 0 -0.00039274796699908344 -0.024218805077897771 0 -0.00049771791856841811 -0.024197406569950005 0 -0.00039274796699908344 -0.024218805077897771 0 -0.00035684775257915528 -0.024287469203355384 0 -0.00036549816653548345 -0.024159269555016068 0 -0.00035238612711715122 -0.024228293189767582 0 -0.00039274796699908344 -0.024218805077897771 0 -0.00051280242020163599 -0.024384302296910153 0 -0.00040904681827495798 -0.024413078006342067 0 -0.00044512114942121865 -0.024492121336810533 0 -0.00040904681827495798 -0.024413078006342067 0 -0.000339659662398554 -0.024510947036359348 0 -0.00044512114942121865 -0.024492121336810533 0 -0.00051280242020163599 -0.024384302296910153 0 -0.00042935994029341597 -0.024352195875484071 0 -0.00040904681827495798 -0.024413078006342067 0 -0.00040904681827495798 -0.024413078006342067 0 -0.000339659662398554 -0.024510947036359348 0 -0.00025180693224009787 -0.024471647498499376 0 -0.00040904681827495798 -0.024413078006342067 0 -0.00019226548968927381 -0.024472571709062241 0 -0.00020259146303657481 -0.024557429645254029 0 -0.00039484346008880047 -0.024430125688794737 0 -0.00022786922361326537 -0.024510874692926884 0 -0.000339659662398554 -0.024510947036359348 0 -0.00044512114942121865 -0.024492121336810533 0 -0.00031363342372193293 -0.024625960183441951 0 -0.000339659662398554 -0.024510947036359348 0 -0.00031363342372193293 -0.024625960183441951 0 -0.00024413078867150691 -0.024572378915021866 0 -0.00044512114942121865 -0.024492121336810533 0 -0.00031363342372193293 -0.024625960183441951 0 -0.00048772538914942004 -0.024583070676517993 0 -0.00094694509135213618 -0.02357197665262473 0 -0.0010210611733702838 -0.023564163085409165 0 -0.00094477067619393087 -0.023458162132686488 0 -0.00069602027359569904 -0.024156209141994046 0 -0.00072096362393681934 -0.024079928701916282 0 -0.0010740275457736793 -0.023681830783380327 0 -0.00094694509135213618 -0.02357197665262473 0 -0.0010210611733702838 -0.023564163085409165 0 -0.0010740275457736793 -0.023681830783380327 0 -0.0011146693492889998 -0.023710404573738113 0 -0.0010210611733702838 -0.023564163085409165 0 -0.00059823790474660017 -0.024426177166573297 0 -0.00069736385206335498 -0.024545278397301647 0 -0.00085357813839110708 -0.024277873498540853 0 -0.00059823790474660017 -0.024426177166573297 0 -0.00044512114942121865 -0.024492121336810533 0 -0.00048772538914942004 -0.024583070676517993 0 -0.00059823790474660017 -0.024426177166573297 0 -0.00048772538914942004 -0.024583070676517993 0 -0.00069736385206335498 -0.024545278397301647 0 -0.00072096362393681934 -0.024079928701916282 0 -0.00070756412024727247 -0.024046103125256322 0 -0.00094694509135213618 -0.02357197665262473 0 -0.0009022078686120816 -0.02345215004528679 0 -0.00082138059293538485 -0.023435581711106303 0 -0.00094694509135213618 -0.02357197665262473 0 -0.0009022078686120816 -0.02345215004528679 0 -0.00094477067619393087 -0.023458162132686488 0 -0.00074543919753821536 -0.023535255695190802 0 -0.00082138059293538485 -0.023435581711106303 0 -0.00069909989925207884 -0.023302643755079552 0 -0.00094694509135213618 -0.02357197665262473 0 -0.00074543919753821536 -0.023535255695190802 0 -0.00082138059293538485 -0.023435581711106303 0 -0.00074543919753821536 -0.023535255695190802 0 -0.0003554664600328268 -0.023490757069203966 0 -0.00069909989925207884 -0.023302643755079552 0 -0.00070756412024727247 -0.024046103125256322 0 -0.00069201245708242452 -0.023936689081148588 0 -0.00069736385206335498 -0.024545278397301647 0 -0.00093215774593454154 -0.02449612777588973 0 -0.00085357813839110708 -0.024277873498540853 0 -0.00093215774593454154 -0.02449612777588973 0 -0.0010662232337342134 -0.024277253184790099 0 -0.00085357813839110708 -0.024277873498540853 0 -0.00069201245708242452 -0.023936689081148588 0 -0.00029863244084466764 -0.024414560273686416 0 -0.0003554664600328268 -0.023490757069203966 0 0.00010856116938069722 -0.023460625809549187 0 -8.0235915821816461e-05 -0.023175339507758037 0 -0.0011645999119247882 -0.024440874822144361 0 -0.001206926833158539 -0.024257618829707329 0 -0.001354350051309654 -0.024254892275542062 0 -0.0011645999119247882 -0.024440874822144361 0 -0.0010662232337342134 -0.024277253184790099 0 -0.001206926833158539 -0.024257618829707329 0 -0.00093215774593454154 -0.02449612777588973 0 -0.0011645999119247882 -0.024440874822144361 0 -0.0010662232337342134 -0.024277253184790099 0 -0.0010662232337342134 -0.024277253184790099 0 -0.0011578328839089958 -0.024157680555407006 0 -0.0010697461636616349 -0.024116170541477175 0 -0.0010662232337342134 -0.024277253184790099 0 -0.001206926833158539 -0.024257618829707329 0 -0.0011578328839089958 -0.024157680555407006 0 -0.001206926833158539 -0.024257618829707329 0 -0.0011578328839089958 -0.024157680555407006 0 -0.0012821712310572653 -0.024117427377314163 0 -0.0011578328839089958 -0.024157680555407006 0 -0.0012485914291976341 -0.024059272666619978 0 -0.0012821712310572653 -0.024117427377314163 0 -0.0011578328839089958 -0.024157680555407006 0 -0.0011612121850188867 -0.024030116464605268 0 -0.0012485914291976341 -0.024059272666619978 0 -0.0010685509730448859 -0.023957409538498106 0 -0.0010697461636616349 -0.024116170541477175 0 -0.00095461259429540648 -0.024074811114744608 0 -0.0010685509730448859 -0.023957409538498106 0 -0.0011612121850188867 -0.024030116464605268 0 -0.0010697461636616349 -0.024116170541477175 0 -0.0011578328839089958 -0.024157680555407006 0 -0.0011612121850188867 -0.024030116464605268 0 -0.0010697461636616349 -0.024116170541477175 0 -0.0010697461636616349 -0.024116170541477175 0 -0.00095461259429540648 -0.024074811114744608 0 -0.00085357813839110708 -0.024277873498540853 0 -0.00095461259429540648 -0.024074811114744608 0 -0.00080887287632639706 -0.024109006707875028 0 -0.00085357813839110708 -0.024277873498540853 0 -0.00064448461347597094 -0.024255514265168573 0 -0.00080887287632639706 -0.024109006707875028 0 -0.00085357813839110708 -0.024277873498540853 0 -0.0010662232337342134 -0.024277253184790099 0 -0.0010697461636616349 -0.024116170541477175 0 -0.00085357813839110708 -0.024277873498540853 0 -8.0403484077221293e-06 -0.024890628682221052 0 -2.2715780901827968e-05 -0.0247989409943002 0 4.1047570818163025e-09 -0.024999839671803095 0 -8.0403484077221293e-06 -0.024890628682221052 0 -1.0148929808973577e-08 -0.024999864981883838 0 4.1047570818163025e-09 -0.024999839671803095 0 -8.0403484077221293e-06 -0.024890628682221052 0 -2.1337847731386447e-05 -0.024791330921227973 0 -2.2715780901827968e-05 -0.0247989409943002 0 -8.0403484077221293e-06 -0.024890628682221052 0 -2.1337847731386447e-05 -0.024791330921227973 0 -6.0753415241110405e-06 -0.024857299376509795 0 -2.1337847731386447e-05 -0.024791330921227973 0 -6.0753415241110405e-06 -0.024857299376509795 0 -3.3024209454165608e-05 -0.024711465210131425 0 -6.0753415241110405e-06 -0.024857299376509795 0 -9.9382113928298786e-06 -0.024773833211155793 0 -3.3024209454165608e-05 -0.024711465210131425 0 -8.0403484077221293e-06 -0.024890628682221052 0 -6.0753415241110405e-06 -0.024857299376509795 0 -1.0148929808973577e-08 -0.024999864981883838 0 -6.0753415241110405e-06 -0.024857299376509795 0 -1.0148929808973577e-08 -0.024999864981883838 0 2.4501430352611167e-08 -0.024999732218133206 0 -6.0753415241110405e-06 -0.024857299376509795 0 2.4501430352611167e-08 -0.024999732218133206 0 -9.9382113928298786e-06 -0.024773833211155793 0 1.978578174515135e-07 -0.024999590733770945 0 9.4319629493495825e-05 -0.024852375549635805 0 5.8483340706605509e-05 -0.024806371332081221 0 1.3444514042527411e-08 -0.024999913233952328 0 1.9557269453809291e-05 -0.024787627207170929 0 -1.7372388199381173e-08 -0.024999869976886802 0 1.978578174515135e-07 -0.024999590733770945 0 9.4319629493495825e-05 -0.024852375549635805 0 9.4319629493495825e-05 -0.024852375549635805 0 3.6485045479435458e-05 -0.024702303914507815 0 5.8483340706605509e-05 -0.024806371332081221 0 1.9557269453809291e-05 -0.024787627207170929 0 -4.6846124588697389e-05 -0.024626440629248049 0 -9.9382113928298786e-06 -0.024773833211155793 0 -5.0797413277909224e-05 -0.024585544684980941 0 -3.3024209454165608e-05 -0.024711465210131425 0 3.6485045479435458e-05 -0.024702303914507815 0 5.8483340706605509e-05 -0.024806371332081221 0 -5.0797413277909224e-05 -0.024585544684980941 0 -5.5220619191796269e-05 -0.024470558000410026 0 3.6485045479435458e-05 -0.024702303914507815 0 -5.0797413277909224e-05 -0.024585544684980941 0 -5.5220619191796269e-05 -0.024470558000410026 0 -5.0797413277909224e-05 -0.024585544684980941 0 -0.00014249130730802526 -0.024358158434974183 0 -5.0797413277909224e-05 -0.024585544684980941 0 -7.4038343902570753e-05 -0.024571933241709896 0 -0.00015379948892420303 -0.02440236734131121 0 -5.0797413277909224e-05 -0.024585544684980941 0 -3.3024209454165608e-05 -0.024711465210131425 0 -7.4038343902570753e-05 -0.024571933241709896 0 -3.3024209454165608e-05 -0.024711465210131425 0 -4.2762844842872522e-05 -0.024691517782013127 0 -7.4038343902570753e-05 -0.024571933241709896 0 -2.1337847731386447e-05 -0.024791330921227973 0 -4.2762844842872522e-05 -0.024691517782013127 0 -2.2715780901827968e-05 -0.0247989409943002 0 -2.1337847731386447e-05 -0.024791330921227973 0 -3.3024209454165608e-05 -0.024711465210131425 0 -4.2762844842872522e-05 -0.024691517782013127 0 -4.2762844842872522e-05 -0.024691517782013127 0 -7.4038343902570753e-05 -0.024571933241709896 0 -5.5226997710364266e-05 -0.024601564401525163 0 -5.9991117059690848e-05 -0.024499134441342912 0 -7.4038343902570753e-05 -0.024571933241709896 0 -5.5226997710364266e-05 -0.024601564401525163 0 -5.9991117059690848e-05 -0.024499134441342912 0 -7.026077369288715e-05 -0.024402488138808916 0 -6.044881693315326e-05 -0.024348314557394387 0 -5.9991117059690848e-05 -0.024499134441342912 0 -7.026077369288715e-05 -0.024402488138808916 0 -6.5856274635578711e-05 -0.024437388591452402 0 -5.9991117059690848e-05 -0.024499134441342912 0 -6.044881693315326e-05 -0.024348314557394387 0 -7.4038343902570753e-05 -0.024571933241709896 0 -0.00021040883023840535 -0.024404030300622572 0 -7.4038343902570753e-05 -0.024571933241709896 0 -0.00015379948892420303 -0.02440236734131121 0 -0.00013709272623246003 -0.024377721169731772 0 -7.7582071000345133e-05 -0.024540055609543605 0 -5.0797413277909224e-05 -0.024585544684980941 0 -0.00015379948892420303 -0.02440236734131121 0 -0.00014249130730802526 -0.024358158434974183 0 -0.00015379948892420303 -0.02440236734131121 0 -0.00014249130730802526 -0.024358158434974183 0 -0.00025105903233162071 -0.02419546598516753 0 -0.00015379948892420303 -0.02440236734131121 0 -0.0002571971676156454 -0.024232663100998409 0 -0.00025105903233162071 -0.02419546598516753 0 -0.00021040883023840535 -0.024404030300622572 0 -0.00015379948892420303 -0.02440236734131121 0 -0.0002571971676156454 -0.024232663100998409 0 -0.0002571971676156454 -0.024232663100998409 0 -0.00025105903233162071 -0.02419546598516753 0 -0.00032910455187051693 -0.024015741116343862 0 -0.00033815021002831072 -0.02402178089631251 0 -0.00025105903233162071 -0.02419546598516753 0 -0.00032910455187051693 -0.024015741116343862 0 -0.0002571971676156454 -0.024232663100998409 0 -0.00032910455187051693 -0.024015741116343862 0 -0.00031220371374443545 -0.024161672534112569 0 -0.00014503497066387222 -0.024120618849181395 0 -0.00010072418954162886 -0.024313831004612943 0 -0.00017677333792479047 -0.024192117019453528 0 -0.00021040883023840535 -0.024404030300622572 0 -0.0002571971676156454 -0.024232663100998409 0 -0.00031220371374443545 -0.024161672534112569 0 -0.00013709272623246003 -0.024377721169731772 0 -0.00022701569425520734 -0.024135469489196343 0 -6.044881693315326e-05 -0.024348314557394387 0 -0.00014503497066387222 -0.024120618849181395 0 -0.00010072418954162886 -0.024313831004612943 0 -7.026077369288715e-05 -0.024402488138808916 0 -6.044881693315326e-05 -0.024348314557394387 0 -0.00010072418954162886 -0.024313831004612943 0 -7.026077369288715e-05 -0.024402488138808916 0 -0.00010072418954162886 -0.024313831004612943 0 -6.5856274635578711e-05 -0.024437388591452402 0 -0.00010072418954162886 -0.024313831004612943 0 -0.00013298632190953294 -0.024312512044913814 0 -6.5856274635578711e-05 -0.024437388591452402 0 -0.00010072418954162886 -0.024313831004612943 0 -0.00013298632190953294 -0.024312512044913814 0 -0.00017677333792479047 -0.024192117019453528 0 -0.0002001219184251304 -0.024249858109996251 0 -0.00013298632190953294 -0.024312512044913814 0 -0.00017677333792479047 -0.024192117019453528 0 -0.0002001219184251304 -0.024249858109996251 0 -0.00013298632190953294 -0.024312512044913814 0 -0.0001601206003449271 -0.024337688702994596 0 -0.00017899709860144449 -0.024406369684428351 0 -4.1782797852917388e-05 -0.02451264146318478 0 -0.00013298632190953294 -0.024312512044913814 0 -0.0001601206003449271 -0.024337688702994596 0 -6.5856274635578711e-05 -0.024437388591452402 0 -0.00019226548968927381 -0.024472571709062241 0 -0.00011664890791315388 -0.024563497757073005 0 -1.6350343911652094e-05 -0.024585409762998556 0 -8.8413626158484839e-05 -0.024556852078311504 0 -0.00025180693224009787 -0.024471647498499376 0 -0.00017704185880698629 -0.024572581015647195 0 -0.00011664890791315388 -0.024563497757073005 0 -4.4376818380704163e-05 -0.024635670136214035 0 -0.00020259146303657481 -0.024557429645254029 0 -0.00011664890791315388 -0.024563497757073005 0 -4.4376818380704163e-05 -0.024635670136214035 0 -1.6350343911652094e-05 -0.024585409762998556 0 -6.86473075174725e-05 -0.024598685313635491 0 -0.00022786922361326537 -0.024510874692926884 0 -0.00025180693224009787 -0.024471647498499376 0 -0.00024413078867150691 -0.024572378915021866 0 -0.00017704185880698629 -0.024572581015647195 0 -0.00019226548968927381 -0.024472571709062241 0 -0.00011664890791315388 -0.024563497757073005 0 -0.00020259146303657481 -0.024557429645254029 0 -0.000339659662398554 -0.024510947036359348 0 -0.00025180693224009787 -0.024471647498499376 0 -0.00024413078867150691 -0.024572378915021866 0 -0.00024413078867150691 -0.024572378915021866 0 -0.00013946094046582465 -0.024675125253573994 0 -0.00017704185880698629 -0.024572581015647195 0 -0.00031363342372193293 -0.024625960183441951 0 -0.00024413078867150691 -0.024572378915021866 0 -0.00013946094046582465 -0.024675125253573994 0 -0.0010740275457736793 -0.023681830783380327 0 -0.0011146693492889998 -0.023710404573738113 0 -0.0010356517804829038 -0.023849188668046049 0 -0.00069602027359569904 -0.024156209141994046 0 -0.00059114855045230678 -0.024264702146740143 0 -0.0011146693492889998 -0.023710404573738113 0 -0.0010356517804829038 -0.023849188668046049 0 -0.00088023760545422535 -0.024221300335666631 0 -8.8413626158484839e-05 -0.024556852078311504 0 -0.00013946094046582465 -0.024675125253573994 0 -3.0941329091040918e-05 -0.024648183627700118 0 -8.8413626158484839e-05 -0.024556852078311504 0 -0.00013946094046582465 -0.024675125253573994 0 -0.00017704185880698629 -0.024572581015647195 0 -0.00013946094046582465 -0.024675125253573994 0 -3.0941329091040918e-05 -0.024648183627700118 0 8.1826665856779218e-06 -0.024709783412526044 0 -0.00059114855045230678 -0.024264702146740143 0 -0.00031815859526785256 -0.024403964343422502 0 -0.0010356517804829038 -0.023849188668046049 0 -0.00062081006508259563 -0.024093882052154358 0 -0.00088023760545422535 -0.024221300335666631 0 -0.00059597726724410307 -0.024310920385642282 0 -0.00062081006508259563 -0.024093882052154358 0 -0.00088023760545422535 -0.024221300335666631 0 -0.00041695796873101839 -0.024368435577950941 0 -0.00062081006508259563 -0.024093882052154358 0 -0.00019276172962844304 -0.024374836071192101 0 -0.00041695796873101839 -0.024368435577950941 0 -0.00059597726724410307 -0.024310920385642282 0 -0.00062081006508259563 -0.024093882052154358 0 -3.0941329091040918e-05 -0.024648183627700118 0 8.1826665856779218e-06 -0.024709783412526044 0 3.4944217050016628e-05 -0.024679119733041752 0 8.1826665856779218e-06 -0.024709783412526044 0 3.4944217050016628e-05 -0.024679119733041752 0 6.76271039981959e-05 -0.024733303055727525 0 -4.4376818380704163e-05 -0.024635670136214035 0 3.4944217050016628e-05 -0.024679119733041752 0 -1.6350343911652094e-05 -0.024585409762998556 0 -6.86473075174725e-05 -0.024598685313635491 0 2.6585081309471668e-05 -0.024664551395743285 0 -8.8413626158484839e-05 -0.024556852078311504 0 -3.0941329091040918e-05 -0.024648183627700118 0 3.4944217050016628e-05 -0.024679119733041752 0 3.4944217050016628e-05 -0.024679119733041752 0 -1.6350343911652094e-05 -0.024585409762998556 0 5.4201536585646438e-05 -0.024689050702601016 0 -4.1782797852917388e-05 -0.02451264146318478 0 2.558215430564277e-06 -0.024647255558043771 0 -5.9991117059690848e-05 -0.024499134441342912 0 -6.5856274635578711e-05 -0.024437388591452402 0 -5.5226997710364266e-05 -0.024601564401525163 0 5.4201536585646438e-05 -0.024689050702601016 0 6.4394600987933783e-05 -0.024735516636544878 0 6.2750476067776652e-05 -0.024827889266766091 0 2.558215430564277e-06 -0.024647255558043771 0 2.135504519872196e-05 -0.024814253287639268 0 -4.2762844842872522e-05 -0.024691517782013127 0 -5.5226997710364266e-05 -0.024601564401525163 0 -2.2715780901827968e-05 -0.0247989409943002 0 6.4394600987933783e-05 -0.024735516636544878 0 6.0275855474235113e-05 -0.024776830718616766 0 6.2750476067776652e-05 -0.024827889266766091 0 3.4944217050016628e-05 -0.024679119733041752 0 5.4201536585646438e-05 -0.024689050702601016 0 6.4394600987933783e-05 -0.024735516636544878 0 3.4944217050016628e-05 -0.024679119733041752 0 6.4394600987933783e-05 -0.024735516636544878 0 6.76271039981959e-05 -0.024733303055727525 0 -0.00031815859526785256 -0.024403964343422502 0 -8.1922352020463471e-05 -0.024544791519602559 0 -0.00019276172962844304 -0.024374836071192101 0 -0.00026493681909876994 -0.024518420976425537 0 -0.00013327299691873553 -0.024596357686059785 0 -0.00041695796873101839 -0.024368435577950941 0 -0.00019276172962844304 -0.024374836071192101 0 -0.00026493681909876994 -0.024518420976425537 0 -0.00019276172962844304 -0.024374836071192101 0 -5.8405977652088843e-05 -0.024641285821640605 0 -2.4881057643384479e-05 -0.024667414534724753 0 -0.00019276172962844304 -0.024374836071192101 0 1.8295398288704975e-05 -0.024716211398284258 0 -2.4881057643384479e-05 -0.024667414534724753 0 -5.8405977652088843e-05 -0.024641285821640605 0 -0.00013327299691873553 -0.024596357686059785 0 -7.1905129290028374e-05 -0.024658118612719788 0 -5.8405977652088843e-05 -0.024641285821640605 0 -2.715453032506983e-05 -0.024693246567096774 0 -4.5455439493679145e-05 -0.024680723878290074 0 -0.00019276172962844304 -0.024374836071192101 0 -5.8405977652088843e-05 -0.024641285821640605 0 -0.00013327299691873553 -0.024596357686059785 0 6.4394600987933783e-05 -0.024735516636544878 0 6.76271039981959e-05 -0.024733303055727525 0 6.0275855474235113e-05 -0.024776830718616766 0 -8.1922352020463471e-05 -0.024544791519602559 0 2.305470832087852e-05 -0.024821378045820831 0 6.76271039981959e-05 -0.024733303055727525 0 4.0929143373401822e-05 -0.024743657827612401 0 6.0275855474235113e-05 -0.024776830718616766 0 4.0929143373401822e-05 -0.024743657827612401 0 9.9409140561551131e-06 -0.024799425697707541 0 6.0275855474235113e-05 -0.024776830718616766 0 2.305470832087852e-05 -0.024821378045820831 0 1.4890022151512766e-05 -0.024905354765535299 0 1.8295398288704975e-05 -0.024716211398284258 0 -2.4881057643384479e-05 -0.024667414534724753 0 1.1323923798000303e-05 -0.024743973697131261 0 1.8295398288704975e-05 -0.024716211398284258 0 1.1323923798000303e-05 -0.024743973697131261 0 1.4609361214222318e-05 -0.024833534275677326 0 -2.4881057643384479e-05 -0.024667414534724753 0 1.1323923798000303e-05 -0.024743973697131261 0 1.2341223613505292e-05 -0.024750896911804071 0 1.1323923798000303e-05 -0.024743973697131261 0 1.2341223613505292e-05 -0.024750896911804071 0 1.4609361214222318e-05 -0.024833534275677326 0 -5.8405977652088843e-05 -0.024641285821640605 0 -1.0735938510085008e-05 -0.024707292340265596 0 -2.715453032506983e-05 -0.024693246567096774 0 -5.8405977652088843e-05 -0.024641285821640605 0 -2.4881057643384479e-05 -0.024667414534724753 0 -1.0735938510085008e-05 -0.024707292340265596 0 -2.4881057643384479e-05 -0.024667414534724753 0 1.2341223613505292e-05 -0.024750896911804071 0 -1.0735938510085008e-05 -0.024707292340265596 0 1.2341223613505292e-05 -0.024750896911804071 0 -1.0735938510085008e-05 -0.024707292340265596 0 -4.675750816270082e-06 -0.02472287255444866 0 1.8295398288704975e-05 -0.024716211398284258 0 1.4609361214222318e-05 -0.024833534275677326 0 2.4377030282556048e-06 -0.024970975053524681 0 2.1225528440904064e-08 -0.024999908791410855 0 6.6482767513664675e-06 -0.024892487663477264 0 -8.4854242410327712e-08 -0.024999415498674474 0 1.4609361214222318e-05 -0.024833534275677326 0 5.7820693806943717e-06 -0.024746310516303226 0 1.2341223613505292e-05 -0.024750896911804071 0 1.4609361214222318e-05 -0.024833534275677326 0 5.7820693806943717e-06 -0.024746310516303226 0 -8.4854242410327712e-08 -0.024999415498674474 0 1.4609361214222318e-05 -0.024833534275677326 0 2.4377030282556048e-06 -0.024970975053524681 0 -8.4854242410327712e-08 -0.024999415498674474 0 2.4377030282556048e-06 -0.024970975053524681 0 2.5528516381860427e-08 -0.025000106003662145 0 3.1712488670011361e-05 -0.024972720417320099 0 1.0167353146731638e-05 -0.024986489741844555 0 8.7230699853392717e-06 -0.025000519801329786 0 2.305470832087852e-05 -0.024821378045820831 0 -1.9944747190848992e-05 -0.024929002707119466 0 3.1712488670011361e-05 -0.024972720417320099 0 2.4377030282556048e-06 -0.024970975053524681 0 1.0167353146731638e-05 -0.024986489741844555 0 2.4377030282556048e-06 -0.024970975053524681 0 1.0167353146731638e-05 -0.024986489741844555 0 2.5528516381860427e-08 -0.025000106003662145 0 1.0167353146731638e-05 -0.024986489741844555 0 2.5528516381860427e-08 -0.025000106003662145 0 8.7230699853392717e-06 -0.025000519801329786 0 9.9409140561551131e-06 -0.024799425697707541 0 3.4931087259212193e-05 -0.024881001702273368 0 -5.8963675413030514e-08 -0.024999628349859943 0 1.4890022151512766e-05 -0.024905354765535299 0 6.3404408751932248e-09 -0.02499994577845438 0 2.5528516381860427e-08 -0.025000106003662145 0 8.7230699853392717e-06 -0.025000519801329786 0 -1.0073268294793895e-08 -0.024999953430938224 0 9.9409140561551131e-06 -0.024799425697707541 0 6.0275855474235113e-05 -0.024776830718616766 0 3.4931087259212193e-05 -0.024881001702273368 0 6.0275855474235113e-05 -0.024776830718616766 0 3.4931087259212193e-05 -0.024881001702273368 0 6.2750476067776652e-05 -0.024827889266766091 0 2.135504519872196e-05 -0.024814253287639268 0 7.8130973676345665e-09 -0.024999936957482476 0 3.4931087259212193e-05 -0.024881001702273368 0 6.2750476067776652e-05 -0.024827889266766091 0 2.1724993375876613e-08 -0.025000163474256255 0 3.4931087259212193e-05 -0.024881001702273368 0 2.1724993375876613e-08 -0.025000163474256255 0 -5.8963675413030514e-08 -0.024999628349859943 0 -7.7312790467315082e-06 -0.024997701560882182 0 -1.3887064440194501e-05 -0.024988497882937707 0 2.947233366545699e-09 -0.024999935344754809 0 -7.7312790467315082e-06 -0.024997701560882182 0 2.947233366545699e-09 -0.024999935344754809 0 -1.0583456292978209e-08 -0.025000022093434032 0 -7.7312790467315082e-06 -0.024997701560882182 0 -2.8185661853499678e-05 -0.024994186178224409 0 -1.3887064440194501e-05 -0.024988497882937707 0 -7.7312790467315082e-06 -0.024997701560882182 0 -2.8185661853499678e-05 -0.024994186178224409 0 -1.2890429398738685e-05 -0.025000758250408334 0 -2.8185661853499678e-05 -0.024994186178224409 0 -1.3887064440194501e-05 -0.024988497882937707 0 -2.8497179845917955e-05 -0.024973179165755633 0 -2.8185661853499678e-05 -0.024994186178224409 0 -2.8497179845917955e-05 -0.024973179165755633 0 -4.9639201696121573e-05 -0.02496036050185637 0 -1.3887064440194501e-05 -0.024988497882937707 0 -2.8497179845917955e-05 -0.024973179165755633 0 -1.1709720557997442e-05 -0.024968461110488886 0 -1.3887064440194501e-05 -0.024988497882937707 0 2.947233366545699e-09 -0.024999935344754809 0 -1.1709720557997442e-05 -0.024968461110488886 0 -2.9332357415140976e-09 -0.02500001673242868 0 6.3835280071356233e-10 -0.024999978152709882 0 -8.14871519840545e-06 -0.024999345536555407 0 -5.2791198694862972e-08 -0.024999956355712245 0 4.6047993039128603e-05 -0.025023301436701513 0 2.5093358545876482e-07 -0.025000216342778981 0 -0.00012701966244508549 -0.024636609948055627 0 6.3835280071356233e-10 -0.024999978152709882 0 -8.14871519840545e-06 -0.024999345536555407 0 -1.8470600286400372e-05 -0.024985129900137765 0 -1.0377618941027535e-09 -0.024999998782130422 0 -4.9633806897150385e-07 -0.024998612719014168 0 -1.6603736486788378e-06 -0.024996627036111489 0 5.6776248241502891e-11 -0.024999999902919155 0 -2.0768628238713461e-10 -0.024999997804291237 0 -4.9633806897150385e-07 -0.024998612719014168 0 -1.0377618941027535e-09 -0.024999998782130422 0 -2.0768628238713461e-10 -0.024999997804291237 0 -4.9633806897150385e-07 -0.024998612719014168 0 -2.934830377817172e-05 -0.024704898139855099 0 -4.675750816270082e-06 -0.02472287255444866 0 -1.9343171777907339e-05 -0.024727056894488095 0 -2.934830377817172e-05 -0.024704898139855099 0 -1.9343171777907339e-05 -0.024727056894488095 0 -5.3424999640275208e-05 -0.024695376226442422 0 -2.934830377817172e-05 -0.024704898139855099 0 -2.715453032506983e-05 -0.024693246567096774 0 -4.675750816270082e-06 -0.02472287255444866 0 -2.934830377817172e-05 -0.024704898139855099 0 -2.715453032506983e-05 -0.024693246567096774 0 -4.5455439493679145e-05 -0.024680723878290074 0 -1.0735938510085008e-05 -0.024707292340265596 0 -2.715453032506983e-05 -0.024693246567096774 0 -4.675750816270082e-06 -0.02472287255444866 0 1.2341223613505292e-05 -0.024750896911804071 0 5.7820693806943717e-06 -0.024746310516303226 0 -4.675750816270082e-06 -0.02472287255444866 0 5.7820693806943717e-06 -0.024746310516303226 0 -4.675750816270082e-06 -0.02472287255444866 0 -1.9343171777907339e-05 -0.024727056894488095 0 6.6482767513664675e-06 -0.024892487663477264 0 -0.00012701966244508549 -0.024636609948055627 0 5.7820693806943717e-06 -0.024746310516303226 0 -1.9343171777907339e-05 -0.024727056894488095 0 -1.9022076055017676e-05 -0.02474858021054992 0 -1.9343171777907339e-05 -0.024727056894488095 0 -1.9022076055017676e-05 -0.02474858021054992 0 -4.146791975260598e-05 -0.024739044753767751 0 -0.00018827050404771699 -0.024449388662343734 0 -0.00028041165245117837 -0.024541685608575226 0 -0.00049725792166664738 -0.024383781424894779 0 -1.9022076055017676e-05 -0.02474858021054992 0 -3.8964325991527041e-05 -0.024749523311599297 0 -4.146791975260598e-05 -0.024739044753767751 0 -2.8497179845917955e-05 -0.024973179165755633 0 -1.1709720557997442e-05 -0.024968461110488886 0 -3.3937440651164995e-05 -0.024945029185997683 0 -0.00012701966244508549 -0.024636609948055627 0 -0.0006613301618022848 -0.024165820620294664 0 -2.8497179845917955e-05 -0.024973179165755633 0 -3.3937440651164995e-05 -0.024945029185997683 0 -4.9639201696121573e-05 -0.02496036050185637 0 -0.00021612439967123181 -0.024499970222300941 0 -0.0006613301618022848 -0.024165820620294664 0 -0.00012701966244508549 -0.024636609948055627 0 -0.00021612439967123181 -0.024499970222300941 0 -8.14871519840545e-06 -0.024999345536555407 0 -1.8470600286400372e-05 -0.024985129900137765 0 -2.0147695583745403e-05 -0.024986372037763421 0 4.6047993039128603e-05 -0.025023301436701513 0 -0.00021612439967123181 -0.024499970222300941 0 -0.00021612439967123181 -0.024499970222300941 0 -0.00077497019841364125 -0.024089513365514313 0 -0.0011230166843919783 -0.023551104100106853 0 -0.00091041684321388884 -0.023523883346748112 0 -0.0012631319476730861 -0.023479346500073529 0 -0.00099426885732102795 -0.023699883153335342 0 -0.001135430858496899 -0.023629121649361196 0 -0.0012184249900354402 -0.023753786925575997 0 -0.00077497019841364125 -0.024089513365514313 0 -0.00097914774989173105 -0.02359220326914312 0 -0.00099426885732102795 -0.023699883153335342 0 -0.0010342890934948844 -0.023580812684797517 0 -0.001135430858496899 -0.023629121649361196 0 -0.0010342890934948844 -0.023580812684797517 0 -0.0011230166843919783 -0.023551104100106853 0 -0.001135430858496899 -0.023629121649361196 0 -0.0010342890934948844 -0.023580812684797517 0 -0.0011230166843919783 -0.023551104100106853 0 -0.00091041684321388884 -0.023523883346748112 0 -0.00085038045117990894 -0.023568131244630319 0 -0.00099546880840007497 -0.023716908832117273 0 -0.00091041684321388884 -0.023523883346748112 0 -0.00099546880840007497 -0.023716908832117273 0 -0.0010342890934948844 -0.023580812684797517 0 -0.00091041684321388884 -0.023523883346748112 0 -0.0011021438394557071 -0.023663808325879769 0 -0.0011218380874484682 -0.023645123161687917 0 -0.0011704987502050691 -0.023633963697963299 0 -0.0006613301618022848 -0.024165820620294664 0 -0.00044534579379400073 -0.024408326660596811 0 -3.8964325991527041e-05 -0.024749523311599297 0 -4.146791975260598e-05 -0.024739044753767751 0 -6.5617571007930831e-05 -0.024735092802614825 0 -0.0006613301618022848 -0.024165820620294664 0 -0.0012951186049288913 -0.023491347059485596 0 -0.00013775387448062377 -0.02453872718624819 0 -0.00044534579379400073 -0.024408326660596811 0 -4.146791975260598e-05 -0.024739044753767751 0 -5.7610062316458186e-05 -0.024718904213195267 0 -8.6210128218134626e-05 -0.024735997663660386 0 -1.9343171777907339e-05 -0.024727056894488095 0 -5.7610062316458186e-05 -0.024718904213195267 0 -5.3424999640275208e-05 -0.024695376226442422 0 -1.9343171777907339e-05 -0.024727056894488095 0 -4.146791975260598e-05 -0.024739044753767751 0 -5.7610062316458186e-05 -0.024718904213195267 0 -5.7610062316458186e-05 -0.024718904213195267 0 -8.6210128218134626e-05 -0.024735997663660386 0 -8.7061069341002516e-05 -0.024682100685282714 0 -8.6210128218134626e-05 -0.024735997663660386 0 -0.00014084329287684003 -0.024683500153089694 0 -8.7061069341002516e-05 -0.024682100685282714 0 -0.00044534579379400073 -0.024408326660596811 0 -0.00016261178522398935 -0.024635236828676112 0 -0.00013327299691873553 -0.024596357686059785 0 -0.00014084329287684003 -0.024683500153089694 0 -8.7061069341002516e-05 -0.024682100685282714 0 -0.00026493681909876994 -0.024518420976425537 0 -0.00013327299691873553 -0.024596357686059785 0 -0.00014084329287684003 -0.024683500153089694 0 -0.00013327299691873553 -0.024596357686059785 0 -7.1905129290028374e-05 -0.024658118612719788 0 -8.7061069341002516e-05 -0.024682100685282714 0 -7.1905129290028374e-05 -0.024658118612719788 0 -4.5455439493679145e-05 -0.024680723878290074 0 -5.3424999640275208e-05 -0.024695376226442422 0 -5.8405977652088843e-05 -0.024641285821640605 0 -7.1905129290028374e-05 -0.024658118612719788 0 -4.5455439493679145e-05 -0.024680723878290074 0 -2.934830377817172e-05 -0.024704898139855099 0 -4.5455439493679145e-05 -0.024680723878290074 0 -5.3424999640275208e-05 -0.024695376226442422 0 -5.7610062316458186e-05 -0.024718904213195267 0 -5.3424999640275208e-05 -0.024695376226442422 0 -8.7061069341002516e-05 -0.024682100685282714 0 -7.1905129290028374e-05 -0.024658118612719788 0 -5.3424999640275208e-05 -0.024695376226442422 0 -8.7061069341002516e-05 -0.024682100685282714 0 -0.00044534579379400073 -0.024408326660596811 0 -0.00084048228057695222 -0.024065663986812671 0 -0.0011218380874484682 -0.023645123161687917 0 -0.0011704987502050691 -0.023633963697963299 0 -0.0011894632561569092 -0.023619533666226662 0 -6.5356121749637813e-05 -0.024764257262278461 0 -0.00014084329287684003 -0.024683500153089694 0 -0.00043493101480475578 -0.024575096345911041 0 -0.00026493681909876994 -0.024518420976425537 0 -0.00014084329287684003 -0.024683500153089694 0 -0.00043493101480475578 -0.024575096345911041 0 -0.00041695796873101839 -0.024368435577950941 0 -0.00026493681909876994 -0.024518420976425537 0 -0.00043493101480475578 -0.024575096345911041 0 -0.0012526969026415745 -0.023519204833819189 0 -0.001411270572691438 -0.023682443786002878 0 -0.0012631952958062625 -0.023531939472218658 0 -0.0012184249900354402 -0.023753786925575997 0 -0.0014320357874910827 -0.023866733372997048 0 -0.0012631319476730861 -0.023479346500073529 0 -0.0012631952958062625 -0.023531939472218658 0 -0.0012896681146491267 -0.02351150442325398 0 -0.0011230166843919783 -0.023551104100106853 0 -0.0012631952958062625 -0.023531939472218658 0 -0.001135430858496899 -0.023629121649361196 0 -0.0011230166843919783 -0.023551104100106853 0 -0.0012631319476730861 -0.023479346500073529 0 -0.0012631952958062625 -0.023531939472218658 0 -0.0012631952958062625 -0.023531939472218658 0 -0.001135430858496899 -0.023629121649361196 0 -0.0012184249900354402 -0.023753786925575997 0 -0.00077497019841364125 -0.024089513365514313 0 -0.0012822899050800658 -0.023875205890912014 0 -0.00099426885732102795 -0.023699883153335342 0 -0.0012184249900354402 -0.023753786925575997 0 -0.0012603021076855593 -0.024018265160353901 0 -0.0012184249900354402 -0.023753786925575997 0 -0.0012603021076855593 -0.024018265160353901 0 -0.0014320357874910827 -0.023866733372997048 0 -0.00037894751426587996 -0.024604740419483555 0 -0.00077497019841364125 -0.024089513365514313 0 -0.00090556674371854271 -0.023678649999358266 0 -0.0010015779803218591 -0.023989635819824068 0 -0.0012603021076855593 -0.024018265160353901 0 -0.0007826998385467689 -0.024103379180804976 0 -0.00090556674371854271 -0.023678649999358266 0 -0.0010015779803218591 -0.023989635819824068 0 -0.0007826998385467689 -0.024103379180804976 0 -0.0010015779803218591 -0.023989635819824068 0 -0.001077072507258927 -0.024179211472637904 0 -0.001077072507258927 -0.024179211472637904 0 -0.0012603021076855593 -0.024018265160353901 0 -0.0013740756856297318 -0.0242236614487281 0 -0.0010015779803218591 -0.023989635819824068 0 -0.001077072507258927 -0.024179211472637904 0 -0.0012603021076855593 -0.024018265160353901 0 -0.0014320357874910827 -0.023866733372997048 0 -0.0016357326127252685 -0.02421234734441096 0 -0.0013740756856297318 -0.0242236614487281 0 -0.0012603021076855593 -0.024018265160353901 0 -0.0014320357874910827 -0.023866733372997048 0 -0.0013740756856297318 -0.0242236614487281 0 -0.001411270572691438 -0.023682443786002878 0 -0.0011314317842680941 -0.023774173042053846 0 -0.0012543542881475085 -0.023420876204310426 0 -0.0012382758204981406 -0.023231788339126997 0 -0.0014973253272675261 -0.023147583632627523 0 -0.001380033595260689 -0.023198549083263749 0 -0.0011314317842680941 -0.023774173042053846 0 -0.0012795167731327393 -0.023451223952768396 0 -0.0012543542881475085 -0.023420876204310426 0 -0.0012780880753292632 -0.023414067453405244 0 -0.0012795167731327393 -0.023451223952768396 0 -0.0012997133724152732 -0.023453599219688689 0 -0.0012780880753292632 -0.023414067453405244 0 -0.0012795167731327393 -0.023451223952768396 0 -0.0012997133724152732 -0.023453599219688689 0 -0.0012897476630229175 -0.023496089459957199 0 -0.0012631952958062625 -0.023531939472218658 0 -0.0012997133724152732 -0.023453599219688689 0 -0.0012897476630229175 -0.023496089459957199 0 -0.0012631952958062625 -0.023531939472218658 0 -0.0012897476630229175 -0.023496089459957199 0 -0.0012896681146491267 -0.02351150442325398 0 -0.0012897476630229175 -0.023496089459957199 0 -0.0012896681146491267 -0.02351150442325398 0 -0.0012830689417391127 -0.023506851953475596 0 -0.0011704987502050691 -0.023633963697963299 0 -0.0011894632561569092 -0.023619533666226662 0 -0.0012012871860089557 -0.023615790655064639 0 -0.00084048228057695222 -0.024065663986812671 0 -0.0010062922729084393 -0.023921759724009246 0 -0.0012951186049288913 -0.023491347059485596 0 -0.0012231672012701 -0.023592727327052736 0 -0.0012631319476730861 -0.023479346500073529 0 -0.0012896681146491267 -0.02351150442325398 0 -0.0013000926491561606 -0.023541718786681282 0 -0.00059597726724410307 -0.024310920385642282 0 -0.00043493101480475578 -0.024575096345911041 0 -0.00088023760545422535 -0.024221300335666631 0 -0.0012896681146491267 -0.02351150442325398 0 -0.0013000926491561606 -0.023541718786681282 0 -0.0012830689417391127 -0.023506851953475596 0 -0.00041695796873101839 -0.024368435577950941 0 -0.00059597726724410307 -0.024310920385642282 0 -0.00043493101480475578 -0.024575096345911041 0 -0.0011962360520954569 -0.023623738502578227 0 -0.0012012871860089557 -0.023615790655064639 0 -0.0011685398939398598 -0.023646337661211769 0 -0.0013000926491561606 -0.023541718786681282 0 -0.0012424711101782823 -0.023509967314944129 0 -0.0011685398939398598 -0.023646337661211769 0 -0.0011894632561569092 -0.023619533666226662 0 -0.0011962360520954569 -0.023623738502578227 0 -0.0012012871860089557 -0.023615790655064639 0 -0.0012231672012701 -0.023592727327052736 0 -0.0011799445718133593 -0.023632266030985949 0 -0.0013000926491561606 -0.023541718786681282 0 -0.0012830689417391127 -0.023506851953475596 0 -0.0012424711101782823 -0.023509967314944129 0 -0.0012795167731327393 -0.023451223952768396 0 -0.0012424711101782823 -0.023509967314944129 0 -0.0012543542881475085 -0.023420876204310426 0 -0.0012795167731327393 -0.023451223952768396 0 -0.0012830689417391127 -0.023506851953475596 0 -0.0012424711101782823 -0.023509967314944129 0 -0.0012795167731327393 -0.023451223952768396 0 -0.0012897476630229175 -0.023496089459957199 0 -0.0012830689417391127 -0.023506851953475596 0 -0.0012424711101782823 -0.023509967314944129 0 -0.0011464545326446071 -0.023559269427970556 0 -0.0011372876051904009 -0.023437931184423732 0 -0.0012424711101782823 -0.023509967314944129 0 -0.0011372876051904009 -0.023437931184423732 0 -0.0012543542881475085 -0.023420876204310426 0 -0.0010941137938069432 -0.023749276399101203 0 -0.0010062922729084393 -0.023921759724009246 0 -0.0012424711101782823 -0.023509967314944129 0 -0.0011685398939398598 -0.023646337661211769 0 -0.0011464545326446071 -0.023559269427970556 0 -0.0011146693492889998 -0.023710404573738113 0 -0.0011962360520954569 -0.023623738502578227 0 -0.0011685398939398598 -0.023646337661211769 0 -0.0011146693492889998 -0.023710404573738113 0 -0.0011464545326446071 -0.023559269427970556 0 -0.0010476890810612698 -0.023476982419555478 0 -0.0011146693492889998 -0.023710404573738113 0 -0.0011685398939398598 -0.023646337661211769 0 -0.0011464545326446071 -0.023559269427970556 0 -0.0011464545326446071 -0.023559269427970556 0 -0.0011372876051904009 -0.023437931184423732 0 -0.0010476890810612698 -0.023476982419555478 0 -0.0011372876051904009 -0.023437931184423732 0 -0.0011320308894445705 -0.023298202259291682 0 -0.0010174501584558331 -0.023321164204537365 0 -0.0011372876051904009 -0.023437931184423732 0 -0.0011320308894445705 -0.023298202259291682 0 -0.0012543542881475085 -0.023420876204310426 0 -0.0011320308894445705 -0.023298202259291682 0 -0.0012543542881475085 -0.023420876204310426 0 -0.0012382758204981406 -0.023231788339126997 0 -0.0011320308894445705 -0.023298202259291682 0 -0.0012382758204981406 -0.023231788339126997 0 -0.0011563330939356777 -0.023172179104046304 0 -0.0012382758204981406 -0.023231788339126997 0 -0.0012441697653767778 -0.023091147793071101 0 -0.0014973253272675261 -0.023147583632627523 0 -0.0012382758204981406 -0.023231788339126997 0 -0.0011563330939356777 -0.023172179104046304 0 -0.0012441697653767778 -0.023091147793071101 0 -0.0011320308894445705 -0.023298202259291682 0 -0.0011563330939356777 -0.023172179104046304 0 -0.0010692042561055229 -0.023185454585187611 0 -0.0011320308894445705 -0.023298202259291682 0 -0.0010692042561055229 -0.023185454585187611 0 -0.0010174501584558331 -0.023321164204537365 0 -0.0010692042561055229 -0.023185454585187611 0 -0.001135947986710688 -0.02308282267094465 0 -0.0010419963120250318 -0.023040323792370108 0 -0.0010563810494050392 -0.023001548192944029 0 -0.0011234523301558602 -0.022168148554765319 0 -0.0011563330939356777 -0.023172179104046304 0 -0.0010692042561055229 -0.023185454585187611 0 -0.001135947986710688 -0.02308282267094465 0 -0.0011563330939356777 -0.023172179104046304 0 -0.001135947986710688 -0.02308282267094465 0 -0.0012441697653767778 -0.023091147793071101 0 -0.0010563810494050392 -0.023001548192944029 0 -0.0012160975753747092 -0.023084303108874219 0 -0.00093266407956654903 -0.022935808395915042 0 -0.0012441697653767778 -0.023091147793071101 0 -0.0010139560467658075 -0.022684253898315684 0 -0.0012441697653767778 -0.023091147793071101 0 -0.0012990447082138177 -0.022688646214304824 0 -0.0010139560467658075 -0.022684253898315684 0 -0.0010139560467658075 -0.022684253898315684 0 -0.00081837150946907839 -0.022482924884659323 0 -0.00061458796105472624 -0.022775362740205623 0 -0.00093266407956654903 -0.022935808395915042 0 -0.0010139560467658075 -0.022684253898315684 0 -0.00061458796105472624 -0.022775362740205623 0 -0.00065482179986036174 -0.022721375711615806 0 -0.0011234523301558602 -0.022168148554765319 0 -0.00081837150946907839 -0.022482924884659323 0 -0.00073359059528821391 -0.022121680165632686 0 -0.00098702965281705578 -0.022166811588766034 0 -0.0010139560467658075 -0.022684253898315684 0 -0.00081837150946907839 -0.022482924884659323 0 -0.00098702965281705578 -0.022166811588766034 0 -0.00081837150946907839 -0.022482924884659323 0 -0.00073359059528821391 -0.022121680165632686 0 -0.00059974562134241236 -0.022269720499192281 0 -0.00041510405265173363 -0.02462757278438131 0 -0.00036414727639249992 -0.024628274403369677 0 -0.00039872191941859203 -0.02457841602225375 0 -0.00010921429016883105 -0.02370362289213853 0 -0.00074393130906260112 -0.023295458328417847 0 -0.00070167030673141549 -0.021763079090860497 0 -0.00073359059528821391 -0.022121680165632686 0 -0.00098702965281705578 -0.022166811588766034 0 -0.00036414727639249992 -0.024628274403369677 0 -0.0004181107151505279 -0.024567267021891239 0 -0.00038558756951882214 -0.024590469991017473 0 -0.00036414727639249992 -0.024628274403369677 0 -0.00039872191941859203 -0.02457841602225375 0 -0.00038558756951882214 -0.024590469991017473 0 -0.0012990447082138177 -0.022688646214304824 0 -0.0010139560467658075 -0.022684253898315684 0 -0.00098702965281705578 -0.022166811588766034 0 -0.00040629298175714264 -0.024533378717094236 0 -0.00039872191941859203 -0.02457841602225375 0 -0.00038779659298157355 -0.024558178528548594 0 -0.00039872191941859203 -0.02457841602225375 0 -0.00038779659298157355 -0.024558178528548594 0 -0.00038558756951882214 -0.024590469991017473 0 -0.00081637406339631221 -0.023620346418295635 0 -0.00074393130906260112 -0.023295458328417847 0 -0.00038779659298157355 -0.024558178528548594 0 -0.00038558756951882214 -0.024590469991017473 0 -0.00037714639607478129 -0.024568834503336957 0 -0.00038779659298157355 -0.024558178528548594 0 -0.00037714639607478129 -0.024568834503336957 0 -0.00037294979507471605 -0.0245534131079179 0 -0.00038558756951882214 -0.024590469991017473 0 -0.00039530656646848567 -0.024584452452724351 0 -0.00037714639607478129 -0.024568834503336957 0 -0.0004181107151505279 -0.024567267021891239 0 -0.00038558756951882214 -0.024590469991017473 0 -0.00039530656646848567 -0.024584452452724351 0 -0.00039530656646848567 -0.024584452452724351 0 -0.00036680131714616668 -0.024593546604616122 0 -0.00037714639607478129 -0.024568834503336957 0 -0.00036680131714616668 -0.024593546604616122 0 -0.00035479112960466058 -0.024570971923225653 0 -0.00037714639607478129 -0.024568834503336957 0 -0.00036680131714616668 -0.024593546604616122 0 -0.00035479112960466058 -0.024570971923225653 0 -0.00032208216803420597 -0.024576088051120059 0 -0.00031407930955015996 -0.024516696708688029 0 -0.00065709668672206466 -0.024555229224615657 0 -0.00035479112960466058 -0.024570971923225653 0 -0.00037714639607478129 -0.024568834503336957 0 -0.00034730220607986109 -0.024545244611652323 0 -0.00037714639607478129 -0.024568834503336957 0 -0.00037294979507471605 -0.0245534131079179 0 -0.0003549827903990523 -0.024560139766617858 0 -0.00038779659298157355 -0.024558178528548594 0 -0.00037294979507471605 -0.0245534131079179 0 -0.00036871356204663325 -0.024524935712682189 0 -0.00088730511667283612 -0.024637960997910425 0 -0.00065709668672206466 -0.024555229224615657 0 -0.00037294979507471605 -0.0245534131079179 0 -0.00036871356204663325 -0.024524935712682189 0 -0.0003549827903990523 -0.024560139766617858 0 -0.0014703367181051682 -0.024522045856636015 0 -0.0012348198544030161 -0.024594713268367981 0 -0.0012995725563449921 -0.024828359567632605 0 -0.00040629298175714264 -0.024533378717094236 0 -0.00038779659298157355 -0.024558178528548594 0 -0.00036871356204663325 -0.024524935712682189 0 -0.00040629298175714264 -0.024533378717094236 0 -0.00036871356204663325 -0.024524935712682189 0 -0.0003925485536852688 -0.024478639980874711 0 -0.00081637406339631221 -0.023620346418295635 0 -0.0011314317842680941 -0.023774173042053846 0 -0.0012441697653767778 -0.023091147793071101 0 -0.0012990447082138177 -0.022688646214304824 0 -0.0014973253272675261 -0.023147583632627523 0 -0.0014703367181051682 -0.024522045856636015 0 -0.0016357326127252685 -0.02421234734441096 0 -0.0013740756856297318 -0.0242236614487281 0 -0.00088730511667283612 -0.024637960997910425 0 -0.0011314317842680941 -0.023774173042053846 0 -0.0014703367181051682 -0.024522045856636015 0 -0.0013740756856297318 -0.0242236614487281 0 -0.0011570066305542567 -0.02436477734318359 0 -0.001077072507258927 -0.024179211472637904 0 -0.0013740756856297318 -0.0242236614487281 0 -0.0011570066305542567 -0.02436477734318359 0 -0.0007826998385467689 -0.024103379180804976 0 -0.001077072507258927 -0.024179211472637904 0 -0.00090813551876650753 -0.024368733767049702 0 -0.001077072507258927 -0.024179211472637904 0 -0.0011570066305542567 -0.02436477734318359 0 -0.00090813551876650753 -0.024368733767049702 0 -0.00024938016534500684 -0.024449648880047914 0 -0.00017799424661707242 -0.024498871812905523 0 -0.00013106702684561122 -0.024393539585984086 0 -0.0011570066305542567 -0.02436477734318359 0 -0.00090813551876650753 -0.024368733767049702 0 -0.00098127408988488195 -0.024674965000168844 0 -0.00090813551876650753 -0.024368733767049702 0 -0.00098127408988488195 -0.024674965000168844 0 -0.00065756894481435759 -0.024522444211339367 0 -0.00067090589794386246 -0.024563631644368353 0 -0.00019864574375335007 -0.024739646049473655 0 -0.0014703367181051682 -0.024522045856636015 0 -0.0011570066305542567 -0.02436477734318359 0 -0.0012348198544030161 -0.024594713268367981 0 -0.00098127408988488195 -0.024674965000168844 0 -0.0012348198544030161 -0.024594713268367981 0 -0.0012995725563449921 -0.024828359567632605 0 -0.0011570066305542567 -0.02436477734318359 0 -0.00098127408988488195 -0.024674965000168844 0 -0.0012348198544030161 -0.024594713268367981 0 -0.00036356530346122955 -0.024507082512297506 0 -0.00032208216803420597 -0.024576088051120059 0 -0.00026155083254641304 -0.024540663910713769 0 -0.00067090589794386246 -0.024563631644368353 0 -0.00065709668672206466 -0.024555229224615657 0 -0.00024938016534500684 -0.024449648880047914 0 -0.00036356530346122955 -0.024507082512297506 0 -0.00026155083254641304 -0.024540663910713769 0 -0.00065709668672206466 -0.024555229224615657 0 -0.00035137925096771224 -0.024616051456628756 0 -0.00035479112960466058 -0.024570971923225653 0 -0.00034730220607986109 -0.024545244611652323 0 -0.00032208216803420597 -0.024576088051120059 0 -0.00031445683318436066 -0.024666994678663144 0 -0.00032208216803420597 -0.024576088051120059 0 -0.00025458465626924422 -0.024622168944537396 0 -0.00031445683318436066 -0.024666994678663144 0 -0.00036680131714616668 -0.024593546604616122 0 -0.00032208216803420597 -0.024576088051120059 0 -0.00032208216803420597 -0.024576088051120059 0 -0.00025458465626924422 -0.024622168944537396 0 -0.00026155083254641304 -0.024540663910713769 0 -0.00017071786802958443 -0.024659114053615934 0 -0.00025458465626924422 -0.024622168944537396 0 -0.00019764899176586234 -0.024584811339953962 0 -0.00025458465626924422 -0.024622168944537396 0 -0.00019764899176586234 -0.024584811339953962 0 -0.00026155083254641304 -0.024540663910713769 0 -0.00019764899176586234 -0.024584811339953962 0 -0.00026155083254641304 -0.024540663910713769 0 -0.00017799424661707242 -0.024498871812905523 0 -0.00024938016534500684 -0.024449648880047914 0 -0.00026155083254641304 -0.024540663910713769 0 -0.00017799424661707242 -0.024498871812905523 0 -0.00017799424661707242 -0.024498871812905523 0 -8.3111105267435771e-05 -0.024528011478428095 0 -0.00013106702684561122 -0.024393539585984086 0 -0.00019764899176586234 -0.024584811339953962 0 -0.00017799424661707242 -0.024498871812905523 0 -8.3111105267435771e-05 -0.024528011478428095 0 -0.00019764899176586234 -0.024584811339953962 0 -0.00010334403114473462 -0.024620093025347123 0 -8.3111105267435771e-05 -0.024528011478428095 0 -0.00010428045976320446 -0.024691460088932034 0 -0.00017071786802958443 -0.024659114053615934 0 -0.00010334403114473462 -0.024620093025347123 0 -0.00017071786802958443 -0.024659114053615934 0 -0.00019764899176586234 -0.024584811339953962 0 -0.00010334403114473462 -0.024620093025347123 0 -8.4409011116449205e-09 -0.025000032461396961 0 1.0510939383422053e-06 -0.024999049321322006 0 -6.0177511357001647e-07 -0.024998929354856776 0 -9.827339996904221e-06 -0.024848727591845355 0 -2.6488836260458001e-05 -0.024759008984173981 0 -7.8352149049971355e-06 -0.024688730715242295 0 -0.00010334403114473462 -0.024620093025347123 0 -8.3111105267435771e-05 -0.024528011478428095 0 -8.4409011116449205e-09 -0.025000032461396961 0 -6.0177511357001647e-07 -0.024998929354856776 0 2.6710648543432569e-09 -0.02499998427313636 0 -6.0177511357001647e-07 -0.024998929354856776 0 2.6710648543432569e-09 -0.02499998427313636 0 -8.6437629862417173e-07 -0.024999324725754085 0 -8.6437629862417173e-07 -0.024999324725754085 0 -1.8134968656807068e-06 -0.024998161668267405 0 -1.3775294345024809e-06 -0.025000711263803651 0 2.6710648543432569e-09 -0.02499998427313636 0 -1.0583456292978209e-08 -0.025000022093434032 0 -1.3775294345024809e-06 -0.025000711263803651 0 2.6710648543432569e-09 -0.02499998427313636 0 -8.6437629862417173e-07 -0.024999324725754085 0 -1.3775294345024809e-06 -0.025000711263803651 0 -6.0177511357001647e-07 -0.024998929354856776 0 -8.6437629862417173e-07 -0.024999324725754085 0 -1.8134968656807068e-06 -0.024998161668267405 0 -2.6488836260458001e-05 -0.024759008984173981 0 -0.00019864574375335007 -0.024739646049473655 0 -0.0007826998385467689 -0.024103379180804976 0 -0.00090813551876650753 -0.024368733767049702 0 -0.00065756894481435759 -0.024522444211339367 0 -2.8185661853499678e-05 -0.024994186178224409 0 -1.734009246924692e-05 -0.02500924769182163 0 -1.2890429398738685e-05 -0.025000758250408334 0 -0.00037894751426587996 -0.024604740419483555 0 -0.00019864574375335007 -0.024739646049473655 0 -1.734009246924692e-05 -0.02500924769182163 0 -1.2890429398738685e-05 -0.025000758250408334 0 -1.3775294345024809e-06 -0.025000711263803651 0 -7.7312790467315082e-06 -0.024997701560882182 0 -1.2890429398738685e-05 -0.025000758250408334 0 -1.3775294345024809e-06 -0.025000711263803651 0 -0.00019864574375335007 -0.024739646049473655 0 3.0998688752533668e-05 -0.025022580564235605 0 -7.7312790467315082e-06 -0.024997701560882182 0 -1.0583456292978209e-08 -0.025000022093434032 0 -1.3775294345024809e-06 -0.025000711263803651 0 0.0005288060748182351 -0.022518470884714654 0 0.00072065728809237849 -0.021437401406910455 0 0.0016424911240939478 -0.021933392329483704 0 0.0005288060748182351 -0.022518470884714654 0 -8.9996991128519423e-05 -0.021625746571188424 0 0.00072065728809237849 -0.021437401406910455 0 0.0005288060748182351 -0.022518470884714654 0 -0.00030317964399542246 -0.022288367484510293 0 -8.9996991128519423e-05 -0.021625746571188424 0 -8.9996991128519423e-05 -0.021625746571188424 0 -0.00081973585657843409 -0.021733991646736887 0 -0.00048629130464232907 -0.021122364923129675 0 -0.00030317964399542246 -0.022288367484510293 0 -8.9996991128519423e-05 -0.021625746571188424 0 -0.00081973585657843409 -0.021733991646736887 0 -8.9996991128519423e-05 -0.021625746571188424 0 0.00072065728809237849 -0.021437401406910455 0 4.6459438794112194e-05 -0.020132566113480192 0 0.00072065728809237849 -0.021437401406910455 0 0.0016424911240939478 -0.021933392329483704 0 0.0014662775787196713 -0.020735103925488413 0 0.0003429418406401201 -0.022140640531065035 0 -1.1248553480507921e-05 -0.022400652089992652 0 0.00045046814828194882 -0.02245206612719565 0 0.00046734857047221593 -0.018221949636671696 0 0.00082471158189735083 -0.022499633259578541 0 0.0028254484366500455 -0.021217830253778897 0 0.0016424911240939478 -0.021933392329483704 0 0.0014662775787196713 -0.020735103925488413 0 -1.1248553480507921e-05 -0.022400652089992652 0 0.00024163431951457185 -0.022711582726424279 0 0.00045046814828194882 -0.02245206612719565 0 -1.1248553480507921e-05 -0.022400652089992652 0 -3.143427315080163e-05 -0.022849068721509172 0 0.00024163431951457185 -0.022711582726424279 0 0.00011737636676837717 -0.022551543917974998 0 0.00082471158189735083 -0.022499633259578541 0 -0.00035393506524622367 -0.022673884086999399 0 -1.1248553480507921e-05 -0.022400652089992652 0 -3.143427315080163e-05 -0.022849068721509172 0 -3.143427315080163e-05 -0.022849068721509172 0 0.00024163431951457185 -0.022711582726424279 0 0.00029700568162437308 -0.022967073545604573 0 0.00010856116938069722 -0.023460625809549187 0 0.00029700568162437308 -0.022967073545604573 0 0.00061112898344451144 -0.023112910870741382 0 -3.143427315080163e-05 -0.022849068721509172 0 0.00029700568162437308 -0.022967073545604573 0 -8.0235915821816461e-05 -0.023175339507758037 0 0.00010856116938069722 -0.023460625809549187 0 0.00029700568162437308 -0.022967073545604573 0 -8.0235915821816461e-05 -0.023175339507758037 0 -3.143427315080163e-05 -0.022849068721509172 0 -8.0235915821816461e-05 -0.023175339507758037 0 -0.00037010180057907879 -0.023100791145874124 0 -0.0003554664600328268 -0.023490757069203966 0 -8.0235915821816461e-05 -0.023175339507758037 0 -0.00037010180057907879 -0.023100791145874124 0 -0.00035393506524622367 -0.022673884086999399 0 -0.00037010180057907879 -0.023100791145874124 0 -0.00066907599078971881 -0.022983538868815864 0 -0.00035393506524622367 -0.022673884086999399 0 -3.143427315080163e-05 -0.022849068721509172 0 -0.00037010180057907879 -0.023100791145874124 0 0.00011737636676837717 -0.022551543917974998 0 -0.00050241234634544585 -0.022986450803769938 0 0.0005288060748182351 -0.022518470884714654 0 -0.00030317964399542246 -0.022288367484510293 0 -0.00035275741931959422 -0.022959983346706479 0 -0.00037010180057907879 -0.023100791145874124 0 -0.00066907599078971881 -0.022983538868815864 0 -0.00069909989925207884 -0.023302643755079552 0 -0.0003554664600328268 -0.023490757069203966 0 -0.00037010180057907879 -0.023100791145874124 0 -0.00069909989925207884 -0.023302643755079552 0 -0.00035275741931959422 -0.022959983346706479 0 -0.00076127605490585869 -0.023208115505853 0 -0.00088711029570415938 -0.023345227769622636 0 -0.00066907599078971881 -0.022983538868815864 0 -0.00069909989925207884 -0.023302643755079552 0 -0.00088711029570415938 -0.023345227769622636 0 -0.00082138059293538485 -0.023435581711106303 0 -0.00069909989925207884 -0.023302643755079552 0 -0.00088711029570415938 -0.023345227769622636 0 -0.0009022078686120816 -0.02345215004528679 0 -0.00082138059293538485 -0.023435581711106303 0 -0.00088711029570415938 -0.023345227769622636 0 -0.00076127605490585869 -0.023208115505853 0 -0.00088711029570415938 -0.023345227769622636 0 -0.00092421950372486628 -0.023349058983253845 0 -0.0009022078686120816 -0.02345215004528679 0 -0.00088711029570415938 -0.023345227769622636 0 -0.00094477067619393087 -0.023458162132686488 0 -0.00088711029570415938 -0.023345227769622636 0 -0.00092421950372486628 -0.023349058983253845 0 -0.00094477067619393087 -0.023458162132686488 0 -0.00076127605490585869 -0.023208115505853 0 -0.00092421950372486628 -0.023349058983253845 0 -0.000909809692611029 -0.023303541167181509 0 -0.00079848150328097535 -0.023192110152909309 0 -0.0011250973795791587 -0.022830757832596197 0 -0.00076127605490585869 -0.023208115505853 0 -0.00074659546616737062 -0.022511540356689435 0 -0.0014219044873301858 -0.022311417544095449 0 -0.00035275741931959422 -0.022959983346706479 0 -0.00076127605490585869 -0.023208115505853 0 -0.00074659546616737062 -0.022511540356689435 0 -0.00030317964399542246 -0.022288367484510293 0 -0.00035275741931959422 -0.022959983346706479 0 -0.00074659546616737062 -0.022511540356689435 0 -0.00050241234634544585 -0.022986450803769938 0 -0.00086425704881017184 -0.02329482235152399 0 -0.0010210611733702838 -0.023564163085409165 0 -0.00098527872382220987 -0.02344695017182 0 -0.0010476890810612698 -0.023476982419555478 0 -0.0011146693492889998 -0.023710404573738113 0 -0.0010210611733702838 -0.023564163085409165 0 -0.0010476890810612698 -0.023476982419555478 0 -0.0010210611733702838 -0.023564163085409165 0 -0.00098527872382220987 -0.02344695017182 0 -0.00094477067619393087 -0.023458162132686488 0 -0.00092421950372486628 -0.023349058983253845 0 -0.00098527872382220987 -0.02344695017182 0 -0.00094477067619393087 -0.023458162132686488 0 -0.00092421950372486628 -0.023349058983253845 0 -0.00096601136868495736 -0.023367196755533209 0 -0.000909809692611029 -0.023303541167181509 0 -0.00092421950372486628 -0.023349058983253845 0 -0.00098527872382220987 -0.02344695017182 0 -0.00096601136868495736 -0.023367196755533209 0 -0.0011372876051904009 -0.023437931184423732 0 -0.0010476890810612698 -0.023476982419555478 0 -0.0010174501584558331 -0.023321164204537365 0 -0.00098527872382220987 -0.02344695017182 0 -0.00096601136868495736 -0.023367196755533209 0 -0.0010476890810612698 -0.023476982419555478 0 -0.00096601136868495736 -0.023367196755533209 0 -0.0010476890810612698 -0.023476982419555478 0 -0.0010174501584558331 -0.023321164204537365 0 -0.0010174501584558331 -0.023321164204537365 0 -0.00095908525023389939 -0.02319776864013157 0 -0.000909809692611029 -0.023303541167181509 0 -0.00096601136868495736 -0.023367196755533209 0 -0.0010174501584558331 -0.023321164204537365 0 -0.000909809692611029 -0.023303541167181509 0 -0.0015623098103762761 -0.022268300143965813 0 -0.0011250973795791587 -0.022830757832596197 0 -0.0010692042561055229 -0.023185454585187611 0 -0.0010174501584558331 -0.023321164204537365 0 -0.00095908525023389939 -0.02319776864013157 0 -0.0019361432379747701 -0.021499760977327542 0 -0.0014219044873301858 -0.022311417544095449 0 -0.00081973585657843409 -0.021733991646736887 0 -0.0019361432379747701 -0.021499760977327542 0 -0.00081973585657843409 -0.021733991646736887 0 -0.0011790239650768673 -0.020875869138366771 0 -0.00074659546616737062 -0.022511540356689435 0 -0.0014219044873301858 -0.022311417544095449 0 -0.00081973585657843409 -0.021733991646736887 0 -0.00030317964399542246 -0.022288367484510293 0 -0.00074659546616737062 -0.022511540356689435 0 -0.00081973585657843409 -0.021733991646736887 0 -0.00081973585657843409 -0.021733991646736887 0 -0.00048629130464232907 -0.021122364923129675 0 -0.0011790239650768673 -0.020875869138366771 0 -0.00048629130464232907 -0.021122364923129675 0 -0.0011790239650768673 -0.020875869138366771 0 -0.0004419558546975269 -0.020471145332171963 0 -0.0011790239650768673 -0.020875869138366771 0 -0.0017441037523766084 -0.020393969074065217 0 -0.0010296724599175532 -0.020034044177276791 0 -0.0011790239650768673 -0.020875869138366771 0 -0.0010296724599175532 -0.020034044177276791 0 -0.0004419558546975269 -0.020471145332171963 0 -0.0019361432379747701 -0.021499760977327542 0 -0.0018562764367146549 -0.020894978693576902 0 -0.0024416692962861532 -0.020754699207100991 0 -0.0015623098103762761 -0.022268300143965813 0 -0.0011234523301558602 -0.022168148554765319 0 -0.0010692042561055229 -0.023185454585187611 0 -0.00095908525023389939 -0.02319776864013157 0 -0.0010419963120250318 -0.023040323792370108 0 -0.0019361432379747701 -0.021499760977327542 0 -0.0011790239650768673 -0.020875869138366771 0 -0.0018562764367146549 -0.020894978693576902 0 -0.0011790239650768673 -0.020875869138366771 0 -0.0018562764367146549 -0.020894978693576902 0 -0.0017441037523766084 -0.020393969074065217 0 -0.0018562764367146549 -0.020894978693576902 0 -0.0017441037523766084 -0.020393969074065217 0 -0.0024416692962861532 -0.020754699207100991 0 -0.00011231007563948978 -0.02252258299462883 0 -0.00057727346456690957 -0.022518283610614059 0 -0.00062739883403619323 -0.022771516148344211 0 -0.00098784567280397963 -0.021433940092703409 0 -0.0011234523301558602 -0.022168148554765319 0 -0.00081837150946907839 -0.022482924884659323 0 -0.00057727346456690957 -0.022518283610614059 0 -0.00062739883403619323 -0.022771516148344211 0 -0.00011231007563948978 -0.02252258299462883 0 -0.00057727346456690957 -0.022518283610614059 0 -0.00059974562134241236 -0.022269720499192281 0 -0.00081837150946907839 -0.022482924884659323 0 -0.00057727346456690957 -0.022518283610614059 0 -0.00059974562134241236 -0.022269720499192281 0 -0.00011231007563948978 -0.02252258299462883 0 -0.00059974562134241236 -0.022269720499192281 0 -0.00023662838097911846 -0.022032302508325632 0 -0.00011231007563948978 -0.02252258299462883 0 -0.00023662838097911846 -0.022032302508325632 0 0.00017006032504397349 -0.021908426532934518 0 -0.00011499370781871202 -0.021641238357616919 0 -0.00023662838097911846 -0.022032302508325632 0 0.00017006032504397349 -0.021908426532934518 0 -0.00011499370781871202 -0.021641238357616919 0 -0.00023662838097911846 -0.022032302508325632 0 -0.00054559717725283295 -0.021806060798225203 0 -0.00059974562134241236 -0.022269720499192281 0 -0.00023662838097911846 -0.022032302508325632 0 -0.00054559717725283295 -0.021806060798225203 0 -0.00060110185252062835 -0.022253360327447055 0 -0.00052991710123216011 -0.021810928990969775 0 -0.00073359059528821391 -0.022121680165632686 0 -0.00059974562134241236 -0.022269720499192281 0 -0.0005743338365613663 -0.021994476940183541 0 -0.00070167030673141549 -0.021763079090860497 0 -0.00073359059528821391 -0.022121680165632686 0 -0.0005743338365613663 -0.021994476940183541 0 -0.00028252507039509247 -0.021102373744130265 0 0.00029927958989132736 -0.02101428762830285 0 -0.0010296724599175532 -0.020034044177276791 0 -0.00032088095907821182 -0.019677558247602894 0 -0.0004419558546975269 -0.020471145332171963 0 -0.00011231007563948978 -0.02252258299462883 0 0.00043019967342482343 -0.022218655179747488 0 0.00017006032504397349 -0.021908426532934518 0 -0.00098784567280397963 -0.021433940092703409 0 -0.00028252507039509247 -0.021102373744130265 0 0.00043019967342482343 -0.022218655179747488 0 0.00017006032504397349 -0.021908426532934518 0 0.00046330730137444486 -0.021627561779859122 0 -0.00011499370781871202 -0.021641238357616919 0 0.00017006032504397349 -0.021908426532934518 0 0.00046330730137444486 -0.021627561779859122 0 0.00087604134972835005 -0.021457422653635212 0 0.00046330730137444486 -0.021627561779859122 0 0.00093297951997799514 -0.021911053540313637 0 0.00043019967342482343 -0.022218655179747488 0 0.00046330730137444486 -0.021627561779859122 0 0.00093297951997799514 -0.021911053540313637 0 0.00029927958989132736 -0.02101428762830285 0 0.00032691991399098685 -0.018283535168606108 0 0.00032691991399098685 -0.018283535168606108 0 0.00027225526150328284 -0.019340251738488294 0 0.0011689919393221878 -0.016782362606707232 0 0.00056754775106463177 -0.017087110074749574 0 0.00092098805017787604 -0.01795298409309138 0 -0.00032088095907821182 -0.019677558247602894 0 0.00039150893896561982 -0.019314092499379123 0 0.00022391497177311374 -0.020115099208028415 0 0.00056754775106463177 -0.017087110074749574 0 0.00028119005025944158 -0.01861910330113228 0 0.00092098805017787604 -0.01795298409309138 0 0.0012136615286112919 -0.021405714882174288 0 0.00093297951997799514 -0.021911053540313637 0 0.0013785730375548944 -0.021626178068312393 0 0.00096144335387964963 -0.014330901588111599 0 0.00032691991399098685 -0.018283535168606108 0 0.00028119005025944158 -0.01861910330113228 0 0.00092098805017787604 -0.01795298409309138 0 0.001133345863534773 -0.019271612717257931 0 -0.00032088095907821182 -0.019677558247602894 0 0.00022391497177311374 -0.020115099208028415 0 -0.0004419558546975269 -0.020471145332171963 0 0.00022391497177311374 -0.020115099208028415 0 -0.0004419558546975269 -0.020471145332171963 0 5.2513608900871398e-05 -0.020902061127172768 0 0.00028119005025944158 -0.01861910330113228 0 4.6459438794112194e-05 -0.020132566113480192 0 0.001133345863534773 -0.019271612717257931 0 0.00027225526150328284 -0.019340251738488294 0 5.2861722059851222e-05 -0.020531308310551583 0 4.6459438794112194e-05 -0.020132566113480192 0 0.0014662775787196713 -0.020735103925488413 0 0.001133345863534773 -0.019271612717257931 0 0.00072065728809237849 -0.021437401406910455 0 4.6459438794112194e-05 -0.020132566113480192 0 0.0014662775787196713 -0.020735103925488413 0 -9.1354881530578439e-05 -0.021537500136431669 0 5.2861722059851222e-05 -0.020531308310551583 0 -0.00048629130464232907 -0.021122364923129675 0 -0.0004419558546975269 -0.020471145332171963 0 5.2513608900871398e-05 -0.020902061127172768 0 -8.9996991128519423e-05 -0.021625746571188424 0 -0.00048629130464232907 -0.021122364923129675 0 5.2513608900871398e-05 -0.020902061127172768 0 0.00058936690849917153 -0.012566158035210346 0 0.00038927066560471017 -0.011984470771030336 0 0.00078686927394789122 -0.012016537859195242 0 0.0028254484366500455 -0.021217830253778897 0 0.0014662775787196713 -0.020735103925488413 0 0.0023088526354071021 -0.019801153547394548 0 0.00046734857047221593 -0.018221949636671696 0 0.0014615130420038769 -0.015692240771728136 0 0.0014662775787196713 -0.020735103925488413 0 0.001133345863534773 -0.019271612717257931 0 0.0023088526354071021 -0.019801153547394548 0 0.001133345863534773 -0.019271612717257931 0 0.0023088526354071021 -0.019801153547394548 0 0.0017618220258102972 -0.018309618095115693 0 0.0014615130420038769 -0.015692240771728136 0 0.00091441282266626614 -0.014814917864028582 0 0.00038927066560471017 -0.011984470771030336 0 0.00059794418983469158 -0.01162002291411887 0 0.00020653342318569361 -0.011455252243095569 0 0.00038927066560471017 -0.011984470771030336 0 0.00059794418983469158 -0.01162002291411887 0 0.00078686927394789122 -0.012016537859195242 0 0.00059794418983469158 -0.01162002291411887 0 0.00052465267310437054 -0.011311637338714278 0 0.00020653342318569361 -0.011455252243095569 0 0.00092098805017787604 -0.01795298409309138 0 0.001133345863534773 -0.019271612717257931 0 0.0017618220258102972 -0.018309618095115693 0 0.0011689919393221878 -0.016782362606707232 0 0.00092098805017787604 -0.01795298409309138 0 0.0017618220258102972 -0.018309618095115693 0 0.00096144335387964963 -0.014330901588111599 0 0.00091441282266626614 -0.014814917864028582 0 1.3518146768299089e-05 -0.010959053633474623 0 0.00020653342318569361 -0.011455252243095569 0 0.00034979440885026756 -0.011098846650241983 0 0.00052465267310437054 -0.011311637338714278 0 0.00020653342318569361 -0.011455252243095569 0 0.00034979440885026756 -0.011098846650241983 0 0.00052465267310437054 -0.011311637338714278 0 0.00034979440885026756 -0.011098846650241983 0 0.00062351392972189183 -0.01101018096297879 0 0.00087426199350846569 -0.010961827026175038 0 0.001111280083559916 -0.01115682051854266 0 0.00082582246033906215 -0.011318448217749279 0 0.00087426199350846569 -0.010961827026175038 0 0.00062351392972189183 -0.01101018096297879 0 0.00082582246033906215 -0.011318448217749279 0 0.00052465267310437054 -0.011311637338714278 0 0.00062351392972189183 -0.01101018096297879 0 0.00082582246033906215 -0.011318448217749279 0 0.0010566551533489766 -0.010790524375000932 0 0.00087426199350846569 -0.010961827026175038 0 0.001111280083559916 -0.01115682051854266 0 0.0010566551533489766 -0.010790524375000932 0 0.001111280083559916 -0.01115682051854266 0 0.00136366507421373 -0.011045934660836648 0 0.0010339056949423455 -0.0068308667817334329 0 0.0021242014701185613 -0.0075322435645343256 0 0.001111280083559916 -0.01115682051854266 0 0.0013489816719557137 -0.011069348485929963 0 0.0013554127794670892 -0.011372755678895004 0 0.00053743508707276345 -0.010552878149904061 0 0.0021242014701185613 -0.0075322435645343256 0 0.001111280083559916 -0.01115682051854266 0 0.0010892867608587541 -0.011408107592456331 0 0.00082582246033906215 -0.011318448217749279 0 0.001111280083559916 -0.01115682051854266 0 0.0010892867608587541 -0.011408107592456331 0 0.0013554127794670892 -0.011372755678895004 0 0.0010892867608587541 -0.011408107592456331 0 0.0012456544042505739 -0.011543433642447459 0 0.0013554127794670892 -0.011372755678895004 0 0.0010892867608587541 -0.011408107592456331 0 0.0012456544042505739 -0.011543433642447459 0 0.00094047319860841459 -0.011634978085448526 0 0.00059794418983469158 -0.01162002291411887 0 0.00082582246033906215 -0.011318448217749279 0 0.00094047319860841459 -0.011634978085448526 0 0.0010892867608587541 -0.011408107592456331 0 0.00082582246033906215 -0.011318448217749279 0 0.00094047319860841459 -0.011634978085448526 0 0.00059794418983469158 -0.01162002291411887 0 0.00052465267310437054 -0.011311637338714278 0 0.00082582246033906215 -0.011318448217749279 0 0.0013487110994080814 -0.0051190483353999536 0 0.0018770814880145999 -0.0038385965224587821 0 0.00055456777512446521 -0.0044284694603715048 0 0.0013487110994080814 -0.0051190483353999536 0 0.0027485642187680304 -0.0046447649595273638 0 0.0018770814880145999 -0.0038385965224587821 0 0.0017712342252961416 -0.0025792783338225381 0 0.0021242014701185613 -0.0075322435645343256 0 0.0021242014701185613 -0.0075322435645343256 0 0.0021740811063651814 -0.0080400299734863928 0 0.0013489816719557137 -0.011069348485929963 0 0.0013554127794670892 -0.011372755678895004 0 0.0015836772882304021 -0.011313261460693416 0 0.0012456544042505739 -0.011543433642447459 0 0.0013554127794670892 -0.011372755678895004 0 0.0014393670922503374 -0.011588061931257191 0 0.0013554127794670892 -0.011372755678895004 0 0.0015668573158623856 -0.011482582721355567 0 0.0014393670922503374 -0.011588061931257191 0 0.0013554127794670892 -0.011372755678895004 0 0.0015836772882304021 -0.011313261460693416 0 0.0015668573158623856 -0.011482582721355567 0 0.0018770814880145999 -0.0038385965224587821 0 0.0009944194355030122 -0.0030237140287760903 0 0.00055456777512446521 -0.0044284694603715048 0 0.0015836772882304021 -0.011313261460693416 0 0.0015668573158623856 -0.011482582721355567 0 0.0017592609019397019 -0.011472011609646289 0 0.0021740811063651814 -0.0080400299734863928 0 -9.9025361682683553e-05 -0.0036972261215520571 0 -0.0011127342791198971 -0.0062311474464517265 0 -0.0014280423327600144 -0.0061156098179138132 0 -0.0011934846262032985 -0.0065606776138821083 0 -0.0011127342791198971 -0.0062311474464517265 0 -0.0010647766336767824 -0.0059086371962553501 0 -0.0014280423327600144 -0.0061156098179138132 0 -9.9025361682683553e-05 -0.0036972261215520571 0 -0.00028888690031945676 -0.0089580258736911521 0 0.0015668573158623856 -0.011482582721355567 0 0.0017592609019397019 -0.011472011609646289 0 0.0015664210978963964 -0.011625645978089702 0 0.0015664210978963964 -0.011625645978089702 0 0.0014393670922503374 -0.011588061931257191 0 0.0014082856615392281 -0.011711120208071298 0 -0.00028888690031945676 -0.0089580258736911521 0 0.00069455414732234075 -0.010279814095913789 0 0.0015668573158623856 -0.011482582721355567 0 0.0015664210978963964 -0.011625645978089702 0 0.0014393670922503374 -0.011588061931257191 0 0.0012226625223138007 -0.011961528590792523 0 0.00069455414732234075 -0.010279814095913789 0 0.0014393670922503374 -0.011588061931257191 0 0.001401329207507463 -0.011972130471643534 0 0.0011705784080271067 -0.011788709803471735 0 -0.0014280423327600144 -0.0061156098179138132 0 -0.0018644146626315098 -0.0063567766135313236 0 -0.0016078100380911954 -0.0065981312173415563 0 -0.0018644146626315098 -0.0063567766135313236 0 -0.0016078100380911954 -0.0065981312173415563 0 -0.002031415611500179 -0.0069429393264924819 0 0.00069455414732234075 -0.010279814095913789 0 -0.00047460971599175245 -0.0085248056469406086 0 -0.0014280423327600144 -0.0061156098179138132 0 -0.0016078100380911954 -0.0065981312173415563 0 -0.0011934846262032985 -0.0065606776138821083 0 -0.0016078100380911954 -0.0065981312173415563 0 -0.0011934846262032985 -0.0065606776138821083 0 -0.0015785454962968641 -0.0071262931444302218 0 -0.0013220711535291195 -0.0067253784595038505 0 -0.0013373077845922575 -0.0066364265843543938 0 0.00059794418983469158 -0.01162002291411887 0 0.00094047319860841459 -0.011634978085448526 0 0.00078686927394789122 -0.012016537859195242 0 0.00094047319860841459 -0.011634978085448526 0 0.0011705784080271067 -0.011788709803471735 0 0.00078686927394789122 -0.012016537859195242 0 0.0012456544042505739 -0.011543433642447459 0 0.00094047319860841459 -0.011634978085448526 0 0.0011705784080271067 -0.011788709803471735 0 0.0012456544042505739 -0.011543433642447459 0 0.0014393670922503374 -0.011588061931257191 0 0.0011705784080271067 -0.011788709803471735 0 0.00089462370423249501 -0.01081912072463545 0 0.00045273020179179951 -0.011092637336439348 0 0.00076867076019146311 -0.011381432269549697 0 0.00045273020179179951 -0.011092637336439348 0 1.7757347634491136e-05 -0.01136856744488874 0 0.00076867076019146311 -0.011381432269549697 0 0.0011705784080271067 -0.011788709803471735 0 0.0011015161287732443 -0.01219167686959027 0 0.00078686927394789122 -0.012016537859195242 0 0.001401329207507463 -0.011972130471643534 0 0.0011705784080271067 -0.011788709803471735 0 0.0011015161287732443 -0.01219167686959027 0 0.00069455414732234075 -0.010279814095913789 0 0.00083561504489932542 -0.011626416377619854 0 0.00083561504489932542 -0.011626416377619854 0 0.00070396765107613051 -0.013536770176735092 0 0.00058936690849917153 -0.012566158035210346 0 0.00078686927394789122 -0.012016537859195242 0 0.00079813916967383272 -0.01242288275586563 0 0.0011015161287732443 -0.01219167686959027 0 0.00078686927394789122 -0.012016537859195242 0 0.00079813916967383272 -0.01242288275586563 0 0.00046734857047221593 -0.018221949636671696 0 -8.4355861909857276e-05 -0.020011657505560391 0 0.00046734857047221593 -0.018221949636671696 0 0.00070396765107613051 -0.013536770176735092 0 -0.00037899322023636272 -0.015795208767358855 0 -0.00044789158639417027 -0.016760530885343516 0 0.00032952484695874336 -0.017360102387046557 0 -0.0011387191266489735 -0.016247936976171877 0 -0.00037899322023636272 -0.015795208767358855 0 -0.00044789158639417027 -0.016760530885343516 0 -0.0011387191266489735 -0.016247936976171877 0 -0.00044789158639417027 -0.016760530885343516 0 -0.00059824598111243854 -0.017648210037893439 0 -0.00059824598111243854 -0.017648210037893439 0 0.00032952484695874336 -0.017360102387046557 0 -4.4865148378063754e-05 -0.019069346283758577 0 -8.4355861909857276e-05 -0.020011657505560391 0 0.00029535828165839486 -0.021768774097170023 0 -0.00044789158639417027 -0.016760530885343516 0 -0.00059824598111243854 -0.017648210037893439 0 0.00032952484695874336 -0.017360102387046557 0 0.00032952484695874336 -0.017360102387046557 0 0.0011992974537608453 -0.017776634436600266 0 -4.4865148378063754e-05 -0.019069346283758577 0 -0.0021278851842618535 -0.014626534312329907 0 -0.0021036721144100856 -0.014599663805355545 0 -0.0021019439392720466 -0.014731168622412489 0 -0.00042992347113740364 -0.016267411014385506 0 0.00029535828165839486 -0.021768774097170023 0 0.00032952484695874336 -0.017360102387046557 0 0.0011992974537608453 -0.017776634436600266 0 0.0012917189053673497 -0.017333089448394168 0 -0.00042992347113740364 -0.016267411014385506 0 0.00013222519069513045 -0.012680111380086512 0 -0.0003669907743146728 -0.014202468765768375 0 0.0008576118662260169 -0.01296567438724692 0 6.7174650187616262e-05 -0.012236830196361455 0 -0.00042992347113740364 -0.016267411014385506 0 -0.00093320896940249701 -0.011442693509359864 0 -0.00093320896940249701 -0.011442693509359864 0 0.00013222519069513045 -0.012680111380086512 0 0.00070396765107613051 -0.013536770176735092 0 0.00013222519069513045 -0.012680111380086512 0 1.7757347634491136e-05 -0.01136856744488874 0 0.00064401986969322587 -0.011942753403065214 0 0.00076867076019146311 -0.011381432269549697 0 0.00013222519069513045 -0.012680111380086512 0 -0.00047460971599175245 -0.0085248056469406086 0 -0.00037899322023636272 -0.015795208767358855 0 0.00032952484695874336 -0.017360102387046557 0 0.0012917189053673497 -0.017333089448394168 0 -0.0021844907827496562 -0.0076698128611370408 0 -0.002031415611500179 -0.0069429393264924819 0 -0.0015785454962968641 -0.0071262931444302218 0 -0.0016078100380911954 -0.0065981312173415563 0 -0.002031415611500179 -0.0069429393264924819 0 -0.0015785454962968641 -0.0071262931444302218 0 -0.00093320896940249701 -0.011442693509359864 0 -0.0013373077845922575 -0.0066364265843543938 0 -0.0021009670561566627 -0.0077486525524752218 0 -0.0021844907827496562 -0.0076698128611370408 0 -0.0015785454962968641 -0.0071262931444302218 0 -0.0011934846262032985 -0.0065606776138821083 0 -0.0015040885953822071 -0.0068709404544624363 0 -0.0011470320600069491 -0.0068949134784782899 0 -0.0015040885953822071 -0.0068709404544624363 0 -0.0011470320600069491 -0.0068949134784782899 0 -0.0013263098372327006 -0.0071873211634575496 0 -0.0011470320600069491 -0.0068949134784782899 0 -0.0013263098372327006 -0.0071873211634575496 0 -0.00092883462381077161 -0.0071388291655973928 0 -0.0013263098372327006 -0.0071873211634575496 0 -0.001457856102830266 -0.0075320962576836637 0 -0.0010936781014566472 -0.0074735353861849546 0 -0.0013263098372327006 -0.0071873211634575496 0 -0.0010936781014566472 -0.0074735353861849546 0 -0.00092883462381077161 -0.0071388291655973928 0 -0.001815170952269762 -0.0072160584377275426 0 -0.0013263098372327006 -0.0071873211634575496 0 -0.001457856102830266 -0.0075320962576836637 0 -0.001815170952269762 -0.0072160584377275426 0 -0.0015040885953822071 -0.0068709404544624363 0 -0.0013263098372327006 -0.0071873211634575496 0 -0.0021036721144100856 -0.014599663805355545 0 -0.0020119295080787288 -0.014731559613824439 0 -0.0021019439392720466 -0.014731168622412489 0 -0.00093320896940249701 -0.011442693509359864 0 -0.0019641375442469716 -0.010942228252264099 0 -0.0020119295080787288 -0.014731559613824439 0 -0.0020446381693781826 -0.014866623928010589 0 -0.0021019439392720466 -0.014731168622412489 0 -0.001457856102830266 -0.0075320962576836637 0 -0.0010936781014566472 -0.0074735353861849546 0 -0.0011074790670528218 -0.0078595531946027003 0 -0.0019641375442469716 -0.010942228252264099 0 -0.0012971622676294966 -0.011631226231100985 0 -0.0020119295080787288 -0.014731559613824439 0 -0.0020228087838926358 -0.014819891065126318 0 -0.0020055924973329175 -0.014777200434877879 0 -0.0020228087838926358 -0.014819891065126318 0 -0.0020055924973329175 -0.014777200434877879 0 -0.0020203108258368832 -0.014778945085755356 0 -0.0020228087838926358 -0.014819891065126318 0 -0.0020446381693781826 -0.014866623928010589 0 -0.0020232829002025457 -0.014818895380445391 0 -0.0020119295080787288 -0.014731559613824439 0 -0.0020228087838926358 -0.014819891065126318 0 -0.0020446381693781826 -0.014866623928010589 0 -0.0022403864552057052 -0.01484901535529312 0 -0.0021607857360698992 -0.015169699931941659 0 -0.0024359997845374848 -0.0154417499059858 0 0.00099722235452598352 -0.022784819523543338 0 0.00061112898344451144 -0.023112910870741382 0 0.00071692078522399912 -0.023460575874444292 0 -0.00057557723090506023 -0.01897408997616774 0 -0.0013649399923099845 -0.020191616388638995 0 -0.0020446381693781826 -0.014866623928010589 0 -0.0022403864552057052 -0.01484901535529312 0 -0.0021607857360698992 -0.015169699931941659 0 0.00099722235452598352 -0.022784819523543338 0 0.00061112898344451144 -0.023112910870741382 0 0.00073223331135672056 -0.022648159354852759 0 0.00029700568162437308 -0.022967073545604573 0 0.00061112898344451144 -0.023112910870741382 0 0.00073223331135672056 -0.022648159354852759 0 0.00024163431951457185 -0.022711582726424279 0 0.00029700568162437308 -0.022967073545604573 0 0.00054354230695620161 -0.022736715909508643 0 0.00029700568162437308 -0.022967073545604573 0 0.00064147431941271628 -0.022420559047403879 0 0.00073223331135672056 -0.022648159354852759 0 0.00024163431951457185 -0.022711582726424279 0 0.00045046814828194882 -0.02245206612719565 0 0.00054354230695620161 -0.022736715909508643 0 0.00029535828165839486 -0.021768774097170023 0 0.00065220189762979779 -0.022552146819168013 0 0.0002852457855342313 -0.023077197901408119 0 0.00029535828165839486 -0.021768774097170023 0 -0.00042992347113740364 -0.016267411014385506 0 -0.00057557723090506023 -0.01897408997616774 0 -0.0020446381693781826 -0.014866623928010589 0 -0.0022403864552057052 -0.01484901535529312 0 -0.0021019439392720466 -0.014731168622412489 0 -0.0021278851842618535 -0.014626534312329907 0 -0.0022403864552057052 -0.01484901535529312 0 -0.0021019439392720466 -0.014731168622412489 0 0.0013926490894491754 -0.021128103735360636 0 0.00099722235452598352 -0.022784819523543338 0 0.00050948173756531101 -0.02210014898642099 0 0.00099722235452598352 -0.022784819523543338 0 0.00050948173756531101 -0.02210014898642099 0 0.00073223331135672056 -0.022648159354852759 0 -0.0022837851423656605 -0.0030417293665658245 0 -8.258269232012855e-06 -0.0025892996313020954 0 -0.00030180433714291138 -0.0046071304050153382 0 -8.258269232012855e-06 -0.0025892996313020954 0 -0.00030180433714291138 -0.0046071304050153382 0 0.0012971346036423567 -0.0031160948847416456 0 -0.0022837851423656605 -0.0030417293665658245 0 -8.258269232012855e-06 -0.0025892996313020954 0 0.00019228725644816535 -0.00041930481233526471 0 -0.00030180433714291138 -0.0046071304050153382 0 0.0019345934419912002 -0.0043721756551767443 0 0.00090349204370302697 -0.0066218566820134333 0 -0.00030180433714291138 -0.0046071304050153382 0 0.0012971346036423567 -0.0031160948847416456 0 0.0019345934419912002 -0.0043721756551767443 0 -0.0022837851423656605 -0.0030417293665658245 0 -0.00030180433714291138 -0.0046071304050153382 0 -0.0024481724884775524 -0.005348508960275021 0 -0.00030180433714291138 -0.0046071304050153382 0 -0.0024481724884775524 -0.005348508960275021 0 -0.0013442335804810673 -0.0066734796450908665 0 -0.0013561773334724336 -0.0051350841112213601 0 -0.0020796648103911602 -0.00957128901335739 0 -0.00024160595966642352 -0.0076395268956191004 0 -0.0007623821383426799 -0.007571698350951739 0 -0.0007479675999304715 -0.0082022203847370075 0 -0.0022837851423656605 -0.0030417293665658245 0 -0.0024481724884775524 -0.005348508960275021 0 -0.0047315521090197186 -0.0056755298421316963 0 -0.0011074790670528218 -0.0078595531946027003 0 -0.0007623821383426799 -0.007571698350951739 0 -0.0007479675999304715 -0.0082022203847370075 0 -0.0020055924973329175 -0.014777200434877879 0 -0.0020156157063559391 -0.014756237650094713 0 -0.0020203108258368832 -0.014778945085755356 0 -0.0012971622676294966 -0.011631226231100985 0 -0.0020796648103911602 -0.00957128901335739 0 -0.0010936781014566472 -0.0074735353861849546 0 -0.0011074790670528218 -0.0078595531946027003 0 -0.0007623821383426799 -0.007571698350951739 0 -0.00024160595966642352 -0.0076395268956191004 0 -0.0007623821383426799 -0.007571698350951739 0 -0.00044660509718293622 -0.0071371725967751846 0 -0.0010936781014566472 -0.0074735353861849546 0 -0.0007623821383426799 -0.007571698350951739 0 -0.00092883462381077161 -0.0071388291655973928 0 -0.0007623821383426799 -0.007571698350951739 0 -0.00044660509718293622 -0.0071371725967751846 0 -0.00092883462381077161 -0.0071388291655973928 0 -0.00044660509718293622 -0.0071371725967751846 0 -0.00092883462381077161 -0.0071388291655973928 0 -0.00076644652032392538 -0.0067713769297761605 0 -0.0011470320600069491 -0.0068949134784782899 0 -0.00092883462381077161 -0.0071388291655973928 0 -0.00076644652032392538 -0.0067713769297761605 0 -0.0011934846262032985 -0.0065606776138821083 0 -0.0011470320600069491 -0.0068949134784782899 0 -0.00076644652032392538 -0.0067713769297761605 0 -0.00044660509718293622 -0.0071371725967751846 0 -0.00076644652032392538 -0.0067713769297761605 0 -0.00020017476066685287 -0.006693538195870324 0 -0.00011364979944372461 -0.0023391693435287995 0 0.00036255876737579552 -0.0023980850773524529 0 -0.00044660509718293622 -0.0071371725967751846 0 -0.00020017476066685287 -0.006693538195870324 0 0.00025561494790983134 -0.0070678076567254802 0 -0.00024160595966642352 -0.0076395268956191004 0 -0.00044660509718293622 -0.0071371725967751846 0 0.00025561494790983134 -0.0070678076567254802 0 -0.0013561773334724336 -0.0051350841112213601 0 0.00036255876737579552 -0.0023980850773524529 0 -8.258269232012855e-06 -0.0025892996313020954 0 0.00019228725644816535 -0.00041930481233526471 0 0.0019253418217893108 -0.0019346268200424899 0 0.00076558660642879993 0.0010423884356065461 0 0.00075240385197106164 0.0019497517071479676 0 0.0018203327286765963 0.0016755769586967227 0 -0.00034762723494459463 0.0024609849754610945 0 0.00076558660642879993 0.0010423884356065461 0 0.00075240385197106164 0.0019497517071479676 0 0.00036255876737579552 -0.0023980850773524529 0 0.0021182334524068825 0.0020877679169993527 0 -0.00034762723494459463 0.0024609849754610945 0 0.00075240385197106164 0.0019497517071479676 0 0.00086140022607144782 0.0028223658005071513 0 0.00075240385197106164 0.0019497517071479676 0 0.00086140022607144782 0.0028223658005071513 0 0.0018203327286765963 0.0016755769586967227 0 -0.00034762723494459463 0.0024609849754610945 0 0.00086140022607144782 0.0028223658005071513 0 0.00023713378799442974 0.0032295412677794894 0 0.00086140022607144782 0.0028223658005071513 0 0.00084287749371143882 0.0035224157555599389 0 0.0014837053473241071 0.0036950641146067547 0 0.00084287749371143882 0.0035224157555599389 0 0.00023713378799442974 0.0032295412677794894 0 0.00053693713952392814 0.003901998586151631 0 0.00086140022607144782 0.0028223658005071513 0 0.00084287749371143882 0.0035224157555599389 0 0.00023713378799442974 0.0032295412677794894 0 -0.00034762723494459463 0.0024609849754610945 0 0.00023713378799442974 0.0032295412677794894 0 -0.0011066858027854848 0.0033624321284993096 0 0.00023713378799442974 0.0032295412677794894 0 0.0001017044946283012 0.0038317134801658286 0 -0.0011066858027854848 0.0033624321284993096 0 0.0001017044946283012 0.0038317134801658286 0 0.00026676896818219313 0.0040247055262573892 0 -4.4770656214421682e-05 0.0040748816530095655 0 0.00015561506939992424 0.0037725713108767212 0 -0.00062493034290350745 0.0043335356885016163 0 0.0001017044946283012 0.0038317134801658286 0 0.00026676896818219313 0.0040247055262573892 0 0.00053693713952392814 0.003901998586151631 0 0.00026676896818219313 0.0040247055262573892 0 0.00053693713952392814 0.003901998586151631 0 0.00034607494934051633 0.0041994568911948504 0 0.00053693713952392814 0.003901998586151631 0 0.0011028934139356481 0.0039571620652795562 0 0.001373536307135548 0.0045589189907431519 0 0.00084287749371143882 0.0035224157555599389 0 0.00053693713952392814 0.003901998586151631 0 0.0011028934139356481 0.0039571620652795562 0 0.00023713378799442974 0.0032295412677794894 0 0.0001017044946283012 0.0038317134801658286 0 0.00053693713952392814 0.003901998586151631 0 -0.0011934846262032985 -0.0065606776138821083 0 -0.00076644652032392538 -0.0067713769297761605 0 -0.00063175493303803951 -0.0063216021281476678 0 -0.0011127342791198971 -0.0062311474464517265 0 -0.0011934846262032985 -0.0065606776138821083 0 -0.00063175493303803951 -0.0063216021281476678 0 -0.00076644652032392538 -0.0067713769297761605 0 -0.00020017476066685287 -0.006693538195870324 0 -0.00063175493303803951 -0.0063216021281476678 0 -0.00011364979944372461 -0.0023391693435287995 0 -0.0012601161743227116 -0.00095895400846576751 0 0.0001017044946283012 0.0038317134801658286 0 -0.0011066858027854848 0.0033624321284993096 0 -0.00049094293767481666 0.0041941579683474339 0 -0.0011066858027854848 0.0033624321284993096 0 -0.0011149731548815206 0.0040028987761472337 0 -0.00049094293767481666 0.0041941579683474339 0 -0.0011127342791198971 -0.0062311474464517265 0 -0.0010647766336767824 -0.0059086371962553501 0 -0.00063175493303803951 -0.0063216021281476678 0 -9.9025361682683553e-05 -0.0036972261215520571 0 -0.0012601161743227116 -0.00095895400846576751 0 -0.0018096301705457752 0.0040247591366863126 0 -0.0011066858027854848 0.0033624321284993096 0 -0.0011149731548815206 0.0040028987761472337 0 -0.0018096301705457752 0.0040247591366863126 0 -0.0011149731548815206 0.0040028987761472337 0 -0.0010252982485205429 0.0045480673925797502 0 -9.9025361682683553e-05 -0.0036972261215520571 0 -0.00012497210043298693 0.00089411654965162633 0 0.0009944194355030122 -0.0030237140287760903 0 -0.00023990938286344698 -0.0037255926305813478 0 0.00055456777512446521 -0.0044284694603715048 0 -0.0002467550622386374 0.0042352256206493995 0 -4.4770656214421682e-05 0.0040748816530095655 0 0.00011128565122722556 0.0044454257237066539 0 -0.0011149731548815206 0.0040028987761472337 0 -0.0010252982485205429 0.0045480673925797502 0 -0.00049094293767481666 0.0041941579683474339 0 -0.00012497210043298693 0.00089411654965162633 0 -0.00062493034290350745 0.0043335356885016163 0 0.00050496149320939971 -0.0014906550347761334 0 0.00039945459132630112 -0.001651199580312382 0 0.0006854303081928985 -0.0017331730903046901 0 -0.00012497210043298693 0.00089411654965162633 0 0.00049441988571089868 0.0014311349715456624 0 0.00039175075650524138 -0.0018369453889209007 0 0.00039945459132630112 -0.001651199580312382 0 0.0006854303081928985 -0.0017331730903046901 0 0.00030871011518837665 -0.0014157199512802733 0 0.00039945459132630112 -0.001651199580312382 0 0.00021882632847770232 -0.0016858193917022642 0 -0.00012497210043298693 0.00089411654965162633 0 0.00069959018225137061 -0.0032391406108519989 0 0.00039175075650524138 -0.0018369453889209007 0 0.00039945459132630112 -0.001651199580312382 0 0.00021882632847770232 -0.0016858193917022642 0 0.0017712342252961416 -0.0025792783338225381 0 0.00069959018225137061 -0.0032391406108519989 0 0.00053693713952392814 0.003901998586151631 0 0.0012527677244729772 0.0054655383249718956 0 0.001373536307135548 0.0045589189907431519 0 0.00053693713952392814 0.003901998586151631 0 0.00034607494934051633 0.0041994568911948504 0 0.00055198203511486459 0.0043686386222764684 0 0.00052579845937489225 0.0038119176345458739 0 0.000909799639307345 0.0052011592723527041 0 0.00034607494934051633 0.0041994568911948504 0 0.0003666302543854733 0.0044029151482414316 0 0.00055198203511486459 0.0043686386222764684 0 0.00026676896818219313 0.0040247055262573892 0 -4.4770656214421682e-05 0.0040748816530095655 0 0.00034607494934051633 0.0041994568911948504 0 -4.4770656214421682e-05 0.0040748816530095655 0 0.00034607494934051633 0.0041994568911948504 0 0.00011128565122722556 0.0044454257237066539 0 0.00034607494934051633 0.0041994568911948504 0 0.00011128565122722556 0.0044454257237066539 0 0.0003666302543854733 0.0044029151482414316 0 0.0014504746153524198 -0.0014016225239637952 0 0.00076497488511650144 -0.0014303489139109397 0 0.0006854303081928985 -0.0017331730903046901 0 0.00076497488511650144 -0.0014303489139109397 0 0.00050496149320939971 -0.0014906550347761334 0 0.0006854303081928985 -0.0017331730903046901 0 0.00081872053730181133 0.0013672357720963179 0 0.00049441988571089868 0.0014311349715456624 0 0.00043908565808824392 0.0045949892354387482 0 0.0003666302543854733 0.0044029151482414316 0 0.00055198203511486459 0.0043686386222764684 0 0.00043908565808824392 0.0045949892354387482 0 0.00011128565122722556 0.0044454257237066539 0 0.0003666302543854733 0.0044029151482414316 0 0.0014955346228748181 0.0042817752984615643 0 0.000909799639307345 0.0052011592723527041 0 0.0012527677244729772 0.0054655383249718956 0 0.0020970254992423334 0.0051295570425088869 0 0.0019941511215214426 0.0058540060056226544 0 0.001818744954548694 0.0065886007421184683 0 0.0012527677244729772 0.0054655383249718956 0 0.0019941511215214426 0.0058540060056226544 0 0.0012527677244729772 0.0054655383249718956 0 0.0020970254992423334 0.0051295570425088869 0 0.001373536307135548 0.0045589189907431519 0 0.0020970254992423334 0.0051295570425088869 0 0.001373536307135548 0.0045589189907431519 0 0.0022366873610856547 0.0042364553266674189 0 0.0020970254992423334 0.0051295570425088869 0 0.0028694888565525792 0.0048586235881372866 0 0.0022366873610856547 0.0042364553266674189 0 0.0020970254992423334 0.0051295570425088869 0 0.0027053786837048649 0.0057465720387754483 0 0.0028694888565525792 0.0048586235881372866 0 0.0021993107338592281 0.0063324064387786779 0 0.0019941511215214426 0.0058540060056226544 0 0.0027053786837048649 0.0057465720387754483 0 0.0020970254992423334 0.0051295570425088869 0 0.0019941511215214426 0.0058540060056226544 0 0.0027053786837048649 0.0057465720387754483 0 0.0027053786837048649 0.0057465720387754483 0 0.0034255048586946365 0.0058336981140155956 0 0.0032919754738478437 0.0052933305306818272 0 0.0030925413109129701 0.0062779208575135395 0 0.0027053786837048649 0.0057465720387754483 0 0.0034255048586946365 0.0058336981140155956 0 0.0034255048586946365 0.0058336981140155956 0 0.0037536708147499634 0.0053301366925090398 0 0.0041377345610104756 0.0059352065355166772 0 0.0036183645375020643 0.006348196010302073 0 0.0034255048586946365 0.0058336981140155956 0 0.0041377345610104756 0.0059352065355166772 0 0.0034255048586946365 0.0058336981140155956 0 0.0037536708147499634 0.0053301366925090398 0 0.0032919754738478437 0.0052933305306818272 0 0.0032919754738478437 0.0052933305306818272 0 0.0028694888565525792 0.0048586235881372866 0 0.003665640163937378 0.0047268052621445488 0 0.0037536708147499634 0.0053301366925090398 0 0.0032919754738478437 0.0052933305306818272 0 0.003665640163937378 0.0047268052621445488 0 0.0027053786837048649 0.0057465720387754483 0 0.0032919754738478437 0.0052933305306818272 0 0.0028694888565525792 0.0048586235881372866 0 0.0028694888565525792 0.0048586235881372866 0 0.0028938507010200358 0.0041830888399632758 0 0.0022366873610856547 0.0042364553266674189 0 0.0028694888565525792 0.0048586235881372866 0 0.0028938507010200358 0.0041830888399632758 0 0.003665640163937378 0.0047268052621445488 0 0.0028938507010200358 0.0041830888399632758 0 0.003665640163937378 0.0047268052621445488 0 0.0038018499510552388 0.0040164883369026771 0 0.0038018499510552388 0.0040164883369026771 0 0.0032307943933664539 0.0037180122987781586 0 0.0036307810874196969 0.0034153291220152962 0 0.0028938507010200358 0.0041830888399632758 0 0.0038018499510552388 0.0040164883369026771 0 0.0032307943933664539 0.0037180122987781586 0 0.0028938507010200358 0.0041830888399632758 0 0.0032307943933664539 0.0037180122987781586 0 0.0028616649856536753 0.0033814338350721179 0 0.0021551099397745439 0.0035057188707893787 0 0.0014837053473241071 0.0036950641146067547 0 0.0022366873610856547 0.0042364553266674189 0 0.0028938507010200358 0.0041830888399632758 0 0.0021551099397745439 0.0035057188707893787 0 0.0028616649856536753 0.0033814338350721179 0 0.00086140022607144782 0.0028223658005071513 0 0.0021551099397745439 0.0035057188707893787 0 0.0014837053473241071 0.0036950641146067547 0 0.0014837053473241071 0.0036950641146067547 0 0.0011028934139356481 0.0039571620652795562 0 0.001373536307135548 0.0045589189907431519 0 0.0014837053473241071 0.0036950641146067547 0 0.001373536307135548 0.0045589189907431519 0 0.0022366873610856547 0.0042364553266674189 0 0.00084287749371143882 0.0035224157555599389 0 0.0014837053473241071 0.0036950641146067547 0 0.0011028934139356481 0.0039571620652795562 0 0.0028938507010200358 0.0041830888399632758 0 0.0021551099397745439 0.0035057188707893787 0 0.0022366873610856547 0.0042364553266674189 0 0.0061176525247595998 0.0054109670954921862 0 0.0055739632064930539 0.0053807826835085793 0 0.0057512002982356815 0.0047082237204915953 0 0.0055739632064930539 0.0053807826835085793 0 0.0058879501421423737 0.0059479911981113916 0 0.0053161888018498889 0.0060002196548529048 0 0.0061176525247595998 0.0054109670954921862 0 0.0055739632064930539 0.0053807826835085793 0 0.0058879501421423737 0.0059479911981113916 0 0.0055739632064930539 0.0053807826835085793 0 0.0053161888018498889 0.0060002196548529048 0 0.004972440733917771 0.0054202169315437131 0 0.0053161888018498889 0.0060002196548529048 0 0.004972440733917771 0.0054202169315437131 0 0.0048411591433571701 0.0060440525916970363 0 0.004972440733917771 0.0054202169315437131 0 0.0047601506122644729 0.0048906309732296106 0 0.0052289931202496118 0.0048679965599032933 0 0.0055739632064930539 0.0053807826835085793 0 0.004972440733917771 0.0054202169315437131 0 0.0052289931202496118 0.0048679965599032933 0 0.004972440733917771 0.0054202169315437131 0 0.0045289724865748577 0.0056636770254841493 0 0.0043246681372153886 0.0052068009276673936 0 0.004972440733917771 0.0054202169315437131 0 0.0043246681372153886 0.0052068009276673936 0 0.0047601506122644729 0.0048906309732296106 0 0.0045289724865748577 0.0056636770254841493 0 0.0048411591433571701 0.0060440525916970363 0 0.0041377345610104756 0.0059352065355166772 0 0.004972440733917771 0.0054202169315437131 0 0.0045289724865748577 0.0056636770254841493 0 0.0048411591433571701 0.0060440525916970363 0 0.0037536708147499634 0.0053301366925090398 0 0.0041377345610104756 0.0059352065355166772 0 0.0043246681372153886 0.0052068009276673936 0 0.0045289724865748577 0.0056636770254841493 0 0.0041377345610104756 0.0059352065355166772 0 0.0043246681372153886 0.0052068009276673936 0 0.0037536708147499634 0.0053301366925090398 0 0.003665640163937378 0.0047268052621445488 0 0.0043246681372153886 0.0052068009276673936 0 0.003665640163937378 0.0047268052621445488 0 0.0043246681372153886 0.0052068009276673936 0 0.0043429669522699523 0.0045443615744530912 0 0.003665640163937378 0.0047268052621445488 0 0.0038018499510552388 0.0040164883369026771 0 0.0043429669522699523 0.0045443615744530912 0 0.0038018499510552388 0.0040164883369026771 0 0.0043429669522699523 0.0045443615744530912 0 0.0044975542866127535 0.0040396605183451303 0 0.0038018499510552388 0.0040164883369026771 0 0.0044975542866127535 0.0040396605183451303 0 0.0042192468296402136 0.0035592599145592464 0 0.0043429669522699523 0.0045443615744530912 0 0.0044975542866127535 0.0040396605183451303 0 0.0049041597885370689 0.0044287377201789472 0 0.0044975542866127535 0.0040396605183451303 0 0.0049041597885370689 0.0044287377201789472 0 0.005133451786521556 0.0039531779529135159 0 0.0043429669522699523 0.0045443615744530912 0 0.0049041597885370689 0.0044287377201789472 0 0.0047601506122644729 0.0048906309732296106 0 0.0043246681372153886 0.0052068009276673936 0 0.0043429669522699523 0.0045443615744530912 0 0.0047601506122644729 0.0048906309732296106 0 0.0049041597885370689 0.0044287377201789472 0 0.0047601506122644729 0.0048906309732296106 0 0.0052289931202496118 0.0048679965599032933 0 0.0049041597885370689 0.0044287377201789472 0 0.0052289931202496118 0.0048679965599032933 0 0.005329988652557128 0.0044098915986451178 0 0.005133451786521556 0.0039531779529135159 0 0.005329988652557128 0.0044098915986451178 0 0.0056153798656747404 0.0041075502599853533 0 0.0049041597885370689 0.0044287377201789472 0 0.005133451786521556 0.0039531779529135159 0 0.005329988652557128 0.0044098915986451178 0 0.0060017304626756732 0.0042668135129825596 0 0.0056153798656747404 0.0041075502599853533 0 0.0057512002982356815 0.0047082237204915953 0 0.005329988652557128 0.0044098915986451178 0 0.0056153798656747404 0.0041075502599853533 0 0.0057512002982356815 0.0047082237204915953 0 0.0060017304626756732 0.0042668135129825596 0 0.0059270506867280387 0.0039042575688061467 0 0.0056153798656747404 0.0041075502599853533 0 0.0055739632064930539 0.0053807826835085793 0 0.0052289931202496118 0.0048679965599032933 0 0.0057512002982356815 0.0047082237204915953 0 0.0052289931202496118 0.0048679965599032933 0 0.005329988652557128 0.0044098915986451178 0 0.0057512002982356815 0.0047082237204915953 0 0.0060724249767752604 0.0036203991933474833 0 0.0056514329800431721 0.0033801361389805833 0 0.0055755752439692998 0.0036456722690887873 0 0.0060724249767752604 0.0036203991933474833 0 0.0056514329800431721 0.0033801361389805833 0 0.0057530598214928204 0.0031278635840842474 0 0.0054654422167454706 0.0031245837178784496 0 0.0056514329800431721 0.0033801361389805833 0 0.0057530598214928204 0.0031278635840842474 0 0.0054654422167454706 0.0031245837178784496 0 0.0056514329800431721 0.0033801361389805833 0 0.0054062735558615578 0.0033651021172488756 0 0.0056514329800431721 0.0033801361389805833 0 0.0055755752439692998 0.0036456722690887873 0 0.0054062735558615578 0.0033651021172488756 0 0.005133451786521556 0.0039531779529135159 0 0.0056153798656747404 0.0041075502599853533 0 0.0055755752439692998 0.0036456722690887873 0 0.0059270506867280387 0.0039042575688061467 0 0.0056153798656747404 0.0041075502599853533 0 0.0055755752439692998 0.0036456722690887873 0 0.005133451786521556 0.0039531779529135159 0 0.0051543355010426591 0.0034885394948604965 0 0.0047375816050492028 0.003573857062513142 0 0.005133451786521556 0.0039531779529135159 0 0.0055755752439692998 0.0036456722690887873 0 0.0051543355010426591 0.0034885394948604965 0 0.0051543355010426591 0.0034885394948604965 0 0.0051708597031644996 0.0031955655642314589 0 0.004852521336878096 0.0032334888199879409 0 0.0051543355010426591 0.0034885394948604965 0 0.0054062735558615578 0.0033651021172488756 0 0.0051708597031644996 0.0031955655642314589 0 0.0055755752439692998 0.0036456722690887873 0 0.0051543355010426591 0.0034885394948604965 0 0.0054062735558615578 0.0033651021172488756 0 0.0054654422167454706 0.0031245837178784496 0 0.0054062735558615578 0.0033651021172488756 0 0.0051708597031644996 0.0031955655642314589 0 0.0054654422167454706 0.0031245837178784496 0 0.0051708597031644996 0.0031955655642314589 0 0.0052507712212395358 0.0029826404060192264 0 0.0051708597031644996 0.0031955655642314589 0 0.0049193203189498991 0.00297194929193768 0 0.0052507712212395358 0.0029826404060192264 0 0.0051708597031644996 0.0031955655642314589 0 0.004852521336878096 0.0032334888199879409 0 0.0049193203189498991 0.00297194929193768 0 0.0046618752096851644 0.0030423887207067205 0 0.0043866088988832519 0.0027631133123678128 0 0.0049193203189498991 0.00297194929193768 0 0.0046618752096851644 0.0030423887207067205 0 0.004852521336878096 0.0032334888199879409 0 0.0049193203189498991 0.00297194929193768 0 0.0046618752096851644 0.0030423887207067205 0 0.0044841915100193195 0.0032034042300372843 0 0.0043866088988832519 0.0027631133123678128 0 0.0046618752096851644 0.0030423887207067205 0 0.0044841915100193195 0.0032034042300372843 0 0.004852521336878096 0.0032334888199879409 0 0.0044841915100193195 0.0032034042300372843 0 0.004852521336878096 0.0032334888199879409 0 0.0047375816050492028 0.003573857062513142 0 0.0044975542866127535 0.0040396605183451303 0 0.005133451786521556 0.0039531779529135159 0 0.0047375816050492028 0.003573857062513142 0 0.0044975542866127535 0.0040396605183451303 0 0.0047375816050492028 0.003573857062513142 0 0.0042192468296402136 0.0035592599145592464 0 0.0051543355010426591 0.0034885394948604965 0 0.004852521336878096 0.0032334888199879409 0 0.0047375816050492028 0.003573857062513142 0 0.0044841915100193195 0.0032034042300372843 0 0.0047375816050492028 0.003573857062513142 0 0.0042192468296402136 0.0035592599145592464 0 0.0044841915100193195 0.0032034042300372843 0 0.0042192468296402136 0.0035592599145592464 0 0.0040272670681242564 0.0031503374986918751 0 0.0042192468296402136 0.0035592599145592464 0 0.0040272670681242564 0.0031503374986918751 0 0.0036307810874196969 0.0034153291220152962 0 0.0040272670681242564 0.0031503374986918751 0 0.0043866088988832519 0.0027631133123678128 0 0.0033857831116738276 0.0028335514799561297 0 0.0044841915100193195 0.0032034042300372843 0 0.0040272670681242564 0.0031503374986918751 0 0.0043866088988832519 0.0027631133123678128 0 0.0095268906164592358 -0.0023359405475842309 0 0.0090242286977555725 -0.003503330280059802 0 0.0074837129844468591 -0.0026085598157459611 0 0.0095268906164592358 -0.0023359405475842309 0 0.0090242286977555725 -0.003503330280059802 0 0.010088834953728145 -0.0031161781149360752 0 0.0090242286977555725 -0.003503330280059802 0 0.0087683407796885129 -0.0047688036475414478 0 0.007670573670022553 -0.0039269997767567228 0 0.0087683407796885129 -0.0047688036475414478 0 0.0098949573617697732 -0.004430254146763732 0 0.0095364812431057849 -0.0065363826622330127 0 0.0090242286977555725 -0.003503330280059802 0 0.0087683407796885129 -0.0047688036475414478 0 0.0098949573617697732 -0.004430254146763732 0 0.0090242286977555725 -0.003503330280059802 0 0.0098949573617697732 -0.004430254146763732 0 0.010088834953728145 -0.0031161781149360752 0 0.0098949573617697732 -0.004430254146763732 0 0.010738885888065956 -0.0042641689473326772 0 0.010088834953728145 -0.0031161781149360752 0 0.0099582329446359832 -0.0030880560279738095 0 0.012030874814560057 -0.0039935038926433297 0 0.010738885888065956 -0.0042641689473326772 0 0.010088834953728145 -0.0031161781149360752 0 0.011764631710413304 -0.004049321557651594 0 0.0098949573617697732 -0.004430254146763732 0 0.010738885888065956 -0.0042641689473326772 0 0.010274021217550517 -0.005144986081555003 0 0.0095268906164592358 -0.0023359405475842309 0 0.010088834953728145 -0.0031161781149360752 0 0.011145218806071323 -0.0033257488733539017 0 0.0043866088988832519 0.0027631133123678128 0 0.0049193203189498991 0.00297194929193768 0 0.0052486438252331872 0.0027172287821657869 0 0.0068886330193976266 0.0002204709840202876 0 0.008328217409557399 -0.00016170300756120242 0 0.010088834953728145 -0.0031161781149360752 0 0.011145218806071323 -0.0033257488733539017 0 0.011234310269063229 -0.003578845372433023 0 0.0049193203189498991 0.00297194929193768 0 0.0052507712212395358 0.0029826404060192264 0 0.0052486438252331872 0.0027172287821657869 0 0.0054654422167454706 0.0031245837178784496 0 0.0052507712212395358 0.0029826404060192264 0 0.0054438870103376887 0.0029172528906297409 0 0.0052507712212395358 0.0029826404060192264 0 0.0054438870103376887 0.0029172528906297409 0 0.0052486438252331872 0.0027172287821657869 0 0.0054438870103376887 0.0029172528906297409 0 0.0052486438252331872 0.0027172287821657869 0 0.0056443155800143868 0.0028280733676037608 0 0.010738885888065956 -0.0042641689473326772 0 0.011423421787683729 -0.0046063052255202403 0 0.010987496071501714 -0.0052330623983702518 0 0.010738885888065956 -0.0042641689473326772 0 0.011423421787683729 -0.0046063052255202403 0 0.011764631710413304 -0.004049321557651594 0 0.011423421787683729 -0.0046063052255202403 0 0.011764631710413304 -0.004049321557651594 0 0.012177959623434766 -0.0048631254820100068 0 0.011870096489400779 -0.00374911168344691 0 0.011145218806071323 -0.0033257488733539017 0 0.011234310269063229 -0.003578845372433023 0 0.011870096489400779 -0.00374911168344691 0 0.011234310269063229 -0.003578845372433023 0 0.011778792322663583 -0.0038444902296751204 0 0.0059383174624891375 0.0026878254413558213 0 0.0052486438252331872 0.0027172287821657869 0 0.0056443155800143868 0.0028280733676037608 0 0.011764631710413304 -0.004049321557651594 0 0.012177959623434766 -0.0048631254820100068 0 0.013192789693351871 -0.0047123231142493713 0 0.012030874814560057 -0.0039935038926433297 0 0.009708188488727466 -0.0036095349846179546 0 0.008006612427508452 -0.0015513076434107893 0 0.008328217409557399 -0.00016170300756120242 0 0.0059383174624891375 0.0026878254413558213 0 0.0058227817887058324 0.0028314865050708053 0 0.0056443155800143868 0.0028280733676037608 0 0.0059078199768548513 0.0029117684530282689 0 0.0058227817887058324 0.0028314865050708053 0 0.0057794032218570221 0.0029633758348050409 0 0.0057794032218570221 0.0029633758348050409 0 0.0056443155800143868 0.0028280733676037608 0 0.0056122382510430313 0.0029704033728245537 0 0.0058227817887058324 0.0028314865050708053 0 0.0057794032218570221 0.0029633758348050409 0 0.0056443155800143868 0.0028280733676037608 0 0.0054438870103376887 0.0029172528906297409 0 0.0056443155800143868 0.0028280733676037608 0 0.0056122382510430313 0.0029704033728245537 0 0.0054654422167454706 0.0031245837178784496 0 0.0056122382510430313 0.0029704033728245537 0 0.0057530598214928204 0.0031278635840842474 0 0.0054654422167454706 0.0031245837178784496 0 0.0054438870103376887 0.0029172528906297409 0 0.0056122382510430313 0.0029704033728245537 0 0.0057794032218570221 0.0029633758348050409 0 0.0056122382510430313 0.0029704033728245537 0 0.0057530598214928204 0.0031278635840842474 0 0.0035060419438444307 -0.00093272335679716939 0 0.0035799754414951482 0.001048161849341193 0 0.0048269890044913381 -0.0010813843291295202 0 0.0035060419438444307 -0.00093272335679716939 0 0.0026176525299554908 9.168282404418168e-05 0 0.0035799754414951482 0.001048161849341193 0 0.0035060419438444307 -0.00093272335679716939 0 0.0048269890044913381 -0.0010813843291295202 0 0.0044593169294674549 -0.0024902331438713243 0 0.0035060419438444307 -0.00093272335679716939 0 0.0025679235465996325 -0.0010567507961812724 0 0.0029437374032401111 -0.0020606904453315564 0 0.0035060419438444307 -0.00093272335679716939 0 0.0025679235465996325 -0.0010567507961812724 0 0.0026176525299554908 9.168282404418168e-05 0 0.0025679235465996325 -0.0010567507961812724 0 0.0016912979576563069 -0.00018953967006844969 0 0.0019253418217893108 -0.0019346268200424899 0 -2.8703416388558476e-05 -0.00013055506841973228 0 0.0016912979576563069 -0.00018953967006844969 0 0.0019253418217893108 -0.0019346268200424899 0 0.00036255876737579552 -0.0023980850773524529 0 0.0013960594449348922 -0.0013065903292328413 0 -2.8703416388558476e-05 -0.00013055506841973228 0 0.0016912979576563069 -0.00018953967006844969 0 0.0018203327286765963 0.0016755769586967227 0 0.0025679235465996325 -0.0010567507961812724 0 0.0016912979576563069 -0.00018953967006844969 0 0.0026176525299554908 9.168282404418168e-05 0 0.0026176525299554908 9.168282404418168e-05 0 0.0018203327286765963 0.0016755769586967227 0 0.0035799754414951482 0.001048161849341193 0 0.00091093327734931707 0.0028074762790525659 0 0.0028567890117719482 0.0019924883637738177 0 0.00086140022607144782 0.0028223658005071513 0 0.0018203327286765963 0.0016755769586967227 0 0.0035799754414951482 0.001048161849341193 0 0.00086140022607144782 0.0028223658005071513 0 0.0021551099397745439 0.0035057188707893787 0 0.0022500281006902303 0.0028874134040232941 0 0.0016912979576563069 -0.00018953967006844969 0 0.0026176525299554908 9.168282404418168e-05 0 0.0018203327286765963 0.0016755769586967227 0 0.0021551099397745439 0.0035057188707893787 0 0.0022500281006902303 0.0028874134040232941 0 0.0028616649856536753 0.0033814338350721179 0 0.0032307943933664539 0.0037180122987781586 0 0.0028616649856536753 0.0033814338350721179 0 0.0036307810874196969 0.0034153291220152962 0 0.0028616649856536753 0.0033814338350721179 0 0.0036307810874196969 0.0034153291220152962 0 0.0033857831116738276 0.0028335514799561297 0 0.0022500281006902303 0.0028874134040232941 0 0.0028616649856536753 0.0033814338350721179 0 0.0033857831116738276 0.0028335514799561297 0 0.0038018499510552388 0.0040164883369026771 0 0.0042192468296402136 0.0035592599145592464 0 0.0036307810874196969 0.0034153291220152962 0 0.0040272670681242564 0.0031503374986918751 0 0.0036307810874196969 0.0034153291220152962 0 0.0033857831116738276 0.0028335514799561297 0 0.0095268906164592358 -0.0023359405475842309 0 0.0066987609172705484 -0.00067466890946416838 0 0.0074837129844468591 -0.0026085598157459611 0 0.0068886330193976266 0.0002204709840202876 0 0.0050216429333679773 0.0010863256364348271 0 0.0066987609172705484 -0.00067466890946416838 0 0.0058501947636494791 -0.0019845080567070204 0 0.0074837129844468591 -0.0026085598157459611 0 0.0028567890117719482 0.0019924883637738177 0 0.0050216429333679773 0.0010863256364348271 0 0.0035799754414951482 0.001048161849341193 0 0.0066987609172705484 -0.00067466890946416838 0 0.0048269890044913381 -0.0010813843291295202 0 0.0066987609172705484 -0.00067466890946416838 0 0.0048269890044913381 -0.0010813843291295202 0 0.0058501947636494791 -0.0019845080567070204 0 0.0048269890044913381 -0.0010813843291295202 0 0.0058501947636494791 -0.0019845080567070204 0 0.0044593169294674549 -0.0024902331438713243 0 0.0058501947636494791 -0.0019845080567070204 0 0.0060739528057002501 -0.0032357980402283578 0 0.0044593169294674549 -0.0024902331438713243 0 0.0058501947636494791 -0.0019845080567070204 0 0.0060739528057002501 -0.0032357980402283578 0 0.0074837129844468591 -0.0026085598157459611 0 0.0060739528057002501 -0.0032357980402283578 0 0.0047308178086034854 -0.0043222909106142241 0 0.0044593169294674549 -0.0024902331438713243 0 0.0060739528057002501 -0.0032357980402283578 0 0.0074837129844468591 -0.0026085598157459611 0 0.007670573670022553 -0.0039269997767567228 0 0.0090242286977555725 -0.003503330280059802 0 0.0074837129844468591 -0.0026085598157459611 0 0.007670573670022553 -0.0039269997767567228 0 0.0060739528057002501 -0.0032357980402283578 0 0.007670573670022553 -0.0039269997767567228 0 0.0064327557049659164 -0.0045147828179435238 0 0.0064327557049659164 -0.0045147828179435238 0 0.006399079223570474 -0.0058700048506091923 0 0.0076948746133225247 -0.0056348285877868493 0 0.007670573670022553 -0.0039269997767567228 0 0.0064327557049659164 -0.0045147828179435238 0 0.0076948746133225247 -0.0056348285877868493 0 0.0087683407796885129 -0.0047688036475414478 0 0.007670573670022553 -0.0039269997767567228 0 0.0076948746133225247 -0.0056348285877868493 0 0.0060739528057002501 -0.0032357980402283578 0 0.0047308178086034854 -0.0043222909106142241 0 0.0064327557049659164 -0.0045147828179435238 0 0.0064327557049659164 -0.0045147828179435238 0 0.0049466964794854839 -0.0059306768598675194 0 0.006399079223570474 -0.0058700048506091923 0 0.0047308178086034854 -0.0043222909106142241 0 0.0064327557049659164 -0.0045147828179435238 0 0.0049466964794854839 -0.0059306768598675194 0 0.0047308178086034854 -0.0043222909106142241 0 0.004161582028656503 -0.0052677903406105784 0 0.0049466964794854839 -0.0059306768598675194 0 0.0047308178086034854 -0.0043222909106142241 0 0.004161582028656503 -0.0052677903406105784 0 0.003220628911893066 -0.0048660558454973815 0 0.004161582028656503 -0.0052677903406105784 0 0.003220628911893066 -0.0048660558454973815 0 0.0035044522004095907 -0.0060286959101040248 0 0.003220628911893066 -0.0048660558454973815 0 0.0034478896850212502 -0.0036172693412430531 0 0.0018424519466480099 -0.0043532588429222854 0 0.0047308178086034854 -0.0043222909106142241 0 0.003220628911893066 -0.0048660558454973815 0 0.0034478896850212502 -0.0036172693412430531 0 0.0047308178086034854 -0.0043222909106142241 0 0.0034478896850212502 -0.0036172693412430531 0 0.0044593169294674549 -0.0024902331438713243 0 0.0034478896850212502 -0.0036172693412430531 0 0.0029437374032401111 -0.0020606904453315564 0 0.0044593169294674549 -0.0024902331438713243 0 0.0035060419438444307 -0.00093272335679716939 0 0.0029437374032401111 -0.0020606904453315564 0 0.0044593169294674549 -0.0024902331438713243 0 0.0029437374032401111 -0.0020606904453315564 0 0.0012971346036423567 -0.0031160948847416456 0 0.0019345934419912002 -0.0043721756551767443 0 0.0028239820618085362 -0.0023305707625468734 0 0.0019578488518048379 -0.00416031922313262 0 -8.258269232012855e-06 -0.0025892996313020954 0 0.0019253418217893108 -0.0019346268200424899 0 0.0012971346036423567 -0.0031160948847416456 0 0.0034478896850212502 -0.0036172693412430531 0 0.0029437374032401111 -0.0020606904453315564 0 0.0018424519466480099 -0.0043532588429222854 0 0.0025679235465996325 -0.0010567507961812724 0 0.0029437374032401111 -0.0020606904453315564 0 0.0019253418217893108 -0.0019346268200424899 0 0.0029437374032401111 -0.0020606904453315564 0 0.0019253418217893108 -0.0019346268200424899 0 0.0012971346036423567 -0.0031160948847416456 0 0.0019578488518048379 -0.00416031922313262 0 0.00089158021609621156 -0.007591601634645906 0 0.003220628911893066 -0.0048660558454973815 0 0.0018424519466480099 -0.0043532588429222854 0 0.0025821090814196553 -0.0057616009882776155 0 0.0018424519466480099 -0.0043532588429222854 0 0.0025821090814196553 -0.0057616009882776155 0 0.0016253905308588183 -0.0066461651140139362 0 0.0018424519466480099 -0.0043532588429222854 0 0.0016253905308588183 -0.0066461651140139362 0 0.00080117614716007039 -0.0066658545335160886 0 0.0025821090814196553 -0.0057616009882776155 0 0.0027040174939487386 -0.0069018792580379179 0 0.0016253905308588183 -0.0066461651140139362 0 0.0027040174939487386 -0.0069018792580379179 0 0.0019978150688199554 -0.0074220323769144062 0 0.0016253905308588183 -0.0066461651140139362 0 0.0027040174939487386 -0.0069018792580379179 0 0.0019978150688199554 -0.0074220323769144062 0 0.0029624301342919567 -0.0077952737755700519 0 0.0014331877770633547 -0.0071231737810737153 0 0.001277312945636447 -0.0077458639111999926 0 0.00082886327820053238 -0.0066769738799373488 0 0.0016253905308588183 -0.0066461651140139362 0 0.0014331877770633547 -0.0071231737810737153 0 0.00082886327820053238 -0.0066769738799373488 0 0.0012801620457005875 -0.0072648992471343286 0 0.00089158021609621156 -0.007591601634645906 0 0.0019978150688199554 -0.0074220323769144062 0 0.0014331877770633547 -0.0071231737810737153 0 0.001277312945636447 -0.0077458639111999926 0 0.0019978150688199554 -0.0074220323769144062 0 0.0016253905308588183 -0.0066461651140139362 0 0.0014331877770633547 -0.0071231737810737153 0 0.001277312945636447 -0.0077458639111999926 0 0.0012864588439059673 -0.0088792816547374129 0 0.00066910384090480108 -0.0085427924715403246 0 0.001277312945636447 -0.0077458639111999926 0 0.0021593421683640218 -0.008303018030865781 0 0.0012864588439059673 -0.0088792816547374129 0 0.0019978150688199554 -0.0074220323769144062 0 0.001277312945636447 -0.0077458639111999926 0 0.0021593421683640218 -0.008303018030865781 0 0.0021593421683640218 -0.008303018030865781 0 0.0030839791448451052 -0.0088343711704968395 0 0.0029624301342919567 -0.0077952737755700519 0 0.0019978150688199554 -0.0074220323769144062 0 0.0021593421683640218 -0.008303018030865781 0 0.0029624301342919567 -0.0077952737755700519 0 0.0021593421683640218 -0.008303018030865781 0 0.0021922329755628901 -0.0091294271236553662 0 0.0030839791448451052 -0.0088343711704968395 0 0.0021922329755628901 -0.0091294271236553662 0 0.0030839791448451052 -0.0088343711704968395 0 0.0026775168335497639 -0.0097068427870578428 0 0.0021922329755628901 -0.0091294271236553662 0 0.0012864588439059673 -0.0088792816547374129 0 0.001748593096147497 -0.0099182098583258348 0 0.0021593421683640218 -0.008303018030865781 0 0.0021922329755628901 -0.0091294271236553662 0 0.0012864588439059673 -0.0088792816547374129 0 0.0042052874314070484 -0.0090203247829414336 0 0.0030839791448451052 -0.0088343711704968395 0 0.0040048510319468092 -0.0081005980888492896 0 0.0042052874314070484 -0.0090203247829414336 0 0.0040048510319468092 -0.0081005980888492896 0 0.0052201199378569202 -0.0084073724600408125 0 0.0042052874314070484 -0.0090203247829414336 0 0.0030839791448451052 -0.0088343711704968395 0 0.0036108616584339141 -0.0097922828623815163 0 0.0029624301342919567 -0.0077952737755700519 0 0.0040048510319468092 -0.0081005980888492896 0 0.003772987980582719 -0.0071023081354894069 0 0.0030839791448451052 -0.0088343711704968395 0 0.0029624301342919567 -0.0077952737755700519 0 0.0040048510319468092 -0.0081005980888492896 0 0.0040048510319468092 -0.0081005980888492896 0 0.003772987980582719 -0.0071023081354894069 0 0.004775472385493024 -0.0074347640883104509 0 0.003772987980582719 -0.0071023081354894069 0 0.0049466964794854839 -0.0059306768598675194 0 0.004775472385493024 -0.0074347640883104509 0 0.0027040174939487386 -0.0069018792580379179 0 0.003772987980582719 -0.0071023081354894069 0 0.0035044522004095907 -0.0060286959101040248 0 0.0027040174939487386 -0.0069018792580379179 0 0.0029624301342919567 -0.0077952737755700519 0 0.003772987980582719 -0.0071023081354894069 0 0.003220628911893066 -0.0048660558454973815 0 0.0025821090814196553 -0.0057616009882776155 0 0.0035044522004095907 -0.0060286959101040248 0 0.0025821090814196553 -0.0057616009882776155 0 0.0027040174939487386 -0.0069018792580379179 0 0.0035044522004095907 -0.0060286959101040248 0 0.004161582028656503 -0.0052677903406105784 0 0.0035044522004095907 -0.0060286959101040248 0 0.0049466964794854839 -0.0059306768598675194 0 0.003772987980582719 -0.0071023081354894069 0 0.0035044522004095907 -0.0060286959101040248 0 0.0049466964794854839 -0.0059306768598675194 0 0.0049466964794854839 -0.0059306768598675194 0 0.006399079223570474 -0.0058700048506091923 0 0.0057788399017817222 -0.0069708415131958775 0 0.0057788399017817222 -0.0069708415131958775 0 0.0069785921411150611 -0.0068276203381693852 0 0.0063488446310898802 -0.0079198598057638615 0 0.006399079223570474 -0.0058700048506091923 0 0.0057788399017817222 -0.0069708415131958775 0 0.0069785921411150611 -0.0068276203381693852 0 0.0049466964794854839 -0.0059306768598675194 0 0.0057788399017817222 -0.0069708415131958775 0 0.004775472385493024 -0.0074347640883104509 0 0.006399079223570474 -0.0058700048506091923 0 0.0076948746133225247 -0.0056348285877868493 0 0.0069785921411150611 -0.0068276203381693852 0 0.0076948746133225247 -0.0056348285877868493 0 0.0069785921411150611 -0.0068276203381693852 0 0.0079790180749944577 -0.0073170823407297308 0 0.0069785921411150611 -0.0068276203381693852 0 0.0079790180749944577 -0.0073170823407297308 0 0.0073598274752984692 -0.0084158513165984179 0 0.0079790180749944577 -0.0073170823407297308 0 0.0073598274752984692 -0.0084158513165984179 0 0.0090623614655160663 -0.0087032677494071533 0 0.0069785921411150611 -0.0068276203381693852 0 0.0073598274752984692 -0.0084158513165984179 0 0.0063488446310898802 -0.0079198598057638615 0 0.0073598274752984692 -0.0084158513165984179 0 0.0063488446310898802 -0.0079198598057638615 0 0.0061992881125785939 -0.0094958193370333899 0 0.0073598274752984692 -0.0084158513165984179 0 0.0061992881125785939 -0.0094958193370333899 0 0.007469774447679216 -0.0097419029623369378 0 0.0073598274752984692 -0.0084158513165984179 0 0.007469774447679216 -0.0097419029623369378 0 0.0090623614655160663 -0.0087032677494071533 0 0.0057788399017817222 -0.0069708415131958775 0 0.004775472385493024 -0.0074347640883104509 0 0.0052201199378569202 -0.0084073724600408125 0 0.0040048510319468092 -0.0081005980888492896 0 0.004775472385493024 -0.0074347640883104509 0 0.0052201199378569202 -0.0084073724600408125 0 0.0057788399017817222 -0.0069708415131958775 0 0.0063488446310898802 -0.0079198598057638615 0 0.0052201199378569202 -0.0084073724600408125 0 0.0063488446310898802 -0.0079198598057638615 0 0.0052201199378569202 -0.0084073724600408125 0 0.0061992881125785939 -0.0094958193370333899 0 0.0042052874314070484 -0.0090203247829414336 0 0.0052201199378569202 -0.0084073724600408125 0 0.0048542304657795366 -0.0096749554269337634 0 0.0052201199378569202 -0.0084073724600408125 0 0.0048542304657795366 -0.0096749554269337634 0 0.0061992881125785939 -0.0094958193370333899 0 0.0048542304657795366 -0.0096749554269337634 0 0.0061992881125785939 -0.0094958193370333899 0 0.0053484548703290587 -0.010733105154068886 0 0.0061992881125785939 -0.0094958193370333899 0 0.0053484548703290587 -0.010733105154068886 0 0.0066489490980181738 -0.010835596868859196 0 0.0053484548703290587 -0.010733105154068886 0 0.0045310099917748895 -0.011820733155747224 0 0.0040674072596404414 -0.010748704849395128 0 0.0048542304657795366 -0.0096749554269337634 0 0.0053484548703290587 -0.010733105154068886 0 0.0040674072596404414 -0.010748704849395128 0 0.0061992881125785939 -0.0094958193370333899 0 0.007469774447679216 -0.0097419029623369378 0 0.0066489490980181738 -0.010835596868859196 0 0.007469774447679216 -0.0097419029623369378 0 0.0066489490980181738 -0.010835596868859196 0 0.008248340356711981 -0.011128696274848948 0 0.0069171452769689864 -0.012024437908624952 0 0.008248340356711981 -0.011128696274848948 0 0.0073591401398017935 -0.01335454475822394 0 0.0079811663896733089 -0.011460100431124819 0 0.0074447188962759566 -0.013110990903944755 0 0.0066489490980181738 -0.010835596868859196 0 0.0069171452769689864 -0.012024437908624952 0 0.008248340356711981 -0.011128696274848948 0 0.0066489490980181738 -0.010835596868859196 0 0.0069171452769689864 -0.012024437908624952 0 0.0057647654684295857 -0.011844789297077721 0 0.0069171452769689864 -0.012024437908624952 0 0.0063326893829251073 -0.012782313526753856 0 0.0073591401398017935 -0.01335454475822394 0 0.0053484548703290587 -0.010733105154068886 0 0.0057647654684295857 -0.011844789297077721 0 0.0045310099917748895 -0.011820733155747224 0 0.0053484548703290587 -0.010733105154068886 0 0.0066489490980181738 -0.010835596868859196 0 0.0057647654684295857 -0.011844789297077721 0 0.0057647654684295857 -0.011844789297077721 0 0.0063326893829251073 -0.012782313526753856 0 0.0049969434677358867 -0.012920788272383507 0 0.0069171452769689864 -0.012024437908624952 0 0.0057647654684295857 -0.011844789297077721 0 0.0063326893829251073 -0.012782313526753856 0 0.0057647654684295857 -0.011844789297077721 0 0.0049969434677358867 -0.012920788272383507 0 0.0045310099917748895 -0.011820733155747224 0 0.0045310099917748895 -0.011820733155747224 0 0.0034921330014624097 -0.011647576750230881 0 0.0036903712913910589 -0.012959053282388786 0 0.0049969434677358867 -0.012920788272383507 0 0.0045310099917748895 -0.011820733155747224 0 0.0036903712913910589 -0.012959053282388786 0 0.0045310099917748895 -0.011820733155747224 0 0.0034921330014624097 -0.011647576750230881 0 0.0040674072596404414 -0.010748704849395128 0 0.0034921330014624097 -0.011647576750230881 0 0.002489052843161864 -0.011946931526689497 0 0.0027730476686410148 -0.010753593994611659 0 0.0034921330014624097 -0.011647576750230881 0 0.0036903712913910589 -0.012959053282388786 0 0.002489052843161864 -0.011946931526689497 0 0.0036903712913910589 -0.012959053282388786 0 0.0017842572245147692 -0.013018538891445308 0 0.002489052843161864 -0.011946931526689497 0 0.0017842572245147692 -0.013018538891445308 0 0.0015199245213718812 -0.011489103134827367 0 0.00071605066437344838 -0.012284717186068397 0 0.0017842572245147692 -0.013018538891445308 0 0.0015199245213718812 -0.011489103134827367 0 0.002489052843161864 -0.011946931526689497 0 0.0015199245213718812 -0.011489103134827367 0 0.002489052843161864 -0.011946931526689497 0 0.0027730476686410148 -0.010753593994611659 0 0.0015199245213718812 -0.011489103134827367 0 0.0027730476686410148 -0.010753593994611659 0 0.001748593096147497 -0.0099182098583258348 0 0.0015199245213718812 -0.011489103134827367 0 0.001748593096147497 -0.0099182098583258348 0 0.00089997823428893434 -0.010392739255176486 0 0.0012864588439059673 -0.0088792816547374129 0 0.001748593096147497 -0.0099182098583258348 0 0.0009711870271339833 -0.0097258714212467897 0 0.001748593096147497 -0.0099182098583258348 0 0.0009711870271339833 -0.0097258714212467897 0 0.00089997823428893434 -0.010392739255176486 0 0.0021922329755628901 -0.0091294271236553662 0 0.001748593096147497 -0.0099182098583258348 0 0.0026775168335497639 -0.0097068427870578428 0 0.0027730476686410148 -0.010753593994611659 0 0.001748593096147497 -0.0099182098583258348 0 0.0026775168335497639 -0.0097068427870578428 0 0.0030839791448451052 -0.0088343711704968395 0 0.0026775168335497639 -0.0097068427870578428 0 0.0036108616584339141 -0.0097922828623815163 0 0.0027730476686410148 -0.010753593994611659 0 0.0026775168335497639 -0.0097068427870578428 0 0.0036108616584339141 -0.0097922828623815163 0 0.0048542304657795366 -0.0096749554269337634 0 0.0036108616584339141 -0.0097922828623815163 0 0.0040674072596404414 -0.010748704849395128 0 0.0042052874314070484 -0.0090203247829414336 0 0.0048542304657795366 -0.0096749554269337634 0 0.0036108616584339141 -0.0097922828623815163 0 0.0034921330014624097 -0.011647576750230881 0 0.0027730476686410148 -0.010753593994611659 0 0.0040674072596404414 -0.010748704849395128 0 0.0027730476686410148 -0.010753593994611659 0 0.0036108616584339141 -0.0097922828623815163 0 0.0040674072596404414 -0.010748704849395128 0 0.0076981439438646672 -0.0039431407293533081 0 0.0076513514781376239 -0.0038347721798307486 0 0.0076265676538328307 -0.0040005976070337226 0 0.0077418033571516401 -0.0038403578801102034 0 0.0076981439438646672 -0.0039431407293533081 0 0.0076513514781376239 -0.0038347721798307486 0 0.0077418033571516401 -0.0038403578801102034 0 0.0077389692093194993 -0.0037395528461464014 0 0.0076513514781376239 -0.0038347721798307486 0 0.009708188488727466 -0.0036095349846179546 0 0.0099431471561969697 -0.0049073983552590959 0 0.012177959623434766 -0.0048631254820100068 0 0.013192789693351871 -0.0047123231142493713 0 0.01220779991724282 -0.0058336342085620503 0 0.01220779991724282 -0.0058336342085620503 0 0.010480200116432888 -0.0061119734492786643 0 0.010987496071501714 -0.0052330623983702518 0 0.011423421787683729 -0.0046063052255202403 0 0.012177959623434766 -0.0048631254820100068 0 0.010987496071501714 -0.0052330623983702518 0 0.012177959623434766 -0.0048631254820100068 0 0.01220779991724282 -0.0058336342085620503 0 0.010987496071501714 -0.0052330623983702518 0 0.01220779991724282 -0.0058336342085620503 0 0.011167031277330899 -0.0069767766563184948 0 0.010480200116432888 -0.0061119734492786643 0 0.0076513514781376239 -0.0038347721798307486 0 0.007560519107747213 -0.0039634967142727117 0 0.0076265676538328307 -0.0040005976070337226 0 0.0099431471561969697 -0.0049073983552590959 0 0.0094705650333783038 -0.0051863204813290004 0 0.010173495713356179 -0.0070578231204774114 0 0.010480200116432888 -0.0061119734492786643 0 0.0091455567899255911 -0.0068843956682449331 0 0.011167031277330899 -0.0069767766563184948 0 0.010173495713356179 -0.0070578231204774114 0 0.010480200116432888 -0.0061119734492786643 0 0.0098949573617697732 -0.004430254146763732 0 0.010274021217550517 -0.005144986081555003 0 0.0095274835677995398 -0.0056348675093258341 0 0.010480200116432888 -0.0061119734492786643 0 0.010987496071501714 -0.0052330623983702518 0 0.010274021217550517 -0.005144986081555003 0 0.010738885888065956 -0.0042641689473326772 0 0.010987496071501714 -0.0052330623983702518 0 0.010274021217550517 -0.005144986081555003 0 0.010480200116432888 -0.0061119734492786643 0 0.010274021217550517 -0.005144986081555003 0 0.0095274835677995398 -0.0056348675093258341 0 0.0098609157702860412 -0.0046919548114398735 0 0.0095594293750715584 -0.0059304808164811909 0 0.0087683407796885129 -0.0047688036475414478 0 0.0076948746133225247 -0.0056348285877868493 0 0.0095364812431057849 -0.0065363826622330127 0 0.0076948746133225247 -0.0056348285877868493 0 0.0079790180749944577 -0.0073170823407297308 0 0.0095364812431057849 -0.0065363826622330127 0 0.008180353561374502 -0.0075762473094673731 0 0.0088543730751451787 -0.0084312389652096715 0 0.010480200116432888 -0.0061119734492786643 0 0.0095274835677995398 -0.0056348675093258341 0 0.0091455567899255911 -0.0068843956682449331 0 0.0095594293750715584 -0.0059304808164811909 0 0.0088543730751451787 -0.0084312389652096715 0 0.0079790180749944577 -0.0073170823407297308 0 0.0095364812431057849 -0.0065363826622330127 0 0.0089765891599582794 -0.0085318191285349045 0 0.0088543730751451787 -0.0084312389652096715 0 0.0093324507655674609 -0.0085104114829860026 0 0.010173495713356179 -0.0070578231204774114 0 0.0091455567899255911 -0.0068843956682449331 0 0.010135387356884578 -0.008106707369348657 0 0.007469774447679216 -0.0097419029623369378 0 0.0090623614655160663 -0.0087032677494071533 0 0.008248340356711981 -0.011128696274848948 0 0.0083813887253993205 -0.0095244705456392614 0 0.0086181369822181803 -0.010807846241222501 0 0.0078022204521940239 -0.01148903133193848 0 0.0083813887253993205 -0.0095244705456392614 0 0.0086181369822181803 -0.010807846241222501 0 0.0096924619228679482 -0.011148112848219364 0 0.0088543730751451787 -0.0084312389652096715 0 0.0079811663896733089 -0.011460100431124819 0 0.0086181369822181803 -0.010807846241222501 0 0.0078022204521940239 -0.01148903133193848 0 0.0083658779334466766 -0.012588840913044982 0 0.0086181369822181803 -0.010807846241222501 0 0.0083658779334466766 -0.012588840913044982 0 0.0096924619228679482 -0.011148112848219364 0 0.0078022204521940239 -0.01148903133193848 0 0.0083658779334466766 -0.012588840913044982 0 0.0073591401398017935 -0.01335454475822394 0 0.0083658779334466766 -0.012588840913044982 0 0.0093407997252338282 -0.011837280599608816 0 0.0093612530025229141 -0.012786396256569424 0 0.0083658779334466766 -0.012588840913044982 0 0.0093407997252338282 -0.011837280599608816 0 0.0093948231094349854 -0.011436504662429266 0 0.0081276267843442187 -0.013132486868545762 0 0.0093324507655674609 -0.0085104114829860026 0 0.0093612530025229141 -0.012786396256569424 0 0.0099832275276410514 -0.01219166040655463 0 0.010912562801803364 -0.013360145970554493 0 0.0093407997252338282 -0.011837280599608816 0 0.0093612530025229141 -0.012786396256569424 0 0.0099832275276410514 -0.01219166040655463 0 0.0093407997252338282 -0.011837280599608816 0 0.0099530528152268795 -0.012143275859195533 0 0.0093948231094349854 -0.011436504662429266 0 0.0087790444258397157 -0.0091117671920869781 0 0.0093324507655674609 -0.0085104114829860026 0 0.010091066591049623 -0.011187893406759733 0 0.0087790444258397157 -0.0091117671920869781 0 0.0075342904717013871 -0.0041459700717266504 0 0.0074889608157407434 -0.0040988417118217983 0 0.0075636426509779467 -0.0040639807954321924 0 0.007560519107747213 -0.0039634967142727117 0 0.0074889608157407434 -0.0040988417118217983 0 0.0075636426509779467 -0.0040639807954321924 0 0.011167031277330899 -0.0069767766563184948 0 0.010173495713356179 -0.0070578231204774114 0 0.010135387356884578 -0.008106707369348657 0 0.0094705650333783038 -0.0051863204813290004 0 0.0093324507655674609 -0.0085104114829860026 0 0.007560519107747213 -0.0039634967142727117 0 0.0076265676538328307 -0.0040005976070337226 0 0.0075636426509779467 -0.0040639807954321924 0 0.0076265676538328307 -0.0040005976070337226 0 0.0075636426509779467 -0.0040639807954321924 0 0.0076107258715277836 -0.0041007626402265141 0 0.0075342904717013871 -0.0041459700717266504 0 0.0076107258715277836 -0.0041007626402265141 0 0.0076521920122390478 -0.0042056343829631349 0 0.0075342904717013871 -0.0041459700717266504 0 0.0075636426509779467 -0.0040639807954321924 0 0.0076107258715277836 -0.0041007626402265141 0 0.0087790444258397157 -0.0091117671920869781 0 0.006833744426411199 -0.0062643204755708261 0 0.0087790444258397157 -0.0091117671920869781 0 0.0072935464090568402 -0.010463731704233021 0 0.0076107258715277836 -0.0041007626402265141 0 0.0076638062033771975 -0.0041241727978816338 0 0.0076521920122390478 -0.0042056343829631349 0 0.0076107258715277836 -0.0041007626402265141 0 0.0076638062033771975 -0.0041241727978816338 0 0.0076738309455779748 -0.004055920701462469 0 0.0076638062033771975 -0.0041241727978816338 0 0.0076994577536800661 -0.0041656617284154141 0 0.0077058467816838588 -0.0040981911036964492 0 0.0076638062033771975 -0.0041241727978816338 0 0.0076994577536800661 -0.0041656617284154141 0 0.0076521920122390478 -0.0042056343829631349 0 0.0076638062033771975 -0.0041241727978816338 0 0.0077058467816838588 -0.0040981911036964492 0 0.0076738309455779748 -0.004055920701462469 0 0.0077230834479596376 -0.0040546709350718912 0 0.0077058467816838588 -0.0040981911036964492 0 0.0076738309455779748 -0.004055920701462469 0 0.0077230834479596376 -0.0040546709350718912 0 0.0077289881347855846 -0.004005577669155571 0 0.0076738309455779748 -0.004055920701462469 0 0.0076265676538328307 -0.0040005976070337226 0 0.0076107258715277836 -0.0041007626402265141 0 0.0076738309455779748 -0.004055920701462469 0 0.0076981439438646672 -0.0039431407293533081 0 0.0076265676538328307 -0.0040005976070337226 0 0.0076738309455779748 -0.004055920701462469 0 0.0077363838182661774 -0.0039535232593067952 0 0.0077289881347855846 -0.004005577669155571 0 0.0076981439438646672 -0.0039431407293533081 0 0.0077289881347855846 -0.004005577669155571 0 0.0076981439438646672 -0.0039431407293533081 0 0.0076738309455779748 -0.004055920701462469 0 0.006448227131259367 -0.01067868360183377 0 0.0063959422139781277 -0.010088471847684802 0 0.0057191200793757224 -0.0097465751809457483 0 0.006448227131259367 -0.01067868360183377 0 0.0057110578928930263 -0.0097575849722702241 0 0.0058153660915195209 -0.010404400662875292 0 0.006448227131259367 -0.01067868360183377 0 0.0058153660915195209 -0.010404400662875292 0 0.0055962283021385078 -0.011257142180651639 0 0.0058302227461676766 -0.010248058760632624 0 0.0072935464090568402 -0.010463731704233021 0 0.0066923303128356695 -0.010372869456212535 0 0.006448227131259367 -0.01067868360183377 0 0.0063959422139781277 -0.010088471847684802 0 0.0068715568826643236 -0.0099828747894854814 0 0.0063959422139781277 -0.010088471847684802 0 0.0062617830443148746 -0.0096534857052237369 0 0.0075089293267619943 -0.0074423824597873714 0 0.006833744426411199 -0.0062643204755708261 0 0.0063959422139781277 -0.010088471847684802 0 0.0062617830443148746 -0.0096534857052237369 0 0.0057191200793757224 -0.0097465751809457483 0 0.007760664105569976 -0.0042512334418161202 0 0.0076994577536800661 -0.0041656617284154141 0 0.0076521920122390478 -0.0042056343829631349 0 0.0079852147750785942 -0.0044270795085506508 0 0.006833744426411199 -0.0062643204755708261 0 0.006833744426411199 -0.0062643204755708261 0 0.0072935464090568402 -0.010463731704233021 0 0.0086977069299659805 -0.0090646041994598935 0 0.0068038977388021416 -0.0080767959588350473 0 0.0077687136169116138 -0.0079221114680890423 0 0.0057110578928930263 -0.0097575849722702241 0 0.0053464079446681884 -0.010134995650331482 0 0.0058153660915195209 -0.010404400662875292 0 0.0058153660915195209 -0.010404400662875292 0 0.0052071737135060579 -0.010467431592639945 0 0.0055962283021385078 -0.011257142180651639 0 0.0053464079446681884 -0.010134995650331482 0 0.0058153660915195209 -0.010404400662875292 0 0.0052071737135060579 -0.010467431592639945 0 0.0049525380891149067 -0.010836578196492372 0 0.0052071737135060579 -0.010467431592639945 0 0.0044282118068007708 -0.010454176501257878 0 0.0052071737135060579 -0.010467431592639945 0 0.0046309719696811602 -0.0098958697773448238 0 0.0044282118068007708 -0.010454176501257878 0 0.0053464079446681884 -0.010134995650331482 0 0.0052071737135060579 -0.010467431592639945 0 0.0046309719696811602 -0.0098958697773448238 0 0.0049525380891149067 -0.010836578196492372 0 0.0044282118068007708 -0.010454176501257878 0 0.0043850258287393669 -0.010826523340870104 0 0.0057110578928930263 -0.0097575849722702241 0 0.0053464079446681884 -0.010134995650331482 0 0.0046309719696811602 -0.0098958697773448238 0 0.0093612530025229141 -0.012786396256569424 0 0.010912562801803364 -0.013360145970554493 0 0.009160676470014591 -0.013760205347191759 0 0.0072935464090568402 -0.010463731704233021 0 0.0070751815721787513 -0.011934604142827217 0 0.009160676470014591 -0.013760205347191759 0 0.0073591401398017935 -0.01335454475822394 0 0.0071510189381528101 -0.014367051076402241 0 0.0070751815721787513 -0.011934604142827217 0 0.0052319692805556945 -0.01219773731006563 0 0.0083658779334466766 -0.012588840913044982 0 0.009160676470014591 -0.013760205347191759 0 0.0073591401398017935 -0.01335454475822394 0 0.0083658779334466766 -0.012588840913044982 0 0.0093612530025229141 -0.012786396256569424 0 0.009160676470014591 -0.013760205347191759 0 0.0044282118068007708 -0.010454176501257878 0 0.0038673283074555365 -0.010618662154599392 0 0.0034366459673402252 -0.010040195284526392 0 0.0046309719696811602 -0.0098958697773448238 0 0.0044282118068007708 -0.010454176501257878 0 0.0034366459673402252 -0.010040195284526392 0 0.0044282118068007708 -0.010454176501257878 0 0.0043850258287393669 -0.010826523340870104 0 0.0038673283074555365 -0.010618662154599392 0 0.0040880856570935271 -0.011192307079367726 0 0.0044436871104887848 -0.011705733743228789 0 0.0036528614184887613 -0.011513710513784149 0 0.0038673283074555365 -0.010618662154599392 0 0.0040880856570935271 -0.011192307079367726 0 0.0035143117668264795 -0.01103118223349428 0 0.0043850258287393669 -0.010826523340870104 0 0.0038673283074555365 -0.010618662154599392 0 0.0040880856570935271 -0.011192307079367726 0 0.0043850258287393669 -0.010826523340870104 0 0.0040880856570935271 -0.011192307079367726 0 0.0047027015563601941 -0.011167519888466747 0 0.0040880856570935271 -0.011192307079367726 0 0.0044436871104887848 -0.011705733743228789 0 0.0047027015563601941 -0.011167519888466747 0 0.0035627454026941167 -0.012093820320611053 0 0.0037143997703867511 -0.011826140153382032 0 0.0031228431094211351 -0.012064792256742184 0 0.0040731337387665987 -0.011766454680053681 0 0.0031173517152737217 -0.012131268947843372 0 0.0036095306951239694 -0.012114846192494162 0 0.0035627454026941167 -0.012093820320611053 0 0.0037127638512024492 -0.011970960969082295 0 0.0035627454026941167 -0.012093820320611053 0 0.0037127638512024492 -0.011970960969082295 0 0.0037143997703867511 -0.011826140153382032 0 0.0036095306951239694 -0.012114846192494162 0 0.0036236501838485353 -0.012054345955236597 0 0.0037127638512024492 -0.011970960969082295 0 0.0037127638512024492 -0.011970960969082295 0 0.0037143997703867511 -0.011826140153382032 0 0.0038998411707469459 -0.011806668389680662 0 0.0039873731604127384 -0.011778779700658451 0 0.0037127638512024492 -0.011970960969082295 0 0.0038998411707469459 -0.011806668389680662 0 0.0037143997703867511 -0.011826140153382032 0 0.0038998411707469459 -0.011806668389680662 0 0.0039836725042213779 -0.011568144510337972 0 0.0049525380891149067 -0.010836578196492372 0 0.0052071737135060579 -0.010467431592639945 0 0.0055962283021385078 -0.011257142180651639 0 0.0040731337387665987 -0.011766454680053681 0 0.0048114332679011218 -0.011363112793939851 0 0.0049525380891149067 -0.010836578196492372 0 0.0047027015563601941 -0.011167519888466747 0 0.0055962283021385078 -0.011257142180651639 0 0.0044436871104887848 -0.011705733743228789 0 0.0047027015563601941 -0.011167519888466747 0 0.0055962283021385078 -0.011257142180651639 0 0.0049525380891149067 -0.010836578196492372 0 0.0043850258287393669 -0.010826523340870104 0 0.0047027015563601941 -0.011167519888466747 0 0.0039836725042213779 -0.011568144510337972 0 0.004018292947886898 -0.011697146502100719 0 0.0040857759935665179 -0.01154738625309969 0 0.0038998411707469459 -0.011806668389680662 0 0.0039836725042213779 -0.011568144510337972 0 0.004018292947886898 -0.011697146502100719 0 0.0039790366593302684 -0.011759198024604142 0 0.0038998411707469459 -0.011806668389680662 0 0.004018292947886898 -0.011697146502100719 0 0.0040193946549492944 -0.011735503833388084 0 0.0040680527161233602 -0.011686097953530285 0 0.004018292947886898 -0.011697146502100719 0 0.0039790366593302684 -0.011759198024604142 0 0.0040193946549492944 -0.011735503833388084 0 0.004018292947886898 -0.011697146502100719 0 0.004018292947886898 -0.011697146502100719 0 0.0040856200625361758 -0.01163339809671771 0 0.0040857759935665179 -0.01154738625309969 0 0.0040680527161233602 -0.011686097953530285 0 0.0040856200625361758 -0.01163339809671771 0 0.0041261819613846147 -0.011635452637927295 0 0.0040680527161233602 -0.011686097953530285 0 0.004018292947886898 -0.011697146502100719 0 0.0040856200625361758 -0.01163339809671771 0 0.0041577484362126946 -0.01158732705151644 0 0.0041261819613846147 -0.011635452637927295 0 0.0041268187558566463 -0.011586273645970976 0 0.0040856200625361758 -0.01163339809671771 0 0.0041261819613846147 -0.011635452637927295 0 0.0041268187558566463 -0.011586273645970976 0 0.0041797829293501116 -0.011523022051602834 0 0.0041268187558566463 -0.011586273645970976 0 0.0040857759935665179 -0.01154738625309969 0 0.0040856200625361758 -0.01163339809671771 0 0.0041268187558566463 -0.011586273645970976 0 0.0040857759935665179 -0.01154738625309969 0 0.0041553507006042217 -0.011407577226306538 0 0.0039836725042213779 -0.011568144510337972 0 0.0040857759935665179 -0.01154738625309969 0 0.0041797829293501116 -0.011523022051602834 0 0.0041553507006042217 -0.011407577226306538 0 0.0040857759935665179 -0.01154738625309969 0 0.0066425107043867381 -0.010852566354652092 0 0.006448227131259367 -0.01067868360183377 0 0.0055962283021385078 -0.011257142180651639 0 0.0053558106993937243 -0.011537170892015582 0 0.0048114332679011218 -0.011363112793939851 0 0.0033042865753696738 -0.012631001290649197 0 0.0013354643798040712 -0.012865447164532008 0 0.0021372213309500759 -0.010196873386956707 0 0.0023880733368344862 -0.011256981865921537 0 0.0014988028527412988 -0.011100713768699623 0 0.0021372213309500759 -0.010196873386956707 0 0.00075023102182181667 -0.010377819905337454 0 0.0014988028527412988 -0.011100713768699623 0 0.0036903712913910589 -0.012959053282388786 0 0.0017842572245147692 -0.013018538891445308 0 0.0017643310701297614 -0.015597985833436794 0 0.0017842572245147692 -0.013018538891445308 0 0.0017643310701297614 -0.015597985833436794 0 0.00031317720170921594 -0.013737330026895811 0 0.0049969434677358867 -0.012920788272383507 0 0.0036903712913910589 -0.012959053282388786 0 0.0045206105571062105 -0.015045048901626086 0 0.0036903712913910589 -0.012959053282388786 0 0.0045206105571062105 -0.015045048901626086 0 0.0017643310701297614 -0.015597985833436794 0 0.0049969434677358867 -0.012920788272383507 0 0.0045206105571062105 -0.015045048901626086 0 0.0058871269518791991 -0.013650760446039001 0 0.0045206105571062105 -0.015045048901626086 0 0.0058871269518791991 -0.013650760446039001 0 0.0071510189381528101 -0.014367051076402241 0 0.0063326893829251073 -0.012782313526753856 0 0.0049969434677358867 -0.012920788272383507 0 0.0058871269518791991 -0.013650760446039001 0 0.0063326893829251073 -0.012782313526753856 0 0.0058871269518791991 -0.013650760446039001 0 0.0073591401398017935 -0.01335454475822394 0 0.0058871269518791991 -0.013650760446039001 0 0.0073591401398017935 -0.01335454475822394 0 0.0071510189381528101 -0.014367051076402241 0 0.0038673283074555365 -0.010618662154599392 0 0.0034366459673402252 -0.010040195284526392 0 0.0034187175725614179 -0.010544361025004024 0 0.0034366459673402252 -0.010040195284526392 0 0.0034187175725614179 -0.010544361025004024 0 0.0029327497398940992 -0.010644501281043349 0 0.0034187175725614179 -0.010544361025004024 0 0.0029327497398940992 -0.010644501281043349 0 0.0035143117668264795 -0.01103118223349428 0 0.0038673283074555365 -0.010618662154599392 0 0.0034187175725614179 -0.010544361025004024 0 0.0035143117668264795 -0.01103118223349428 0 0.0021372213309500759 -0.010196873386956707 0 0.0034366459673402252 -0.010040195284526392 0 0.0029327497398940992 -0.010644501281043349 0 0.0021372213309500759 -0.010196873386956707 0 0.0029327497398940992 -0.010644501281043349 0 0.0023880733368344862 -0.011256981865921537 0 0.0033042865753696738 -0.012631001290649197 0 0.0052319692805556945 -0.01219773731006563 0 0.0029327497398940992 -0.010644501281043349 0 0.0023880733368344862 -0.011256981865921537 0 0.0030381868968712158 -0.011465633337750261 0 0.0023880733368344862 -0.011256981865921537 0 0.0030381868968712158 -0.011465633337750261 0 0.0024321211877405104 -0.01187325462442396 0 0.0023880733368344862 -0.011256981865921537 0 0.0024321211877405104 -0.01187325462442396 0 0.001733709824683191 -0.011855002832842213 0 0.0029327497398940992 -0.010644501281043349 0 0.0035143117668264795 -0.01103118223349428 0 0.0030381868968712158 -0.011465633337750261 0 0.0040880856570935271 -0.011192307079367726 0 0.0035143117668264795 -0.01103118223349428 0 0.0036528614184887613 -0.011513710513784149 0 0.0035143117668264795 -0.01103118223349428 0 0.0030381868968712158 -0.011465633337750261 0 0.0036528614184887613 -0.011513710513784149 0 0.0035045936287484624 -0.012334574450519505 0 0.0035627454026941167 -0.012093820320611053 0 0.0031228431094211351 -0.012064792256742184 0 0.0044436871104887848 -0.011705733743228789 0 0.0036528614184887613 -0.011513710513784149 0 0.0031587239127304533 -0.012175616637092337 0 0.0030381868968712158 -0.011465633337750261 0 0.0036528614184887613 -0.011513710513784149 0 0.0031587239127304533 -0.012175616637092337 0 0.0018810433504886086 -0.012574353976216951 0 0.0031173517152737217 -0.012131268947843372 0 0.0017989840330798557 -0.012616344942034291 0 0.0031587239127304533 -0.012175616637092337 0 0.0024321211877405104 -0.01187325462442396 0 0.0030381868968712158 -0.011465633337750261 0 0.0031587239127304533 -0.012175616637092337 0 0.0024321211877405104 -0.01187325462442396 0 0.0017989840330798557 -0.012616344942034291 0 0.001733709824683191 -0.011855002832842213 0 0.0010879949473964596 -0.01257445770931654 0 0.0017989840330798557 -0.012616344942034291 0 0.0024321211877405104 -0.01187325462442396 0 0.001733709824683191 -0.011855002832842213 0 0.001733709824683191 -0.011855002832842213 0 0.0014988028527412988 -0.011100713768699623 0 0.00070032962501347953 -0.011788069420748816 0 0.0023880733368344862 -0.011256981865921537 0 0.001733709824683191 -0.011855002832842213 0 0.0014988028527412988 -0.011100713768699623 0 0.00075023102182181667 -0.010377819905337454 0 0.0014988028527412988 -0.011100713768699623 0 0.00070032962501347953 -0.011788069420748816 0 2.9478387849391477e-05 -0.013122326926528545 0 0.00070032962501347953 -0.011788069420748816 0 0.0010879949473964596 -0.01257445770931654 0 0.001733709824683191 -0.011855002832842213 0 0.00070032962501347953 -0.011788069420748816 0 0.0010879949473964596 -0.01257445770931654 0 2.9478387849391477e-05 -0.013122326926528545 0 -0.001070678756532043 -0.013005553152775667 0 -0.00037107681473554782 -0.011605143628360194 0 2.9478387849391477e-05 -0.013122326926528545 0 0.00070032962501347953 -0.011788069420748816 0 -0.00037107681473554782 -0.011605143628360194 0 -0.001070678756532043 -0.013005553152775667 0 -0.0014419999149408993 -0.011968503102223445 0 -0.00037107681473554782 -0.011605143628360194 0 -0.0022119633412127728 -0.013632003104637861 0 -0.0010421756981017502 -0.01440959658701968 0 -0.0028862079106968018 -0.015736440535957817 0 -0.0028405813397132081 -0.015704873451197501 0 -0.0028739624069814926 -0.015744017058984254 0 -0.0014419999149408993 -0.011968503102223445 0 -0.00037107681473554782 -0.011605143628360194 0 -0.00071061295311115706 -0.010605913579288957 0 0.00075023102182181667 -0.010377819905337454 0 0.00070032962501347953 -0.011788069420748816 0 -0.00037107681473554782 -0.011605143628360194 0 0.00075023102182181667 -0.010377819905337454 0 -0.00037107681473554782 -0.011605143628360194 0 -0.00071061295311115706 -0.010605913579288957 0 -0.0010421756981017502 -0.01440959658701968 0 0.00018750891215589999 -0.014323583002387291 0 0.0017643310701297614 -0.015597985833436794 0 -0.00080431349027697393 -0.016023775102976253 0 0.00031317720170921594 -0.013737330026895811 0 0.0013354643798040712 -0.012865447164532008 0 -0.0010421756981017502 -0.01440959658701968 0 -0.00080387158851224821 -0.015527244696117871 0 -0.0015859710629365022 -0.014920596842891411 0 -0.00096282600923261268 -0.014215097965797206 0 -0.0015859710629365022 -0.014920596842891411 0 -0.00096282600923261268 -0.014215097965797206 0 -0.0015349597243445579 -0.014048219736729541 0 -0.00096282600923261268 -0.014215097965797206 0 -0.0015349597243445579 -0.014048219736729541 0 -0.0014523335857376161 -0.013518651224236263 0 -0.0015349597243445579 -0.014048219736729541 0 -0.0014523335857376161 -0.013518651224236263 0 -0.0017372683399534067 -0.013330101833843935 0 -0.00096282600923261268 -0.014215097965797206 0 -0.0014523335857376161 -0.013518651224236263 0 -0.0006192937804157762 -0.013415446270528627 0 -0.00080387158851224821 -0.015527244696117871 0 -0.00096282600923261268 -0.014215097965797206 0 0.00031317720170921594 -0.013737330026895811 0 -0.00096282600923261268 -0.014215097965797206 0 -0.0006192937804157762 -0.013415446270528627 0 0.00031317720170921594 -0.013737330026895811 0 -0.002343227922395043 -0.014641282831672743 0 -0.0020985302322470787 -0.014921415480983026 0 -0.0025874339379316109 -0.01524850054082127 0 -0.002343227922395043 -0.014641282831672743 0 -0.0025874339379316109 -0.01524850054082127 0 -0.0028006277633251708 -0.015135392299695466 0 -0.0015565106844423846 -0.014126404812231298 0 -0.0026865341955512796 -0.014028220603584381 0 -0.0015349597243445579 -0.014048219736729541 0 -0.002343227922395043 -0.014641282831672743 0 -0.0020985302322470787 -0.014921415480983026 0 -0.0015349597243445579 -0.014048219736729541 0 -0.0030681792514302858 -0.013592700940900884 0 -0.0022610753145353257 -0.013156216281839101 0 -0.0015859710629365022 -0.014920596842891411 0 -0.0015349597243445579 -0.014048219736729541 0 -0.0020985302322470787 -0.014921415480983026 0 -0.0015859710629365022 -0.014920596842891411 0 -0.0020985302322470787 -0.014921415480983026 0 -0.0022548170889205165 -0.01557018192664638 0 -0.0010421756981017502 -0.01440959658701968 0 -0.0027522880207847865 -0.015849750640175322 0 -0.00080387158851224821 -0.015527244696117871 0 -0.0015859710629365022 -0.014920596842891411 0 -0.0022548170889205165 -0.01557018192664638 0 -0.0025874339379316109 -0.01524850054082127 0 -0.0022548170889205165 -0.01557018192664638 0 -0.0028161993386795476 -0.015743174485321587 0 -0.0020985302322470787 -0.014921415480983026 0 -0.0025874339379316109 -0.01524850054082127 0 -0.0022548170889205165 -0.01557018192664638 0 -0.0028739624069814926 -0.015744017058984254 0 -0.0028726395140633177 -0.015762496469646139 0 -0.0028161993386795476 -0.015743174485321587 0 -0.0027522880207847865 -0.015849750640175322 0 -0.0027241222880768313 -0.015677702635373478 0 -0.0028862079106968018 -0.015736440535957817 0 -0.0028739624069814926 -0.015744017058984254 0 -0.0028726395140633177 -0.015762496469646139 0 -0.0025749975549500094 -0.014622365384347101 0 -0.0022119633412127728 -0.013632003104637861 0 -0.002952002484672321 -0.015682827300839107 0 -0.0028862079106968018 -0.015736440535957817 0 -0.0028726395140633177 -0.015762496469646139 0 -0.0028726395140633177 -0.015762496469646139 0 -0.0028607805390564764 -0.015853854476828785 0 -0.0028161993386795476 -0.015743174485321587 0 -0.0028750992716331963 -0.015753857836270944 0 -0.0028726395140633177 -0.015762496469646139 0 -0.0028607805390564764 -0.015853854476828785 0 -0.0028161993386795476 -0.015743174485321587 0 -0.0028933212691568508 -0.015930886824628312 0 -0.0029141919322031155 -0.015669345542389287 0 -0.0028607805390564764 -0.015853854476828785 0 -0.0028161993386795476 -0.015743174485321587 0 -0.0028933212691568508 -0.015930886824628312 0 -0.0028668134626457049 -0.016564277559397777 0 -0.002875410444499724 -0.016347844481408032 0 -0.0029027880231403107 -0.016153556254920685 0 -0.0028863343853848733 -0.016083670635894252 0 -0.002875410444499724 -0.016347844481408032 0 -0.0029027880231403107 -0.016153556254920685 0 -0.0028863343853848733 -0.016083670635894252 0 -0.0028607805390564764 -0.015853854476828785 0 -0.0028933212691568508 -0.015930886824628312 0 -0.0028863343853848733 -0.016083670635894252 0 -0.0029027880231403107 -0.016153556254920685 0 -0.0028933212691568508 -0.015930886824628312 0 -0.0029027880231403107 -0.016153556254920685 0 -0.0029769573442505947 -0.01583565338869438 0 -0.0028933212691568508 -0.015930886824628312 0 -0.0029769573442505947 -0.01583565338869438 0 -0.0028933212691568508 -0.015930886824628312 0 -0.0029141919322031155 -0.015669345542389287 0 -0.0030705118294713043 -0.015980594009453897 0 -0.0029027880231403107 -0.016153556254920685 0 -0.0029769573442505947 -0.01583565338869438 0 -0.0027002092755819278 -0.019707290272997408 0 -0.0031063804081364801 -0.015444247252350716 0 -0.0033326730079027817 -0.015880359725571398 0 -0.0029769573442505947 -0.01583565338869438 0 -0.0030502835773492678 -0.015571221250717436 0 -0.0033326730079027817 -0.015880359725571398 0 -0.0030502835773492678 -0.015571221250717436 0 -0.0032373606804090406 -0.015490254089237947 0 -0.0029769573442505947 -0.01583565338869438 0 -0.0030502835773492678 -0.015571221250717436 0 -0.0029141919322031155 -0.015669345542389287 0 -0.0030502835773492678 -0.015571221250717436 0 -0.0029416624380908625 -0.015404317950343999 0 -0.0029141919322031155 -0.015669345542389287 0 -0.0030502835773492678 -0.015571221250717436 0 -0.0029416624380908625 -0.015404317950343999 0 -0.0030686605441677642 -0.015359052995498931 0 -0.0029416624380908625 -0.015404317950343999 0 -0.0030686605441677642 -0.015359052995498931 0 -0.0029425050420102978 -0.015240380387576599 0 -0.0030502835773492678 -0.015571221250717436 0 -0.0030686605441677642 -0.015359052995498931 0 -0.0032373606804090406 -0.015490254089237947 0 -0.0025874339379316109 -0.01524850054082127 0 -0.0028161993386795476 -0.015743174485321587 0 -0.002850826843384377 -0.015402691028381687 0 -0.0028161993386795476 -0.015743174485321587 0 -0.0029141919322031155 -0.015669345542389287 0 -0.002850826843384377 -0.015402691028381687 0 -0.0029416624380908625 -0.015404317950343999 0 -0.0029141919322031155 -0.015669345542389287 0 -0.002850826843384377 -0.015402691028381687 0 -0.0029416624380908625 -0.015404317950343999 0 -0.002868449065118954 -0.015276530743379802 0 -0.0029425050420102978 -0.015240380387576599 0 -0.002850826843384377 -0.015402691028381687 0 -0.002868449065118954 -0.015276530743379802 0 -0.0028006277633251708 -0.015135392299695466 0 -0.0029416624380908625 -0.015404317950343999 0 -0.002850826843384377 -0.015402691028381687 0 -0.002868449065118954 -0.015276530743379802 0 -0.002343227922395043 -0.014641282831672743 0 -0.0028006277633251708 -0.015135392299695466 0 -0.0028931226840885867 -0.014778388174113677 0 -0.002868449065118954 -0.015276530743379802 0 -0.0028006277633251708 -0.015135392299695466 0 -0.0028271383874563139 -0.015212516342119103 0 -0.0029396004818363201 -0.015237702713503823 0 -0.003591199617152695 -0.014738977492428714 0 -0.0025874339379316109 -0.01524850054082127 0 -0.002850826843384377 -0.015402691028381687 0 -0.0028006277633251708 -0.015135392299695466 0 -0.0026865341955512796 -0.014028220603584381 0 -0.003591199617152695 -0.014738977492428714 0 -0.0044628891757405075 -0.013294080490636804 0 -0.0039972768160071179 -0.012402883938469278 0 -0.0034261240328976299 -0.012804481332241928 0 -0.002868449065118954 -0.015276530743379802 0 -0.0028271383874563139 -0.015212516342119103 0 -0.0029425050420102978 -0.015240380387576599 0 -0.003591199617152695 -0.014738977492428714 0 -0.0029274664874540586 -0.015621325974379199 0 -0.0036492918479432471 -0.016214142318373235 0 -0.0031164224943979633 -0.016956233821373044 0 -0.0027374878453409759 -0.016429075068034298 0 -0.0031164224943979633 -0.016956233821373044 0 -0.003393900533578114 -0.017244578455841281 0 -0.0027207186499229531 -0.017525983589968923 0 -0.0036492918479432471 -0.016214142318373235 0 -0.0031164224943979633 -0.016956233821373044 0 -0.0033980785054392448 -0.017240817629715133 0 -0.0037498692876497949 -0.016643044848976656 0 -0.0034669050085624309 -0.015068746150283838 0 -0.0048179621437492931 -0.011843724532240798 0 -0.0037997009855269513 -0.011716428347835685 0 -0.0039972768160071179 -0.012402883938469278 0 -0.003591199617152695 -0.014738977492428714 0 -0.0034669050085624309 -0.015068746150283838 0 -0.0044628891757405075 -0.013294080490636804 0 -0.0048179621437492931 -0.011843724532240798 0 -0.0039972768160071179 -0.012402883938469278 0 -0.0012485914291976341 -0.024059272666619978 0 -0.0013052024109807938 -0.023896244183269851 0 -0.0013376760223013408 -0.024094665865840702 0 -0.0022510430423807993 -0.019704057387933786 0 -0.0020437241581543488 -0.01967676046923527 0 -0.0030686605441677642 -0.015359052995498931 0 -0.0032373606804090406 -0.015490254089237947 0 -0.0031458058097852608 -0.015237139337707551 0 -0.0012485914291976341 -0.024059272666619978 0 -0.0012821712310572653 -0.024117427377314163 0 -0.0013376760223013408 -0.024094665865840702 0 -0.0010807432809762636 -0.021207704030824285 0 -0.0020437241581543488 -0.01967676046923527 0 -0.0030686605441677642 -0.015359052995498931 0 -0.0031458058097852608 -0.015237139337707551 0 -0.0029425050420102978 -0.015240380387576599 0 -0.0020437241581543488 -0.01967676046923527 0 -0.0029274664874540586 -0.015621325974379199 0 -0.0018352716139633917 -0.016655302658376048 0 -0.0027374878453409759 -0.016429075068034298 0 -0.0024849007002112527 -0.017021580881578732 0 -0.0024849007002112527 -0.017021580881578732 0 -0.0020100685599171685 -0.017449705554688527 0 -0.0027207186499229531 -0.017525983589968923 0 -0.0031164224943979633 -0.016956233821373044 0 -0.0027374878453409759 -0.016429075068034298 0 -0.0024849007002112527 -0.017021580881578732 0 -0.0031164224943979633 -0.016956233821373044 0 -0.0024849007002112527 -0.017021580881578732 0 -0.0027207186499229531 -0.017525983589968923 0 -0.0012821712310572653 -0.024117427377314163 0 -0.0013322049706621592 -0.024095850137982464 0 -0.001354350051309654 -0.024254892275542062 0 -0.001206926833158539 -0.024257618829707329 0 -0.0012821712310572653 -0.024117427377314163 0 -0.001354350051309654 -0.024254892275542062 0 -0.0018352716139633917 -0.016655302658376048 0 -0.0024849007002112527 -0.017021580881578732 0 -0.0020100685599171685 -0.017449705554688527 0 -0.0020437241581543488 -0.01967676046923527 0 -0.0017357432657337702 -0.021169685379566979 0 -0.0017357432657337702 -0.021169685379566979 0 -0.0013649399923099845 -0.020191616388638995 0 -0.0011645999119247882 -0.024440874822144361 0 -0.001354350051309654 -0.024254892275542062 0 -0.0013793186815657858 -0.024387103919731829 0 -0.0020100685599171685 -0.017449705554688527 0 -0.0027207186499229531 -0.017525983589968923 0 -0.0021801008243714512 -0.018240324007346518 0 -0.0027207186499229531 -0.017525983589968923 0 -0.0021801008243714512 -0.018240324007346518 0 -0.0031442399478136471 -0.018234964331089707 0 -0.0021607857360698992 -0.015169699931941659 0 -0.0024359997845374848 -0.0154417499059858 0 -0.0018698448411023898 -0.015424698949764238 0 -0.0013649399923099845 -0.020191616388638995 0 -0.0023713944852569845 -0.015659599861613291 0 -0.00029863244084466764 -0.024414560273686416 0 -0.0013649399923099845 -0.020191616388638995 0 0.00010856116938069722 -0.023460625809549187 0 0.00061112898344451144 -0.023112910870741382 0 0.00071692078522399912 -0.023460575874444292 0 -0.0048179621437492931 -0.011843724532240798 0 -0.0037997009855269513 -0.011716428347835685 0 -0.0041176210448715424 -0.011088862955652213 0 -0.0032490199861014159 -0.012540549570968725 0 -0.0027226158744754819 -0.012544414924552221 0 -0.0034669050085624309 -0.015068746150283838 0 -0.0032490199861014159 -0.012540549570968725 0 -0.0029128851841561773 -0.014476895289386421 0 -0.0026899667206172948 -0.014240462571421158 0 -0.0030151404637331928 -0.014034395196881809 0 -0.0034669050085624309 -0.015068746150283838 0 -0.0023713944852569845 -0.015659599861613291 0 -0.003393900533578114 -0.017244578455841281 0 -0.0027207186499229531 -0.017525983589968923 0 -0.0031442399478136471 -0.018234964331089707 0 -0.0020446381693781826 -0.014866623928010589 0 -0.0021607857360698992 -0.015169699931941659 0 -0.0018698448411023898 -0.015424698949764238 0 -0.0019976122471068928 -0.014706757986369542 0 -0.0023713944852569845 -0.015659599861613291 0 -0.0023713944852569845 -0.015659599861613291 0 -0.0027226158744754819 -0.012544414924552221 0 -0.0020228087838926358 -0.014819891065126318 0 -0.0020232829002025457 -0.014818895380445391 0 -0.0020203108258368832 -0.014778945085755356 0 -0.0026899667206172948 -0.014240462571421158 0 -0.0030151404637331928 -0.014034395196881809 0 -0.0024694887011880427 -0.014001574992829426 0 -0.0027226158744754819 -0.012544414924552221 0 -0.0028792979026048167 -0.0094279184086613621 0 -0.0034116893238897925 -0.010344179734159414 0 -0.0030377129568902959 -0.011205265753386675 0 -0.0022607169348722793 -0.010301769601938376 0 -0.0026023188972019466 -0.010563574142376759 0 -0.002678106888869164 -0.010651203496132714 0 -0.0025233607233979992 -0.010633385898078284 0 -0.0020796648103911602 -0.00957128901335739 0 -0.0027226158744754819 -0.012544414924552221 0 -0.0037997009855269513 -0.011716428347835685 0 -0.0041176210448715424 -0.011088862955652213 0 -0.0030377129568902959 -0.011205265753386675 0 -0.0041176210448715424 -0.011088862955652213 0 -0.0034116893238897925 -0.010344179734159414 0 -0.0030377129568902959 -0.011205265753386675 0 -0.0037997009855269513 -0.011716428347835685 0 -0.0030377129568902959 -0.011205265753386675 0 -0.0031190425418855601 -0.011883999462204135 0 -0.0030377129568902959 -0.011205265753386675 0 -0.0021518222324563119 -0.011283802017602179 0 -0.0022607169348722793 -0.010301769601938376 0 -0.0021518222324563119 -0.011283802017602179 0 -0.0022607169348722793 -0.010301769601938376 0 -0.0017117629533885865 -0.011362281595272274 0 -0.0021518222324563119 -0.011283802017602179 0 -0.0017117629533885865 -0.011362281595272274 0 -0.0018491109136324071 -0.011818236693826711 0 -0.0030377129568902959 -0.011205265753386675 0 -0.0021518222324563119 -0.011283802017602179 0 -0.0024647546103971833 -0.011844180360452422 0 -0.0024481724884775524 -0.005348508960275021 0 -0.0047315521090197186 -0.0056755298421316963 0 -0.0035670507780290231 -0.0067376011882623902 0 -0.0020796648103911602 -0.00957128901335739 0 -0.0028792979026048167 -0.0094279184086613621 0 -0.002762351458122952 -0.0097420806333856809 0 -0.0011522429339551944 -0.0097153263134665217 0 -0.0011764442171580969 -0.010456286765371419 0 -0.0024481724884775524 -0.005348508960275021 0 -0.0035670507780290231 -0.0067376011882623902 0 -0.0013442335804810673 -0.0066734796450908665 0 -0.0028792979026048167 -0.0094279184086613621 0 -0.0013387017625284829 -0.0081810374729979415 0 -0.0011522429339551944 -0.0097153263134665217 0 -0.00034324154204563628 -0.010483917892943865 0 -0.0011764442171580969 -0.010456286765371419 0 -0.0013387017625284829 -0.0081810374729979415 0 0.00089158021609621156 -0.007591601634645906 0 -0.0011522429339551944 -0.0097153263134665217 0 0.00043728649146143481 -0.0097018482229508148 0 -0.00034324154204563628 -0.010483917892943865 0 -0.00030180433714291138 -0.0046071304050153382 0 -0.0013442335804810673 -0.0066734796450908665 0 0.00090349204370302697 -0.0066218566820134333 0 0.00082886327820053238 -0.0066769738799373488 0 0.00066910384090480108 -0.0085427924715403246 0 -0.00054565564347015436 -0.010045295954656877 0 0.00089158021609621156 -0.007591601634645906 0 -0.00063774345467081301 -0.011130816260245247 0 0.00043728649146143481 -0.0097018482229508148 0 -0.00034324154204563628 -0.010483917892943865 0 -0.00064733143168401374 -0.011912367108044266 0 -0.00034324154204563628 -0.010483917892943865 0 -0.00075031925280046735 -0.011032439172226668 0 -0.00064733143168401374 -0.011912367108044266 0 0.001277312945636447 -0.0077458639111999926 0 0.00082886327820053238 -0.0066769738799373488 0 0.00066910384090480108 -0.0085427924715403246 0 -0.00034324154204563628 -0.010483917892943865 0 -0.00075031925280046735 -0.011032439172226668 0 -0.0011764442171580969 -0.010456286765371419 0 -0.00075031925280046735 -0.011032439172226668 0 -0.0009130661780827723 -0.011442364008464462 0 -0.00064733143168401374 -0.011912367108044266 0 0.00049165937857745549 -0.0093650363922558339 0 0.00066910384090480108 -0.0085427924715403246 0 -0.00054565564347015436 -0.010045295954656877 0 0.0012864588439059673 -0.0088792816547374129 0 0.00049165937857745549 -0.0093650363922558339 0 0.0009711870271339833 -0.0097258714212467897 0 0.0012864588439059673 -0.0088792816547374129 0 0.00049165937857745549 -0.0093650363922558339 0 0.00066910384090480108 -0.0085427924715403246 0 -0.0028792979026048167 -0.0094279184086613621 0 -0.00079810963008069365 -0.011626517283767951 0 -0.002762351458122952 -0.0097420806333856809 0 -0.0011764442171580969 -0.010456286765371419 0 -0.0009130661780827723 -0.011442364008464462 0 -0.0022607169348722793 -0.010301769601938376 0 -0.0009130661780827723 -0.011442364008464462 0 -0.0017117629533885865 -0.011362281595272274 0 -0.00075031925280046735 -0.011032439172226668 0 -0.0011764442171580969 -0.010456286765371419 0 -0.0009130661780827723 -0.011442364008464462 0 -0.0017117629533885865 -0.011362281595272274 0 -0.0014122144167131973 -0.011999503190398962 0 -0.0018491109136324071 -0.011818236693826711 0 -0.0014122144167131973 -0.011999503190398962 0 -0.0018491109136324071 -0.011818236693826711 0 -0.0019837711790491571 -0.01236599526495678 0 -0.0009130661780827723 -0.011442364008464462 0 -0.0017117629533885865 -0.011362281595272274 0 -0.0014122144167131973 -0.011999503190398962 0 -0.0009130661780827723 -0.011442364008464462 0 -0.0014122144167131973 -0.011999503190398962 0 -0.00064733143168401374 -0.011912367108044266 0 -0.0014122144167131973 -0.011999503190398962 0 -0.00064733143168401374 -0.011912367108044266 0 -0.0015940074344457133 -0.012716316283928275 0 -0.0014122144167131973 -0.011999503190398962 0 -0.0015940074344457133 -0.012716316283928275 0 -0.0019837711790491571 -0.01236599526495678 0 -0.00054565564347015436 -0.010045295954656877 0 0.00030677300641493991 -0.011022296583038096 0 -0.00031899815242292191 -0.012097576314944718 0 0.0009711870271339833 -0.0097258714212467897 0 0.00042339970265262622 -0.010071628958256452 0 0.00089997823428893434 -0.010392739255176486 0 0.00049165937857745549 -0.0093650363922558339 0 0.0009711870271339833 -0.0097258714212467897 0 0.00042339970265262622 -0.010071628958256452 0 0.00049165937857745549 -0.0093650363922558339 0 0.00042339970265262622 -0.010071628958256452 0 -0.00054565564347015436 -0.010045295954656877 0 0.00042339970265262622 -0.010071628958256452 0 -0.00054565564347015436 -0.010045295954656877 0 0.00030677300641493991 -0.011022296583038096 0 0.0015199245213718812 -0.011489103134827367 0 0.00030677300641493991 -0.011022296583038096 0 0.00089997823428893434 -0.010392739255176486 0 0.00042339970265262622 -0.010071628958256452 0 0.00030677300641493991 -0.011022296583038096 0 0.00089997823428893434 -0.010392739255176486 0 0.0015199245213718812 -0.011489103134827367 0 0.00030677300641493991 -0.011022296583038096 0 0.00071605066437344838 -0.012284717186068397 0 0.00030677300641493991 -0.011022296583038096 0 -0.00031899815242292191 -0.012097576314944718 0 0.00071605066437344838 -0.012284717186068397 0 -0.0006192937804157762 -0.013415446270528627 0 0.00031317720170921594 -0.013737330026895811 0 -0.00031899815242292191 -0.012097576314944718 0 0.00031317720170921594 -0.013737330026895811 0 -0.00031899815242292191 -0.012097576314944718 0 0.00071605066437344838 -0.012284717186068397 0 0.0017842572245147692 -0.013018538891445308 0 0.00031317720170921594 -0.013737330026895811 0 0.00071605066437344838 -0.012284717186068397 0 -0.0014523335857376161 -0.013518651224236263 0 -0.00064733143168401374 -0.011912367108044266 0 -0.0015940074344457133 -0.012716316283928275 0 -0.0014053939096988965 -0.013298989670599481 0 -0.00063774345467081301 -0.011130816260245247 0 -0.0014523335857376161 -0.013518651224236263 0 -0.00054565564347015436 -0.010045295954656877 0 -0.00031899815242292191 -0.012097576314944718 0 -0.0014523335857376161 -0.013518651224236263 0 -0.0006192937804157762 -0.013415446270528627 0 -0.00031899815242292191 -0.012097576314944718 0 -0.0014523335857376161 -0.013518651224236263 0 -0.0015940074344457133 -0.012716316283928275 0 -0.0017372683399534067 -0.013330101833843935 0 -0.0015940074344457133 -0.012716316283928275 0 -0.0017372683399534067 -0.013330101833843935 0 -0.0022610753145353257 -0.013156216281839101 0 -0.0015349597243445579 -0.014048219736729541 0 -0.0017372683399534067 -0.013330101833843935 0 -0.0022610753145353257 -0.013156216281839101 0 -0.0030681792514302858 -0.013592700940900884 0 -0.0022610753145353257 -0.013156216281839101 0 -0.0026679180853779049 -0.012501049422038389 0 -0.0015940074344457133 -0.012716316283928275 0 -0.0022610753145353257 -0.013156216281839101 0 -0.0019837711790491571 -0.01236599526495678 0 -0.0022610753145353257 -0.013156216281839101 0 -0.0019837711790491571 -0.01236599526495678 0 -0.0026679180853779049 -0.012501049422038389 0 -0.0030681792514302858 -0.013592700940900884 0 -0.0044628891757405075 -0.013294080490636804 0 -0.0034261240328976299 -0.012804481332241928 0 -0.0030681792514302858 -0.013592700940900884 0 -0.0034261240328976299 -0.012804481332241928 0 -0.0026679180853779049 -0.012501049422038389 0 -0.0034261240328976299 -0.012804481332241928 0 -0.0031190425418855601 -0.011883999462204135 0 -0.0026679180853779049 -0.012501049422038389 0 -0.0039972768160071179 -0.012402883938469278 0 -0.0034261240328976299 -0.012804481332241928 0 -0.0031190425418855601 -0.011883999462204135 0 -0.0037997009855269513 -0.011716428347835685 0 -0.0039972768160071179 -0.012402883938469278 0 -0.0031190425418855601 -0.011883999462204135 0 -0.0030377129568902959 -0.011205265753386675 0 -0.0031190425418855601 -0.011883999462204135 0 -0.0024647546103971833 -0.011844180360452422 0 -0.0031190425418855601 -0.011883999462204135 0 -0.0024647546103971833 -0.011844180360452422 0 -0.0026679180853779049 -0.012501049422038389 0 -0.0024647546103971833 -0.011844180360452422 0 -0.0018491109136324071 -0.011818236693826711 0 -0.0019837711790491571 -0.01236599526495678 0 -0.0021518222324563119 -0.011283802017602179 0 -0.0024647546103971833 -0.011844180360452422 0 -0.0018491109136324071 -0.011818236693826711 0 -0.0024647546103971833 -0.011844180360452422 0 -0.0019837711790491571 -0.01236599526495678 0 -0.0026679180853779049 -0.012501049422038389 0 
</DataArray>
</PointData>
<CellData Scalars="region_id,cross_section_updated," Vectors="" Tensors="stress,">
<DataArray type="Float64" Name="region_id" format="ascii">
5 5 5 5 5 5 6 5 5 5 6 5 5 5 6 5 5 5 5 5 5 6 6 5 5 5 5 6 6 5 6 6 5 6 5 5 5 6 5 5 6 5 5 5 5 5 5 5 6 5 5 5 5 5 5 5 5 6 5 5 6 5 6 5 6 5 6 5 5 5 5 5 5 5 5 5 5 5 5 5 5 5 5 6 5 5 5 5 5 5 5 5 6 5 5 6 6 5 5 5 5 5 5 5 5 5 5 5 5 6 5 5 5 5 5 6 5 5 6 5 5 5 5 5 5 5 5 5 5 5 5 5 5 5 5 5 5 5 6 5 5 5 5 5 6 5 5 5 5 5 5 5 5 5 5 5 5 5 5 5 5 5 5 5 5 5 5 5 5 6 5 6 5 5 5 6 5 5 5 6 5 5 5 6 6 5 5 6 5 5 5 5 6 5 5 5 5 5 6 5 5 5 5 6 5 6 5 5 6 5 5 5 6 5 5 6 5 5 5 5 5 5 5 5 5 5 6 5 5 6 5 5 5 5 5 5 5 6 5 5 5 5 5 5 5 5 5 5 5 5 5 5 5 5 5 5 5 5 5 6 5 6 5 5 5 5 5 6 5 5 5 5 5 5 5 5 6 5 5 5 6 5 5 6 5 5 5 5 6 5 5 6 5 5 5 5 5 6 5 6 5 5 5 5 5 5 5 5 5 5 5 5 5 5 5 5 5 5 6 5 5 5 5 5 6 6 5 5 5 5 5 5 5 5 5 5 6 5 5 5 5 5 5 5 5 5 6 5 5 6 6 5 5 5 6 5 5 6 5 5 5 5 5 5 5 5 5 5 5 5 5 5 5 6 5 5 5 5 5 5 5 5 6 5 5 6 5 5 5 5 6 5 5 5 5 5 5 5 5 5 5 5 5 5 5 6 6 5 5 6 6 5 6 5 6 5 6 5 5 6 5 5 5 5 5 5 5 5 5 6 6 5 5 6 5 5 5 5 5 6 5 5 6 5 5 5 5 6 5 5 5 6 5 5 5 6 5 6 5 5 6 5 5 5 5 5 5 5 5 5 5 5 6 5 5 5 5 5 5 6 5 5 5 6 5 5 5 5 5 5 5 6 5 5 5 5 5 6 5 6 5 5 5 5 5 6 6 5 5 5 6 6 5 6 5 5 5 5 5 5 5 6 5 5 5 5 5 5 5 5 5 5 5 5 5 5 6 5 5 6 5 6 5 5 5 5 5 5 5 5 5 5 5 5 5 5 6 5 5 5 5 5 5 5 5 5 5 5 5 5 5 5 5 6 5 5 5 5 5 5 5 5 5 5 5 6 6 5 5 5 5 5 5 5 5 5 5 5 5 5 5 5 5 6 5 5 5 5 5 5 5 6 5 5 5 5 5 5 5 5 6 5 5 5 6 5 5 5 5 5 5 5 5 5 5 5 5 5 5 5 5 5 5 5 5 5 5 5 5 5 5 5 5 6 5 6 5 5 5 5 5 5 5 5 5 5 5 5 5 6 5 5 5 6 5 5 5 5 5 5 5 5 5 5 5 5 5 6 6 5 5 5 5 5 5 5 6 5 5 5 5 5 5 5 5 5 5 5 6 5 5 5 5 5 5 5 6 5 5 5 5 5 5 5 5 5 5 5 5 5 5 5 5 5 6 5 5 5 5 5 5 5 5 5 5 6 5 5 5 5 5 6 5 5 5 6 5 5 5 5 6 5 5 5 5 5 5 5 6 5 6 5 5 6 5 6 5 5 5 5 5 5 5 5 5 5 5 5 5 5 5 5 5 5 5 5 5 5 5 5 5 5 5 5 5 5 5 5 5 5 5 6 5 6 6 5 5 5 5 5 5 5 5 5 5 5 6 5 5 5 5 5 5 5 6 5 6 5 6 5 5 5 5 5 5 6 5 6 6 5 5 5 5 5 5 5 5 5 5 5 5 5 5 5 5 5 6 5 5 5 5 5 5 5 5 5 5 5 5 5 5 6 5 5 5 5 5 5 5 5 5 5 5 5 5 6 5 5 5 5 5 5 5 5 5 6 5 5 5 5 5 6 6 5 5 5 5 6 6 5 5 5 5 5 5 5 5 5 5 5 6 5 5 5 5 6 5 5 5 5 5 5 6 5 5 6 5 6 5 5 5 6 5 5 5 5 5 5 5 6 5 5 5 5 6 6 5 5 6 5 5 5 6 6 6 6 5 5 6 5 5 5 5 5 5 5 5 6 6 5 5 5 5 5 5 6 5 6 5 5 5 6 5 5 5 5 5 5 5 5 5 5 5 5 5 5 5 5 5 5 5 5 5 5 5 5 5 5 5 5 6 5 5 5 5 5 5 5 5 5 5 5 5 5 5 5 5 5 5 5 5 5 6 5 5 5 5 5 5 5 5 5 6 5 5 5 5 5 5 6 5 5 5 5 5 6 5 5 5 5 5 6 5 5 5 5 5 5 5 5 5 5 6 5 5 5 5 6 6 5 5 6 5 5 5 5 6 5 5 6 5 5 5 5 5 6 6 5 5 5 5 5 5 6 5 5 5 5 5 5 5 6 6 5 5 5 6 5 5 5 6 5 5 6 5 6 5 5 5 6 5 5 6 6 5 5 5 5 5 5 6 5 6 5 6 5 5 5 6 6 5 6 5 5 5 5 5 5 5 5 5 5 5 5 5 5 5 5 6 5 5 5 5 5 5 5 6 5 5 5 5 5 6 5 5 5 6 5 5 5 5 6 5 6 5 6 5 5 5 5 6 5 5 6 5 5 5 5 5 5 5 5 5 5 5 6 5 5 5 5 6 5 5 5 5 6 5 5 5 5 5 5 6 5 5 5 6 5 6 6 5 5 5 5 5 5 5 5 5 5 5 5 5 5 5 5 5 5 5 5 5 5 5 5 5 5 5 5 6 5 5 6 6 5 6 5 5 5 5 6 5 5 6 5 5 5 5 5 5 5 5 5 5 5 5 5 5 5 5 5 5 5 5 5 5 5 5 5 5 5 5 6 5 5 5 5 5 5 5 5 6 5 5 5 5 5 5 5 6 5 6 5 5 5 6 5 5 5 5 5 5 5 6 5 6 5 5 5 5 5 6 5 5 5 5 5 5 5 5 5 5 5 5 5 5 5 5 5 5 5 5 5 5 5 5 5 5 5 5 5 5 5 5 5 5 5 5 5 5 5 6 6 5 5 6 5 5 5 6 5 5 5 6 6 5 5 6 5 5 5 5 5 5 5 5 5 5 5 5 5 5 5 5 5 5 5 5 5 6 5 6 5 5 5 5 5 5 5 5 5 5 5 5 5 5 5 5 5 5 5 5 5 5 5 5 5 5 5 5 5 5 5 5 5 5 5 5 5 5 5 5 5 5 5 5 5 6 5 6 5 6 5 5 6 5 5 5 5 5 5 5 5 5 5 5 5 5 5 5 5 5 5 5 5 5 5 5 5 5 5 5 6 5 5 5 5 5 5 5 5 5 5 5 5 5 5 5 5 5 5 5 5 5 5 5 5 5 5 5 5 5 5 5 5 5 5 5 5 5 5 5 5 5 5 5 5 5 5 5 5 5 6 5 5 5 5 6 5 5 5 5 5 5 5 5 6 5 5 5 5 5 6 6 6 5 5 5 5 6 6 5 5 6 5 5 5 5 5 5 5 5 5 5 5 5 5 5 6 6 5 6 5 5 5 5 5 5 5 5 5 5 5 5 5 5 5 5 5 5 6 5 5 5 5 5 5 6 5 5 5 5 5 5 5 5 5 5 5 5 5 5 5 5 5 5 6 5 5 5 5 5 5 5 5 5 6 5 5 6 5 5 5 5 5 5 5 5 5 5 5 5 5 5 5 5 6 5 6 5 5 5 5 6 5 6 5 5 6 6 5 5 6 5 5 5 6 5 5 5 5 5 5 6 5 5 5 6 5 5 5 5 6 5 5 5 5 5 5 5 6 5 5 5 5 5 6 5 5 6 5 5 5 5 5 5 5 6 5 5 5 6 6 5 5 5 6 5 5 5 5 5 6 6 6 5 5 5 5 5 5 5 5 5 6 6 5 6 5 5 5 5 5 6 5 5 6 5 6 5 5 5 6 5 5 6 5 5 5 5 5 5 5 6 5 5 6 6 5 5 6 5 6 5 5 6 5 5 6 5 6 5 5 5 6 5 5 6 5 6 5 5 6 5 6 5 5 5 5 6 6 5 5 5 5 5 5 5 5 5 6 5 5 5 5 5 5 5 5 5 5 5 5 5 5 5 5 5 5 6 6 5 5 5 6 5 5 5 5 6 5 5 6 5 5 5 6 5 5 6 5 5 5 5 6 5 5 5 5 5 6 5 5 5 6 6 5 5 6 5 5 5 5 5 6 6 5 5 5 5 6 5 5 5 5 6 5 5 5 5 5 5 5 5 5 5 5 5 5 5 5 5 5 5 5 5 5 5 5 5 5 5 5 5 6 5 5 5 5 5 5 5 5 5 5 5 6 5 5 5 5 6 5 5 5 6 5 5 6 5 5 5 5 5 6 5 5 5 5 5 5 5 5 5 5 5 5 5 5 5 5 5 5 5 5 6 5 5 5 5 5 6 5 5 5 5 5 5 5 6 5 5 5 5 5 5 5 5 5 5 5 5 5 6 5 5 5 5 5 6 6 5 5 5 5 6 5 6 5 5 5 6 6 5 5 6 5 5 5 6 5 5 5 5 6 5 5 6 6 5 5 5 5 5 5 6 5 5 6 5 5 5 5 6 5 5 5 5 5 5 5 5 5 5 5 5 5 5 5 5 5 5 5 6 5 6 5 5 5 6 5 6 5 6 5 5 6 5 5 6 6 6 5 5 5 6 5 5 5 5 5 5 6 5 5 5 5 5 5 5 6 5 6 5 5 5 5 5 5 5 6 5 5 5 5 5 5 5 5 5 5 5 6 5 5 6 5 5 5 5 5 5 5 5 5 5 5 5 5 5 5 5 6 5 5 5 5 5 5 5 5 5 5 5 5 5 5 5 5 5 5 5 5 5 6 5 5 5 6 5 5 5 5 5 5 5 5 5 5 6 5 5 5 5 5 5 5 5 5 5 6 5 5 5 5 5 5 6 5 5 5 6 5 5 5 5 5 5 5 5 5 5 5 5 5 5 5 5 5 5 5 5 5 6 5 5 5 5 5 6 5 5 6 5 5 5 5 5 5 6 5 5 5 5 6 5 5 5 5 5 5 5 5 5 5 5 5 5 5 5 5 5 5 6 5 5 5 5 5 6 5 5 5 6 5 6 5 5 5 5 5 5 5 6 5 5 5 6 6 5 5 5 5 5 6 5 5 5 6 5 5 5 5 5 5 5 5 5 5 5 5 5 5 5 6 5 5 5 5 5 5 6 5 5 5 5 5 5 5 5 5 5 5 6 5 5 5 5 5 5 5 5 5 6 5 5 5 5 6 6 5 5 5 5 5 5 5 5 6 6 5 6 5 5 5 5 5 6 5 5 5 5 5 5 6 5 6 5 5 5 5 5 5 5 5 5 5 6 5 5 5 5 5 5 6 5 5 5 5 5 5 5 5 6 5 5 5 5 5 6 5 5 6 5 5 5 5 5 5 6 5 5 5 5 5 5 5 5 6 5 5 5 5 6 5 5 5 5 5 5 5 5 5 5 6 5 5 5 5 5 5 5 5 5 6 5 5 5 5 6 5 5 5 5 5 5 5 5 6 5 6 5 5 5 6 5 5 5 5 5 5 5 5 6 5 5 5 6 5 5 5 6 5 5 6 5 5 5 5 5 5 5 5 5 5 5 5 5 5 5 5 5 5 5 5 5 5 5 5 5 5 5 5 5 5 5 5 5 5 5 5 5 5 5 5 5 5 5 5 5 5 5 5 5 5 5 5 5 6 5 5 5 6 5 5 5 5 5 5 6 5 6 5 5 5 5 6 6 5 5 5 5 5 5 5 5 5 5 5 5 5 5 5 5 5 5 5 5 5 5 6 5 5 6 5 5 5 6 5 5 5 5 5 5 5 5 5 5 5 5 5 5 6 5 6 5 6 5 5 5 5 5 5 5 5 5 5 5 5 5 5 5 5 5 6 5 5 5 5 5 5 5 5 5 5 5 5 5 5 5 5 5 5 5 5 5 5 5 5 5 5 5 5 5 5 5 5 5 6 5 5 5 5 5 5 6 5 5 6 5 6 5 5 6 5 5 5 6 5 5 5 5 5 5 5 5 5 5 5 5 5 5 5 5 5 5 5 5 5 5 5 5 5 6 5 5 5 5 6 5 5 6 5 5 5 5 5 5 5 5 5 5 5 5 5 5 5 5 5 5 5 5 5 5 5 5 5 5 5 5 5 5 6 5 5 5 6 5 5 5 5 6 5 5 5 5 5 6 5 5 5 5 6 5 5 5 5 5 5 5 5 5 5 5 5 5 5 6 6 5 6 5 6 5 5 5 5 5 5 5 5 5 5 5 5 5 5 5 5 5 5 5 5 5 5 5 5 5 6 6 5 5 6 5 5 6 5 5 5 5 5 5 5 5 5 5 5 6 5 5 6 5 5 5 5 5 5 5 5 5 5 5 5 5 5 6 6 5 6 6 5 5 5 5 6 5 5 5 6 6 5 5 5 5 5 5 5 6 5 5 5 5 5 5 5 5 5 5 5 5 5 5 5 5 6 5 5 5 5 6 5 5 5 5 5 5 5 6 5 5 5 5 5 5 5 6 5 5 6 5 5 5 5 5 5 5 5 5 5 5 5 5 5 5 6 5 5 5 5 5 5 5 5 6 5 5 5 5 5 5 5 6 5 5 5 5 5 6 5 5 5 5 6 5 5 5 5 5 5 5 5 5 5 5 5 6 5 5 5 5 5 5 5 5 5 5 5 5 5 5 6 5 5 5 5 5 5 5 5 5 5 5 5 5 6 6 5 5 6 5 5 5 5 6 5 5 5 6 5 5 6 5 5 5 5 6 5 5 5 5 5 5 5 5 5 5 5 5 5 5 5 5 5 5 5 5 5 5 5 5 5 5 5 5 5 5 5 5 5 5 6 5 5 5 6 5 6 5 5 5 5 5 5 5 5 5 5 5 5 5 5 6 5 5 5 5 5 5 5 5 6 5 5 5 6 5 5 5 5 5 5 5 6 5 6 5 5 5 5 5 5 5 5 5 5 5 5 5 5 6 5 5 6 5 5 5 5 5 5 5 6 5 5 5 5 5 5 5 5 5 5 5 5 5 5 5 5 5 5 5 5 5 5 5 5 5 5 5 6 5 5 6 5 5 5 6 5 5 6 5 5 5 5 5 5 5 5 5 5 5 5 5 5 5 5 5 5 5 6 5 5 5 5 5 5 5 5 5 5 5 5 5 6 5 5 5 5 5 5 5 5 5 5 5 5 5 5 5 5 5 5 5 6 5 5 5 5 5 5 5 5 5 5 5 5 5 5 5 5 6 5 5 6 5 5 5 6 5 5 6 5 5 5 5 5 5 5 5 5 5 5 5 5 5 6 5 5 6 5 5 5 5 5 5 5 5 5 5 5 5 5 5 5 5 5 5 5 5 5 5 5 5 5 5 5 5 5 5 5 5 5 5 5 5 6 5 5 5 5 6 5 5 5 5 5 5 5 5 5 5 5 5 5 5 5 6 5 6 6 5 5 6 5 6 5 5 5 5 5 5 5 5 6 5 5 6 5 5 5 5 6 6 5 6 5 5 5 5 5 5 5 5 5 5 5 5 5 5 5 5 5 5 5 5 5 6 5 5 5 5 5 5 5 5 5 5 5 5 5 5 5 5 5 5 5 5 5 5 5 5 5 6 5 5 5 5 5 6 5 5 5 5 5 5 5 5 5 6 5 5 5 5 5 5 5 5 5 5 5 5 5 5 5 5 5 6 6 5 5 6 5 5 5 6 5 5 5 5 5 5 5 5 5 5 6 5 5 6 5 6 5 5 5 5 6 5 5 5 6 5 5 5 5 5 5 6 5 5 5 5 5 5 6 5 5 5 5 5 5 5 5 5 5 5 5 5 5 6 5 5 6 5 5 5 6 6 5 5 5 5 5 5 5 5 5 5 6 5 5 5 6 5 5 5 5 6 5 5 5 5 5 5 5 5 6 5 5 5 5 5 6 6 5 5 5 6 5 6 6 5 5 5 5 5 6 5 5 5 5 5 5 6 5 5 5 5 5 5 5 6 5 5 6 5 5 6 5 5 5 5 5 5 5 5 5 5 5 5 5 5 6 5 5 5 6 5 5 6 5 5 5 5 6 5 5 5 5 5 5 5 5 6 5 5 5 5 6 5 5 5 5 5 5 5 5 6 5 5 5 5 5 5 5 5 5 6 5 5 5 6 5 5 6 5 5 6 5 5 5 5 5 5 5 5 5 6 5 5 5 5 5 5 5 5 5 5 5 5 5 5 5 5 6 5 5 5 5 5 5 5 5 5 5 5 5 5 5 5 5 5 5 5 5 5 5 5 5 5 5 6 5 6 5 5 5 5 5 5 5 5 5 5 6 5 5 6 5 5 5 5 5 5 5 5 5 5 5 5 5 5 5 5 5 5 5 5 5 6 5 5 5 5 5 5 5 5 5 6 5 6 5 5 5 5 5 5 5 6 5 6 5 5 5 5 5 5 5 5 5 5 5 6 5 5 5 5 6 5 6 5 5 5 5 5 5 6 5 5 6 5 5 6 5 5 5 6 6 6 5 5 5 5 5 5 5 5 5 5 5 5 5 6 5 5 5 5 5 5 5 6 5 6 5 6 5 5 6 6 5 5 5 5 5 5 6 5 5 5 5 6 5 6 5 6 5 6 5 5 5 5 6 5 5 5 5 5 6 5 5 5 5 5 5 5 5 5 5 5 5 5 5 6 5 5 5 5 5 6 5 5 5 6 5 5 5 5 5 5 5 5 5 5 5 5 5 5 5 5 5 6 5 5 5 5 6 5 5 5 5 5 5 6 5 5 5 5 5 5 5 5 5 5 6 5 5 6 5 6 5 5 5 5 5 5 5 5 5 5 5 6 5 5 5 5 5 5 6 5 6 6 5 6 5 5 5 5 5 5 5 6 5 5 5 5 5 5 5 5 5 5 5 5 5 5 5 5 6 5 5 5 5 5 5 5 5 5 5 6 5 5 5 5 5 5 5 5 5 5 6 5 5 5 5 6 5 5 5 5 5 6 5 5 5 5 6 5 5 5 5 5 5 5 5 5 5 5 5 5 5 5 5 5 5 6 5 5 5 5 5 5 5 5 6 5 6 6 5 5 5 5 5 6 5 5 5 5 5 5 5 5 5 5 5 5 5 5 6 5 5 6 5 6 6 5 5 5 5 5 5 6 5 5 5 5 6 5 6 5 5 6 5 5 5 5 5 5 6 6 5 5 5 5 5 5 5 5 5 5 5 5 5 5 5 6 5 5 5 5 5 5 5 6 5 6 5 5 5 6 5 6 5 5 5 5 5 5 5 5 6 5 5 5 5 5 6 5 6 5 5 5 5 6 5 5 5 5 5 6 5 5 5 5 5 5 5 5 5 5 5 5 5 5 5 5 5 5 5 5 5 5 5 5 6 5 5 5 6 5 6 5 5 5 6 5 5 5 5 5 5 5 5 5 5 5 5 5 5 5 5 5 6 6 6 6 5 5 5 5 5 5 6 5 5 5 6 5 5 5 5 5 5 5 5 5 5 6 6 6 5 5 6 6 5 5 5 5 5 5 5 5 5 6 5 5 5 5 5 5 5 5 6 6 5 5 5 6 5 5 5 5 5 5 5 5 5 5 5 6 5 6 5 5 5 5 5 6 6 5 5 6 6 5 5 5 5 5 5 5 5 5 5 5 5 5 5 5 5 5 5 5 5 5 5 5 5 5 5 5 5 5 5 5 5 5 5 5 5 5 5 5 5 5 5 6 6 5 5 5 5 5 5 5 5 5 5 5 5 5 5 5 5 5 5 5 5 6 5 5 5 5 5 5 5 5 5 5 5 5 5 5 5 5 6 5 6 5 5 5 5 5 5 5 5 6 5 5 5 5 5 5 5 5 5 5 5 6 5 5 6 5 5 6 5 5 5 5 6 5 5 5 5 6 5 5 6 5 6 5 5 5 5 5 6 5 5 5 5 5 5 5 6 5 5 5 5 5 5 5 5 5 5 5 5 5 5 5 5 5 5 5 5 5 5 5 5 6 5 5 5 6 5 5 6 5 5 5 6 5 5 5 5 6 5 6 5 5 5 5 5 5 5 5 6 5 5 5 5 5 5 5 5 5 5 6 5 5 6 5 5 6 5 5 6 6 5 5 5 5 5 5 5 6 6 5 5 5 6 5 5 6 6 5 5 5 6 6 5 6 5 5 6 5 5 5 5 6 5 6 6 5 5 5 6 5 6 6 5 6 6 6 6 5 6 5 6 5 6 5 5 5 6 5 5 6 5 6 6 5 5 5 5 6 5 6 6 5 5 5 6 6 5 5 6 6 5 5 5 5 6 5 5 5 5 6 5 5 5 5 6 5 6 5 6 5 6 5 6 5 6 5 5 5 5 5 6 5 5 6 6 6 5 5 6 6 5 6 5 5 6 5 5 5 5 5 5 6 5 5 6 5 6 5 5 5 5 6 5 6 5 6 5 5 5 6 5 5 6 5 6 5 6 5 5 5 5 5 6 5 5 5 5 5 5 5 5 5 5 6 5 5 5 5 6 5 5 6 5 5 5 5 5 6 5 5 6 5 5 5 6 5 6 5 5 5 6 5 5 5 5 6 5 5 5 5 6 6 5 5 5 5 5 5 6 5 5 6 5 5 5 5 5 5 5 5 5 5 5 5 5 5 5 5 5 5 5 5 5 5 5 5 5 5 5 5 5 5 5 5 5 5 5 5 5 5 5 5 5 5 5 5 5 5 5 5 5 5 5 5 5 5 5 5 5 5 6 5 5 5 5 5 5 5 5 5 5 5 5 6 5 5 6 5 5 5 6 5 5 5 5 5 5 5 5 5 5 5 5 5 5 5 6 5 5 5 5 5 5 5 5 5 5 5 5 5 5 5 5 6 5 5 5 5 5 5 5 5 5 5 5 5 5 6 5 5 6 5 5 6 5 6 5 5 5 5 5 5 5 6 5 5 5 5 5 5 5 5 5 5 5 5 6 5 5 5 6 5 5 5 5 5 5 5 5 5 6 5 5 5 5 5 5 6 5 5 5 5 5 5 6 5 5 5 6 5 5 5 5 5 5 5 6 5 5 5 5 5 5 5 5 5 5 6 5 5 5 5 5 5 5 5 5 5 5 5 5 5 5 5 6 5 6 5 5 5 5 5 5 5 5 5 5 6 5 6 5 5 5 5 5 5 5 5 5 5 5 6 5 5 5 5 5 5 5 5 5 5 5 6 5 5 5 5 5 5 5 6 5 5 5 5 5 5 5 6 5 5 5 5 5 5 5 5 5 5 5 6 5 5 5 5 5 5 5 5 6 5 6 5 5 5 5 5 5 5 5 5 5 6 5 5 5 6 5 5 5 5 5 5 5 5 5 6 5 5 5 5 5 5 5 5 5 5 5 5 5 5 5 5 6 5 5 5 5 5 5 5 5 5 5 5 5 5 5 5 5 5 5 6 5 5 6 5 5 6 5 5 5 5 5 6 5 5 5 5 5 5 5 5 5 5 5 5 5 5 5 5 5 5 5 5 5 5 5 5 5 5 5 5 5 5 5 5 5 5 5 5 5 5 5 5 5 5 5 5 5 5 5 5 5 5 5 5 5 5 5 5 5 5 5 6 5 5 6 5 5 5 5 5 5 5 5 5 5 5 5 5 5 5 5 5 5 5 5 5 5 5 5 6 6 5 5 5 5 5 5 5 5 5 5 5 5 5 5 5 5 6 6 5 5 5 5 5 5 5 6 5 6 5 5 6 6 5 5 5 5 5 5 5 5 5 5 5 6 5 6 5 5 5 6 5 5 5 6 5 6 5 5 5 5 5 6 6 5 5 5 5 5 5 5 5 5 5 5 5 5 5 5 5 5 5 5 5 5 5 5 5 5 5 5 5 5 5 5 5 5 5 5 5 5 5 5 5 5 5 5 5 5 5 5 5 5 5 5 5 5 5 5 5 5 5 5 5 5 5 5 5 5 5 5 5 5 5 5 5 5 5 5 5 5 5 5 5 5 5 5 5 5 5 5 5 5 5 5 5 5 5 5 5 5 5 5 5 5 5 5 5 6 6 5 6 5 6 5 5 6 5 5 5 5 6 5 5 5 5 5 5 5 6 6 6 5 5 5 5 5 6 6 5 5 5 5 5 5 5 5 5 5 5 5 5 5 5 5 5 5 5 5 5 5 5 5 5 5 5 5 5 5 5 5 5 5 6 5 5 6 5 5 5 5 5 5 5 5 5 5 5 6 5 5 5 5 5 5 5 6 5 5 5 5 5 5 5 5 5 5 5 5 5 5 5 5 6 5 5 6 5 5 5 5 5 5 5 5 5 5 5 5 5 5 5 5 5 5 5 5 5 5 5 6 5 5 6 5 5 6 5 5 5 5 5 5 5 6 5 5 5 5 5 5 6 5 5 6 5 5 5 5 6 5 6 5 5 6 5 5 5 5 6 5 6 5 5 6 5 5 5 5 5 5 5 5 5 5 5 5 6 5 5 5 6 5 5 6 5 5 5 5 6 5 5 5 5 5 5 5 5 5 5 6 5 5 5 5 5 5 5 5 5 5 6 5 5 5 5 5 5 5 5 5 5 5 5 6 5 5 6 5 5 5 5 5 5 5 5 5 5 6 5 5 5 5 5 6 5 6 6 5 5 6 5 5 5 5 5 5 5 5 5 6 6 5 5 5 5 5 5 6 5 5 5 5 5 5 5 5 5 5 5 5 5 5 5 5 5 5 5 5 5 5 5 5 5 6 5 5 5 5 5 5 5 5 5 5 5 5 5 5 5 5 5 5 5 5 5 5 5 5 5 5 5 5 5 5 5 5 5 5 5 5 5 5 5 5 6 5 5 5 5 5 5 5 5 5 5 6 5 5 5 6 5 6 5 5 5 6 5 5 5 6 5 6 5 6 5 6 6 5 5 6 5 5 5 6 5 5 5 5 5 6 5 5 5 5 6 5 5 5 6 5 5 5 5 6 5 6 5 5 5 5 5 5 5 5 5 5 5 5 5 5 6 5 5 5 5 6 5 5 6 5 5 6 6 5 5 6 5 6 5 5 5 6 6 6 6 5 5 6 5 5 5 5 6 5 6 5 5 6 6 6 5 6 5 5 6 6 6 5 5 5 5 5 5 5 5 5 6 6 5 5 5 5 6 6 5 5 5 6 5 6 5 5 5 5 5 5 5 5 5 5 5 6 5 5 5 5 5 5 5 5 5 5 5 5 5 5 5 5 5 5 5 5 5 5 5 6 5 5 5 5 5 5 5 5 5 5 5 5 5 5 5 5 6 5 5 6 5 5 5 5 5 5 5 5 5 6 5 5 5 6 6 5 5 6 5 5 5 5 5 6 5 6 5 5 5 6 5 5 5 5 5 5 5 6 5 5 6 5 5 5 5 6 5 5 5 6 6 5 5 6 5 5 5 6 5 5 5 5 5 5 5 6 5 5 6 5 6 6 6 5 6 5 6 6 5 5 5 5 5 5 6 5 5 6 5 5 5 5 5 5 5 5 5 5 5 5 5 5 5 5 5 5 5 5 5 5 5 5 5 5 5 5 5 5 5 5 5 5 5 6 6 5 5 5 5 5 5 5 5 6 6 6 6 5 5 6 5 5 5 5 5 5 5 5 6 5 5 6 5 5 5 6 5 5 5 5 6 5 5 5 5 5 5 5 5 5 5 5 5 5 5 6 5 5 5 5 5 6 5 5 5 5 5 5 5 5 6 5 5 5 6 6 5 5 6 6 5 5 5 5 5 6 5 5 5 5 5 5 6 5 6 5 5 5 5 5 5 5 5 6 6 5 6 6 6 5 6 5 5 5 5 5 5 6 5 5 5 5 5 5 5 6 5 5 5 5 5 5 5 5 5 5 5 5 5 5 5 5 5 5 5 5 5 5 5 5 5 5 5 5 5 5 5 5 5 5 5 5 5 5 5 5 5 5 5 5 5 5 5 5 5 5 5 5 5 5 5 5 5 6 5 5 5 5 5 5 5 6 5 5 6 5 5 5 6 5 6 5 5 6 5 5 5 5 5 5 5 6 5 5 5 6 5 5 5 5 5 5 5 6 5 6 5 5 5 5 5 5 5 5 5 5 5 5 5 5 5 5 5 5 5 5 5 5 5 5 5 6 6 5 6 5 5 5 5 5 5 5 6 5 6 5 6 6 6 5 5 6 5 5 6 5 5 5 6 5 5 5 5 5 5 5 6 6 5 5 6 5 5 5 6 5 5 5 5 6 5 6 5 5 5 5 5 5 6 5 6 5 5 5 5 5 6 5 5 6 5 5 5 5 5 5 5 5 5 5 5 5 5 5 5 5 6 5 5 6 6 5 6 5 5 5 5 5 5 5 5 6 5 5 5 5 5 5 5 5 5 5 5 5 5 5 5 5 6 5 5 5 6 5 5 6 5 5 5 5 5 5 6 5 5 5 5 5 5 5 5 5 5 5 5 5 5 5 5 5 5 5 6 6 5 5 5 5 5 5 5 6 5 5 5 6 5 5 6 5 6 5 5 6 5 6 6 5 6 5 6 5 6 5 5 5 5 5 5 5 5 5 5 5 5 5 5 5 6 6 5 5 5 5 5 5 5 6 5 5 5 5 5 5 5 5 5 5 5 5 5 5 5 6 5 6 5 5 5 5 5 5 6 5 5 5 6 5 5 5 6 5 5 5 5 5 5 5 5 5 5 5 5 5 5 5 5 5 5 5 5 5 6 5 5 5 5 6 5 5 5 5 5 6 5 5 5 6 5 5 5 5 5 5 5 5 5 5 5 5 6 5 5 5 5 6 5 5 5 5 5 5 5 5 6 5 5 5 5 5 5 5 6 5 5 5 5 6 5 5 5 5 5 5 5 5 6 5 5 5 5 5 5 5 5 5 6 5 5 5 5 5 5 5 5 5 5 5 5 5 5 5 5 5 5 5 5 5 5 5 5 5 5 5 5 6 5 5 5 5 5 5 5 6 5 5 5 5 5 5 5 5 5 5 5 5 5 5 5 5 5 5 5 5 5 5 5 5 5 5 5 5 5 6 5 5 5 5 5 5 5 5 5 5 5 5 5 5 5 5 5 5 5 5 5 5 5 5 5 5 5 5 5 5 5 5 6 5 5 6 5 5 5 5 6 5 5 6 5 5 5 5 6 5 5 5 6 5 5 5 6 5 5 5 5 5 5 5 5 5 5 6 5 5 6 5 5 5 5 5 5 6 5 5 5 5 5 6 5 5 5 5 6 5 5 5 5 5 5 5 5 5 5 6 5 5 5 5 5 5 5 5 5 6 5 5 5 5 5 5 5 5 5 5 5 5 5 6 5 5 5 5 5 5 5 6 5 5 5 5 5 6 5 5 5 5 5 5 5 5 5 5 5 5 5 5 6 5 5 5 5 5 5 5 5 6 5 5 5 5 5 5 5 5 5 5 5 5 5 5 5 5 5 5 5 5 5 5 5 5 5 5 5 5 5 5 5 5 5 6 5 5 5 5 6 6 5 5 6 5 5 6 5 5 6 5 5 5 5 5 5 5 5 5 5 5 5 5 5 5 5 5 5 5 6 5 5 5 5 6 5 5 5 5 5 5 5 5 5 5 5 5 5 5 5 5 5 5 5 5 5 5 5 5 5 5 5 5 5 5 5 5 5 5 5 5 5 5 5 5 5 5 5 5 5 5 5 5 5 5 5 5 5 5 5 5 5 5 5 5 5 5 5 5 5 5 5 5 5 5 5 6 5 5 5 5 6 5 6 5 5 6 5 5 5 5 6 5 5 6 5 5 5 5 5 5 5 5 5 5 5 5 5 5 5 5 5 5 5 5 5 5 5 5 5 5 5 5 5 5 5 5 5 5 5 5 5 5 5 5 5 5 5 5 5 5 5 5 5 5 5 5 5 5 5 5 5 5 5 5 6 5 5 5 5 5 5 5 5 5 6 5 5 5 5 5 5 5 6 5 5 5 5 5 5 5 5 5 5 5 5 5 5 5 5 5 5 5 6 6 5 5 6 5 6 5 5 5 5 5 5 5 5 5 5 5 5 5 5 5 5 5 5 5 5 5 5 5 5 5 5 5 5 5 5 5 5 5 5 5 5 5 5 5 5 5 5 5 5 5 5 5 5 5 5 5 5 5 5 5 6 6 5 5 5 5 5 5 5 5 5 5 5 5 5 5 5 5 5 5 5 5 6 5 5 5 5 5 5 5 5 5 5 6 5 5 5 6 5 5 5 5 5 5 6 5 5 5 5 5 5 5 5 5 5 5 5 5 6 5 5 5 5 5 5 6 6 5 6 5 5 6 5 5 5 6 5 5 5 6 5 5 5 5 5 6 5 6 5 5 5 5 6 5 5 5 5 6 5 6 5 5 6 6 5 5 5 5 5 6 5 5 5 5 5 6 6 6 5 6 5 6 5 5 5 5 5 6 5 5 5 5 5 5 5 5 6 6 5 5 6 5 5 5 5 6 5 5 6 5 5 6 5 5 5 5 5 5 5 5 5 6 5 5 5 5 5 5 5 5 6 5 5 5 5 5 5 5 5 5 6 6 5 5 5 5 5 5 5 5 5 5 5 5 5 5 5 5 5 5 5 5 5 5 5 5 5 5 5 5 5 5 5 5 5 5 5 6 5 5 5 5 6 5 5 5 5 5 5 5 5 5 5 5 5 5 5 5 5 6 6 5 5 5 5 5 5 5 5 5 6 5 5 5 5 6 5 5 6 5 5 5 5 5 5 5 5 5 5 5 5 5 6 5 5 5 5 5 5 5 5 5 5 5 5 5 5 5 5 5 5 5 5 5 5 5 5 5 6 5 5 5 5 5 6 5 5 5 6 5 5 5 6 6 5 5 5 5 5 5 5 5 5 5 5 5 5 5 6 5 5 5 6 5 5 5 5 6 6 5 5 5 5 5 5 5 5 5 5 5 5 5 5 5 5 5 5 5 5 5 5 5 6 5 5 5 5 5 5 5 5 5 6 5 5 5 5 6 5 6 5 5 5 5 6 5 5 5 5 5 5 5 5 5 5 5 5 5 5 5 6 5 5 6 5 5 5 5 5 5 5 5 5 5 6 6 5 5 5 5 6 5 5 5 6 5 5 5 5 6 6 5 6 5 6 5 6 5 5 6 5 5 6 5 5 6 5 5 5 6 5 5 6 5 6 5 6 5 5 6 5 5 5 5 5 5 5 5 5 5 5 5 5 6 5 5 5 5 5 5 5 5 5 5 5 5 5 5 5 5 6 6 5 5 5 5 5 6 5 5 5 5 6 5 5 6 5 5 5 5 6 5 5 5 5 5 5 5 5 5 5 5 5 5 5 5 5 5 5 5 5 5 5 5 5 5 5 5 5 5 5 5 5 5 5 5 5 5 5 6 5 5 5 5 5 5 5 5 5 5 5 5 5 6 5 6 5 5 5 5 6 5 5 5 5 5 5 5 5 5 5 5 5 5 5 5 5 5 5 6 5 6 5 5 6 5 5 5 6 5 5 5 5 5 5 5 5 5 5 5 5 5 5 5 5 5 5 5 5 5 5 5 5 5 5 5 6 5 5 6 5 5 5 5 5 5 5 5 5 5 5 5 5 5 5 5 5 5 5 5 5 5 5 5 5 5 5 5 5 5 5 5 5 5 5 6 5 6 5 5 5 5 5 5 5 5 5 5 5 5 5 5 5 5 5 6 6 5 5 5 5 5 6 5 5 5 5 6 5 5 5 5 6 5 5 5 5 5 5 5 5 5 5 5 5 5 5 5 5 5 5 6 5 5 5 5 5 5 6 5 5 6 5 5 5 5 5 5 5 5 5 5 5 5 6 5 5 6 5 5 5 5 5 5 5 5 6 5 5 5 5 5 5 6 5 5 6 5 5 5 5 5 5 5 5 5 5 5 5 5 5 5 5 5 5 5 5 5 5 5 5 5 5 5 5 5 5 5 5 5 5 5 5 6 5 5 5 6 5 5 6 5 5 5 5 5 5 6 5 5 5 5 5 6 5 5 5 5 5 5 6 5 5 5 5 6 5 6 5 5 6 5 5 5 6 5 5 5 5 5 5 5 5 5 5 5 5 5 6 5 5 5 5 5 5 5 5 5 5 5 5 5 5 5 5 5 5 5 5 5 5 5 5 6 5 6 5 6 5 6 5 5 5 5 6 5 5 5 5 6 5 5 5 5 5 5 5 5 5 5 5 5 5 5 6 5 5 5 6 5 5 5 6 5 5 6 5 5 5 6 5 5 5 5 6 5 5 5 5 6 5 5 5 5 5 5 5 5 5 5 6 5 5 5 5 5 6 5 6 5 5 5 5 5 6 6 5 5 6 5 6 5 5 6 5 5 5 5 5 5 5 5 5 5 5 5 5 6 5 5 5 5 5 6 5 5 5 5 5 5 5 5 5 5 6 5 6 5 5 6 5 5 6 5 6 5 6 5 5 5 5 5 6 6 5 5 5 5 5 5 5 5 5 5 5 6 5 5 5 5 5 6 5 5 5 6 5 6 5 5 5 5 5 5 5 5 5 5 5 5 5 5 5 6 5 5 5 5 6 5 5 5 5 5 5 5 5 5 5 5 5 5 5 5 5 5 5 5 5 5 5 5 6 5 5 6 5 5 5 5 5 5 5 6 5 5 6 5 6 5 5 5 5 5 5 5 5 5 6 5 5 6 5 5 5 6 5 5 5 5 5 5 5 6 5 5 5 5 6 6 5 5 5 5 5 5 5 5 5 6 5 5 5 5 5 5 5 5 5 5 5 5 5 5 5 5 6 5 6 5 5 5 6 5 5 5 5 5 5 5 5 5 5 5 5 5 6 5 5 5 5 5 6 5 5 5 6 6 5 5 5 6 5 5 6 5 5 5 5 6 6 5 5 5 6 5 5 6 5 5 5 5 6 5 6 5 5 5 6 5 5 5 5 5 5 5 5 5 5 5 5 5 5 5 5 5 5 5 5 5 6 5 5 5 5 5 5 5 5 5 6 5 5 5 6 5 6 5 5 5 5 5 5 5 5 5 5 5 6 5 5 5 5 5 6 5 5 5 5 5 6 5 5 5 5 5 5 5 5 5 5 5 5 5 5 5 5 6 5 5 5 5 5 5 5 5 5 6 5 5 5 5 5 5 5 5 5 5 5 5 5 5 5 6 5 5 5 5 5 5 5 5 5 5 5 5 5 5 5 5 5 5 5 5 5 5 5 5 5 5 5 5 5 6 5 5 5 5 6 5 6 6 5 5 5 5 5 5 6 5 6 5 5 5 6 5 5 6 5 5 5 5 5 5 6 5 5 5 5 5 5 5 6 5 5 5 5 6 5 5 5 5 5 5 6 5 5 5 5 5 5 5 5 5 5 5 5 6 5 6 5 5 5 5 5 5 5 6 6 5 5 5 5 5 5 5 5 6 5 5 5 6 5 5 6 5 5 5 5 5 5 5 5 5 5 5 5 5 5 5 5 5 5 5 5 5 5 5 5 5 6 5 5 6 5 5 5 5 5 6 5 5 6 5 6 5 5 5 6 5 5 5 5 6 5 5 6 6 5 5 5 5 5 6 5 5 6 5 5 5 5 5 6 5 5 5 5 5 5 5 5 5 6 5 5 5 5 6 5 5 5 5 5 5 6 5 6 5 5 5 6 5 6 5 5 6 5 6 5 5 5 6 5 5 5 5 5 5 5 5 5 5 5 5 5 6 5 5 5 5 6 5 5 5 5 5 5 6 5 5 5 5 5 5 5 6 5 5 5 5 5 5 6 5 5 5 5 5 5 5 6 5 5 6 5 5 5 5 5 5 5 5 5 6 6 5 5 5 5 5 5 5 5 5 5 5 5 6 5 5 5 5 5 5 5 6 5 5 5 6 5 6 5 5 6 5 5 5 5 5 6 5 5 5 6 5 5 5 5 6 5 5 5 6 5 5 5 5 5 5 5 6 5 5 6 5 5 5 6 5 5 5 6 5 5 5 5 6 5 5 5 6 5 5 5 5 5 5 5 5 5 6 5 5 5 5 5 5 5 5 5 6 5 5 5 5 6 5 5 6 5 5 5 5 5 5 5 5 5 5 5 5 5 5 5 5 5 5 5 5 5 5 5 5 5 5 6 5 5 5 5 5 5 5 5 5 5 5 6 5 5 5 6 5 5 5 5 5 5 6 5 5 5 5 5 5 5 5 5 5 5 5 5 5 5 5 5 5 5 5 5 5 5 5 5 5 6 5 6 5 5 6 6 5 5 5 5 5 5 5 5 5 5 5 5 5 5 5 5 5 6 5 5 5 5 5 5 5 5 5 5 5 5 5 5 5 5 5 5 5 5 5 5 5 5 5 5 5 5 5 5 5 5 5 5 5 5 5 5 5 5 5 5 5 5 5 5 5 5 5 5 5 5 5 5 5 5 5 5 5 5 5 6 5 5 6 5 5 5 5 6 5 5 5 5 5 5 5 5 5 5 6 5 6 5 5 5 6 5 5 5 6 5 6 5 5 5 6 5 6 5 6 5 5 5 6 5 5 5 5 6 5 6 5 5 5 5 5 6 5 6 6 5 5 5 5 5 5 6 5 5 5 6 5 5 5 5 5 5 5 5 5 5 5 5 5 5 5 5 5 5 5 6 5 5 5 6 6 5 5 5 5 5 6 5 5 5 5 5 5 5 5 5 5 5 5 5 5 6 5 5 6 5 6 5 5 5 6 5 6 5 5 6 5 5 5 5 5 5 5 5 5 5 5 6 5 5 5 5 5 5 5 5 5 5 6 6 5 5 5 5 5 5 5 6 5 5 5 5 5 5 5 5 5 5 5 5 5 5 6 5 5 5 5 5 5 5 5 5 5 6 5 5 5 6 5 6 6 5 5 5 5 5 5 5 5 6 5 5 5 5 5 5 5 5 5 6 5 6 5 6 5 5 5 5 5 5 5 5 6 5 6 5 5 5 5 5 5 6 5 5 6 5 6 5 5 5 5 5 5 5 5 5 5 5 5 5 5 6 5 5 5 5 5 5 5 5 5 5 6 5 5 5 5 5 5 6 5 5 5 5 5 5 5 5 5 5 5 5 5 5 5 5 5 5 5 5 5 5 5 5 5 6 5 5 5 5 5 6 5 5 5 5 5 5 5 5 5 5 5 6 5 5 5 5 6 5 5 5 5 5 6 5 5 5 5 5 6 5 5 6 5 5 5 5 5 5 5 5 5 5 5 5 5 5 5 5 5 5 5 5 5 5 5 5 5 5 6 5 5 6 5 5 5 5 5 5 5 5 5 5 5 5 5 5 5 6 5 5 5 5 5 5 5 5 5 6 5 5 5 5 5 5 5 6 5 5 5 5 5 6 5 5 5 5 5 5 6 5 5 5 5 6 5 5 5 5 5 5 5 6 5 5 6 5 5 6 5 5 5 5 6 5 5 5 5 5 5 5 5 6 5 5 6 5 5 5 5 5 5 5 5 5 6 5 5 5 5 5 6 5 5 5 5 6 5 5 5 6 5 5 5 5 5 5 5 5 5 5 5 6 6 5 5 5 5 5 5 5 5 5 5 5 6 5 5 5 5 5 6 5 6 6 5 6 6 5 5 6 5 5 5 5 5 5 6 5 6 6 5 5 5 5 5 6 5 5 5 5 5 5 5 5 6 5 5 5 5 6 5 5 5 5 5 6 5 5 6 5 5 5 5 5 5 5 6 5 6 5 5 5 5 5 5 5 6 6 5 5 5 5 5 5 5 6 5 5 5 5 5 5 6 5 5 5 5 5 5 5 5 5 5 5 5 5 5 6 5 5 6 5 5 5 5 6 5 5 5 5 6 5 5 5 5 5 5 6 5 5 5 5 5 5 5 6 5 5 5 6 5 5 5 5 6 5 5 6 5 5 5 5 5 5 5 6 5 5 5 5 6 5 6 5 5 5 5 5 5 5 5 5 5 5 5 5 5 6 5 5 5 5 5 5 5 6 5 5 6 5 5 6 5 5 5 5 5 5 5 5 5 6 5 5 5 6 5 5 5 5 5 5 5 5 5 6 5 5 5 5 5 5 5 5 5 5 5 6 5 5 5 6 5 5 5 5 5 5 5 5 5 5 5 6 5 5 5 5 5 5 5 5 5 5 6 5 5 5 5 5 6 5 5 5 5 5 5 5 5 6 5 5 6 5 5 6 5 5 5 5 6 6 5 5 5 5 6 5 5 5 5 6 5 5 6 5 5 5 5 6 5 5 6 5 5 5 5 5 6 5 5 5 5 5 5 5 5 6 5 6 5 5 5 5 5 5 5 5 5 6 6 5 5 5 5 5 5 6 5 5 6 5 5 6 5 6 5 5 5 6 5 5 6 5 5 5 5 5 5 5 5 6 6 5 5 6 6 5 5 5 5 6 5 5 5 6 5 6 5 6 6 6 5 6 5 5 5 6 5 5 5 5 5 5 5 5 5 6 5 5 6 5 5 5 5 5 5 6 5 5 5 5 5 5 6 6 6 5 5 5 5 5 5 5 5 5 5 5 6 5 5 5 5 6 5 5 5 5 5 5 5 5 6 5 5 6 5 5 5 6 5 5 5 5 5 5 5 5 5 6 5 5 5 5 5 5 5 5 6 5 5 5 6 5 5 6 5 5 5 6 5 6 5 5 6 5 6 5 5 6 5 5 5 5 5 5 6 5 5 6 5 5 5 5 5 5 5 5 5 5 5 5 5 5 5 5 5 5 5 5 5 5 5 5 5 5 5 5 5 5 5 5 5 5 5 5 5 5 5 5 5 5 5 5 5 5 5 5 5 5 5 5 5 5 5 5 5 5 5 5 5 5 5 5 5 5 5 5 5 5 5 5 5 5 5 5 5 5 5 5 5 5 5 5 5 5 5 5 5 5 5 5 5 5 5 5 6 5 5 5 5 6 5 5 5 5 5 5 5 5 5 5 5 5 6 6 5 5 5 5 5 5 5 5 5 5 5 5 5 5 5 6 5 5 5 6 5 5 5 5 5 5 5 5 5 5 6 5 6 5 5 5 5 5 5 5 5 5 5 5 5 5 5 5 5 5 5 5 5 5 5 5 5 6 5 5 5 5 6 5 5 5 5 5 5 5 5 6 5 5 5 5 5 5 5 5 5 5 5 5 5 5 5 5 5 5 5 5 5 5 5 5 5 5 5 5 5 5 5 5 5 5 5 5 5 5 5 5 5 5 5 5 5 5 5 5 5 6 5 5 5 5 5 5 5 5 5 5 5 5 5 5 5 5 5 5 5 5 5 5 5 5 5 5 5 5 5 5 5 5 6 5 5 5 5 5 5 6 5 5 5 5 5 5 6 5 5 6 5 6 5 6 5 5 5 5 6 5 5 5 5 5 6 5 5 5 6 6 5 5 5 6 5 5 5 5 6 6 5 5 5 5 5 5 5 5 5 5 5 5 5 5 6 5 5 6 5 5 6 6 5 5 5 5 5 5 5 5 5 5 6 5 6 5 5 5 5 5 5 5 5 5 5 5 6 5 5 5 5 5 5 5 6 5 5 5 5 5 5 5 5 5 5 5 5 5 5 5 5 5 5 6 6 5 5 5 5 5 5 5 5 5 5 5 5 5 5 5 5 5 6 5 5 5 5 5 5 5 5 5 6 5 5 5 5 5 5 5 5 5 5 5 5 6 5 5 5 5 6 5 6 5 5 5 5 5 5 5 5 5 6 5 5 5 5 6 5 5 5 5 6 5 6 5 5 5 5 5 5 5 5 5 5 5 5 6 5 5 5 5 5 5 5 5 5 5 5 5 5 5 5 6 5 6 5 5 6 5 5 5 6 5 6 5 5 6 5 5 6 5 6 5 5 5 5 5 5 5 6 6 5 5 5 5 6 6 5 5 6 6 5 6 5 5 6 6 5 5 6 5 5 6 5 5 5 5 5 5 5 5 6 5 5 6 5 6 5 5 5 6 5 5 5 5 5 5 5 5 6 5 5 5 5 5 5 5 5 5 5 5 5 5 5 5 5 5 5 5 5 5 5 6 5 5 5 5 5 5 5 5 5 5 5 5 5 5 5 5 5 5 
</DataArray>
<DataArray type="Float64" Name="stress" NumberOfComponents="9" format="ascii">
-300.07547753366862 -412.56172052445436 0 -412.56172052445436 2497.3110003798356 0 0 0 0 0.14054098759055217 -199.30584412484677 0 -199.30584412484677 1400.8740456182459 0 0 0 0 151.89853265713811 -239.07543533995977 0 -239.07543533995977 676.15686240437208 0 0 0 0 76.74931419376918 -57.297398116847035 0 -57.297398116847035 896.90777992363292 0 0 0 0 -112.87053513134877 -181.37324325322879 0 -181.37324325322879 846.788409239045 0 0 0 0 97.465133547642125 -314.49269702007769 0 -314.49269702007769 590.25311329983379 0 0 0 0 1.0149933907245789 -0.25057480931143061 0 -0.25057480931143061 1.0187318666808451 0 0 0 0 61.396450568153512 -47.045232640808536 0 -47.045232640808536 181.62160888454673 0 0 0 0 323.57884121805836 -95.714850677002687 0 -95.714850677002687 273.02684966185188 0 0 0 0 -40.587734813424959 -64.683420478722837 0 -64.683420478722837 374.98769473214998 0 0 0 0 1.4500717440757618 0.35201650753269575 0 0.35201650753269575 0.84641724386221284 0 0 0 0 490.00126376945229 -588.0600372056324 0 -588.0600372056324 166.58871745454962 0 0 0 0 -89.167967500717168 -123.18069792859023 0 -123.18069792859023 419.65399890022672 0 0 0 0 110.09169968729861 -81.831307492422638 0 -81.831307492422638 -404.61758387907321 0 0 0 0 3.0006784655411844 -1.3594526048476183 0 -1.3594526048476183 0.31874759225390648 0 0 0 0 227.70308724415597 -814.91535027555801 0 -814.91535027555801 1557.9043572258765 0 0 0 0 -72.080678540077542 -495.71756973200536 0 -495.71756973200536 1571.1864620061388 0 0 0 0 207.66991144480221 -1047.8477872680201 0 -1047.8477872680201 2030.2283927562021 0 0 0 0 67.342330429787239 -1273.0374725076799 0 -1273.0374725076799 2692.305744103106 0 0 0 0 655.38083077496526 -579.06677413358557 0 -579.06677413358557 2499.7675220586207 0 0 0 0 993.06825914001047 -351.74412467130969 0 -351.74412467130969 128.87727783368609 0 0 0 0 6.6177209877272984 -5.4622249596127688 0 -5.4622249596127688 4.3349612427233808 0 0 0 0 3.4604133892054412 -5.2708087496356057 0 -5.2708087496356057 4.8437178908437275 0 0 0 0 7.3713832044400078 -56.162167458533077 0 -56.162167458533077 -57.434277428609676 0 0 0 0 -197.26475946742144 90.227935955985231 0 90.227935955985231 2613.6464780848873 0 0 0 0 1428.7818302703524 1210.3382323947371 0 1210.3382323947371 1042.3507281607235 0 0 0 0 522.67316979671546 -760.22084161287057 0 -760.22084161287057 1149.4719434886501 0 0 0 0 0.26730275860506092 -1.0165183508068054 0 -1.0165183508068054 5.8386828313430073 0 0 0 0 4.1139931876348559 3.021925016270302 0 3.021925016270302 8.0791580364273727 0 0 0 0 3.6552814173574006 -9.3313020484893059 0 -9.3313020484893059 25.356846353522997 0 0 0 0 7.6040142651141593 -2.9153285534279973 0 -2.9153285534279973 12.760163394155647 0 0 0 0 6.1570329745996517 -11.550959982440872 0 -11.550959982440872 22.52756054726845 0 0 0 0 -103.70144641110187 115.45852477183507 0 115.45852477183507 234.41913357137673 0 0 0 0 1.5185949279556406 -2.1302552289588768 0 -2.1302552289588768 36.015572426687982 0 0 0 0 51.893643885949871 2.4903041884790582 0 2.4903041884790582 -124.49310697397596 0 0 0 0 42.390096322656063 -132.5603191909795 0 -132.5603191909795 8.1124292266904376 0 0 0 0 -128.70955545178083 -130.76276073038025 0 -130.76276073038025 0.73718979607292567 0 0 0 0 5.9067555827241494 -27.435491449265371 0 -27.435491449265371 55.797714595591273 0 0 0 0 -7.2126321208543231 -71.575319071511331 0 -71.575319071511331 23.27263511656929 0 0 0 0 -90.006329721463544 5.2599974684690096 0 5.2599974684690096 97.589951554240542 0 0 0 0 0.25569050431581886 -8.1702593032032738 0 -8.1702593032032738 4.6944800951612535 0 0 0 0 24.825373851221684 -47.479889402315166 0 -47.479889402315166 80.814262075902661 0 0 0 0 288.26924258647068 44.570866052912606 0 44.570866052912606 98.124592523286992 0 0 0 0 -78.085674297275091 -44.43656827929226 0 -44.43656827929226 136.4748525425457 0 0 0 0 -3.7358922217808868 -12.896755082118034 0 -12.896755082118034 56.454744951697649 0 0 0 0 3.7855860427862353 69.791326487211336 0 69.791326487211336 265.43344019011784 0 0 0 0 45.301860878867046 -114.99459711992677 0 -114.99459711992677 213.69858808869321 0 0 0 0 -45.387351275016044 -50.082664692337858 0 -50.082664692337858 36.390902653933153 0 0 0 0 0.28449078316408105 0.81566794415947186 0 0.81566794415947186 0.73126739701507404 0 0 0 0 -9.1748322204264241 -93.746060992638377 0 -93.746060992638377 61.764277994072472 0 0 0 0 -18.02836465827977 -60.989893710378965 0 -60.989893710378965 154.6263090616776 0 0 0 0 -39.839613213789107 -52.065644083035295 0 -52.065644083035295 280.38519968410037 0 0 0 0 -3.457418976990084 20.132192959928943 0 20.132192959928943 212.49792240808165 0 0 0 0 4.7593131552382602 31.499565308040474 0 31.499565308040474 84.761459207231383 0 0 0 0 -13.213110549785597 -33.525067700928048 0 -33.525067700928048 155.35976059867608 0 0 0 0 -36.790594936279376 -2.5221958352194633 0 -2.5221958352194633 161.06629452981042 0 0 0 0 -7.1292590630153825 -12.078082207401167 0 -12.078082207401167 24.421201213284803 0 0 0 0 -9.3015252124964007 5.4705620025428345 0 5.4705620025428345 2.8784637717384598 0 0 0 0 -1.6530902078379626 9.4205346949170234 0 9.4205346949170234 5.235743627185002 0 0 0 0 -23.731089720212367 3.106259569807662 0 3.106259569807662 105.89270159178704 0 0 0 0 -5.6581079008110962 13.555853754325952 0 13.555853754325952 20.90177822668204 0 0 0 0 32.959753586870647 -52.870982690474193 0 -52.870982690474193 94.531023495161207 0 0 0 0 -13.40881682809319 4.3014762307179097 0 4.3014762307179097 7.2834805615730502 0 0 0 0 -148.75581599545376 -51.389928174503439 0 -51.389928174503439 242.18542471198452 0 0 0 0 -3.967629552137538 2.7900779347634597 0 2.7900779347634597 7.8252294285022117 0 0 0 0 -8.9390310696573891 0.3703890568431234 0 0.3703890568431234 7.5963089943543309 0 0 0 0 -7.4856164212178413 -4.3908545138366932 0 -4.3908545138366932 29.988128384535798 0 0 0 0 -21.657024308393005 -9.8519167863032635 0 -9.8519167863032635 32.833907212596387 0 0 0 0 -11.632264686775244 -9.3030165932141244 0 -9.3030165932141244 32.598668486170936 0 0 0 0 -13.998956209526145 -18.255453950856463 0 -18.255453950856463 55.781798568772501 0 0 0 0 -12.310430268057329 -6.3259802901698095 0 -6.3259802901698095 31.120211829984328 0 0 0 0 -26.617158113445349 -13.386926140672585 0 -13.386926140672585 89.552974943166191 0 0 0 0 -19.45610032858232 9.1430664890376647 0 9.1430664890376647 29.798515994094487 0 0 0 0 -30.723439266607279 -0.64411207091325196 0 -0.64411207091325196 52.689518990989654 0 0 0 0 -0.91754018104774104 -1.173000967814005 0 -1.173000967814005 19.428725428439066 0 0 0 0 17.308329510028898 -5.9280468136475974 0 -5.9280468136475974 15.451866793999216 0 0 0 0 3.5556085945612494 -18.75570264653652 0 -18.75570264653652 37.856149800420098 0 0 0 0 0.5797413909816953 -22.873681658056739 0 -22.873681658056739 69.325897895818343 0 0 0 0 0.88252427904316733 -14.936370734190859 0 -14.936370734190859 70.199205926158356 0 0 0 0 17.865330817789754 -32.955639966978197 0 -32.955639966978197 65.05258187387517 0 0 0 0 20.686280896188464 4.9933052464293723 0 4.9933052464293723 -15.201972461720288 0 0 0 0 -30.351913913933799 16.948113790036587 0 16.948113790036587 19.900632100325311 0 0 0 0 -3.7517877481035384 17.699810067115322 0 17.699810067115322 11.661800316669542 0 0 0 0 -0.37692778396678217 -2.5556706196374677 0 -2.5556706196374677 11.71464790290338 0 0 0 0 -70.595032464505778 -85.810607085339143 0 -85.810607085339143 104.82596989761805 0 0 0 0 -39.70807829424308 4.4044950333955057 0 4.4044950333955057 21.028009002184262 0 0 0 0 192.05886567529566 -222.98956631439069 0 -222.98956631439069 165.25364015862385 0 0 0 0 -42.946288071606787 -23.307865993629093 0 -23.307865993629093 328.14641761359962 0 0 0 0 118.18497725007508 149.02500633418094 0 149.02500633418094 150.97097096242214 0 0 0 0 -0.17799233012655538 14.108021380248829 0 14.108021380248829 157.63669249883969 0 0 0 0 -41.51219068981284 -27.90032110883476 0 -27.90032110883476 114.99496256399289 0 0 0 0 -1.5316723346822059 93.382036611041258 0 93.382036611041258 12.225259926170111 0 0 0 0 -0.13794531813702565 0.0012566436742105225 0 0.0012566436742105225 -0.069216890359427907 0 0 0 0 75.775587433731729 56.068698133414728 0 56.068698133414728 -136.63886285868648 0 0 0 0 -22.896309517356507 23.854965291719054 0 23.854965291719054 70.606385731589398 0 0 0 0 -1.060014547160403 -0.65111357102111356 0 -0.65111357102111356 2.1463793801062607 0 0 0 0 -0.74725239155493806 1.0634468678926154 0 1.0634468678926154 0.35379288314990731 0 0 0 0 -11.590787249924574 -64.462773706432927 0 -64.462773706432927 116.22698255447176 0 0 0 0 -25.039003374271275 41.303657286497582 0 41.303657286497582 2.5607053992280271 0 0 0 0 -8.7125593978533971 -29.83128606077662 0 -29.83128606077662 128.25791879279132 0 0 0 0 -0.099775705924147667 56.182549147270038 0 56.182549147270038 -20.828697261047637 0 0 0 0 0.41527458512508569 59.646335755809559 0 59.646335755809559 137.91004823693629 0 0 0 0 -67.646285387261401 38.858017559847212 0 38.858017559847212 281.26789676619228 0 0 0 0 -27.377779872439817 -156.42193746307748 0 -156.42193746307748 408.43608587625204 0 0 0 0 -6.844193778650606 -42.556281729623151 0 -42.556281729623151 171.45495537098759 0 0 0 0 38.427552949625664 45.084612557408036 0 45.084612557408036 212.3520108586963 0 0 0 0 -43.164696585674619 -20.206135962529515 0 -20.206135962529515 184.21967836210888 0 0 0 0 42.150781757314235 -21.896906330252023 0 -21.896906330252023 43.398027345814626 0 0 0 0 36.362334879986975 35.460900112942909 0 35.460900112942909 10.342385927233408 0 0 0 0 -6.427304578584276 5.8516720006899163 0 5.8516720006899163 4.7066413624638415 0 0 0 0 -19.030731847691641 6.3958935071277665 0 6.3958935071277665 12.291373181011295 0 0 0 0 -30.222400791956773 26.196748945345462 0 26.196748945345462 117.95670887226879 0 0 0 0 40.352050395600259 18.153598395987501 0 18.153598395987501 13.248626486623834 0 0 0 0 50.815126592279114 -2.9930584614594409 0 -2.9930584614594409 28.765310083716031 0 0 0 0 -68.730519665734363 218.11319789486242 0 218.11319789486242 371.60200386904035 0 0 0 0 1.7191578287837648 9.7520786448265611 0 9.7520786448265611 22.224289926790789 0 0 0 0 -61.805058897310232 -338.56293436813758 0 -338.56293436813758 1311.4513521014014 0 0 0 0 169.85493815457548 -311.56113698740955 0 -311.56113698740955 261.21487258084017 0 0 0 0 -0.38966096225850966 5.713528771974552 0 5.713528771974552 18.743580543901047 0 0 0 0 54.201775714693099 -299.81894002210447 0 -299.81894002210447 935.72255339505864 0 0 0 0 686.5405565952592 -932.7473923618345 0 -932.7473923618345 976.90640040547441 0 0 0 0 -47.65445267898891 -1004.6835475280104 0 -1004.6835475280104 2500.1663606656221 0 0 0 0 220.26577694864574 -820.6265474083375 0 -820.6265474083375 2048.738761346307 0 0 0 0 -379.42636719461126 -533.70212632372204 0 -533.70212632372204 2031.6951729811772 0 0 0 0 -353.28137641924445 -544.46722223780671 0 -544.46722223780671 1880.582070020333 0 0 0 0 -240.14151658757396 -121.52127110866786 0 -121.52127110866786 1495.7657489058838 0 0 0 0 -261.07839490654686 -237.90804128010586 0 -237.90804128010586 1965.0706156784072 0 0 0 0 -488.5507105421662 -315.437927079769 0 -315.437927079769 2499.6849107639828 0 0 0 0 -290.74115236279931 -158.46142148100625 0 -158.46142148100625 2022.5958019702775 0 0 0 0 -260.09018735712692 -25.70304909642482 0 -25.70304909642482 2499.1677551711182 0 0 0 0 -114.17269474219768 198.01386395205918 0 198.01386395205918 1277.3551849362775 0 0 0 0 -105.23270932695152 83.647406188823879 0 83.647406188823879 1965.9479584655201 0 0 0 0 121.5547033566462 -147.39265855830308 0 -147.39265855830308 512.53807790714563 0 0 0 0 131.4840346125946 107.69309391948991 0 107.69309391948991 465.41800509643008 0 0 0 0 70.670965771606049 -148.09127171130604 0 -148.09127171130604 0.44189397169975564 0 0 0 0 329.69859867971098 -4.6569501781941653 0 -4.6569501781941653 -69.2351370594115 0 0 0 0 -284.33057199127938 55.144453743427221 0 55.144453743427221 99.736261743568321 0 0 0 0 169.32465134376986 -167.62908861038522 0 -167.62908861038522 82.697334491553192 0 0 0 0 -0.19461101826362406 1.1363083077676324 0 1.1363083077676324 19.066670761214425 0 0 0 0 231.17218939194626 128.12434043050962 0 128.12434043050962 -108.43422626410756 0 0 0 0 223.58383976688975 -122.17861396880471 0 -122.17861396880471 138.69366922772315 0 0 0 0 -116.05771736920545 95.997139116963808 0 95.997139116963808 19.15388835284466 0 0 0 0 320.94221640914679 624.49047892624912 0 624.49047892624912 590.22165710810805 0 0 0 0 62.308759936561927 -423.12544601306035 0 -423.12544601306035 678.56270907448925 0 0 0 0 0.22886814494730462 0.80659373742036777 0 0.80659373742036777 8.7133881134089677 0 0 0 0 216.77316458216637 117.45635108959686 0 117.45635108959686 1958.1736725540159 0 0 0 0 51.215878909183822 524.93923424826698 0 524.93923424826698 1861.1853618980313 0 0 0 0 -246.72320622617826 554.22631353943143 0 554.22631353943143 2500.3456503702619 0 0 0 0 -23.430699635035403 21.42221486037306 0 21.42221486037306 711.47561625438539 0 0 0 0 -128.19700737870357 168.25604206038406 0 168.25604206038406 2049.1172106296799 0 0 0 0 -63.25811273593439 290.75818375342715 0 290.75818375342715 1621.7675120683725 0 0 0 0 81.603830603530866 245.95333483136346 0 245.95333483136346 438.25145397269807 0 0 0 0 -148.88462819600164 706.67896162548914 0 706.67896162548914 1449.6462446387304 0 0 0 0 -145.07642700212995 735.76192402301604 0 735.76192402301604 1668.8935996990313 0 0 0 0 62.190165465190304 1408.2019964007559 0 1408.2019964007559 2495.9111399172157 0 0 0 0 333.271155583878 273.31886628297798 0 273.31886628297798 96.108458857765072 0 0 0 0 247.97914432215009 707.28106282696172 0 707.28106282696172 1318.5931770534662 0 0 0 0 83.410963049438934 -38.020795455060579 0 -38.020795455060579 -29.70343563563074 0 0 0 0 -142.98638328513965 -59.079750573302135 0 -59.079750573302135 372.35851708344126 0 0 0 0 1.7085541048024595 39.617767325660679 0 39.617767325660679 497.19685438431043 0 0 0 0 60.820823150263948 88.736132195936079 0 88.736132195936079 664.873574967678 0 0 0 0 127.29212490516072 -24.597457148040121 0 -24.597457148040121 146.60690721505671 0 0 0 0 -86.09854184755028 -123.01396022577683 0 -123.01396022577683 161.94477023198124 0 0 0 0 183.34245368913997 -124.45551263896778 0 -124.45551263896778 6.921848176541971 0 0 0 0 73.744479750793573 13.051695727997867 0 13.051695727997867 -78.895891114068263 0 0 0 0 129.23916846007023 -49.548478348755452 0 -49.548478348755452 -151.9557861943249 0 0 0 0 178.63364754279738 26.280028446606593 0 26.280028446606593 -79.460382556600962 0 0 0 0 5.5427135353835979 2.9939007695429609 0 2.9939007695429609 -78.043861966303666 0 0 0 0 -48.980667010944053 -207.19324809143836 0 -207.19324809143836 -356.68693530160817 0 0 0 0 -0.52884755252185001 -2.441682921342732 0 -2.441682921342732 18.261451798328949 0 0 0 0 -24.455787930388567 -46.981649916746392 0 -46.981649916746392 -28.181993690501258 0 0 0 0 7.6205726720167677 -31.565132054237637 0 -31.565132054237637 56.798448649711247 0 0 0 0 -65.459311990139327 -259.00578444551138 0 -259.00578444551138 -53.201149369511313 0 0 0 0 2.2067114995243173 1.3281570690560329 0 1.3281570690560329 47.556110755818736 0 0 0 0 -67.329808620397671 -54.894705251492269 0 -54.894705251492269 42.39905853576056 0 0 0 0 -0.65446563647265499 -12.764934586887122 0 -12.764934586887122 32.494621302884127 0 0 0 0 4.4037747668493523 -91.400411737704417 0 -91.400411737704417 -95.422482278256211 0 0 0 0 6.3536450031533604 -2.5630385611948441 0 -2.5630385611948441 38.846425871517567 0 0 0 0 3.920823724890397 3.8563314768052805 0 3.8563314768052805 44.862618977604143 0 0 0 0 -2.9744998297678116 -9.5506010297494157 0 -9.5506010297494157 37.193989447853482 0 0 0 0 -1.6062720410621978 -6.2511978816255578 0 -6.2511978816255578 42.733175163040869 0 0 0 0 -9.7008287706906629 -2.1615856530497695 0 -2.1615856530497695 54.149433854348899 0 0 0 0 -7.8796393044807189 -11.246068443613694 0 -11.246068443613694 58.980086802599544 0 0 0 0 -0.63619175908064285 -4.0143516365363467 0 -4.0143516365363467 15.685352908589195 0 0 0 0 4.2237212937941599 -25.672317216469068 0 -25.672317216469068 64.052126097301112 0 0 0 0 -6.975489163528664 -18.114557864762901 0 -18.114557864762901 97.661371123351273 0 0 0 0 -12.776419333011063 -26.516666759463988 0 -26.516666759463988 101.81083408010636 0 0 0 0 -4.7441803172399242 7.7723744676940498 0 7.7723744676940498 35.368998303240687 0 0 0 0 10.812899921310816 2.4415039278792392 0 2.4415039278792392 40.702862801619631 0 0 0 0 -0.70582480707736295 0.81734486486629976 0 0.81734486486629976 47.989790088890004 0 0 0 0 9.4508441688165021 6.0911294928519055 0 6.0911294928519055 54.431963384915434 0 0 0 0 7.4979445319452722 42.752883677779067 0 42.752883677779067 78.919128121968242 0 0 0 0 1.5178879075323715 17.029501760561217 0 17.029501760561217 23.24344483822594 0 0 0 0 0.17981702072279404 -26.799060805562476 0 -26.799060805562476 108.18421850101731 0 0 0 0 56.854062883792956 -59.881086345376389 0 -59.881086345376389 108.59749369988276 0 0 0 0 87.581750428007325 14.221158419935819 0 14.221158419935819 99.954169335982442 0 0 0 0 -3.2836586498811897 -23.944692054061306 0 -23.944692054061306 180.87559143376711 0 0 0 0 49.58998561954791 -126.2706822710565 0 -126.2706822710565 70.873222021618858 0 0 0 0 0.56223266307882747 3.3816397721994349 0 3.3816397721994349 7.8080008729005215 0 0 0 0 34.600557949314862 4.9121569899434689 0 4.9121569899434689 40.327867172949482 0 0 0 0 48.895325136404352 -5.570391711746197 0 -5.570391711746197 41.284736935980618 0 0 0 0 7.5064714908716468 36.247991526743419 0 36.247991526743419 167.27265024394728 0 0 0 0 11.402933527589084 42.207398247934179 0 42.207398247934179 14.593110678557423 0 0 0 0 -0.24046429302487973 3.7146933561885285 0 3.7146933561885285 -0.23982834034450207 0 0 0 0 9.9200152867965681 -19.116829955705271 0 -19.116829955705271 36.852964805017109 0 0 0 0 -4.7701582209261897 2.4796357453504072 0 2.4796357453504072 28.074234542517388 0 0 0 0 -121.9738565228165 -200.87068170011389 0 -200.87068170011389 -40.784517418476753 0 0 0 0 -53.284687481283186 4.88305003480491 0 4.88305003480491 27.817739736630756 0 0 0 0 -0.6493024215799359 0.29431810022822447 0 0.29431810022822447 19.277273501633772 0 0 0 0 -221.13805530158947 -109.29566412491477 0 -109.29566412491477 226.19552026857855 0 0 0 0 -211.23018928616651 -77.976881359425533 0 -77.976881359425533 -3.8834667673654621 0 0 0 0 -14.16922563535276 10.356511265361405 0 10.356511265361405 7.8740329644060694 0 0 0 0 -2.3751471559865536 -0.82446501913933901 0 -0.82446501913933901 5.4650018550432975 0 0 0 0 -3.1358914226818015 -3.3051498714776244 0 -3.3051498714776244 22.889614379659179 0 0 0 0 -6.155041513147621 5.6278952463690075 0 5.6278952463690075 10.176912156923208 0 0 0 0 -3.9027436387190124 -7.4739111857745897 0 -7.4739111857745897 27.333429472776345 0 0 0 0 12.269532825027714 -12.444622327464458 0 -12.444622327464458 16.833475596591597 0 0 0 0 0.3004839752759878 10.100595399244412 0 10.100595399244412 -23.422837471727689 0 0 0 0 14.216145821721728 -30.930312232916549 0 -30.930312232916549 -20.493215058391797 0 0 0 0 56.333462907485462 -2.2752006421615079 0 -2.2752006421615079 -91.79069305943267 0 0 0 0 55.457390647774936 27.382755387045904 0 27.382755387045904 -22.627798633293423 0 0 0 0 273.20101992698261 203.77131259851012 0 203.77131259851012 -97.407944750884781 0 0 0 0 269.73088693971113 -382.49639965449023 0 -382.49639965449023 287.19341300918677 0 0 0 0 151.56904046359503 -141.98144713125839 0 -141.98144713125839 -0.01307688371889526 0 0 0 0 311.38709136704006 -89.738299990272935 0 -89.738299990272935 -59.621038461430089 0 0 0 0 12.013301900164095 137.84105812148482 0 137.84105812148482 -11.302017225665963 0 0 0 0 3.1098911496873494 9.6401112129998623 0 9.6401112129998623 24.482646971292013 0 0 0 0 102.07206132119973 101.7403571284085 0 101.7403571284085 191.5705904809729 0 0 0 0 -39.285142137074217 61.124730370152975 0 61.124730370152975 293.34010256660986 0 0 0 0 0.36967831714462474 -1.9276666963560771 0 -1.9276666963560771 2.8282584769906691 0 0 0 0 -20.376304120230088 -4.9782304304917488 0 -4.9782304304917488 201.14276517220424 0 0 0 0 41.543515949562789 23.457123967440566 0 23.457123967440566 105.06123963335995 0 0 0 0 57.398434653445292 45.370670750548015 0 45.370670750548015 146.32763618188619 0 0 0 0 59.918160005627669 57.845353023025382 0 57.845353023025382 152.34198162135726 0 0 0 0 116.20948429178463 51.613170795941187 0 51.613170795941187 165.60007655268419 0 0 0 0 105.65887441236782 49.839641942860908 0 49.839641942860908 95.641215328898397 0 0 0 0 123.60388311330098 83.846242930099834 0 83.846242930099834 154.24784635410106 0 0 0 0 4.6345855395300157 -0.2731918684742709 0 -0.2731918684742709 4.7365820661658269 0 0 0 0 151.02708441900995 243.07654528468265 0 243.07654528468265 356.68674752440711 0 0 0 0 70.092747698647145 155.40704866294982 0 155.40704866294982 435.13778900542093 0 0 0 0 193.19133545905288 69.387664796817262 0 69.387664796817262 44.069064357710886 0 0 0 0 182.83999403153791 65.730740066119324 0 65.730740066119324 115.1500389874127 0 0 0 0 310.0485982888822 288.444379913788 0 288.444379913788 133.15270580387732 0 0 0 0 392.01340908876358 252.31269140781569 0 252.31269140781569 -134.67144516282133 0 0 0 0 332.28829091538148 -41.591852473608014 0 -41.591852473608014 -253.3026868637171 0 0 0 0 255.38820074603132 67.330835872198804 0 67.330835872198804 57.073038539681875 0 0 0 0 266.55821185486411 68.227686893966165 0 68.227686893966165 -1.1468238625238882 0 0 0 0 121.27873767582469 -99.898108286863135 0 -99.898108286863135 1.0864026900599129 0 0 0 0 126.18628141218414 -70.423577429864963 0 -70.423577429864963 46.574921121682564 0 0 0 0 172.34875600636724 -37.042861705092946 0 -37.042861705092946 -43.544509215833386 0 0 0 0 157.14874668739117 36.716264558773219 0 36.716264558773219 63.906983371416572 0 0 0 0 67.956278858005135 -41.148703993949312 0 -41.148703993949312 65.397619020424827 0 0 0 0 58.851938770809511 -60.57153734356325 0 -60.57153734356325 159.96025404206739 0 0 0 0 57.356726848137441 12.367892067179127 0 12.367892067179127 79.564279359321517 0 0 0 0 86.246331935874878 9.0149417304801318 0 9.0149417304801318 55.874935643252684 0 0 0 0 122.79797387097642 11.583736715896521 0 11.583736715896521 52.395423199690413 0 0 0 0 74.803524674113817 42.316025137563884 0 42.316025137563884 94.022485760840937 0 0 0 0 75.120567484178991 44.516963010573818 0 44.516963010573818 93.223173246282386 0 0 0 0 0.856673859383136 33.557706638106538 0 33.557706638106538 113.730029108905 0 0 0 0 21.257554527004903 28.603589235874217 0 28.603589235874217 64.533251085774978 0 0 0 0 39.566456251784075 14.895213680756569 0 14.895213680756569 69.732743400796608 0 0 0 0 19.492547521234528 36.79100905474165 0 36.79100905474165 73.647347945453291 0 0 0 0 35.453791831062063 48.727583795902319 0 48.727583795902319 64.007408424249206 0 0 0 0 -117.79627672557399 95.965471162862741 0 95.965471162862741 85.570015565797803 0 0 0 0 -16.29273957508849 99.144610740636381 0 99.144610740636381 10.580761923069076 0 0 0 0 -55.784663477623326 181.55198272723374 0 181.55198272723374 -81.184485788224265 0 0 0 0 -42.292057911865413 83.735613864984771 0 83.735613864984771 -71.251765457437614 0 0 0 0 -15.810967523631859 6.9105727064536993 0 6.9105727064536993 27.255234767820298 0 0 0 0 79.92254000968569 76.399221221778134 0 76.399221221778134 -4.695685371530999 0 0 0 0 43.555423473095289 115.18007279131416 0 115.18007279131416 -33.13034184735443 0 0 0 0 39.972607205915665 104.73002891777287 0 104.73002891777287 -9.6433320200630988 0 0 0 0 83.809607895847876 81.787606906953442 0 81.787606906953442 -30.933055317094841 0 0 0 0 32.633196779370337 61.679628639343719 0 61.679628639343719 6.0521775714037176 0 0 0 0 39.210513270705633 53.174705418586655 0 53.174705418586655 -12.977732190567622 0 0 0 0 27.816132704087067 81.233756004876341 0 81.233756004876341 8.3808338852068118 0 0 0 0 93.007202637404589 -16.198296761525853 0 -16.198296761525853 -40.599795928708772 0 0 0 0 35.072991581886725 -2.1787088299017299 0 -2.1787088299017299 13.093941187026395 0 0 0 0 25.664124229400386 8.5299384548688977 0 8.5299384548688977 111.00055797117966 0 0 0 0 20.442759608188226 37.023867102410804 0 37.023867102410804 111.16155469129444 0 0 0 0 26.394857242751641 7.2388729439553572 0 7.2388729439553572 42.416337407723404 0 0 0 0 11.553083608387604 -10.275055261600663 0 -10.275055261600663 17.215235089776407 0 0 0 0 27.648766943339311 -6.9658422704305849 0 -6.9658422704305849 30.896969784153043 0 0 0 0 20.807288486016887 5.8601238086339436 0 5.8601238086339436 42.149669576196175 0 0 0 0 11.669804313855966 10.671459067005697 0 10.671459067005697 35.15782225305027 0 0 0 0 41.871278659283519 -1.1646766095936982 0 -1.1646766095936982 33.099733836454106 0 0 0 0 -185.36039747840641 -3.6923240674059343 0 -3.6923240674059343 393.0577057650662 0 0 0 0 -2.8762019594068988 -3.9537508653374971 0 -3.9537508653374971 14.208965358542628 0 0 0 0 -1.0258537847003026 -4.2315161710521352 0 -4.2315161710521352 13.938268775957113 0 0 0 0 -2.0449747962428795 -2.2181913761456755 0 -2.2181913761456755 15.6812407624004 0 0 0 0 2.0071438093618781 -2.3183561618534441 0 -2.3183561618534441 13.197844135571358 0 0 0 0 -2.0208148522560805 -2.1671451282404632 0 -2.1671451282404632 13.220761859294726 0 0 0 0 -1.6182979461548967 1.5813496127354174 0 1.5813496127354174 11.857624521649171 0 0 0 0 -19.35050535683331 25.215903468440956 0 25.215903468440956 33.068395576755393 0 0 0 0 -7.7933744309057147 -1.1498972625495298 0 -1.1498972625495298 25.393288105744432 0 0 0 0 -8.6095767477381742 -2.1187598251472082 0 -2.1187598251472082 25.004656069912016 0 0 0 0 10.919172443343996 39.324958321201848 0 39.324958321201848 128.4353846334925 0 0 0 0 113.38753478004583 -24.004939572992043 0 -24.004939572992043 48.419359770290612 0 0 0 0 -0.29560672351400896 -5.3228785932260578 0 -5.3228785932260578 12.12944033209007 0 0 0 0 -3.8194464896296267 -150.63698321908305 0 -150.63698321908305 -42.217491380431639 0 0 0 0 -0.88120816567657556 -3.4093916020651669 0 -3.4093916020651669 4.3706443997016819 0 0 0 0 29.200546534984824 19.736787326100966 0 19.736787326100966 39.92436425924825 0 0 0 0 -3.0887513973048044 63.000978534417754 0 63.000978534417754 222.38395412462705 0 0 0 0 -30.513478295550158 -42.159794347297066 0 -42.159794347297066 165.05852852483622 0 0 0 0 -46.657030326499807 34.118687040227087 0 34.118687040227087 272.88933648382954 0 0 0 0 -56.458036805146548 94.245646389807007 0 94.245646389807007 348.47846577552627 0 0 0 0 -53.135268908336002 88.602834493344744 0 88.602834493344744 306.5916590255656 0 0 0 0 6.3595590825461841 92.345807363315544 0 92.345807363315544 278.86569474964926 0 0 0 0 -18.791548051540303 35.165042324044407 0 35.165042324044407 202.20581854449847 0 0 0 0 -51.045724631308985 14.698430765593002 0 14.698430765593002 344.47672624465486 0 0 0 0 36.358353131736294 -4.0198883934863261 0 -4.0198883934863261 6.3723912210698472 0 0 0 0 31.557517220260706 62.32246574693454 0 62.32246574693454 192.00514178660887 0 0 0 0 38.179537034977329 -19.839777579324618 0 -19.839777579324618 -582.87017414982256 0 0 0 0 -220.66737487396313 510.90587411254091 0 510.90587411254091 -797.55291987324745 0 0 0 0 65.503247164968343 -110.10319144140885 0 -110.10319144140885 -284.70232197695077 0 0 0 0 19.817404323212031 -40.894066785573159 0 -40.894066785573159 177.00077737764514 0 0 0 0 -63.958211679077067 -55.896582854278677 0 -55.896582854278677 180.20792897358251 0 0 0 0 -234.26872345624361 1.7601543900364049 0 1.7601543900364049 664.73524460102271 0 0 0 0 -198.79299006295332 -355.15953538467875 0 -355.15953538467875 156.49803062423962 0 0 0 0 0.58915328827962554 -1.0724534061807915 0 -1.0724534061807915 4.3657339098382906 0 0 0 0 198.93267239067791 365.42253650498969 0 365.42253650498969 489.13485630856303 0 0 0 0 179.11151679205796 167.68520699729925 0 167.68520699729925 -40.553501996546572 0 0 0 0 10.74143251485475 124.31790157281648 0 124.31790157281648 207.50206865272412 0 0 0 0 -17.553709198015895 23.285892098932436 0 23.285892098932436 151.41542310561999 0 0 0 0 140.49786517212124 37.538831972646221 0 37.538831972646221 -390.54621669326662 0 0 0 0 21.937417555092345 18.814995053700464 0 18.814995053700464 24.279230983835518 0 0 0 0 9.9206452458265062 21.652629224751195 0 21.652629224751195 60.466226474013524 0 0 0 0 -189.06175821679062 438.85128667110075 0 438.85128667110075 716.74233163510144 0 0 0 0 48.477045825261257 30.675707900536509 0 30.675707900536509 65.37762422438027 0 0 0 0 -4.7941758808683517 -4.5430376291587891 0 -4.5430376291587891 90.539058060669049 0 0 0 0 34.112862380042174 -24.563929870706488 0 -24.563929870706488 72.336278316797689 0 0 0 0 44.600635816299928 -41.979142889536888 0 -41.979142889536888 90.704532174015185 0 0 0 0 38.096612082948923 -7.8721002908132505 0 -7.8721002908132505 56.920341323755565 0 0 0 0 10.318039060253795 36.896894939964113 0 36.896894939964113 51.142942890142876 0 0 0 0 -16.726705216267874 4.7114193703819183 0 4.7114193703819183 133.65434795824694 0 0 0 0 -61.99676429324245 57.536948110886442 0 57.536948110886442 107.97775595114217 0 0 0 0 -45.053824947202884 13.001561150333146 0 13.001561150333146 89.079440481305937 0 0 0 0 2.1999077355317525 22.482066950750031 0 22.482066950750031 75.237879310665519 0 0 0 0 -40.943009521679414 30.297341965939268 0 30.297341965939268 150.02738266452798 0 0 0 0 -231.88858661336894 7.9173831740943115 0 7.9173831740943115 117.37234607642313 0 0 0 0 -34.466528290995484 -68.533026974288077 0 -68.533026974288077 88.433206868341586 0 0 0 0 -181.82776145400203 -207.2000651158196 0 -207.2000651158196 -36.528983224747208 0 0 0 0 -38.109953420695092 -80.616143939323592 0 -80.616143939323592 57.287999350734026 0 0 0 0 -97.529878075438319 -69.751823357692047 0 -69.751823357692047 113.08493859626833 0 0 0 0 -132.27130918726471 -113.38213640412869 0 -113.38213640412869 92.663028525741538 0 0 0 0 -35.993781564362507 91.622370945824514 0 91.622370945824514 94.959462117112707 0 0 0 0 -156.32176970807086 -67.251974760132725 0 -67.251974760132725 122.49718400441634 0 0 0 0 -5.7012646565991805 -1.5152334568755776 0 -1.5152334568755776 29.387025765161169 0 0 0 0 -8.596616425571483 6.7575879266205447 0 6.7575879266205447 39.494374511689784 0 0 0 0 -12.138613631375847 -2.4634604685452359 0 -2.4634604685452359 26.48064705001525 0 0 0 0 -10.07422985986193 -1.1098620246225579 0 -1.1098620246225579 7.7587610689615136 0 0 0 0 0.4296056790874907 -4.3661945202191035 0 -4.3661945202191035 -1.8487563473215261 0 0 0 0 96.411255704835639 119.80645872648893 0 119.80645872648893 260.91852049611043 0 0 0 0 -45.474458403953577 32.667525082550128 0 32.667525082550128 71.189869058814111 0 0 0 0 -10.895312354721682 5.1025671447459899 0 5.1025671447459899 43.261667328231852 0 0 0 0 -1.2350214952677945 2.9491879242528682 0 2.9491879242528682 11.573623193751303 0 0 0 0 -76.991071772339637 89.335708752812934 0 89.335708752812934 -30.810723439179128 0 0 0 0 -16.103031437402024 -21.212671315654916 0 -21.212671315654916 1.2821961684312555 0 0 0 0 -19.049840641873985 -9.6043158437757157 0 -9.6043158437757157 29.840218324472772 0 0 0 0 -27.699125859984633 57.868675854319008 0 57.868675854319008 59.838310817132879 0 0 0 0 35.037634934529706 7.569440717343241 0 7.569440717343241 79.663104327453766 0 0 0 0 40.182962168066297 11.580839519956498 0 11.580839519956498 65.30039253297582 0 0 0 0 54.125862706510816 19.238575310300803 0 19.238575310300803 49.539267811334867 0 0 0 0 20.28917349254516 46.926657372197951 0 46.926657372197951 30.252059178839772 0 0 0 0 10.925039464213114 35.202055019202817 0 35.202055019202817 84.680818236462073 0 0 0 0 6.5674333411188854 34.197951002090122 0 34.197951002090122 59.757889733220509 0 0 0 0 28.863468284243936 11.915231414310256 0 11.915231414310256 69.700485365727218 0 0 0 0 10.082274944914388 34.159190365084214 0 34.159190365084214 60.017522310263303 0 0 0 0 21.4234087870027 6.6726384168723598 0 6.6726384168723598 76.314548914364423 0 0 0 0 18.620640671279943 7.0751488602400059 0 7.0751488602400059 79.109835051604023 0 0 0 0 33.666250258008404 -18.643539613891335 0 -18.643539613891335 103.52797141052724 0 0 0 0 49.666956450863836 -22.38033470591472 0 -22.38033470591472 92.171335493705556 0 0 0 0 31.279543566743008 0.86550311141809289 0 0.86550311141809289 111.96715541233789 0 0 0 0 31.35769200939194 -19.16340624842087 0 -19.16340624842087 116.67526035907213 0 0 0 0 6.0062153665457139 38.694710004706096 0 38.694710004706096 46.370017472818034 0 0 0 0 29.046438520766969 -30.851237461218261 0 -30.851237461218261 232.26948447685572 0 0 0 0 94.032017193321735 56.418554974407016 0 56.418554974407016 145.59655875641329 0 0 0 0 130.11743926405143 3.2662147054434172 0 3.2662147054434172 92.513854037271813 0 0 0 0 90.793011463685616 -12.710126907026279 0 -12.710126907026279 86.028620657307329 0 0 0 0 22.84678658644043 26.340590703399357 0 26.340590703399357 132.88844989467179 0 0 0 0 24.001788624371329 20.170360993695795 0 20.170360993695795 78.869495328166522 0 0 0 0 10.608479554792211 -2.4139950427852455 0 -2.4139950427852455 125.28112878391403 0 0 0 0 4.7506794484634156 -5.2500914906704566 0 -5.2500914906704566 222.6741458979086 0 0 0 0 18.060057241510005 13.104749656477651 0 13.104749656477651 19.2926695948264 0 0 0 0 48.485752714521823 -32.08905000060804 0 -32.08905000060804 112.85120771241054 0 0 0 0 127.47928342459636 -61.49987415857322 0 -61.49987415857322 119.10074117413023 0 0 0 0 0.35720493614908655 10.365317194978893 0 10.365317194978893 15.258212787795884 0 0 0 0 42.435145719176262 -0.64577248156274436 0 -0.64577248156274436 38.847718594450271 0 0 0 0 21.809766127745206 -18.864124021714815 0 -18.864124021714815 64.952936933237652 0 0 0 0 15.034987470368435 -39.912003392222687 0 -39.912003392222687 55.822836909421312 0 0 0 0 8.6002472586872045 3.5313162067250232 0 3.5313162067250232 115.65945609102528 0 0 0 0 7.3466179419413002 -18.845129309755038 0 -18.845129309755038 64.29503546778443 0 0 0 0 14.81659938429982 9.392916653505381 0 9.392916653505381 112.73575666303805 0 0 0 0 12.973909806159298 5.0900912856359355 0 5.0900912856359355 105.59113193763187 0 0 0 0 6.5041547466851739 0.11272214745622477 0 0.11272214745622477 111.40314593596122 0 0 0 0 3.3224406646688465 -20.906171495880699 0 -20.906171495880699 84.066424461198039 0 0 0 0 3.6889437339657718 -17.87718757159746 0 -17.87718757159746 105.6590453264289 0 0 0 0 7.7218066625840365 -26.920985524688149 0 -26.920985524688149 123.54528886074695 0 0 0 0 -24.565891729919542 1.3810271716902207 0 1.3810271716902207 140.01433386783174 0 0 0 0 0.53217818442891485 10.693974039997556 0 10.693974039997556 107.28968170512962 0 0 0 0 -11.622383338667959 20.977284514323401 0 20.977284514323401 99.222354738711147 0 0 0 0 -37.41147950243672 36.246920009980386 0 36.246920009980386 98.007973625944032 0 0 0 0 41.025963607671656 -14.720129498935421 0 -14.720129498935421 102.57959129957453 0 0 0 0 26.276036117729632 8.9666162161447573 0 8.9666162161447573 104.32032021416671 0 0 0 0 0.098238896824113908 -22.870730143040419 0 -22.870730143040419 98.774881407742214 0 0 0 0 19.926767094374554 -1.5011041291054426 0 -1.5011041291054426 88.385856409477128 0 0 0 0 -3.8349784871538914 32.868345253844367 0 32.868345253844367 40.697373732317104 0 0 0 0 1.7344694469056559 -15.091752387226784 0 -15.091752387226784 63.94215162335405 0 0 0 0 4.6066956809427211 -3.8041169031785103 0 -3.8041169031785103 41.942136272293283 0 0 0 0 6.0778359689777517 -11.468401336152965 0 -11.468401336152965 118.3237556787135 0 0 0 0 12.292100700505031 11.15697264646613 0 11.15697264646613 29.485617271278187 0 0 0 0 -2.3109318702059416 18.504568512314549 0 18.504568512314549 30.724375992644639 0 0 0 0 35.894528572026502 -0.099125538654334377 0 -0.099125538654334377 23.375322428881191 0 0 0 0 -1.5304643932229767 -1.2191288338908208 0 -1.2191288338908208 11.394461292717125 0 0 0 0 21.79614126213437 16.264438604172028 0 16.264438604172028 52.467053173051681 0 0 0 0 13.854294866131152 15.744615764215155 0 15.744615764215155 7.0774003803993768 0 0 0 0 9.7285846233789925 8.7914963558068848 0 8.7914963558068848 64.961407108316052 0 0 0 0 -5.9620176346900289 -2.8597506589522013 0 -2.8597506589522013 41.406987613297076 0 0 0 0 145.95910465153082 -135.57463930956328 0 -135.57463930956328 567.20184859319124 0 0 0 0 49.245011743477107 190.49258174172428 0 190.49258174172428 -331.04207399651932 0 0 0 0 -2.2782417507987125 1.7186115596749403 0 1.7186115596749403 22.908475811076016 0 0 0 0 1.2544919007721091 5.4881866410505609 0 5.4881866410505609 39.003262221929617 0 0 0 0 -11.261447679743803 272.09058199300125 0 272.09058199300125 70.480415469646687 0 0 0 0 -149.66377345789988 56.001456342335587 0 56.001456342335587 396.97293556728982 0 0 0 0 79.626987560818122 -169.46029962611192 0 -169.46029962611192 206.97925962779846 0 0 0 0 138.53745783331945 -60.960080802513403 0 -60.960080802513403 35.759972016167012 0 0 0 0 -16.291285419909173 -66.703815723307343 0 -66.703815723307343 111.71228344111296 0 0 0 0 98.85010994551584 -64.953099494312482 0 -64.953099494312482 40.847423087237985 0 0 0 0 51.685354296413379 10.425285336956222 0 10.425285336956222 -7.3193804765323875 0 0 0 0 7.2777711559658655 -26.867195659091522 0 -26.867195659091522 25.471852273010882 0 0 0 0 4.4013715963822868 3.1025696633890405 0 3.1025696633890405 15.565123826156054 0 0 0 0 -4.8254266116430609 2.0569724033606818 0 2.0569724033606818 45.479356324480392 0 0 0 0 181.35594239123049 -26.265486889709791 0 -26.265486889709791 279.99680022748362 0 0 0 0 -7.8115932970831636 27.9515337793855 0 27.9515337793855 27.102794370104675 0 0 0 0 2.4801506785414613 -3.0770813435055757 0 -3.0770813435055757 0.358780678672872 0 0 0 0 108.23882040290709 326.63024175021565 0 326.63024175021565 -425.82048974407371 0 0 0 0 -10.362902407728143 22.710774994040548 0 22.710774994040548 49.999988401992596 0 0 0 0 3.6681934750185974 7.4641305085679051 0 7.4641305085679051 50.830825755016122 0 0 0 0 -150.68981507706724 100.7492641249809 0 100.7492641249809 155.44007473863894 0 0 0 0 -150.74975721927603 94.312669927816387 0 94.312669927816387 108.92707558185793 0 0 0 0 -0.71315608549062937 6.6973188627971254 0 6.6973188627971254 54.093971480659036 0 0 0 0 -1.4517875183437354 16.383273773131805 0 16.383273773131805 45.494098254643177 0 0 0 0 -14.161398117701538 14.16518532945156 0 14.16518532945156 57.543851852165972 0 0 0 0 2.2891730457244339 14.078874854306214 0 14.078874854306214 49.582388705867032 0 0 0 0 12.194927215226926 25.366330274925531 0 25.366330274925531 29.158611743696383 0 0 0 0 -69.347562588782239 120.28492223590729 0 120.28492223590729 23.869834404312314 0 0 0 0 -23.453931342841315 70.896577736933068 0 70.896577736933068 11.753290448396001 0 0 0 0 -3.9569165388129477 14.164090793048672 0 14.164090793048672 59.550053163136909 0 0 0 0 3.1851026671989366 17.720191819757808 0 17.720191819757808 47.622000284376782 0 0 0 0 9.6945148857139429 12.90938435553835 0 12.90938435553835 49.313664640270417 0 0 0 0 -3.652320614403834 24.945438029582874 0 24.945438029582874 101.56480012508109 0 0 0 0 11.705883843969787 41.406647762802095 0 41.406647762802095 58.1376006652863 0 0 0 0 3.6602337642027507 14.431487772388124 0 14.431487772388124 13.196052605730188 0 0 0 0 13.976514365538605 28.770817342592636 0 28.770817342592636 36.564758982349304 0 0 0 0 -14.284025254989501 24.72561074074838 0 24.72561074074838 63.827761127409758 0 0 0 0 -7.3941035572124747 3.9426594535616459 0 3.9426594535616459 44.967274875376461 0 0 0 0 -0.8564145115345525 14.241152186450314 0 14.241152186450314 17.91751977037023 0 0 0 0 7.5356831656499708 32.000355006563041 0 32.000355006563041 28.973441298641774 0 0 0 0 -1.7881487623112253 11.214623123424666 0 11.214623123424666 52.033896469478549 0 0 0 0 10.84044187795871 24.949000824234645 0 24.949000824234645 15.295038809868856 0 0 0 0 5.1921176988316802 13.225092987606331 0 13.225092987606331 19.347650473588146 0 0 0 0 -2.2056219672024753 2.4870634943988819 0 2.4870634943988819 8.2844866397122985 0 0 0 0 21.316548444303407 13.62927596665395 0 13.62927596665395 16.044079562085244 0 0 0 0 35.814344310010711 25.434985409967339 0 25.434985409967339 13.507080251045409 0 0 0 0 23.206152851608749 42.766139840747201 0 42.766139840747201 3.4161964080121834 0 0 0 0 1.6381762059827452 39.554053112748079 0 39.554053112748079 22.461183173807513 0 0 0 0 23.989341911830707 52.367481834931823 0 52.367481834931823 0.89115210845011461 0 0 0 0 46.706481919603902 24.548823579792952 0 24.548823579792952 11.157477786775416 0 0 0 0 178.02210573171033 -47.276159058214034 0 -47.276159058214034 81.977992457828805 0 0 0 0 36.311040384762236 52.893243929220262 0 52.893243929220262 60.121702498494415 0 0 0 0 2.0226086032453168 25.634777412349649 0 25.634777412349649 108.58310786631046 0 0 0 0 121.23851739503061 205.59811395997167 0 205.59811395997167 343.95181023224723 0 0 0 0 74.712013812650639 0.52619818697075971 0 0.52619818697075971 43.310620164193097 0 0 0 0 0.18892062565178236 -3.9162773815935594 0 -3.9162773815935594 10.272890977861977 0 0 0 0 34.171442370216937 19.844316835914469 0 19.844316835914469 38.564068533276441 0 0 0 0 47.594600222939334 24.345796321551461 0 24.345796321551461 20.036063617048057 0 0 0 0 -4.9543460747008794 -5.5572292928918614 0 -5.5572292928918614 22.51368291684048 0 0 0 0 -7.0442310788066607 -8.4988529500942604 0 -8.4988529500942604 19.081496127895662 0 0 0 0 45.837708798253516 -17.220488603908962 0 -17.220488603908962 2.3194641121408495 0 0 0 0 2.5644439433490334 -2.0263450632373861 0 -2.0263450632373861 17.843863845693704 0 0 0 0 1.0163504178061515 -2.0795223929606621 0 -2.0795223929606621 3.3017229520840772 0 0 0 0 159.53981760442184 -109.52787257768796 0 -109.52787257768796 64.918787808879642 0 0 0 0 20.863151053364163 -161.47795909624801 0 -161.47795909624801 236.20832172594237 0 0 0 0 -82.790890998745454 2.8724690532253589 0 2.8724690532253589 107.78276328215725 0 0 0 0 -3.7743781223939337 -11.924709195271358 0 -11.924709195271358 9.8378519155050981 0 0 0 0 -131.84924613552357 -60.394747225116589 0 -60.394747225116589 239.97517312948912 0 0 0 0 -62.857241988029273 -53.298951417655189 0 -53.298951417655189 235.9392524140876 0 0 0 0 -56.869052477579316 -63.634549276697726 0 -63.634549276697726 119.05270497356105 0 0 0 0 -17.78197160995478 -24.252079839701764 0 -24.252079839701764 31.888850147843186 0 0 0 0 -10.736764334837062 -20.876879255145468 0 -20.876879255145468 31.38841009666794 0 0 0 0 15.862321343913209 -66.041413094117161 0 -66.041413094117161 107.41100143526091 0 0 0 0 -5.9166162084948155 -8.3483394025934103 0 -8.3483394025934103 18.51642229528079 0 0 0 0 2.9225538803471487 -3.7320732989520948 0 -3.7320732989520948 33.980266903106099 0 0 0 0 9.8898759757339576 -12.949458844241235 0 -12.949458844241235 17.733383958555351 0 0 0 0 -7.2421669098330312 -7.4651776594546391 0 -7.4651776594546391 17.928109837164811 0 0 0 0 -3.1610136771159887 -7.7771910654228122 0 -7.7771910654228122 16.211095157446834 0 0 0 0 -1.0782655725779478 -6.4861249764690001 0 -6.4861249764690001 12.587162600739248 0 0 0 0 -1.7962909438319912 -0.63857989483767597 0 -0.63857989483767597 13.165835745653794 0 0 0 0 -5.5001350871835584 1.6534278475934538 0 1.6534278475934538 10.316425201226615 0 0 0 0 -9.2902591273159487 -0.89379921347244817 0 -0.89379921347244817 26.938421183505852 0 0 0 0 -6.5654756327222685 0.1168446475325311 0 0.1168446475325311 8.9568327307365383 0 0 0 0 -4.7187932538986388 2.554100115107758 0 2.554100115107758 17.438593907361792 0 0 0 0 -7.1004112745577004 -2.0685385363212845 0 -2.0685385363212845 25.915595906888484 0 0 0 0 -4.7514502934500342 0.92743589410019922 0 0.92743589410019922 14.581683607299055 0 0 0 0 -22.049447002664238 -16.630432721219222 0 -16.630432721219222 51.71023141691694 0 0 0 0 -24.002241608057375 -7.8066718947829941 0 -7.8066718947829941 28.014978640720074 0 0 0 0 -4.827365838586978 2.5106519911622467 0 2.5106519911622467 16.017056038855998 0 0 0 0 -2.7350454365459207 -0.8866140083522609 0 -0.8866140083522609 18.163314106278264 0 0 0 0 -8.7708591022383189 -9.1311007987842459 0 -9.1311007987842459 26.846582707294147 0 0 0 0 -26.131486668702564 0.55307648154848721 0 0.55307648154848721 22.582400628945834 0 0 0 0 -17.596332779656223 9.1476713737029058 0 9.1476713737029058 30.087935200186621 0 0 0 0 -0.19877962107970149 0.73324251493396275 0 0.73324251493396275 4.502213691222825 0 0 0 0 0.27925549170127795 -4.6217971852786874 0 -4.6217971852786874 22.817248667420571 0 0 0 0 7.4977578782418277 -11.26802237274751 0 -11.26802237274751 24.189561675666482 0 0 0 0 -4.4923474870335127 -0.34778665323322144 0 -0.34778665323322144 14.108366669197972 0 0 0 0 -5.1668883489819564 -5.364665988869092 0 -5.364665988869092 13.81136750546284 0 0 0 0 0.57383140400202137 43.78338569484913 0 43.78338569484913 -114.99461784189953 0 0 0 0 88.55810881336518 11.668469283304148 0 11.668469283304148 116.73015632001625 0 0 0 0 136.17338021325338 -43.752150565698685 0 -43.752150565698685 -21.225397155816609 0 0 0 0 50.755709430124398 -64.837853163455293 0 -64.837853163455293 38.179866344566108 0 0 0 0 69.455129122519224 -137.97757479953725 0 -137.97757479953725 88.008757167102885 0 0 0 0 16.404953303491538 -103.0509921512712 0 -103.0509921512712 119.14026567949622 0 0 0 0 -0.13595188203014991 -0.39554885731119249 0 -0.39554885731119249 4.6023501324212646 0 0 0 0 24.543680785112088 -204.96650057950683 0 -204.96650057950683 104.67224071964301 0 0 0 0 -127.64982528561544 -20.437954632892797 0 -20.437954632892797 581.36004986026092 0 0 0 0 73.947252962016023 -126.27751522191102 0 -126.27751522191102 -112.50772935975738 0 0 0 0 76.809974979057614 410.1397532330493 0 410.1397532330493 -2.9969524781336077 0 0 0 0 -65.055118538870047 9.7310934310226003 0 9.7310934310226003 509.03577267814399 0 0 0 0 -56.23022401116495 55.225934817572124 0 55.225934817572124 166.3192791796464 0 0 0 0 0.04223001441780018 13.964984657890454 0 13.964984657890454 117.22205988381756 0 0 0 0 40.393358422348108 42.38029696180638 0 42.38029696180638 -2.1115384627046296 0 0 0 0 7.7320637213867869 -59.289812289978727 0 -59.289812289978727 -103.18349836809193 0 0 0 0 -132.24226765583222 -34.087322489645885 0 -34.087322489645885 9.8086191548209172 0 0 0 0 -2.2474960733185263 3.5406779647273652 0 3.5406779647273652 -28.16425579044153 0 0 0 0 15.85604041525553 -42.413635198219708 0 -42.413635198219708 11.403569528828484 0 0 0 0 0.051437065222213162 -17.839584728207338 0 -17.839584728207338 90.939495919883484 0 0 0 0 -0.94172343770826927 -88.447065308652782 0 -88.447065308652782 83.912848539563129 0 0 0 0 -0.099631371110218594 0.12332562736177266 0 0.12332562736177266 3.9944456348397637 0 0 0 0 34.254471827945835 238.53213732997756 0 238.53213732997756 160.89396298529559 0 0 0 0 102.28231656688524 310.45191025822351 0 310.45191025822351 137.14156247228675 0 0 0 0 0.34482784051848858 -0.90339095328070584 0 -0.90339095328070584 4.7887869802417242 0 0 0 0 -75.179707886678784 -217.11098353360649 0 -217.11098353360649 224.70908037423942 0 0 0 0 -0.31438617562798044 -0.86308710566619062 0 -0.86308710566619062 8.4571262919465369 0 0 0 0 -346.95481804980483 -49.73189030064168 0 -49.73189030064168 205.77392833132035 0 0 0 0 189.5531704107575 178.76625299905936 0 178.76625299905936 249.41986944699602 0 0 0 0 288.04956021738326 -18.948527185661078 0 -18.948527185661078 11.308800964510738 0 0 0 0 -14.396514449671713 -17.975235225516371 0 -17.975235225516371 302.61593946284847 0 0 0 0 -14.315004725918214 -74.431272310777786 0 -74.431272310777786 86.625446473699412 0 0 0 0 14.005533492439383 -12.121551899981569 0 -12.121551899981569 86.454700071975822 0 0 0 0 10.597926459135806 -44.858060094382381 0 -44.858060094382381 126.84499551585759 0 0 0 0 5.2989380706985543 -36.845725297735953 0 -36.845725297735953 119.10702573775779 0 0 0 0 11.421098615854419 -14.185696435844875 0 -14.185696435844875 124.49223814216566 0 0 0 0 -10.078586656888149 -28.243885314233921 0 -28.243885314233921 147.88960810298158 0 0 0 0 39.494129429581363 5.6298296316817869 0 5.6298296316817869 149.3256957829276 0 0 0 0 55.837842298869987 57.538332714429998 0 57.538332714429998 190.79321379455541 0 0 0 0 70.792102927045335 46.781721341907542 0 46.781721341907542 105.35448486157111 0 0 0 0 -5.9773858178696742 -17.737861724406685 0 -17.737861724406685 214.77671116596321 0 0 0 0 0.4297292084560434 -0.077382179441030985 0 -0.077382179441030985 -0.92284669104699901 0 0 0 0 -22.942358664629424 -50.021617984159093 0 -50.021617984159093 205.7871989915875 0 0 0 0 -5.7367242827088774 -21.005589954285824 0 -21.005589954285824 115.77305723494305 0 0 0 0 -13.965435884663599 -34.286466793829277 0 -34.286466793829277 116.31520823726169 0 0 0 0 -38.340906341418361 -16.141897136876651 0 -16.141897136876651 146.56494200988709 0 0 0 0 -34.790315552229643 -21.332854614065582 0 -21.332854614065582 145.9795855295888 0 0 0 0 -45.213480293860847 19.252006535964028 0 19.252006535964028 124.73334965699905 0 0 0 0 -38.094136091756724 -15.927797271988311 0 -15.927797271988311 146.74980341804621 0 0 0 0 -108.59232184140083 5.6161305210262071 0 5.6161305210262071 162.80523662158521 0 0 0 0 -58.114800047124774 -0.75491109926952049 0 -0.75491109926952049 138.1801616574885 0 0 0 0 -43.633410082718804 -34.404446261744852 0 -34.404446261744852 147.81272421606991 0 0 0 0 93.210411206753591 -52.357285334554035 0 -52.357285334554035 134.90869874218333 0 0 0 0 -3.1992725265453146 -38.35956175980391 0 -38.35956175980391 143.10692348502926 0 0 0 0 -127.46477148887168 -10.142421906914024 0 -10.142421906914024 208.72953272431187 0 0 0 0 -162.24556078754949 109.7259899549972 0 109.7259899549972 72.994361644341552 0 0 0 0 -17.87115902346045 -34.985748015518766 0 -34.985748015518766 110.84883363858535 0 0 0 0 -95.990331147273395 152.7407548540541 0 152.7407548540541 -66.154011656122748 0 0 0 0 -3.0670917671106634 -3.404286104274405 0 -3.404286104274405 18.94275574301416 0 0 0 0 -38.465699646999681 45.255173439603823 0 45.255173439603823 50.811678195168497 0 0 0 0 60.647922056950051 4.8133158441451087 0 4.8133158441451087 144.92577012373658 0 0 0 0 24.043494591405064 19.218043715318345 0 19.218043715318345 145.02530959766591 0 0 0 0 31.838064603745636 27.319386019735248 0 27.319386019735248 143.84814187996562 0 0 0 0 81.2020269744269 58.992732096039617 0 58.992732096039617 162.26984642911702 0 0 0 0 0.67769969496691829 28.318117963128316 0 28.318117963128316 209.08883869847341 0 0 0 0 32.503576425967651 -73.295547879424703 0 -73.295547879424703 146.2038652039264 0 0 0 0 -24.013226612269932 -44.596374822634971 0 -44.596374822634971 135.84772474236524 0 0 0 0 -8.196651705507108 -38.483965341873045 0 -38.483965341873045 29.931565922946902 0 0 0 0 -34.688228982029386 -22.682441639812168 0 -22.682441639812168 162.51530976989307 0 0 0 0 -99.764714349110903 -54.234409914839489 0 -54.234409914839489 152.18698078456509 0 0 0 0 0.11724903079181315 -0.16115885997671242 0 -0.16115885997671242 1.8525122459432737 0 0 0 0 -1.1290860503893967 3.3422000001812426 0 3.3422000001812426 4.5267493193746589 0 0 0 0 13.233432749584267 27.11294308073775 0 27.11294308073775 6.7668094192922581 0 0 0 0 -91.534794238084743 32.164808228462789 0 32.164808228462789 29.933119486449868 0 0 0 0 -46.295603407956378 50.439215234859148 0 50.439215234859148 25.615441299715712 0 0 0 0 17.369559236529653 57.344463472531061 0 57.344463472531061 15.455526884077699 0 0 0 0 -4.4608170585510152 12.315271903593384 0 12.315271903593384 38.772878133037011 0 0 0 0 -4.4670999241400864 -0.99239055082944105 0 -0.99239055082944105 80.512328116848948 0 0 0 0 -21.459647723457579 -7.3687995580548886 0 -7.3687995580548886 89.45111847800581 0 0 0 0 -9.8083525495303547 -15.043039136886364 0 -15.043039136886364 86.057454266141576 0 0 0 0 -122.93825150211191 22.757357781192695 0 22.757357781192695 101.52118725480977 0 0 0 0 -31.751657914286255 15.712353396982508 0 15.712353396982508 79.266040585353039 0 0 0 0 -27.941705313777788 23.995945647722692 0 23.995945647722692 95.852999817470845 0 0 0 0 -2.3683785903561727 155.43975111060718 0 155.43975111060718 92.403229388066393 0 0 0 0 163.73009161277858 77.665983327751519 0 77.665983327751519 25.734349675476551 0 0 0 0 -17.573864912081298 37.095510146869401 0 37.095510146869401 72.855626484757522 0 0 0 0 -17.611066922646984 35.641695380421879 0 35.641695380421879 16.042807642897969 0 0 0 0 -86.290192582469899 108.0177478971018 0 108.0177478971018 10.91173094009855 0 0 0 0 -6.1983996729651825 14.024357999436035 0 14.024357999436035 23.991691473071242 0 0 0 0 -11.896532984338251 34.747625935648102 0 34.747625935648102 55.611217459663749 0 0 0 0 -69.670043917799831 73.055732570574037 0 73.055732570574037 12.70669179886454 0 0 0 0 -56.170017486545021 43.186507231665018 0 43.186507231665018 50.25090295769769 0 0 0 0 -96.606859092903051 85.480474293894076 0 85.480474293894076 60.10880807043759 0 0 0 0 -6.5044291477850038 7.6244067985971924 0 7.6244067985971924 75.509931881962984 0 0 0 0 -53.614990651414246 2.130866868486919 0 2.130866868486919 97.931263643804414 0 0 0 0 -31.161701401430946 -27.356344500294654 0 -27.356344500294654 70.571003488112183 0 0 0 0 -11.329062242367197 9.5871696059525675 0 9.5871696059525675 23.477194095874708 0 0 0 0 -53.987754577784798 17.681987728304193 0 17.681987728304193 42.738118590881641 0 0 0 0 -33.58517981736145 -13.274443522760521 0 -13.274443522760521 37.616684149477805 0 0 0 0 -27.466295472067713 -28.821264423550019 0 -28.821264423550019 71.142784976094845 0 0 0 0 -30.319126314281675 -31.284606656336109 0 -31.284606656336109 73.822118763309845 0 0 0 0 16.849510322949072 -47.55491209775937 0 -47.55491209775937 42.420698273977905 0 0 0 0 -34.481870316326194 -29.804234529448877 0 -29.804234529448877 73.295673567306949 0 0 0 0 16.10087414966074 22.671279957554361 0 22.671279957554361 -9.6998794069877476 0 0 0 0 -45.973540536421773 34.06315314112021 0 34.06315314112021 10.612565885414369 0 0 0 0 -3.9254341989262809 -5.5734829520968869 0 -5.5734829520968869 35.206905783823885 0 0 0 0 -47.543294796231322 55.461795010001879 0 55.461795010001879 -20.428304136381485 0 0 0 0 -10.265211318185379 -8.9433472545024415 0 -8.9433472545024415 39.496764699713822 0 0 0 0 -41.085890089117584 -1.4204940069575969 0 -1.4204940069575969 59.925475034251576 0 0 0 0 -0.33877339773300807 -1.7040139672083683 0 -1.7040139672083683 6.3838753493349714 0 0 0 0 -3.9384518867412339 24.213059440062352 0 24.213059440062352 -8.9995213090442121 0 0 0 0 -11.299785996257583 -4.4014580319926608 0 -4.4014580319926608 29.253981386667874 0 0 0 0 -31.538847292939352 10.337436581416114 0 10.337436581416114 23.481836868668324 0 0 0 0 -12.502224062984396 10.796381626474613 0 10.796381626474613 7.6417644051325624 0 0 0 0 8.6858091292149311 -1.8335529796167975 0 -1.8335529796167975 -4.4101560411863829 0 0 0 0 14.686931450308862 4.6047717649125843 0 4.6047717649125843 -4.2333242446238728 0 0 0 0 13.075978456870729 -5.1681482414005586 0 -5.1681482414005586 -23.53510248218663 0 0 0 0 12.765399551387759 10.158345932650263 0 10.158345932650263 2.2953005669332924 0 0 0 0 -2.4338550642761447 -7.5078388058027485 0 -7.5078388058027485 -3.4052455205091974 0 0 0 0 11.584054241482974 -2.8882619587766385 0 -2.8882619587766385 -9.2722821133502293 0 0 0 0 -23.516962941388044 -16.648848928667576 0 -16.648848928667576 -13.281285577439121 0 0 0 0 26.398160065764046 -22.489418733595812 0 -22.489418733595812 -45.515607701840054 0 0 0 0 52.911537160286002 9.6584690084710019 0 9.6584690084710019 -27.094519267388023 0 0 0 0 25.792964047442979 31.614353512675734 0 31.614353512675734 -13.181822003985872 0 0 0 0 2.8529608570869414 46.519510913323757 0 46.519510913323757 127.89454636703886 0 0 0 0 40.818421901716988 26.199462900249273 0 26.199462900249273 -11.482011711632367 0 0 0 0 76.221463443153937 70.753679149100208 0 70.753679149100208 35.016885908647964 0 0 0 0 -13.880119947006484 -121.00673512443063 0 -121.00673512443063 -89.792954845295753 0 0 0 0 90.919982051411353 18.160634224223031 0 18.160634224223031 -30.920028295357042 0 0 0 0 73.181683202553586 20.098937844959437 0 20.098937844959437 -20.258067015049164 0 0 0 0 169.28834546412668 209.15965350671468 0 209.15965350671468 139.67422993770742 0 0 0 0 -20.446794965813069 -182.18652721419858 0 -182.18652721419858 314.65505100616429 0 0 0 0 220.32440376446431 46.472436699938953 0 46.472436699938953 -177.65396036107268 0 0 0 0 -20.752755621676101 -4.5105894794833148 0 -4.5105894794833148 115.55400693640695 0 0 0 0 -17.56811434717963 51.140472940278414 0 51.140472940278414 425.27020796047509 0 0 0 0 59.420239313207652 -74.63933841396647 0 -74.63933841396647 47.249536595292739 0 0 0 0 -0.11287064255568971 -17.832890489626152 0 -17.832890489626152 239.10242258276412 0 0 0 0 -262.24293107231898 200.14329846082182 0 200.14329846082182 420.69528044039907 0 0 0 0 -0.0204405501800589 0.655882040618053 0 0.655882040618053 3.4332699944675653 0 0 0 0 89.233897459429542 -162.01490604122591 0 -162.01490604122591 278.21189756189051 0 0 0 0 -0.36009544743578392 0.79645639970483728 0 0.79645639970483728 7.3256143148640831 0 0 0 0 -9.932533128285133 3.4310882312092872 0 3.4310882312092872 31.825760003266623 0 0 0 0 -12.448876509694518 7.756484833524155 0 7.756484833524155 41.124599912604026 0 0 0 0 0.095139766647740279 9.3721152172074653 0 9.3721152172074653 25.330472365822061 0 0 0 0 -4.1922412762469108 -2.481249661592301 0 -2.481249661592301 1.5527932999830227 0 0 0 0 -151.08180839168608 -25.960148892525467 0 -25.960148892525467 6.1518981530753081 0 0 0 0 -19.690402994372732 -2.9025494630332105 0 -2.9025494630332105 -5.7225811212629196 0 0 0 0 -42.033362502704222 -2.4827369536287733 0 -2.4827369536287733 0.45757966554810992 0 0 0 0 -13.283458226649827 5.3797150957834674 0 5.3797150957834674 0.38113520966726355 0 0 0 0 -15.347805263565817 3.1995985564135481 0 3.1995985564135481 0.68284632620634511 0 0 0 0 -2.6145535804400377 6.9424966542428592 0 6.9424966542428592 0.93526168589778536 0 0 0 0 -0.029776477255436494 3.2854967302482692 0 3.2854967302482692 2.7248353583272547 0 0 0 0 -7.3627238672333704 4.9464156534231734 0 4.9464156534231734 5.2619856298842933 0 0 0 0 -46.430763196081259 12.380312286067237 0 12.380312286067237 6.218686113395961 0 0 0 0 -0.36852925313341817 0.2021724589029219 0 0.2021724589029219 7.7735084346766712 0 0 0 0 -4.8877450223848395 0.23980965682130773 0 0.23980965682130773 9.2229586417670362 0 0 0 0 -5.0272050318864174 -1.7919054325302568 0 -1.7919054325302568 7.3673301549279131 0 0 0 0 -1.0215701264158348 -1.3083556960918941 0 -1.3083556960918941 3.7580388107744511 0 0 0 0 -0.90582606288941114 1.0447666652039302 0 1.0447666652039302 1.1634461042652333 0 0 0 0 -40.619677478431527 -2.7398672419512877 0 -2.7398672419512877 -7.2447984544342034 0 0 0 0 -38.094874817930418 12.725315653347934 0 12.725315653347934 -2.9066244040441234 0 0 0 0 -38.245018803158473 5.3495650330296485 0 5.3495650330296485 3.6101581109760446 0 0 0 0 -21.876899966424389 5.591654379706597 0 5.591654379706597 0.78272596126362259 0 0 0 0 -4.2851925652445289 -2.8472283057490131 0 -2.8472283057490131 0.40512400332681864 0 0 0 0 -14.162415925729761 13.290591127602966 0 13.290591127602966 0.92947838496183977 0 0 0 0 4.4655114329107164 20.648948849695444 0 20.648948849695444 -0.18731337308418006 0 0 0 0 -26.343914408323371 25.818170401165844 0 25.818170401165844 16.673569758044323 0 0 0 0 -48.99416271919722 6.3547794202459045 0 6.3547794202459045 15.887919571308885 0 0 0 0 -72.306498007511379 53.302377570267709 0 53.302377570267709 69.103412653843407 0 0 0 0 -99.71279748726522 -20.725854544522008 0 -20.725854544522008 39.416697125780047 0 0 0 0 33.264375360474446 21.943601179264078 0 21.943601179264078 16.08660523040362 0 0 0 0 0.0072880861220178221 0.18928341083301348 0 0.18928341083301348 3.7055411668493434 0 0 0 0 0.16745965270955465 -0.46844368389628954 0 -0.46844368389628954 0.23934345522434342 0 0 0 0 0.43917451689866582 -2.041596241794565 0 -2.041596241794565 7.3141996766655097 0 0 0 0 3.6473548942966532 -11.290559049590229 0 -11.290559049590229 -4.7643348296696786 0 0 0 0 -1.1062409200596903 -5.1825891236985626 0 -5.1825891236985626 31.316601616577827 0 0 0 0 11.709701193325145 -13.376546747749671 0 -13.376546747749671 15.543221562860708 0 0 0 0 4.3317423334453622 -3.2476603791001253 0 -3.2476603791001253 19.279023631446762 0 0 0 0 14.834535230511335 -4.7448716550643439 0 -4.7448716550643439 -3.5286381046716997 0 0 0 0 2.0516303421474049 3.9672113616798015 0 3.9672113616798015 7.4144180582297849 0 0 0 0 9.8417434779912156 -10.990616159740057 0 -10.990616159740057 19.677678661537357 0 0 0 0 1.301896403023268 0.0061727220418248407 0 0.0061727220418248407 -0.33525535805866724 0 0 0 0 -2.5943708715128651 -8.6469421026049531 0 -8.6469421026049531 76.111438197745883 0 0 0 0 42.871577027106468 -22.231299453662359 0 -22.231299453662359 15.633854209430865 0 0 0 0 8.417045807984266 2.7057933288597269 0 2.7057933288597269 27.919222119126061 0 0 0 0 12.368995774830466 13.146077162124129 0 13.146077162124129 -0.0042098064077435993 0 0 0 0 -7.4721964520143445 5.2430594344332349 0 5.2430594344332349 -3.1510243064294627 0 0 0 0 -9.7870258052348049 8.64722004743453 0 8.64722004743453 32.781749930589285 0 0 0 0 46.277134611782898 -151.50852023793777 0 -151.50852023793777 107.88991581025948 0 0 0 0 0.077616200256204415 -5.5551921658225183 0 -5.5551921658225183 54.277283656418149 0 0 0 0 12.732741427654418 11.582789521231462 0 11.582789521231462 4.3460868353431579 0 0 0 0 59.230219270628027 -44.059327030081477 0 -44.059327030081477 -28.346375953005918 0 0 0 0 -15.693364070122939 -15.363520681348746 0 -15.363520681348746 63.925304019023315 0 0 0 0 0.62682080365670245 -2.1035975287204778 0 -2.1035975287204778 5.6450527933768058 0 0 0 0 -72.2740659962721 -43.251003175297228 0 -43.251003175297228 2.3080582425027387 0 0 0 0 32.077997008787811 28.482692139001301 0 28.482692139001301 26.238288451317203 0 0 0 0 6.3429079450323327 65.662155536738283 0 65.662155536738283 196.90319878591981 0 0 0 0 -0.055736304560949156 -0.57975982833743933 0 -0.57975982833743933 272.02402167921537 0 0 0 0 -19.556542020120062 -2.290790924042085 0 -2.290790924042085 285.70204707163066 0 0 0 0 -6.1212535939642301 -48.247859075803717 0 -48.247859075803717 433.35686407532557 0 0 0 0 49.991537571803725 144.67093606090566 0 144.67093606090566 319.32834216427727 0 0 0 0 0.33427528756819913 -0.7901166684911729 0 -0.7901166684911729 2.3505692574801458 0 0 0 0 -50.54445545246881 -19.927548618459696 0 -19.927548618459696 392.34164487691305 0 0 0 0 63.009849067792302 46.459129872204358 0 46.459129872204358 312.57634134745604 0 0 0 0 133.30335927048105 -27.005169065894734 0 -27.005169065894734 272.03208146145334 0 0 0 0 18.523698403260749 -30.69342848287306 0 -30.69342848287306 272.77720236258756 0 0 0 0 72.857141885599191 18.626366592585327 0 18.626366592585327 228.98094451365614 0 0 0 0 22.597344830392785 6.9303671624111303 0 6.9303671624111303 289.16597111734154 0 0 0 0 7.8864123446198278 7.671612163860118 0 7.671612163860118 228.14807226018456 0 0 0 0 36.349150145352723 0.7720127197135298 0 0.7720127197135298 184.44413541571703 0 0 0 0 34.42119320192905 13.644693867376191 0 13.644693867376191 186.42341829476936 0 0 0 0 24.064025900687078 -33.225344601029065 0 -33.225344601029065 190.22918205425958 0 0 0 0 0.020418578393868118 -6.0938123882806394 0 -6.0938123882806394 188.49019427609164 0 0 0 0 -0.032320010518538868 -13.857724447971123 0 -13.857724447971123 291.99382030924608 0 0 0 0 13.165340691948339 -53.170426160038915 0 -53.170426160038915 233.0899541871986 0 0 0 0 25.076920070992731 -5.7239649003240629 0 -5.7239649003240629 226.60391766121029 0 0 0 0 29.412650519260183 8.3372880120623449 0 8.3372880120623449 -25.069825894519454 0 0 0 0 30.565309549821905 -26.124231036770652 0 -26.124231036770652 168.37172613933581 0 0 0 0 -67.934017118239922 -52.226136404638964 0 -52.226136404638964 188.85229776654887 0 0 0 0 -0.24479624629409491 0.88139988992919882 0 0.88139988992919882 1.7703880091593476 0 0 0 0 0.53403515440209048 165.13984730289667 0 165.13984730289667 -20.372895765084195 0 0 0 0 52.879818523892027 65.568037072414882 0 65.568037072414882 77.443530786578776 0 0 0 0 -16.598877543098524 120.99465369468089 0 120.99465369468089 164.67375905600784 0 0 0 0 37.740707159159228 51.713883168664324 0 51.713883168664324 165.1103256006827 0 0 0 0 37.594201205965874 35.810646523332252 0 35.810646523332252 197.67546580443013 0 0 0 0 23.390779963135497 29.624982226311204 0 29.624982226311204 323.25751914801367 0 0 0 0 65.067570355251405 -17.50223639459 0 -17.50223639459 195.46626494630004 0 0 0 0 25.379315082024277 16.625769666565247 0 16.625769666565247 238.63533429594099 0 0 0 0 53.771682755738368 -83.348359453322701 0 -83.348359453322701 254.19049215804989 0 0 0 0 -5.9654445375991827 -88.034463082178263 0 -88.034463082178263 443.51392155078065 0 0 0 0 -0.12663099309356962 0.59146264220072453 0 0.59146264220072453 0.83466770375881083 0 0 0 0 -28.827205456263869 -49.611917385245761 0 -49.611917385245761 215.62109480594518 0 0 0 0 14.697626850117331 -46.662045009266876 0 -46.662045009266876 81.684645041706972 0 0 0 0 59.815535651672278 70.876414207361591 0 70.876414207361591 199.43247904264717 0 0 0 0 63.590956157472078 -151.56015673757793 0 -151.56015673757793 198.7037715793922 0 0 0 0 -5.2476711061299284 -54.232231195441273 0 -54.232231195441273 301.74181984670213 0 0 0 0 -0.64000783415485119 1.3128766650671508 0 1.3128766650671508 1.4545805360384207 0 0 0 0 -14.13277916189702 -76.703815999349899 0 -76.703815999349899 322.61145852894697 0 0 0 0 33.306813790120941 -32.445094990089274 0 -32.445094990089274 187.32080751083413 0 0 0 0 -48.6884386849365 -61.961454282991326 0 -61.961454282991326 282.16942732316238 0 0 0 0 -1.1352084326767908 1.4691095608619378 0 1.4691095608619378 1.6951071455590068 0 0 0 0 -28.441444807110429 -17.675865655569396 0 -17.675865655569396 320.57532001607615 0 0 0 0 -17.92932072422775 -13.561095361577827 0 -13.561095361577827 191.04128606733866 0 0 0 0 2.3448306094364852 -28.034196454256744 0 -28.034196454256744 4.3600311124409927 0 0 0 0 72.394996510320198 -76.722647666618286 0 -76.722647666618286 95.143982700436027 0 0 0 0 16.851393160657267 -6.8467000254189401 0 -6.8467000254189401 3.6380268955813619 0 0 0 0 6.1852756661087653 -38.204769115865929 0 -38.204769115865929 -52.626111203266191 0 0 0 0 0.75940618116806036 -24.608128377862158 0 -24.608128377862158 -2.3535057542321738 0 0 0 0 -47.2762513727655 -20.290797365363687 0 -20.290797365363687 350.5512649147895 0 0 0 0 -46.075860350610242 -16.530459040510323 0 -16.530459040510323 176.67021075659432 0 0 0 0 10.705010846000356 -49.638102790446624 0 -49.638102790446624 126.39063934073783 0 0 0 0 79.702165190536334 -109.69021002806403 0 -109.69021002806403 167.74075084426295 0 0 0 0 4.7451159708894011 56.278497404928203 0 56.278497404928203 140.21729623349529 0 0 0 0 2.8945903437977543 -1.7671477307909251 0 -1.7671477307909251 2.5563206079440874 0 0 0 0 52.505144271660527 -10.955293453731429 0 -10.955293453731429 -42.095879526204953 0 0 0 0 2.5878500960845963 -1.5493095665531058 0 -1.5493095665531058 2.5650672471055316 0 0 0 0 -2.5555901425950083 -5.8414321052914602 0 -5.8414321052914602 31.649758755589573 0 0 0 0 11.103746078504841 -19.054305249493382 0 -19.054305249493382 13.225827795009536 0 0 0 0 2.2637329859620836 -9.2920858574258851 0 -9.2920858574258851 19.228914182422159 0 0 0 0 -3.9074733216787649 -2.4466896972080576 0 -2.4466896972080576 25.971256230332074 0 0 0 0 -0.65192361743398353 -8.6616574388108667 0 -8.6616574388108667 27.345193357830681 0 0 0 0 -23.672207952037468 -22.211001244669433 0 -22.211001244669433 33.917284849550924 0 0 0 0 -9.4426190139946975 -7.8610817581836727 0 -7.8610817581836727 25.719819086734788 0 0 0 0 -5.1649187769235141 -9.4995556646754267 0 -9.4995556646754267 25.594565628738565 0 0 0 0 -0.23710054361077937 -0.93358408787025837 0 -0.93358408787025837 19.951303399866447 0 0 0 0 -8.2136612305459948 -48.168878191470867 0 -48.168878191470867 13.398557842170703 0 0 0 0 -9.9653786635723236 -31.997692105192073 0 -31.997692105192073 29.520283249861677 0 0 0 0 -21.419410126631192 -27.042076062061824 0 -27.042076062061824 42.861115792074997 0 0 0 0 -12.275886024683132 -26.950773819997266 0 -26.950773819997266 19.281107758379221 0 0 0 0 -10.166152821913897 -41.396627952985 0 -41.396627952985 41.18799558338651 0 0 0 0 -10.530958372919599 -34.068193371935195 0 -34.068193371935195 26.463420262793079 0 0 0 0 22.984313513351367 -13.226066720395465 0 -13.226066720395465 37.291136963118333 0 0 0 0 -8.3613164542229583 -19.715273255947977 0 -19.715273255947977 40.786691616322059 0 0 0 0 -16.088871808860176 -27.339865358471798 0 -27.339865358471798 50.903161520225694 0 0 0 0 -6.632149182773901 -16.714205229043728 0 -16.714205229043728 44.944940032422892 0 0 0 0 -10.85024541873868 -38.466190476276097 0 -38.466190476276097 27.949324007378891 0 0 0 0 5.2217518424308622 -26.049939606924454 0 -26.049939606924454 34.003115312356385 0 0 0 0 -13.037414957505689 -34.863729837466963 0 -34.863729837466963 25.245148145142593 0 0 0 0 -20.809576280356964 -43.320022731422796 0 -43.320022731422796 39.662291900269338 0 0 0 0 -9.4081282172841156 -49.534149297191107 0 -49.534149297191107 0.65280735895794351 0 0 0 0 -4.4791667633587622 -38.516337053915777 0 -38.516337053915777 9.9803268539435521 0 0 0 0 -11.790348654762511 -27.412153338678763 0 -27.412153338678763 42.403763626824002 0 0 0 0 -10.655576058543829 -55.775148026212264 0 -55.775148026212264 77.677600877010264 0 0 0 0 -5.1417249368096236 -56.854520316031994 0 -56.854520316031994 41.641322555573424 0 0 0 0 -10.617236945580146 11.65979168603053 0 11.65979168603053 58.422741469970788 0 0 0 0 -21.706463517614793 -20.725558022022597 0 -20.725558022022597 81.117536481862771 0 0 0 0 130.67120024664155 97.624934580788249 0 97.624934580788249 29.359296861977782 0 0 0 0 41.831661078971592 34.906758142402396 0 34.906758142402396 78.502636769684614 0 0 0 0 -26.561325850761477 -22.154600303292682 0 -22.154600303292682 125.97996490611695 0 0 0 0 -22.448440591274675 -25.201610997220996 0 -25.201610997220996 62.389181631122483 0 0 0 0 -10.459208141154249 -4.2352384536643513 0 -4.2352384536643513 73.353151649236679 0 0 0 0 -11.759975983392906 10.288716781142284 0 10.288716781142284 54.622813862020848 0 0 0 0 7.6011324679086556 8.2961179094636464 0 8.2961179094636464 48.008154896902852 0 0 0 0 -6.9851370291339663 -0.59430374752628268 0 -0.59430374752628268 73.140243766261847 0 0 0 0 -169.65284457531016 -23.803372940426925 0 -23.803372940426925 56.084609367902885 0 0 0 0 -163.31412522788014 24.831645309952364 0 24.831645309952364 133.09517186280573 0 0 0 0 -10.997328900095255 -14.49381981001968 0 -14.49381981001968 15.555287220496155 0 0 0 0 5.8280904893963452 186.50733154876798 0 186.50733154876798 -81.287771352217533 0 0 0 0 -15.880380193942797 3.0940568195334652 0 3.0940568195334652 116.07340196668449 0 0 0 0 -11.014682331870732 18.213866509354503 0 18.213866509354503 21.010692426312346 0 0 0 0 62.360334399083513 119.85912455097332 0 119.85912455097332 131.9718901621527 0 0 0 0 -168.37539898988143 23.557801762495728 0 23.557801762495728 184.61811844470503 0 0 0 0 -2.4432709400443855 78.462505477164086 0 78.462505477164086 144.37537897506991 0 0 0 0 -0.89976677165520869 102.81987892799725 0 102.81987892799725 212.93813295481232 0 0 0 0 228.87676259697764 -30.26047705046949 0 -30.26047705046949 185.67377634213153 0 0 0 0 414.94820505549797 80.245161333259603 0 80.245161333259603 181.07599520689473 0 0 0 0 -325.5088358392286 112.98787728727257 0 112.98787728727257 301.8320294136829 0 0 0 0 10.798224766804196 85.552784458712267 0 85.552784458712267 14.808640934395953 0 0 0 0 100.10043036535899 -156.31710177647983 0 -156.31710177647983 643.73077532356547 0 0 0 0 -2.7917742048473428 -25.591756845200507 0 -25.591756845200507 23.669647166898358 0 0 0 0 -384.41803182410604 -63.522538525150594 0 -63.522538525150594 239.5263977582581 0 0 0 0 -3.7133201872180495 -16.214012559901533 0 -16.214012559901533 99.528912749507484 0 0 0 0 -288.9005054907675 -162.7838557559262 0 -162.7838557559262 124.73692326467244 0 0 0 0 -30.913795621686631 -32.671841566942021 0 -32.671841566942021 94.93755474135105 0 0 0 0 -32.14058905411548 -42.374447842448717 0 -42.374447842448717 30.998035716971572 0 0 0 0 -69.209139050350615 -109.16662744529145 0 -109.16662744529145 -82.895647788071074 0 0 0 0 257.02406405029751 199.82149953948647 0 199.82149953948647 -210.78984066503472 0 0 0 0 -180.66583528021783 -484.54985493868298 0 -484.54985493868298 222.7857558169726 0 0 0 0 -67.947122421606593 -243.85358366578185 0 -243.85358366578185 -124.80073426323361 0 0 0 0 -4.3588230026541286 -22.678811158038542 0 -22.678811158038542 92.851231504693686 0 0 0 0 -251.82461165286441 -72.927072330800002 0 -72.927072330800002 116.64258074921963 0 0 0 0 0.41022261129324811 -1.1582885131765153 0 -1.1582885131765153 0.66501910303625777 0 0 0 0 -63.251409105127095 -287.71171714086813 0 -287.71171714086813 -28.022837064210762 0 0 0 0 -4.6107295691240484 -13.537053477166744 0 -13.537053477166744 91.8539600143813 0 0 0 0 -396.13346124697318 -163.33158605976132 0 -163.33158605976132 421.62222899770131 0 0 0 0 132.84129234207376 -210.03145190987561 0 -210.03145190987561 -150.68737608274023 0 0 0 0 111.94393160917389 -95.088108659881982 0 -95.088108659881982 -134.98627294099424 0 0 0 0 51.02071514313684 -50.666598652518587 0 -50.666598652518587 -130.60852895892458 0 0 0 0 -4.8658635349020187 -30.49675171317358 0 -30.49675171317358 609.00689101269199 0 0 0 0 -34.917644277139516 114.5739069290139 0 114.5739069290139 605.50322168940875 0 0 0 0 4.3516297966384192 -0.9900717089762594 0 -0.9900717089762594 0.6366697282792515 0 0 0 0 45.695596493059611 -42.395806602493394 0 -42.395806602493394 -139.22513894402073 0 0 0 0 -0.72446223668267251 0.89294981402882456 0 0.89294981402882456 1.1877844329596599 0 0 0 0 11.544810750068324 -3.9938512783475772 0 -3.9938512783475772 1.3241059677467746 0 0 0 0 34.230816506307747 -72.406164225838438 0 -72.406164225838438 356.10285563721482 0 0 0 0 -52.435137316487953 51.291913254237443 0 51.291913254237443 703.2325439322085 0 0 0 0 -0.097317725419600265 -52.963950100158399 0 -52.963950100158399 -61.680038955197233 0 0 0 0 -30.588663559284214 -33.449653068208136 0 -33.449653068208136 -49.396511204962735 0 0 0 0 -14.074778703065419 -45.036398545526026 0 -45.036398545526026 0.28585694348021207 0 0 0 0 -3.1152367648612653 -52.937368585397053 0 -52.937368585397053 -46.381702234255499 0 0 0 0 -24.875989451214309 -50.547120185488893 0 -50.547120185488893 7.1740334400128631 0 0 0 0 -12.171655973337977 -65.091571219349134 0 -65.091571219349134 -63.98486310406588 0 0 0 0 19.550450207739914 -43.153393494023476 0 -43.153393494023476 -74.910959926128271 0 0 0 0 -3.5300908985700516 -11.065649268814013 0 -11.065649268814013 -116.85146769871426 0 0 0 0 -11.718415385500975 20.539518454271274 0 20.539518454271274 88.038415645234636 0 0 0 0 -26.234430629043345 -2.189398464961414 0 -2.189398464961414 152.7874316641246 0 0 0 0 -13.059690194957511 -11.117630549044407 0 -11.117630549044407 131.74084598417176 0 0 0 0 -2.94075062741328 12.057995969278466 0 12.057995969278466 150.75460420794843 0 0 0 0 -6.6002570209166151 54.757374877701295 0 54.757374877701295 109.59352186453907 0 0 0 0 -2.2606629388471049 -27.004862169978793 0 -27.004862169978793 154.9093445195831 0 0 0 0 -21.924384471361918 -34.479851134865385 0 -34.479851134865385 155.19360164910177 0 0 0 0 -0.27113983416535348 1.6327669244393022 0 1.6327669244393022 -1.9481982071293018 0 0 0 0 462.66084139510713 165.0074110526366 0 165.0074110526366 4.8492281143298896 0 0 0 0 -96.802487158870008 -123.06179226364384 0 -123.06179226364384 274.24765853608915 0 0 0 0 -40.80244638728982 -42.858859465897694 0 -42.858859465897694 173.32870555653608 0 0 0 0 -28.90388449451774 -15.650593619275014 0 -15.650593619275014 189.12820024965913 0 0 0 0 -28.659007403606665 -10.960318042667495 0 -10.960318042667495 146.23313995924764 0 0 0 0 -25.016123472658364 3.6623404144484084 0 3.6623404144484084 165.40152870053134 0 0 0 0 -25.115037235547788 17.887244826652022 0 17.887244826652022 242.97060729741497 0 0 0 0 12.421741196711082 39.324569925673131 0 39.324569925673131 194.60627381070663 0 0 0 0 22.496762535276503 72.64491173206261 0 72.64491173206261 292.58059202060031 0 0 0 0 8.0705708467107797 30.754060061738073 0 30.754060061738073 206.18945431320753 0 0 0 0 115.42489907389972 -42.546087528557109 0 -42.546087528557109 256.15806734250509 0 0 0 0 -2.4554893170734431 -18.011614300534347 0 -18.011614300534347 202.16363132867991 0 0 0 0 -58.912701269008267 -175.4527903254002 0 -175.4527903254002 189.03665675737284 0 0 0 0 92.406425450079951 21.649831880118654 0 21.649831880118654 74.873217793643562 0 0 0 0 1.1069504398438497 0.77709051312146471 0 0.77709051312146471 0.49719991578385514 0 0 0 0 -52.691632546517212 -12.597002592283388 0 -12.597002592283388 209.74856464192271 0 0 0 0 -330.98374288269406 -29.174379503303498 0 -29.174379503303498 463.83381967418063 0 0 0 0 61.631380584751241 -89.094596692501 0 -89.094596692501 248.53349283887837 0 0 0 0 199.36289671651684 -57.218226301985851 0 -57.218226301985851 116.81890391023626 0 0 0 0 207.95422109592982 -55.485052310146784 0 -55.485052310146784 181.516712337645 0 0 0 0 291.70146749835112 -56.447030209979857 0 -56.447030209979857 179.83656163380147 0 0 0 0 256.35006815017914 -117.6263707236576 0 -117.6263707236576 180.28898995710188 0 0 0 0 118.34395591374778 -5.5036599484301405 0 -5.5036599484301405 206.50808129025063 0 0 0 0 232.208270249208 -153.33031943257083 0 -153.33031943257083 390.58203395850433 0 0 0 0 96.413897545022337 62.924222329238546 0 62.924222329238546 362.51488364918168 0 0 0 0 69.447802013401088 26.416860759120027 0 26.416860759120027 323.5327071545762 0 0 0 0 138.42595996711316 -41.892743861739291 0 -41.892743861739291 587.1767796348031 0 0 0 0 453.74233615419212 -230.87743411030897 0 -230.87743411030897 367.19052640402515 0 0 0 0 2.9685920285159995 -2.2189624928780418 0 -2.2189624928780418 1.489932601264087 0 0 0 0 3.8777595071333053 -226.25809752076748 0 -226.25809752076748 77.074450929918385 0 0 0 0 196.69692593368836 24.09476181532591 0 24.09476181532591 28.041525884967996 0 0 0 0 372.97724452612965 -338.91049285663394 0 -338.91049285663394 95.349941058309923 0 0 0 0 141.39870707603359 180.33121023882859 0 180.33121023882859 215.63215690782818 0 0 0 0 140.12524711504739 173.20949664229192 0 173.20949664229192 422.51907005675821 0 0 0 0 67.205877294287347 73.245802527650085 0 73.245802527650085 -16.205329116914072 0 0 0 0 -78.412959417521051 103.45033593517655 0 103.45033593517655 11.947790733422153 0 0 0 0 22.132775547102938 92.325961283968354 0 92.325961283968354 16.357907077966956 0 0 0 0 -41.128300900574686 55.877217899134848 0 55.877217899134848 23.547405832099685 0 0 0 0 -0.3314280344440137 -15.584469714912174 0 -15.584469714912174 -0.99417071092190668 0 0 0 0 -20.702590732358658 -34.747247606213932 0 -34.747247606213932 -133.23655812840298 0 0 0 0 -150.26701360662264 -92.03676851588898 0 -92.03676851588898 48.841818209737539 0 0 0 0 -46.82705821867421 -51.79658324727643 0 -51.79658324727643 38.93346852970717 0 0 0 0 71.623613647774619 -16.101654323370894 0 -16.101654323370894 -15.577677635825239 0 0 0 0 -21.352810090867024 -50.550517189170932 0 -50.550517189170932 102.49604087788612 0 0 0 0 8.9510355796021379 -4.1752902598070847 0 -4.1752902598070847 7.6901361999464513 0 0 0 0 2.5830537663053335 2.827902138150904 0 2.827902138150904 4.327352065465611 0 0 0 0 53.561396223618431 -13.425822234386487 0 -13.425822234386487 43.26655156777997 0 0 0 0 58.999519187393162 56.472959907798213 0 56.472959907798213 77.838940998655744 0 0 0 0 15.298173278581089 -10.531370842891192 0 -10.531370842891192 37.638705952776945 0 0 0 0 40.481118090693599 40.977086911469087 0 40.977086911469087 76.283896755201567 0 0 0 0 0.091819230404709629 16.336416775370608 0 16.336416775370608 23.243854903975318 0 0 0 0 -3.0673082927661213 -9.9822501711366698 0 -9.9822501711366698 48.650104588348114 0 0 0 0 57.878055134690044 67.45408135391699 0 67.45408135391699 73.539352638697892 0 0 0 0 31.133830836995912 54.947861915825342 0 54.947861915825342 83.113634674555215 0 0 0 0 67.776451745718077 101.99720006500502 0 101.99720006500502 134.30815750310285 0 0 0 0 88.004944770829752 79.484171263287863 0 79.484171263287863 60.953144662064005 0 0 0 0 4.9663582443304222 61.217151747488515 0 61.217151747488515 209.24363592828013 0 0 0 0 -1.5502972365484311 38.160730583511395 0 38.160730583511395 58.56647610811342 0 0 0 0 -26.42238511294272 16.892897573983646 0 16.892897573983646 177.12672412482425 0 0 0 0 1.7101784211663471 43.71902343111924 0 43.71902343111924 120.97047454131098 0 0 0 0 -26.27394296779579 23.700094788295985 0 23.700094788295985 116.86062511046475 0 0 0 0 3.3100335388771782 64.649215550547524 0 64.649215550547524 127.40214649504924 0 0 0 0 -11.232333855208708 83.934294593163941 0 83.934294593163941 67.942512775673094 0 0 0 0 -4.4312998401329864 31.227441752703996 0 31.227441752703996 79.798214378341456 0 0 0 0 -12.53370611498309 0.97494475791688018 0 0.97494475791688018 98.272459875488494 0 0 0 0 4.307179988554708 42.247143088763551 0 42.247143088763551 64.891176242075744 0 0 0 0 -12.771758825208281 3.5876544005572697 0 3.5876544005572697 130.10931157937148 0 0 0 0 -45.564898184049184 51.791805108311337 0 51.791805108311337 100.15494581359235 0 0 0 0 -7.6679416213088167 29.025429320070316 0 29.025429320070316 79.000701454446386 0 0 0 0 -47.370747497318007 52.483550091294433 0 52.483550091294433 90.444768353727341 0 0 0 0 -41.54162939098569 19.035294750970934 0 19.035294750970934 117.01928416381998 0 0 0 0 -4.5789797123316021 11.531672154938178 0 11.531672154938178 158.02014368222626 0 0 0 0 55.2545639532309 80.179114018224709 0 80.179114018224709 66.57364192348723 0 0 0 0 -9.8927257381246818 -13.733731676492198 0 -13.733731676492198 106.39794970629964 0 0 0 0 -6.9854084468415749 -14.483014199091542 0 -14.483014199091542 92.183978736316476 0 0 0 0 14.345818081419829 -6.5499349014667665 0 -6.5499349014667665 24.933426553070326 0 0 0 0 33.718490521016065 64.486658789153807 0 64.486658789153807 128.28126292000161 0 0 0 0 -3.7406769710323715 11.173069798838696 0 11.173069798838696 59.248775415664568 0 0 0 0 9.499275943546607 9.6686728288924684 0 9.6686728288924684 69.814459148091856 0 0 0 0 -15.08893265133247 -31.314725496929896 0 -31.314725496929896 68.231911931979994 0 0 0 0 -13.450521397949672 -9.1155434142529259 0 -9.1155434142529259 66.924729880206158 0 0 0 0 6.8326188509417989 -4.5870180760921357 0 -4.5870180760921357 64.091705560696937 0 0 0 0 -21.374361066144729 -2.951929460267138 0 -2.951929460267138 67.498231573830708 0 0 0 0 7.8178104252715457 -11.254185713361949 0 -11.254185713361949 79.664972307495191 0 0 0 0 -13.330145752144475 -1.4139915360225075 0 -1.4139915360225075 46.460309609292906 0 0 0 0 20.076455880840513 -48.490692673989543 0 -48.490692673989543 80.292050315285451 0 0 0 0 22.826112860180729 8.8456605309329461 0 8.8456605309329461 87.498893855328788 0 0 0 0 -26.763403329330686 -47.715367309661815 0 -47.715367309661815 62.017915906983035 0 0 0 0 -32.276336870107116 -23.113711998219514 0 -23.113711998219514 83.068026073124202 0 0 0 0 3.8777082298911409 -0.060461815039161593 0 -0.060461815039161593 48.76688039524015 0 0 0 0 -67.989613314463895 -7.3192987008351338 0 -7.3192987008351338 25.293206620684941 0 0 0 0 -84.795232315329486 -81.842716243962059 0 -81.842716243962059 19.416171888903591 0 0 0 0 -5.9756506376145637 12.917371556722799 0 12.917371556722799 15.513845933570451 0 0 0 0 -41.701974929936114 -10.808278588039684 0 -10.808278588039684 93.978349536875612 0 0 0 0 -31.450564586322798 -22.219054524168314 0 -22.219054524168314 84.100682991718713 0 0 0 0 -40.533962532523219 -22.081332824986021 0 -22.081332824986021 91.683043913566507 0 0 0 0 -20.942031476268312 -1.3198176199366571 0 -1.3198176199366571 32.12526549899485 0 0 0 0 -5.1552535638679133 -0.77748372272040811 0 -0.77748372272040811 89.824033487449583 0 0 0 0 -13.058690469031063 6.3116313271625337 0 6.3116313271625337 55.577331213964882 0 0 0 0 -26.538818537254883 -2.12423384896465 0 -2.12423384896465 147.18619749681966 0 0 0 0 -22.003527853148171 7.8798089149522639 0 7.8798089149522639 150.60280131880427 0 0 0 0 0.95494566965843219 6.1873332051147116 0 6.1873332051147116 30.547620841437698 0 0 0 0 15.07004918456505 22.794567022872798 0 22.794567022872798 153.77788146989769 0 0 0 0 10.181525920227614 9.8043929945342825 0 9.8043929945342825 119.25983137037838 0 0 0 0 -33.437118869023834 2.8606862739979988 0 2.8606862739979988 45.05137584824115 0 0 0 0 -13.394030756778195 7.19789636735036 0 7.19789636735036 73.227687332340878 0 0 0 0 -18.273088957610263 23.658729113809855 0 23.658729113809855 144.46751006209934 0 0 0 0 -10.89165313895386 -6.6309475079661127 0 -6.6309475079661127 90.220931673061315 0 0 0 0 -18.40858763249194 -9.5954259681092395 0 -9.5954259681092395 28.917651122741802 0 0 0 0 26.584734936900531 27.242784642379775 0 27.242784642379775 88.418989096353471 0 0 0 0 -30.913123477908357 -19.937493356494087 0 -19.937493356494087 164.98767411801964 0 0 0 0 -1.1005282147251316 -2.8513165700601384 0 -2.8513165700601384 112.16516611132336 0 0 0 0 -17.850059636282822 -11.330903065700113 0 -11.330903065700113 117.69681921451411 0 0 0 0 -8.9368280818925996 0.16375036733370507 0 0.16375036733370507 99.241750971355941 0 0 0 0 -21.317036807884506 -4.1685938265436562 0 -4.1685938265436562 110.30061696012126 0 0 0 0 19.868335234679762 5.8355908744051703 0 5.8355908744051703 141.02427831903515 0 0 0 0 -13.619911331574258 7.2540454966183461 0 7.2540454966183461 149.77640593419346 0 0 0 0 7.8187299301198436 -4.2853726447833651 0 -4.2853726447833651 118.03248547757539 0 0 0 0 -8.3755650102475556 1.159024285416308 0 1.159024285416308 135.81159762060634 0 0 0 0 -17.502814775823936 22.876172931173642 0 22.876172931173642 157.11648905952461 0 0 0 0 -0.51492683551417429 -11.708391679982583 0 -11.708391679982583 32.11616549440572 0 0 0 0 -1.7422032626364228 -14.01251530524317 0 -14.01251530524317 5.4350059559160684 0 0 0 0 -9.7175653625799896 -7.984365887079548 0 -7.984365887079548 123.48105405831302 0 0 0 0 -1.510887533132518 8.7115061423337465 0 8.7115061423337465 56.23677499744781 0 0 0 0 3.8450268044034601 0.71512721989347483 0 0.71512721989347483 167.14480502954757 0 0 0 0 -1.0756738008690263 34.153547962466291 0 34.153547962466291 197.02429962679889 0 0 0 0 2.241035092407401 13.328113600320648 0 13.328113600320648 153.75914228583133 0 0 0 0 -14.468310189849944 23.978079296823125 0 23.978079296823125 239.61171765750623 0 0 0 0 -2.956233656225141 -11.270676562180569 0 -11.270676562180569 24.412250341904773 0 0 0 0 19.675614474650956 34.452726362380417 0 34.452726362380417 182.69550474292191 0 0 0 0 -13.655188978269763 -23.076663064641309 0 -23.076663064641309 58.770887981357774 0 0 0 0 -9.1261065476775229 -19.641109999118726 0 -19.641109999118726 80.380698734439648 0 0 0 0 -16.475868996759345 -114.2172071523637 0 -114.2172071523637 372.99695745022836 0 0 0 0 -2.2085078342548599 85.723972938524639 0 85.723972938524639 -9.5119529126604903 0 0 0 0 -0.47981255811489376 0.71720342211980892 0 0.71720342211980892 1.9034793559865477 0 0 0 0 0.76966613521472027 -83.659011645824648 0 -83.659011645824648 208.03150199420634 0 0 0 0 -31.42220655126755 -37.287829993210835 0 -37.287829993210835 262.61207864487369 0 0 0 0 -14.443512660830493 74.687830077877152 0 74.687830077877152 132.10932374240292 0 0 0 0 62.529010348235715 -13.516416910642874 0 -13.516416910642874 352.12398365640001 0 0 0 0 -82.130556035509017 75.020728174902615 0 75.020728174902615 503.65399036819872 0 0 0 0 76.912033984312075 -70.456105075892992 0 -70.456105075892992 527.40508129564114 0 0 0 0 101.05676052748322 -102.17885760720856 0 -102.17885760720856 265.98542077926686 0 0 0 0 8.3379041761590997 61.1424071590518 0 61.1424071590518 63.437104733049637 0 0 0 0 -155.55600582056991 65.683218895278515 0 65.683218895278515 201.48984619602561 0 0 0 0 -46.677637393511759 63.644743726588786 0 63.644743726588786 66.804619434726192 0 0 0 0 -42.178273389996093 52.5526550049035 0 52.5526550049035 91.135737529868493 0 0 0 0 -0.64926721769188589 117.57621379156262 0 117.57621379156262 148.19034083347833 0 0 0 0 -37.752867821201107 60.156037584893056 0 60.156037584893056 67.062670429135324 0 0 0 0 -30.577048990297953 20.842545942672587 0 20.842545942672587 85.859576214625122 0 0 0 0 -38.83554475428582 7.3665567578027549 0 7.3665567578027549 119.84539133415092 0 0 0 0 -64.136166650630912 60.513389861909673 0 60.513389861909673 106.30991512647597 0 0 0 0 -42.089308405309566 18.469500258404878 0 18.469500258404878 160.39380138603883 0 0 0 0 -38.421443318585261 4.7792049745039549 0 4.7792049745039549 127.09213756698955 0 0 0 0 -39.988722376595433 1.4417124144492846 0 1.4417124144492846 120.56443168700207 0 0 0 0 -30.880552680130677 -5.5808376573841088 0 -5.5808376573841088 124.72465168549388 0 0 0 0 -31.556745558598493 0.48484919591601283 0 0.48484919591601283 108.6624972672289 0 0 0 0 -29.42565626414671 -6.7329446171061136 0 -6.7329446171061136 115.56677176355151 0 0 0 0 -21.0257628488298 -5.3854791614066926 0 -5.3854791614066926 114.54060750942153 0 0 0 0 -26.810142831620396 -5.6439949529230944 0 -5.6439949529230944 95.380424412001958 0 0 0 0 -21.969573937611017 7.9756211776839336 0 7.9756211776839336 96.79336810366658 0 0 0 0 -17.757059800890602 -15.520871591303148 0 -15.520871591303148 19.143596248250105 0 0 0 0 -41.901214214258744 15.630073829222965 0 15.630073829222965 70.506771217905225 0 0 0 0 -37.631765457247354 39.655990036105322 0 39.655990036105322 77.00101636783802 0 0 0 0 -0.31348787784423671 1.6121893979828457 0 1.6121893979828457 3.1044999938828823 0 0 0 0 -2.6213913758811032 -8.9762143753323471 0 -8.9762143753323471 77.013739239306233 0 0 0 0 -25.343893227562681 35.367128193587405 0 35.367128193587405 204.1343290535151 0 0 0 0 -26.088116917169373 14.075199091706736 0 14.075199091706736 134.66580771250301 0 0 0 0 -3.3502417719823825 44.695759024711151 0 44.695759024711151 145.34648610599106 0 0 0 0 1.8729940500597877 37.003214683849365 0 37.003214683849365 146.32069299543218 0 0 0 0 -1.9220358848401702 45.747465982598442 0 45.747465982598442 134.51639403543959 0 0 0 0 -13.99006724674274 11.825722327323092 0 11.825722327323092 126.92443473546882 0 0 0 0 -10.368661055604662 34.420206844639324 0 34.420206844639324 152.95155335281015 0 0 0 0 -31.885100674869765 -12.160555969177835 0 -12.160555969177835 113.48352893981792 0 0 0 0 -32.031230620028964 10.315452177415864 0 10.315452177415864 142.1993292806801 0 0 0 0 -29.704070955680891 -6.7746617472475918 0 -6.7746617472475918 117.88376651628641 0 0 0 0 -44.20721111599687 -5.5175260035612155 0 -5.5175260035612155 119.60911093385312 0 0 0 0 -30.555372750814058 -5.8439239018116496 0 -5.8439239018116496 119.57293325312639 0 0 0 0 -30.171085062060797 -2.2841140470741266 0 -2.2841140470741266 114.12021748840925 0 0 0 0 -29.991002366743487 -5.3886253870441578 0 -5.3886253870441578 117.94400012720143 0 0 0 0 -18.741983318490384 0.46081378680537455 0 0.46081378680537455 113.46972672143602 0 0 0 0 -21.645362043580462 0.13199700754194055 0 0.13199700754194055 113.58734563592589 0 0 0 0 -35.104480622589563 5.0258432053597062 0 5.0258432053597062 116.28927630315593 0 0 0 0 -23.406979555694306 -20.031723427950055 0 -20.031723427950055 106.09054293652298 0 0 0 0 -14.069155175746346 10.766674325906934 0 10.766674325906934 129.31149069982348 0 0 0 0 -116.48704517358101 -56.833220643569803 0 -56.833220643569803 39.363571336412861 0 0 0 0 0.11332444584693846 18.107066217215618 0 18.107066217215618 -2.4072061828242592 0 0 0 0 -23.739422560409366 10.354667700026766 0 10.354667700026766 179.53235004525777 0 0 0 0 -50.736256639052499 48.925939012340677 0 48.925939012340677 136.71026573480958 0 0 0 0 9.1908053826787182 -27.974009109673716 0 -27.974009109673716 90.010880244619329 0 0 0 0 26.971705540404194 42.497329285547266 0 42.497329285547266 107.7796999393031 0 0 0 0 27.101716662800179 36.198615336150851 0 36.198615336150851 74.944501918871538 0 0 0 0 -137.726541067178 30.858005240203056 0 30.858005240203056 188.76160678437736 0 0 0 0 -454.50679572203353 -11.083642329998838 0 -11.083642329998838 243.02697675794707 0 0 0 0 -74.475205665025896 109.28329638796276 0 109.28329638796276 249.61348132038256 0 0 0 0 -2.7571891742495609 111.98620870120794 0 111.98620870120794 114.18798119199346 0 0 0 0 0.24956726277210683 -0.15905095634809285 0 -0.15905095634809285 6.8775185922639253 0 0 0 0 351.92113617851919 -349.94784416654511 0 -349.94784416654511 64.197297729464481 0 0 0 0 400.06495994178613 318.25818764080395 0 318.25818764080395 48.130470669173519 0 0 0 0 176.70349573786325 -143.98399406144017 0 -143.98399406144017 72.929053631836723 0 0 0 0 -277.01945837133326 -125.07293322775513 0 -125.07293322775513 266.07033073595812 0 0 0 0 -32.737396233164191 -397.92791545757063 0 -397.92791545757063 335.65114276253735 0 0 0 0 4.7964890783678129 45.526806842128281 0 45.526806842128281 166.81752498214337 0 0 0 0 0.84770861586993007 0.30875239704468527 0 0.30875239704468527 -5.2392169267656499 0 0 0 0 -15.486312259938 26.34185740347742 0 26.34185740347742 142.02786942190141 0 0 0 0 -15.396906854229201 47.350241321662907 0 47.350241321662907 204.38747992255958 0 0 0 0 8.700351442342253 34.722237603433314 0 34.722237603433314 145.79186293241219 0 0 0 0 12.85724788092557 43.901787789523951 0 43.901787789523951 143.67783474526368 0 0 0 0 -7.081863984480151 43.687192568533646 0 43.687192568533646 167.60115184491588 0 0 0 0 0.76470541768371447 19.066914265942827 0 19.066914265942827 1.0599855081219651 0 0 0 0 1078.7491941121552 -10.998966756917071 0 -10.998966756917071 190.62667514890927 0 0 0 0 9.872997279701849 45.003256267104007 0 45.003256267104007 134.43853588952516 0 0 0 0 -343.72560920404078 579.01776561530914 0 579.01776561530914 330.05596427769342 0 0 0 0 -7.8935121078120574 -7.8508900665510737 0 -7.8508900665510737 102.74621445039156 0 0 0 0 12.749888710919549 -14.75901292636263 0 -14.75901292636263 60.221607826566469 0 0 0 0 -1.2021917767878456 -0.65629113807993633 0 -0.65629113807993633 -1.3459842918552489 0 0 0 0 -0.6155355660157511 6.7095467816725431 0 6.7095467816725431 86.016303236145177 0 0 0 0 -7.0365726572217682 4.9900517403366393 0 4.9900517403366393 100.66467747426941 0 0 0 0 1.8713999333031097 -0.58840359156738486 0 -0.58840359156738486 116.85207989362243 0 0 0 0 10.533551117364368 13.692048221962978 0 13.692048221962978 160.96478114107595 0 0 0 0 5.100922576366429 7.333122024901968 0 7.333122024901968 137.24827032515168 0 0 0 0 -13.92372343182069 -8.7891676769431797 0 -8.7891676769431797 170.09345397501784 0 0 0 0 -1.21015405112189 -19.578050005105979 0 -19.578050005105979 118.99088126973948 0 0 0 0 -0.31331133139292433 -15.561533580707874 0 -15.561533580707874 130.26308423381852 0 0 0 0 6.4064849626865907 -3.4438136010430753 0 -3.4438136010430753 110.09329806610913 0 0 0 0 -2.1087751722225221 -6.3174459971232864 0 -6.3174459971232864 91.7007470299327 0 0 0 0 -2.8199047251273406 0.29229011515476344 0 0.29229011515476344 15.049937041566995 0 0 0 0 -6.3116275561538657 -20.686786053754531 0 -20.686786053754531 105.95762807641586 0 0 0 0 2.8530265298868471 2.7546904534447094 0 2.7546904534447094 88.287954283485305 0 0 0 0 -18.343215983516529 -19.018447776043104 0 -19.018447776043104 103.00852551816206 0 0 0 0 -0.34481108224463242 -12.001744497563777 0 -12.001744497563777 90.498812174163049 0 0 0 0 -10.022556335103395 -3.2380441581850903 0 -3.2380441581850903 94.498275538183265 0 0 0 0 -1.4470344008615701 -5.7132397455346009 0 -5.7132397455346009 57.787570189737096 0 0 0 0 -11.922797143826756 -6.7994972116957797 0 -6.7994972116957797 102.105117463223 0 0 0 0 -10.651796153729265 -15.703293744440089 0 -15.703293744440089 122.48579099128983 0 0 0 0 -3.2572719933429246 -2.284827370543919 0 -2.284827370543919 116.07205403664696 0 0 0 0 -19.322975359817747 -2.268471212413715 0 -2.268471212413715 111.59708699124167 0 0 0 0 -32.890756180799144 -11.109491419028927 0 -11.109491419028927 128.55800012982218 0 0 0 0 -20.432694949447978 -1.8680400180601282 0 -1.8680400180601282 113.1506432727474 0 0 0 0 -21.052941822108551 -2.2473121810762677 0 -2.2473121810762677 113.26131912841811 0 0 0 0 -0.75117340780116137 0.37272353961209603 0 0.37272353961209603 14.686818641919171 0 0 0 0 4.353036175582929 -7.0676397110437392 0 -7.0676397110437392 68.577959070384168 0 0 0 0 -17.997844545483531 4.9376685455426923 0 4.9376685455426923 110.12839888182498 0 0 0 0 -3.4783407746868735 -12.638757612645879 0 -12.638757612645879 58.515320321473382 0 0 0 0 -10.100395067434874 -9.317727236848441 0 -9.317727236848441 39.771167601982597 0 0 0 0 5.764889593375301 -1.4535646720396471 0 -1.4535646720396471 108.21872193444142 0 0 0 0 -17.986685294849849 -0.11620877623499837 0 -0.11620877623499837 133.24932318886567 0 0 0 0 -16.321763127560189 -11.776071226442582 0 -11.776071226442582 116.37460143595672 0 0 0 0 -11.418192075414026 -4.0425179089070298 0 -4.0425179089070298 103.03789279145712 0 0 0 0 -3.8332207644361702 17.041199261324891 0 17.041199261324891 3.7897280507667048 0 0 0 0 1.2808066977421948 -0.23176822542700393 0 -0.23176822542700393 -1.7439292008419613 0 0 0 0 -93.820604804953291 25.880613938476017 0 25.880613938476017 287.02263172275707 0 0 0 0 4.0524841546994139 24.600361852499191 0 24.600361852499191 115.66410038349568 0 0 0 0 30.452787709602489 14.051634339666634 0 14.051634339666634 35.647381087590475 0 0 0 0 -28.573655869849063 -24.781310691207182 0 -24.781310691207182 109.51832651722361 0 0 0 0 -7.9824270935132517 -27.247224084901973 0 -27.247224084901973 65.749384737413493 0 0 0 0 5.0315411269766628 -15.883968994181487 0 -15.883968994181487 105.63764020446251 0 0 0 0 1.2051564153727625 0.29956434534331322 0 0.29956434534331322 19.1239366212276 0 0 0 0 26.098845997234093 23.297277395380661 0 23.297277395380661 118.00908406169765 0 0 0 0 85.56349936148672 319.17555166178499 0 319.17555166178499 -255.98430023535911 0 0 0 0 9.972724240565185 14.303806835348951 0 14.303806835348951 103.23834064955008 0 0 0 0 14.046556288525608 31.099037272768328 0 31.099037272768328 117.1098330869936 0 0 0 0 -2.7505237004797891 22.049318391218549 0 22.049318391218549 120.79542035225313 0 0 0 0 -22.982112731596999 3.8006060205716494 0 3.8006060205716494 111.31515433636378 0 0 0 0 -74.621919603927381 -61.50508698370686 0 -61.50508698370686 83.062032131732849 0 0 0 0 -7.9535073900728728 -13.960452646457846 0 -13.960452646457846 52.45126049774484 0 0 0 0 -3.7861607767455192 -6.2680921466988622 0 -6.2680921466988622 56.46090601242463 0 0 0 0 -1.8326467750848678 15.851935265105567 0 15.851935265105567 141.55423814528331 0 0 0 0 -4.4483614857502971 -4.0287593456523609 0 -4.0287593456523609 55.868391580581374 0 0 0 0 -5.1154204931563072 -6.5778149402176496 0 -6.5778149402176496 53.754561807285882 0 0 0 0 -2.8235434811231741 -8.4471241695313637 0 -8.4471241695313637 33.230475521197853 0 0 0 0 -5.1279912751015218 -6.3168355104535294 0 -6.3168355104535294 92.459005032345885 0 0 0 0 -3.7667255757260136 6.1214029340990237 0 6.1214029340990237 91.4564688258979 0 0 0 0 -10.624037554098322 -24.068860806844896 0 -24.068860806844896 124.58077466515533 0 0 0 0 -4.5419311328693226 -7.9010459529896906 0 -7.9010459529896906 19.880498929497975 0 0 0 0 -1.384940820621523 -12.370249589372179 0 -12.370249589372179 69.430518820699945 0 0 0 0 5.0971278908582462 -9.6270566752500599 0 -9.6270566752500599 114.31616743196355 0 0 0 0 -9.1791635600401946 -15.012678480985194 0 -15.012678480985194 71.91407466402373 0 0 0 0 -97.338843323789433 -415.57064630326568 0 -415.57064630326568 1108.7096045789367 0 0 0 0 -3.7856403266015626 -14.974123360615053 0 -14.974123360615053 50.805813084225534 0 0 0 0 -542.45866926452436 424.23287950298618 0 424.23287950298618 1589.8654490274785 0 0 0 0 -158.05113453061313 494.51894563777023 0 494.51894563777023 152.88331358782307 0 0 0 0 -0.26263156129880372 -11.621523461695688 0 -11.621523461695688 92.574452531778661 0 0 0 0 -0.29453616946320338 12.374898704178698 0 12.374898704178698 21.495728497997721 0 0 0 0 -4.0611869560871128 -2.3663810561120044 0 -2.3663810561120044 103.6470889086122 0 0 0 0 -3.5700096766740899 4.7357219125660777 0 4.7357219125660777 107.93872787359214 0 0 0 0 -0.64044800079900099 -10.332556967430428 0 -10.332556967430428 9.3292756001566204 0 0 0 0 0.19861093234788285 0.28663308154037992 0 0.28663308154037992 0.27715031328835238 0 0 0 0 9.6067226138284241 1.3589550133438024 0 1.3589550133438024 54.845374783348234 0 0 0 0 -25.672107122456509 -23.534577054902911 0 -23.534577054902911 152.20050554845329 0 0 0 0 17.746509335978089 28.524717392237108 0 28.524717392237108 85.095434125825705 0 0 0 0 -5.5992942504144594 10.852858806473705 0 10.852858806473705 87.001744519933709 0 0 0 0 -18.195807432324273 -4.6273329173691309 0 -4.6273329173691309 81.802102069006651 0 0 0 0 38.008483591341125 26.203530491206038 0 26.203530491206038 107.03599477773241 0 0 0 0 -12.929576659469303 -3.1873471254051395 0 -3.1873471254051395 66.476001333068737 0 0 0 0 -39.437233131757921 177.65729940900928 0 177.65729940900928 61.576746814247599 0 0 0 0 10.563713139897992 42.730161962095778 0 42.730161962095778 49.868351160852171 0 0 0 0 0.76832918010586582 0.58660520113517123 0 0.58660520113517123 80.689852664135742 0 0 0 0 1.5588151236025043 1.9993155910336462 0 1.9993155910336462 4.9846036043091999 0 0 0 0 235.06934974848127 -113.62652752336362 0 -113.62652752336362 -116.39455593294406 0 0 0 0 304.74010841285008 -382.16620030808554 0 -382.16620030808554 354.75382880162942 0 0 0 0 190.75589550727364 -145.17192856368638 0 -145.17192856368638 242.6948885586753 0 0 0 0 -0.054572044437744438 1.0979066484308646 0 1.0979066484308646 3.2964433659710153 0 0 0 0 0.90076725970062999 8.1022536863614647 0 8.1022536863614647 9.7036752051305797 0 0 0 0 -2.7322591289863851 11.308536152830584 0 11.308536152830584 41.695749863618403 0 0 0 0 0.57316761792659632 7.7875147632200967 0 7.7875147632200967 26.883961161349163 0 0 0 0 108.85769434081749 -2.9295169063443609 0 -2.9295169063443609 26.104480038768088 0 0 0 0 83.964785776614917 16.79656289567356 0 16.79656289567356 54.823369522833673 0 0 0 0 45.701925548690866 -38.404032085214794 0 -38.404032085214794 165.14286991981498 0 0 0 0 49.466616416697434 7.5789050694802427 0 7.5789050694802427 61.236180104097002 0 0 0 0 242.34338994947393 -114.53970974682306 0 -114.53970974682306 78.293183072348256 0 0 0 0 -21.318519510916303 -77.954564362706151 0 -77.954564362706151 288.25807614317455 0 0 0 0 -35.841077805524947 44.858925316759269 0 44.858925316759269 231.00890820103814 0 0 0 0 110.74728249830332 -190.71773581876914 0 -190.71773581876914 509.1528158953588 0 0 0 0 -88.357373104766793 5.020158975112281 0 5.020158975112281 187.24134075467009 0 0 0 0 -76.624530949051405 25.848496464939672 0 25.848496464939672 221.7367588817142 0 0 0 0 -114.18456870970294 -12.915851160087186 0 -12.915851160087186 221.30118865812256 0 0 0 0 -54.276810898388703 12.926343737681236 0 12.926343737681236 154.95115146058379 0 0 0 0 -29.98502394757088 22.563075940997805 0 22.563075940997805 151.08461794060167 0 0 0 0 -42.363267533058092 -16.476038840766705 0 -16.476038840766705 91.691139271410066 0 0 0 0 -74.485098601270693 51.228715112010832 0 51.228715112010832 105.95198951444763 0 0 0 0 -164.84412479466761 -25.038440236422502 0 -25.038440236422502 91.189837614787393 0 0 0 0 -2.9928079613884186 -0.021817971371902445 0 -0.021817971371902445 0.13479923589279963 0 0 0 0 -10.074398984078471 -25.062890808050724 0 -25.062890808050724 7.5008686935761943 0 0 0 0 -99.283944263949479 131.31514599599541 0 131.31514599599541 -82.266795567476947 0 0 0 0 -113.33670554294258 176.44141148639847 0 176.44141148639847 -58.53540042185341 0 0 0 0 -213.20216605443898 -26.908019317233993 0 -26.908019317233993 166.37686652348202 0 0 0 0 5.9570982764707878 -66.830665127472457 0 -66.830665127472457 78.748284793877701 0 0 0 0 -21.542210816393208 5.0863371842751803 0 5.0863371842751803 -18.974965215886186 0 0 0 0 -111.16851900595157 -22.601976803645812 0 -22.601976803645812 85.395905873563606 0 0 0 0 -6.0421130521430007 1.6879518424673634 0 1.6879518424673634 60.980993294839209 0 0 0 0 -7.8384478358110243 11.108141481103758 0 11.108141481103758 129.56991056982952 0 0 0 0 56.09905143551714 -35.954534135580616 0 -35.954534135580616 55.385321215624572 0 0 0 0 65.916137651958252 -116.47031776755466 0 -116.47031776755466 103.2278563453001 0 0 0 0 4.3433922339972924 1.8426246722756332 0 1.8426246722756332 14.342970476980554 0 0 0 0 95.952622802463793 26.17970961334504 0 26.17970961334504 -38.416965817741584 0 0 0 0 -0.58793756680140064 -0.23445558389941823 0 -0.23445558389941823 16.018181060047368 0 0 0 0 155.33928527841454 22.623699629897601 0 22.623699629897601 53.479269014525926 0 0 0 0 168.18425638469398 59.638454583233397 0 59.638454583233397 -164.33983871882083 0 0 0 0 224.37375303105819 -138.02081810282834 0 -138.02081810282834 123.81523756585375 0 0 0 0 -2.5056174035256742 11.392225539736273 0 11.392225539736273 22.192670868284615 0 0 0 0 11.607630336755392 -10.360795072052497 0 -10.360795072052497 49.339955731764348 0 0 0 0 -4.1474588708971112 -36.161257563595882 0 -36.161257563595882 94.097458892530994 0 0 0 0 0.84660772769916548 -17.866219736097264 0 -17.866219736097264 76.558981881862564 0 0 0 0 -3.9858862848761873 -1.7630142550606251 0 -1.7630142550606251 89.998506618387182 0 0 0 0 -3.8705220076849156 15.50943789309953 0 15.50943789309953 24.89017066466868 0 0 0 0 6.8702836497902808 22.819827311730478 0 22.819827311730478 145.57880446707713 0 0 0 0 1.8629305836456702 3.8404365440880213 0 3.8404365440880213 2.9836245539243293 0 0 0 0 3.1016658549450256 -5.4113878513112468 0 -5.4113878513112468 72.851774724498682 0 0 0 0 -7.4051979094306857 14.502193515777044 0 14.502193515777044 37.289514214940858 0 0 0 0 -1.1520525098092094 -5.1276170331257163 0 -5.1276170331257163 77.745049009599825 0 0 0 0 -2.4835143642070534 -7.1596608394947907 0 -7.1596608394947907 108.17218323229463 0 0 0 0 1.9264646688375251 2.0524674106691236 0 2.0524674106691236 85.400943844872018 0 0 0 0 18.664648362655498 80.599692333795247 0 80.599692333795247 51.166638541471912 0 0 0 0 1.4979214492274799 -6.5123727339679789 0 -6.5123727339679789 55.796756375714182 0 0 0 0 -50.962856045664012 28.932642622808544 0 28.932642622808544 72.33242397756112 0 0 0 0 -9.5439700589986387 -13.827078231704945 0 -13.827078231704945 32.56128347440972 0 0 0 0 0.30023868121955544 1.0790945888857504 0 1.0790945888857504 19.642061566926884 0 0 0 0 42.046627090633706 1.5062036217350396 0 1.5062036217350396 15.031514414240519 0 0 0 0 -106.06950802066301 -59.536352802381771 0 -59.536352802381771 176.74070249491342 0 0 0 0 23.560869804227934 -114.61852448277205 0 -114.61852448277205 83.26007245834262 0 0 0 0 -33.305198678571287 24.02501415250299 0 24.02501415250299 72.301216881427536 0 0 0 0 -29.103598205183516 1.7141382875415729 0 1.7141382875415729 185.71495912632145 0 0 0 0 37.920969977600521 15.642440414710109 0 15.642440414710109 110.14622656607389 0 0 0 0 -2.5378234593717934 77.148666193585086 0 77.148666193585086 220.86278235389909 0 0 0 0 -8.721514059529909 -33.73292751039844 0 -33.73292751039844 86.544508895560284 0 0 0 0 -7.0955485799377129 -6.8586323873569199 0 -6.8586323873569199 65.164949429436092 0 0 0 0 0.27533335626367261 -5.5126245835617738 0 -5.5126245835617738 34.402041355300753 0 0 0 0 -4.8674417380179875 -14.121208814212878 0 -14.121208814212878 41.664808900259231 0 0 0 0 -8.4623340087991075 -1.3398288497428439 0 -1.3398288497428439 -0.48907850042606782 0 0 0 0 -35.733091514262469 -10.130568450247665 0 -10.130568450247665 45.690546872931009 0 0 0 0 -26.134341890315113 0.58408412094286177 0 0.58408412094286177 39.829820771694358 0 0 0 0 -15.170393237422559 19.306891739513958 0 19.306891739513958 -10.271381959748396 0 0 0 0 -9.6672110757954215 9.8501855670128862 0 9.8501855670128862 4.2677251654240536 0 0 0 0 -14.649056805054272 -2.4479611957893184 0 -2.4479611957893184 4.6780870775257668 0 0 0 0 -5.342259405245386 -8.5893555986258434 0 -8.5893555986258434 30.637284558855754 0 0 0 0 -35.306890494538038 -1.9131915247235156 0 -1.9131915247235156 35.456382792835939 0 0 0 0 -35.065402315562551 -16.051123890531017 0 -16.051123890531017 35.359217675693799 0 0 0 0 -151.09243331065886 64.764620387228206 0 64.764620387228206 60.172528074224829 0 0 0 0 -3.7905257187789179 4.8238532114102366 0 4.8238532114102366 29.902490080976918 0 0 0 0 -51.644132519713366 -7.116991310758749 0 -7.116991310758749 43.918114732849062 0 0 0 0 -116.18814132568968 79.799048326298362 0 79.799048326298362 43.789094229010516 0 0 0 0 -126.00358477800319 52.842465869776788 0 52.842465869776788 26.325368130404968 0 0 0 0 -121.51163326586607 80.098369853702025 0 80.098369853702025 -36.709216739225667 0 0 0 0 -12.256138167280824 27.75327450104669 0 27.75327450104669 -55.492450040241238 0 0 0 0 -125.63383343785732 62.629909730631653 0 62.629909730631653 -21.06005115545122 0 0 0 0 -4.0676703498837634 2.0333437202667746 0 2.0333437202667746 2.2508247319908889 0 0 0 0 -136.83807289384049 89.032743015442975 0 89.032743015442975 -33.193532155710272 0 0 0 0 -23.938759508719613 1.6819417292244907 0 1.6819417292244907 23.844669999729376 0 0 0 0 -13.222945971713671 7.3529091322343447 0 7.3529091322343447 -11.32139924560397 0 0 0 0 -12.082032981374656 11.896110036539639 0 11.896110036539639 20.739348627009321 0 0 0 0 -119.40902003314841 80.256045364345482 0 80.256045364345482 -43.180711806489853 0 0 0 0 0.37740194138923044 1.5417035667806971 0 1.5417035667806971 -2.0017349291348125 0 0 0 0 -3.967434496393305 -0.51453762256906543 0 -0.51453762256906543 4.7763132611676937 0 0 0 0 53.896729887811262 191.04405888224574 0 191.04405888224574 -374.78084209754888 0 0 0 0 18.257462846027295 300.66638788233104 0 300.66638788233104 -227.68327387921454 0 0 0 0 -125.90838560726718 136.35490898384887 0 136.35490898384887 160.51648386221495 0 0 0 0 -110.43732554695362 118.45066070085159 0 118.45066070085159 -68.329445797964581 0 0 0 0 -196.31593989559519 67.588467103778385 0 67.588467103778385 62.143441772263031 0 0 0 0 -172.84155171094903 9.3774651844250911 0 9.3774651844250911 -141.12117532134289 0 0 0 0 -218.15982141662437 9.3505705526767997 0 9.3505705526767997 -140.14597070927266 0 0 0 0 -141.61820520753918 122.47104035629309 0 122.47104035629309 -119.45342993084341 0 0 0 0 -452.26256057988439 159.09586370612669 0 159.09586370612669 -108.22636514058104 0 0 0 0 -45.303137759571968 420.0554782597319 0 420.0554782597319 283.05302266826038 0 0 0 0 83.007039347348751 -279.38278510442615 0 -279.38278510442615 68.604197193330037 0 0 0 0 118.95842420360509 -241.20860068027832 0 -241.20860068027832 146.57782402525481 0 0 0 0 -48.422581817769526 -190.22064861200488 0 -190.22064861200488 400.6493528654828 0 0 0 0 54.652250390698441 -144.33666875561903 0 -144.33666875561903 53.412509329689783 0 0 0 0 -149.73693831437362 45.821864748024382 0 45.821864748024382 78.126081887923647 0 0 0 0 -113.7443829329377 38.683896569084027 0 38.683896569084027 54.497331693724846 0 0 0 0 -103.15128735548046 -25.304061077404185 0 -25.304061077404185 150.2742987250067 0 0 0 0 -132.94680299604909 -41.087982129116426 0 -41.087982129116426 153.83302477899997 0 0 0 0 52.563823344106027 -140.87137892334431 0 -140.87137892334431 151.02755036054828 0 0 0 0 -54.273621184898786 -53.008711245518498 0 -53.008711245518498 83.593904981637024 0 0 0 0 -22.652433036170578 -20.221578304452123 0 -20.221578304452123 94.557348501770321 0 0 0 0 93.950228560689723 -137.1728206971693 0 -137.1728206971693 89.436661388084758 0 0 0 0 48.369164716483738 -124.3371581911415 0 -124.3371581911415 229.00419768835127 0 0 0 0 48.920422281753872 -110.59083876421937 0 -110.59083876421937 72.098358411320078 0 0 0 0 78.894640106756015 -114.55973399208597 0 -114.55973399208597 66.839365487587202 0 0 0 0 -6.48929241254109 20.215803676168434 0 20.215803676168434 64.505836069365614 0 0 0 0 8.9831875934241907 -1.8895897701113427 0 -1.8895897701113427 52.080894393744529 0 0 0 0 6.199021884456215 25.159372788933979 0 25.159372788933979 135.10116480914803 0 0 0 0 1.921464966754387 -1.1083083945650003 0 -1.1083083945650003 5.7302386849817282 0 0 0 0 50.267074280786517 -73.617763042037041 0 -73.617763042037041 -11.39866299975256 0 0 0 0 5.2363546900007805 8.0516237959454884 0 8.0516237959454884 283.87811128831163 0 0 0 0 3.1624192804054774 0.37331843322579061 0 0.37331843322579061 -1.6485330666346982 0 0 0 0 -15.199371993602217 4.071894219010602 0 4.071894219010602 10.066751901074539 0 0 0 0 -15.468320842630874 -0.75179502946411958 0 -0.75179502946411958 53.581916318213189 0 0 0 0 -10.905837690305553 8.4383233969448668 0 8.4383233969448668 11.096763757674239 0 0 0 0 -58.547317264858521 4.7648434813490894 0 4.7648434813490894 56.657809209395054 0 0 0 0 45.367325216881 -44.002331232999495 0 -44.002331232999495 -68.638421253221168 0 0 0 0 -25.819428509774298 31.977287104211428 0 31.977287104211428 22.735235587926582 0 0 0 0 1.9388997970032165 14.031218290092511 0 14.031218290092511 174.00100357494375 0 0 0 0 10.127481625315252 -9.7314351251727516 0 -9.7314351251727516 8.4007667245955417 0 0 0 0 -29.730766087566735 -48.505023976593293 0 -48.505023976593293 16.959056485924521 0 0 0 0 27.090242243214107 -2.4295478948370146 0 -2.4295478948370146 142.04321950731537 0 0 0 0 4.9326454565259255 -2.7407005312685442 0 -2.7407005312685442 1.8002364750652475 0 0 0 0 44.17342002942712 40.926519841515983 0 40.926519841515983 150.5885669329291 0 0 0 0 87.377299287289247 -155.59221816467016 0 -155.59221816467016 -28.035699406449567 0 0 0 0 -33.619269703424607 60.648412458089297 0 60.648412458089297 540.72132866837637 0 0 0 0 15.695383551239047 -30.190908158489037 0 -30.190908158489037 177.59435599730932 0 0 0 0 10.927231296668879 15.832265936998738 0 15.832265936998738 123.50350729600905 0 0 0 0 -12.095256105246108 -19.171668494345795 0 -19.171668494345795 121.55338849443797 0 0 0 0 15.270857434684558 -0.085705241144751199 0 -0.085705241144751199 48.49284398839518 0 0 0 0 -15.359849246667864 3.9656258690738468 0 3.9656258690738468 110.74872373350081 0 0 0 0 -9.9651744145629664 12.888527227834857 0 12.888527227834857 109.96518362406732 0 0 0 0 0.76260048843573713 -5.9589912438241299 0 -5.9589912438241299 47.411775449087145 0 0 0 0 -8.1173454594951977 -7.4264765648476896 0 -7.4264765648476896 149.81613597662363 0 0 0 0 6.8463721674035014 -32.695608169691695 0 -32.695608169691695 176.64418023951703 0 0 0 0 -19.395423348671358 7.1364227985341131 0 7.1364227985341131 173.82847228496394 0 0 0 0 -21.170825386323145 5.6486034385488892 0 5.6486034385488892 157.38155540416483 0 0 0 0 -14.754130160599516 -8.0974336772196693 0 -8.0974336772196693 151.88312596890319 0 0 0 0 -3.2468474439794188 -4.9073026992555242 0 -4.9073026992555242 2.1231707709430339 0 0 0 0 1.4485952993906039 -34.485208907375636 0 -34.485208907375636 -14.482050871414685 0 0 0 0 42.792667338358797 27.228236977796769 0 27.228236977796769 -15.175413002929417 0 0 0 0 55.950749907649936 73.544393680916983 0 73.544393680916983 52.746524606729508 0 0 0 0 -11.350111281507395 49.401446915086126 0 49.401446915086126 103.97089830370169 0 0 0 0 2.066931698769281 31.51741643481364 0 31.51741643481364 102.47492660325952 0 0 0 0 -5.7302826466147394 16.450798252313689 0 16.450798252313689 109.42731880885549 0 0 0 0 12.439652214502303 13.494387622005888 0 13.494387622005888 35.831933885143371 0 0 0 0 -3.4023671930629007 23.122192874085158 0 23.122192874085158 109.49463866644606 0 0 0 0 -69.46365129897228 21.599008979756036 0 21.599008979756036 216.42640177460271 0 0 0 0 -15.896955587583932 11.019647242315841 0 11.019647242315841 204.00051731048734 0 0 0 0 -0.076562364175020131 32.189629790915205 0 32.189629790915205 282.65349656785838 0 0 0 0 73.868943920275015 134.43776872829039 0 134.43776872829039 155.69225852523232 0 0 0 0 -0.048861708661271958 -0.0017767460291864268 0 -0.0017767460291864268 1.6324749914242602 0 0 0 0 -8.0574981461492072 68.883211856100388 0 68.883211856100388 194.40220412856434 0 0 0 0 -3.759203770935045 88.550951031196746 0 88.550951031196746 206.58785663874733 0 0 0 0 -93.360544367110293 66.305536968553497 0 66.305536968553497 281.461451631214 0 0 0 0 141.7612343340783 -169.3540529513557 0 -169.3540529513557 454.44490898645017 0 0 0 0 3.442785399893153 73.981697424329468 0 73.981697424329468 195.42936391370313 0 0 0 0 -35.219714834279955 148.71573435613755 0 148.71573435613755 256.79878117050976 0 0 0 0 0.11790730227906457 -39.040041484535323 0 -39.040041484535323 54.978577236295678 0 0 0 0 -100.37362543161842 -10.713453775155358 0 -10.713453775155358 197.05422890310376 0 0 0 0 -0.74723110229475642 0.062496272050722723 0 0.062496272050722723 0.080240731841627166 0 0 0 0 -62.063250594795981 53.272552107047886 0 53.272552107047886 -14.655675458372571 0 0 0 0 -36.651281301547556 -58.963793989027181 0 -58.963793989027181 300.79913311562268 0 0 0 0 -21.410894750795293 -2.1390257439488778 0 -2.1390257439488778 29.192457787405147 0 0 0 0 -29.204300823670373 1.136081366938015 0 1.136081366938015 37.868355571168649 0 0 0 0 -26.326677811822606 -17.494975611196423 0 -17.494975611196423 38.002878008897824 0 0 0 0 7.7363752901416092 11.845241211220127 0 11.845241211220127 149.67250793896892 0 0 0 0 3.2078111308328516 -0.67857740153340274 0 -0.67857740153340274 135.2317933370432 0 0 0 0 -1.0464343789710768 -1.56273617313812 0 -1.56273617313812 2.8284764055554632 0 0 0 0 -22.335675967272429 -7.2564227896123157 0 -7.2564227896123157 11.777706570981536 0 0 0 0 -2.0338317287104752 -0.46279341389553963 0 -0.46279341389553963 3.1017608610293905 0 0 0 0 -19.266715032310302 -14.228541874421353 0 -14.228541874421353 41.918339469426428 0 0 0 0 -15.892446707548274 26.122691152937477 0 26.122691152937477 62.880185871945287 0 0 0 0 -12.908159965902783 -12.970283632506778 0 -12.970283632506778 8.6079484080692055 0 0 0 0 -0.1933158947342794 -0.025376822583041303 0 -0.025376822583041303 0.10281718150707775 0 0 0 0 -58.629145842624865 -2.2641839393800183 0 -2.2641839393800183 15.022822731669294 0 0 0 0 -14.699855568976751 12.514045929874555 0 12.514045929874555 54.2693166250574 0 0 0 0 9.5185336098540461 -17.316246815855266 0 -17.316246815855266 -35.823466109533911 0 0 0 0 -82.986475190973749 -7.1708317277007154 0 -7.1708317277007154 14.24379864698858 0 0 0 0 -111.10351514647061 39.552724003631738 0 39.552724003631738 36.912556994124316 0 0 0 0 -88.652297336825058 -50.589986761051478 0 -50.589986761051478 45.916112372477073 0 0 0 0 -13.066317926006427 -19.974121602474042 0 -19.974121602474042 -13.705341382388724 0 0 0 0 -0.5547270822687832 0.27452098439414385 0 0.27452098439414385 1.8612226712372522 0 0 0 0 -19.434667147550442 26.475204515489168 0 26.475204515489168 -22.589969731401652 0 0 0 0 -0.37367697548599782 0.25181430184913722 0 0.25181430184913722 1.8426614593344652 0 0 0 0 -54.774198892094319 -42.516463014369947 0 -42.516463014369947 -25.022883714918862 0 0 0 0 -0.063084336381746209 -24.595344852659764 0 -24.595344852659764 26.591185458248219 0 0 0 0 1.4127448660190964 3.3928955975570716 0 3.3928955975570716 34.060026803173969 0 0 0 0 15.041626553860439 2.4026406861012219 0 2.4026406861012219 34.56004389928421 0 0 0 0 -6.8523063024557187 -13.498065304895135 0 -13.498065304895135 9.1668800289189676 0 0 0 0 -0.17720928649276668 -0.0078123564967995662 0 -0.0078123564967995662 0.088240207311713448 0 0 0 0 20.403964920156891 -9.1969954802771099 0 -9.1969954802771099 59.074595829621103 0 0 0 0 4.02450588194095 -26.126906797585889 0 -26.126906797585889 126.85581514756632 0 0 0 0 0.0066718711165208756 1.9632635959678737 0 1.9632635959678737 75.939068239829794 0 0 0 0 7.4350900434530116 -15.142028106718499 0 -15.142028106718499 82.202243691332114 0 0 0 0 5.6664417470792543 -37.406106836322579 0 -37.406106836322579 52.42515771122271 0 0 0 0 -9.1498068571080822 -14.703353600802075 0 -14.703353600802075 184.70631250929 0 0 0 0 17.196463146721086 -15.942507372012187 0 -15.942507372012187 135.21663170105603 0 0 0 0 -5.054680065140122 -34.795221149841382 0 -34.795221149841382 126.37781667204399 0 0 0 0 14.248912553073119 -39.108464675361574 0 -39.108464675361574 129.89530332933646 0 0 0 0 -12.946426979262867 30.305064326217689 0 30.305064326217689 93.807871693060406 0 0 0 0 0.32386544469829914 -1.374490629772481 0 -1.374490629772481 30.71549648654036 0 0 0 0 -38.704953044465867 19.471011253736833 0 19.471011253736833 94.388366741943173 0 0 0 0 -65.092106718191829 0.76099829160375521 0 0.76099829160375521 96.323974133614684 0 0 0 0 -35.425197023014427 -1.9457717380691975 0 -1.9457717380691975 58.753296552080428 0 0 0 0 -20.210756235029741 -20.969634941066033 0 -20.969634941066033 89.261307419583318 0 0 0 0 -19.575079305938999 -30.661660561236204 0 -30.661660561236204 50.702398095592798 0 0 0 0 5.3845155763748771 -21.010608378432153 0 -21.010608378432153 89.18996608624002 0 0 0 0 -5.2599114726819494 -13.394708665844519 0 -13.394708665844519 99.542971261631465 0 0 0 0 18.347116348345082 -7.6514749398993445 0 -7.6514749398993445 136.758900908535 0 0 0 0 -28.36727881536784 -12.196835551432741 0 -12.196835551432741 136.76080747805827 0 0 0 0 -8.1667963512614676 -8.7202350759253022 0 -8.7202350759253022 176.88863776334983 0 0 0 0 11.372866360539319 31.213750837352563 0 31.213750837352563 156.95772546455555 0 0 0 0 -5.3541639849210014 4.95294544789067 0 4.95294544789067 135.19165338379389 0 0 0 0 2.344188411056443 48.415512207552183 0 48.415512207552183 127.31032993603003 0 0 0 0 -0.56450464133627065 30.74052018851944 0 30.74052018851944 160.04894707041967 0 0 0 0 -3.9674270904431523 -19.119108089082147 0 -19.119108089082147 94.468765531675672 0 0 0 0 0.10313044404119864 43.556416233783239 0 43.556416233783239 109.02872482611565 0 0 0 0 73.287566089093843 4.3976506166000036 0 4.3976506166000036 127.87950879608252 0 0 0 0 -2.4174834916372063 49.410962205896112 0 49.410962205896112 229.41130382177653 0 0 0 0 30.34635473793378 106.10441942398757 0 106.10441942398757 220.82584131399926 0 0 0 0 -14.177345521962934 -29.283972443576204 0 -29.283972443576204 142.89287456868624 0 0 0 0 -15.120434017893331 -45.673286944849679 0 -45.673286944849679 311.95319708372699 0 0 0 0 3.3065236761900394 40.648796379043688 0 40.648796379043688 145.7961524114944 0 0 0 0 0.12039782299461876 63.04983475543122 0 63.04983475543122 153.32665969115624 0 0 0 0 -12.898786264854152 62.53246585780289 0 62.53246585780289 132.36294215365342 0 0 0 0 10.402976108589996 -4.6944032114297443 0 -4.6944032114297443 13.883912064440665 0 0 0 0 39.467925420565024 3.1845467198218103 0 3.1845467198218103 29.35323959512607 0 0 0 0 12.088879588635109 40.666873868849507 0 40.666873868849507 93.844062916039547 0 0 0 0 -12.272422100966423 16.196280285905232 0 16.196280285905232 25.533811773885645 0 0 0 0 -3.2388895048245598 5.3682421048933122 0 5.3682421048933122 3.1054745345026724 0 0 0 0 -2.2676432209237545 13.560359117764222 0 13.560359117764222 6.66111582578705 0 0 0 0 -148.55694132142241 87.360643266094485 0 87.360643266094485 8.5572787750934367 0 0 0 0 -27.897123370542317 -5.4496684941186686 0 -5.4496684941186686 74.956712310879084 0 0 0 0 -9.9960894434138901 7.908837041663034 0 7.908837041663034 11.766229622090407 0 0 0 0 -29.168878895627813 -13.196915277445441 0 -13.196915277445441 33.87386918910488 0 0 0 0 -5.523033389297666 16.443114180365228 0 16.443114180365228 7.5426362418420467 0 0 0 0 -5.7531588510555594 -10.735604967878317 0 -10.735604967878317 33.128253010450862 0 0 0 0 -3.8966157522181923 -2.6552481320222512 0 -2.6552481320222512 9.1800107695682982 0 0 0 0 -10.501269212334094 -2.3235202538126032 0 -2.3235202538126032 15.244171266800549 0 0 0 0 -5.1699488042966095 0.23262991914816666 0 0.23262991914816666 20.064434828353114 0 0 0 0 11.262359904301775 14.764124150382486 0 14.764124150382486 29.60713400907116 0 0 0 0 -1.3987004833429153 -2.9389802712854589 0 -2.9389802712854589 4.8819467252625941 0 0 0 0 0.044345649366078321 4.8441015756157384 0 4.8441015756157384 0.2521318917636588 0 0 0 0 -5.8377193280040274 1.7558696871274151 0 1.7558696871274151 28.187803346336295 0 0 0 0 11.962986203317314 8.6381967736815568 0 8.6381967736815568 16.398417595888532 0 0 0 0 -1.3388107232498001 4.7954490805346524 0 4.7954490805346524 -0.84260058117520842 0 0 0 0 -15.381211322262288 7.0398466089027352 0 7.0398466089027352 34.400522998002998 0 0 0 0 -507.8860661371591 -261.34497761772673 0 -261.34497761772673 265.48101815896371 0 0 0 0 -170.07578790250773 -152.46948444754889 0 -152.46948444754889 -340.79836683305984 0 0 0 0 53.794843521373252 -180.01860617221428 0 -180.01860617221428 -247.3818770214566 0 0 0 0 31.015633141503713 -444.91208074446877 0 -444.91208074446877 50.832412024668884 0 0 0 0 -104.57713162954042 -187.09910456564285 0 -187.09910456564285 -123.78005238408878 0 0 0 0 -161.36721376410605 -173.42391520880847 0 -173.42391520880847 -110.04955539810544 0 0 0 0 -410.55008004614137 -258.40763407576742 0 -258.40763407576742 109.75614358322855 0 0 0 0 -213.54066730451996 -355.13058128487864 0 -355.13058128487864 -198.15924228941731 0 0 0 0 -210.27675777763579 -510.76772577752854 0 -510.76772577752854 -463.44115217281797 0 0 0 0 -398.84915813139742 -62.706772908964012 0 -62.706772908964012 288.34835353223025 0 0 0 0 -611.55419441461709 -656.88431380692782 0 -656.88431380692782 121.15564760917187 0 0 0 0 -305.49983067158792 -117.78898252777435 0 -117.78898252777435 120.64895862502453 0 0 0 0 -390.76254264740601 -192.39867729308753 0 -192.39867729308753 317.98488261585589 0 0 0 0 8.6435782108364947 17.422770831466551 0 17.422770831466551 213.62356982966594 0 0 0 0 -85.71231605542016 16.067852998869057 0 16.067852998869057 308.00755753769226 0 0 0 0 -2.0634348556104669 -77.012828570983402 0 -77.012828570983402 264.28790242366813 0 0 0 0 -26.844413774299483 -23.979445466768084 0 -23.979445466768084 167.61215412725869 0 0 0 0 9.3973285661299286 -8.5024279856716873 0 -8.5024279856716873 112.08110518607646 0 0 0 0 -18.354169547423226 -24.137632256781217 0 -24.137632256781217 137.23146296599771 0 0 0 0 -17.271586859292256 -9.3132672968586121 0 -9.3132672968586121 123.15659647497705 0 0 0 0 -18.077198446054361 3.8335224812195818 0 3.8335224812195818 10.069644258238878 0 0 0 0 -215.55426091489375 -70.076195662617238 0 -70.076195662617238 9.6807670713387779 0 0 0 0 -5.2722255014869397 2.3300196685318681 0 2.3300196685318681 -2.1529200352206921 0 0 0 0 -335.48995044471667 -495.50972938976156 0 -495.50972938976156 -350.93073553492832 0 0 0 0 -207.66800192226765 -149.60908138175546 0 -149.60908138175546 139.8389181595594 0 0 0 0 -329.48112674000367 -53.304030930512454 0 -53.304030930512454 115.72318832732935 0 0 0 0 -238.29734937058629 -35.932557593093406 0 -35.932557593093406 49.037989603140886 0 0 0 0 -488.23447701698387 265.91797712123844 0 265.91797712123844 71.55067488887471 0 0 0 0 -241.85457067695916 -22.562468760244883 0 -22.562468760244883 12.127956896074465 0 0 0 0 -315.71442791302525 -87.527478084432005 0 -87.527478084432005 200.78392578429339 0 0 0 0 -113.91502323287796 226.44179736521346 0 226.44179736521346 565.90070057248886 0 0 0 0 -386.80794950192649 -464.77023959345206 0 -464.77023959345206 497.44064474059269 0 0 0 0 165.70594427299693 1.3644952881413701 0 1.3644952881413701 312.42405398573828 0 0 0 0 79.962394199519622 -125.02063782600135 0 -125.02063782600135 736.26687124527962 0 0 0 0 113.53778046366097 139.11471450944191 0 139.11471450944191 385.32568461349547 0 0 0 0 26.701267781520073 -20.256018978450811 0 -20.256018978450811 452.9393872734654 0 0 0 0 -6.3113110466856597 -15.671967136515377 0 -15.671967136515377 598.3098196534138 0 0 0 0 16.43737047425293 35.663533536194336 0 35.663533536194336 584.84655391648266 0 0 0 0 4.0865848284938693 106.33076414272728 0 106.33076414272728 696.35457046446209 0 0 0 0 98.805802084823881 110.01717316417125 0 110.01717316417125 660.73666938592214 0 0 0 0 25.929832756534779 78.217792781779281 0 78.217792781779281 750.71797206204428 0 0 0 0 14.973273060644715 257.1896799852293 0 257.1896799852293 1223.5025223308385 0 0 0 0 -37.729184893060847 -29.23319705715403 0 -29.23319705715403 477.37882056040689 0 0 0 0 -70.432592175517129 -23.738250175636495 0 -23.738250175636495 543.76108048317201 0 0 0 0 -30.638618611046695 7.832576441924175 0 7.832576441924175 553.86553036513851 0 0 0 0 -44.228003015124159 12.150852919608951 0 12.150852919608951 494.52812183306014 0 0 0 0 -40.954791993750405 60.815330827699654 0 60.815330827699654 574.55662820752332 0 0 0 0 -60.684078355434394 -9.1524938484108134 0 -9.1524938484108134 567.69000689560198 0 0 0 0 -30.779356771050516 50.091983266202078 0 50.091983266202078 657.48738497525119 0 0 0 0 53.587180502787305 100.28804384051909 0 100.28804384051909 636.63045605861953 0 0 0 0 -9.0181814943825884 63.444757732200742 0 63.444757732200742 661.48645698956534 0 0 0 0 -39.623336537581054 0.23039855304523371 0 0.23039855304523371 591.63564674529334 0 0 0 0 -0.88819906303797325 44.151085423833138 0 44.151085423833138 578.76760053858106 0 0 0 0 14.064242875112541 62.270970409022993 0 62.270970409022993 595.81370358176741 0 0 0 0 -10.385805141518176 23.759288604524045 0 23.759288604524045 544.66061194729991 0 0 0 0 -36.142231748453924 -5.1450064365344588 0 -5.1450064365344588 564.44897607341045 0 0 0 0 -44.359683105551994 -18.115820389126384 0 -18.115820389126384 553.19697960645135 0 0 0 0 14.088152462856669 56.016811615843835 0 56.016811615843835 482.0317727134825 0 0 0 0 36.857078181870747 100.99456556886435 0 100.99456556886435 566.18660927677888 0 0 0 0 -16.760502204776458 28.756844155563158 0 28.756844155563158 569.20375483677344 0 0 0 0 69.80918104261491 102.88087192545208 0 102.88087192545208 475.4551997721137 0 0 0 0 111.69170682904405 187.58169904059105 0 187.58169904059105 611.96100296206987 0 0 0 0 -19.345907870552765 68.322751114354105 0 68.322751114354105 -253.11945200849732 0 0 0 0 -55.820271425927785 -308.02543675012566 0 -308.02543675012566 188.1299028770427 0 0 0 0 -83.449697827614727 362.76173763160114 0 362.76173763160114 507.91463208484492 0 0 0 0 51.747416801656982 84.541949128770284 0 84.541949128770284 464.85102330656264 0 0 0 0 23.784428256094543 89.1700518661346 0 89.1700518661346 477.22472835826875 0 0 0 0 102.52460071497808 -133.14582905833959 0 -133.14582905833959 -136.61321721629793 0 0 0 0 3.8132515825844067 -1.2511914213574435 0 -1.2511914213574435 0.33829207807286821 0 0 0 0 -134.41703591854582 -286.78072890402359 0 -286.78072890402359 497.00137961373548 0 0 0 0 23.097928704031315 -18.849714773644628 0 -18.849714773644628 11.81107261571546 0 0 0 0 -93.841277464220184 -152.08834053976898 0 -152.08834053976898 -217.4586001351181 0 0 0 0 5.3351779756770412 -3.5598400879843908 0 -3.5598400879843908 2.8270350572570919 0 0 0 0 -7.672678626531706 -100.09429331658612 0 -100.09429331658612 -324.20374336106033 0 0 0 0 24.251292346776609 206.54643126138217 0 206.54643126138217 806.76007139309149 0 0 0 0 15.751701830210003 -11.973750463006532 0 -11.973750463006532 7.7625247887319304 0 0 0 0 -111.52834013243773 -117.91370224774073 0 -117.91370224774073 -117.41755000533158 0 0 0 0 -87.888531655446968 -109.74270687425542 0 -109.74270687425542 -117.31462035304503 0 0 0 0 -116.31596120211907 -97.871632776346814 0 -97.871632776346814 120.85074356435871 0 0 0 0 -92.419655299883743 -123.95321252946633 0 -123.95321252946633 -159.47758762871308 0 0 0 0 -113.26465992757176 -147.79671145014572 0 -147.79671145014572 -108.20312749430377 0 0 0 0 -146.33762504786864 -153.93283380508547 0 -153.93283380508547 -107.00742991696461 0 0 0 0 -122.07130344024154 -165.89819562471166 0 -165.89819562471166 -97.940094543497253 0 0 0 0 -77.616743415710516 -174.60184246086283 0 -174.60184246086283 -92.219239189696964 0 0 0 0 -123.35773921316195 -163.40496615885831 0 -163.40496615885831 -75.616351771765039 0 0 0 0 -85.939061930850585 -198.25831845911671 0 -198.25831845911671 -58.165834963860107 0 0 0 0 -78.498876625291814 -220.61668769036623 0 -220.61668769036623 -56.052864427369059 0 0 0 0 -83.357413126052052 -189.83140982926852 0 -189.83140982926852 -131.27560430043013 0 0 0 0 -77.158610565216804 -150.41256309440359 0 -150.41256309440359 -109.13338201181523 0 0 0 0 -47.345974450794529 -159.14837351383039 0 -159.14837351383039 -113.4384417273759 0 0 0 0 -119.96693996544673 -120.07977428853246 0 -120.07977428853246 -45.566214665785083 0 0 0 0 -68.02400993894662 -135.49101787583641 0 -135.49101787583641 -85.086416282596474 0 0 0 0 -116.20959657389903 -158.57498163810124 0 -158.57498163810124 -90.592988229400362 0 0 0 0 72.683289691551181 -5.3519073338065937 0 -5.3519073338065937 -20.476071019664232 0 0 0 0 -1.0940889177361441 0.19092303772595187 0 0.19092303772595187 -16.223411803082854 0 0 0 0 -47.690149167094205 -19.48143234086092 0 -19.48143234086092 48.247330510890606 0 0 0 0 -140.7675324514239 -220.26948557932701 0 -220.26948557932701 -51.350175173477055 0 0 0 0 197.21102324448293 -157.85921460254212 0 -157.85921460254212 -41.582769433327485 0 0 0 0 -29.920867310240283 -251.13172762171598 0 -251.13172762171598 -196.14104823957314 0 0 0 0 -41.483222464815753 -148.60868790986319 0 -148.60868790986319 -243.69063773910239 0 0 0 0 -150.20456507581912 -84.780738977869987 0 -84.780738977869987 -136.96075176680461 0 0 0 0 -169.8848383591212 -211.58292308943601 0 -211.58292308943601 -230.74694170391558 0 0 0 0 -11.139137706330075 -103.83849002381976 0 -103.83849002381976 -471.06840609025494 0 0 0 0 -2.1586375740726069 0.97890167939257822 0 0.97890167939257822 0.39077195159721079 0 0 0 0 -69.774115414282278 -160.3396069457458 0 -160.3396069457458 -194.30063128024995 0 0 0 0 -2.1417294289585698 -24.201286213348794 0 -24.201286213348794 -207.6859896455062 0 0 0 0 -88.717074909705843 -142.6175487069886 0 -142.6175487069886 -88.09259447302702 0 0 0 0 -99.145833779106397 -127.85976777300584 0 -127.85976777300584 3.7097130421680049 0 0 0 0 -113.26288486412614 -105.69428136987608 0 -105.69428136987608 -103.98241637138563 0 0 0 0 -67.939042967704154 -112.7139807754138 0 -112.7139807754138 -127.4947710007682 0 0 0 0 -131.51309291831785 -109.16337821198522 0 -109.16337821198522 -14.190074670234026 0 0 0 0 -83.076875017419297 -122.22049257335948 0 -122.22049257335948 44.795120194823539 0 0 0 0 -67.22502492762942 -121.4357314906556 0 -121.4357314906556 -12.006666993765066 0 0 0 0 -100.68137176291202 -138.02182372090465 0 -138.02182372090465 58.340928031648218 0 0 0 0 -73.999808986845892 -138.95167363076143 0 -138.95167363076143 6.11674430779658 0 0 0 0 -84.807871786832948 -110.68132715355932 0 -110.68132715355932 -33.57135787804873 0 0 0 0 -63.9510828114162 -79.191335226317278 0 -79.191335226317278 -26.436288073622563 0 0 0 0 -80.71823675097221 -105.46524155746465 0 -105.46524155746465 -46.03287282090605 0 0 0 0 -57.694294830900617 -102.03608266584342 0 -102.03608266584342 -93.06678688865577 0 0 0 0 -56.45983575981154 -77.196118089408628 0 -77.196118089408628 -3.6559451357006765 0 0 0 0 -67.196805433310146 -96.397856922638312 0 -96.397856922638312 48.724282749702979 0 0 0 0 -60.351354573773278 -116.44587867673908 0 -116.44587867673908 -40.805422130059014 0 0 0 0 -22.220629454152004 -89.343410908850274 0 -89.343410908850274 -1.8729316807412033 0 0 0 0 -41.978146600469699 -45.079400740102756 0 -45.079400740102756 29.843443622119594 0 0 0 0 -60.39800791523885 -73.595445435152214 0 -73.595445435152214 -8.3104189514469908 0 0 0 0 8.864868488495631 -14.509693356150819 0 -14.509693356150819 21.021109288319622 0 0 0 0 -42.35669471316055 -20.940377449233438 0 -20.940377449233438 12.134340175784018 0 0 0 0 -52.441128268928878 -19.9398113623065 0 -19.9398113623065 20.60557944285847 0 0 0 0 -45.507939409035316 -65.696079860008467 0 -65.696079860008467 -2.5291983618808445 0 0 0 0 5.1373531062181428 4.0203672926454601 0 4.0203672926454601 17.860779901587648 0 0 0 0 -26.589628676514621 7.5449430802600546 0 7.5449430802600546 14.708420228795148 0 0 0 0 -47.691358186511934 25.942324299878237 0 25.942324299878237 11.61587558582778 0 0 0 0 -27.856287598667222 44.346152583026196 0 44.346152583026196 16.478784686900326 0 0 0 0 -56.789334052898994 33.020857599058218 0 33.020857599058218 23.816733271654812 0 0 0 0 -62.130829276256918 40.446806979453868 0 40.446806979453868 16.663403435362852 0 0 0 0 -96.777857358421898 -0.35731623847641458 0 -0.35731623847641458 14.259793457611522 0 0 0 0 -101.36715174853452 22.942740273447271 0 22.942740273447271 28.795467227338122 0 0 0 0 -87.120347130767186 29.045829331738787 0 29.045829331738787 30.750733130487788 0 0 0 0 -88.311610182085133 -77.010558241887338 0 -77.010558241887338 -0.33304758654639954 0 0 0 0 -91.920219515868666 -36.065931144006754 0 -36.065931144006754 10.463387745880937 0 0 0 0 -67.377373683366386 -18.348064540772612 0 -18.348064540772612 14.222333677280403 0 0 0 0 -128.16898213524837 -40.530550768686226 0 -40.530550768686226 6.4602662602392229 0 0 0 0 -114.76403995270266 -115.72294729022542 0 -115.72294729022542 -46.496482450973417 0 0 0 0 -177.82628129002478 -139.01795274215146 0 -139.01795274215146 -49.430832819755324 0 0 0 0 -168.94864455519382 -100.93944765021479 0 -100.93944765021479 -28.859943365885556 0 0 0 0 -140.28389137815157 -53.525208841055246 0 -53.525208841055246 17.777913829464524 0 0 0 0 -203.2159242227317 -104.57864999777303 0 -104.57864999777303 -23.191563056199811 0 0 0 0 -185.91657162014781 6.1406115761565161 0 6.1406115761565161 60.005874925627722 0 0 0 0 -169.11666686897661 5.5485045579989674 0 5.5485045579989674 40.038101574873508 0 0 0 0 -82.65234595999209 48.680920182898262 0 48.680920182898262 51.824605577712646 0 0 0 0 -252.1126869751206 101.80957627022508 0 101.80957627022508 -10.883207646300434 0 0 0 0 -78.93606250614539 81.013903161248891 0 81.013903161248891 26.583463193135685 0 0 0 0 -213.39558482449866 39.73364947851951 0 39.73364947851951 64.059853072732949 0 0 0 0 -0.31374393544070145 -1.7206276499686268 0 -1.7206276499686268 7.4551038297508185 0 0 0 0 -184.4937237529648 0.27397514344738738 0 0.27397514344738738 49.111797404017125 0 0 0 0 -394.79675866232355 -43.867938454412069 0 -43.867938454412069 51.55880648422567 0 0 0 0 -248.49876906314603 -170.5870304097416 0 -170.5870304097416 -86.846517911631963 0 0 0 0 -310.89995207415859 -82.784926246122495 0 -82.784926246122495 36.026683842279454 0 0 0 0 -1.8447878999711165 -3.3692144065685099 0 -3.3692144065685099 9.3841907904225224 0 0 0 0 -254.5677716198461 -172.34084611206526 0 -172.34084611206526 9.3927685064081743 0 0 0 0 -305.54959817303643 -133.96632251115807 0 -133.96632251115807 45.892808971186241 0 0 0 0 -327.25454763455673 -149.41741880518384 0 -149.41741880518384 34.894279050124169 0 0 0 0 -280.77155563206725 -127.99040255708042 0 -127.99040255708042 -74.720278113200038 0 0 0 0 6.4889772531585095 -34.928284190623344 0 -34.928284190623344 77.150583382295736 0 0 0 0 -18.240429322987438 -44.492887041484209 0 -44.492887041484209 124.66761093009154 0 0 0 0 74.475897693264415 -90.335135401301159 0 -90.335135401301159 77.653793585064705 0 0 0 0 64.066337949985154 -65.630106126605824 0 -65.630106126605824 24.838451922943932 0 0 0 0 -0.30378094531696931 -6.6802781467883854 0 -6.6802781467883854 8.5993135644533254 0 0 0 0 68.974312259726503 -127.38601059285611 0 -127.38601059285611 163.65160336866029 0 0 0 0 27.615087278065403 -79.768909405342129 0 -79.768909405342129 171.77190837532657 0 0 0 0 -29.782115492340381 56.549534389036126 0 56.549534389036126 -3.1009985314158257 0 0 0 0 -23.913677457450376 -51.346092781019053 0 -51.346092781019053 84.542675959233748 0 0 0 0 -4.5389476691543678 -6.3770061543782504 0 -6.3770061543782504 63.048248163286189 0 0 0 0 4.7106560645393465 -11.189301170468717 0 -11.189301170468717 23.147420594432774 0 0 0 0 -7.5643532422181536 1.0802700346629699 0 1.0802700346629699 47.260301250692052 0 0 0 0 -6.3052750612749424 -5.7758892760673959 0 -5.7758892760673959 61.034859363313139 0 0 0 0 -1.4044617664876569 -19.300242089648236 0 -19.300242089648236 35.79641540797229 0 0 0 0 -80.822949364063334 41.140336794825544 0 41.140336794825544 75.468930005918082 0 0 0 0 -55.249401497501822 63.932890262596629 0 63.932890262596629 48.75287859216769 0 0 0 0 -30.400209745593656 -96.195074324762345 0 -96.195074324762345 125.21819406989448 0 0 0 0 1.9046510897483806 -33.306527878028199 0 -33.306527878028199 15.233255904723469 0 0 0 0 2.4248872153106902 2.6343543891128887 0 2.6343543891128887 18.238574426406938 0 0 0 0 -182.15244504781913 105.83425871083409 0 105.83425871083409 211.03037846386428 0 0 0 0 -31.268181695307248 -34.999476234852409 0 -34.999476234852409 176.01690472499354 0 0 0 0 -6.1087235697676352 12.327811698486052 0 12.327811698486052 64.07375670492172 0 0 0 0 -35.603535143671124 37.010232871719595 0 37.010232871719595 37.930504898933577 0 0 0 0 -35.540927501958322 54.78076276655338 0 54.78076276655338 28.920590600057039 0 0 0 0 -54.681654616355445 42.293645225250657 0 42.293645225250657 25.467077120520116 0 0 0 0 -86.324726751022069 50.413265177923563 0 50.413265177923563 43.938703168198117 0 0 0 0 -80.172351205565064 43.383849274163367 0 43.383849274163367 106.12277697661193 0 0 0 0 -46.558949546688382 44.342586692768236 0 44.342586692768236 29.373051992602996 0 0 0 0 -52.994521097074539 50.745266531008383 0 50.745266531008383 26.350546746655255 0 0 0 0 -78.088069051705133 36.05958571238989 0 36.05958571238989 6.065012202339858 0 0 0 0 -44.908505021246128 63.552307944026325 0 63.552307944026325 -0.81640924162275041 0 0 0 0 -59.39077500655003 61.015727243473521 0 61.015727243473521 28.863404690021525 0 0 0 0 -56.18038284713748 83.230202881290097 0 83.230202881290097 -68.507306544190214 0 0 0 0 -1.5013147425961506 41.839324082136955 0 41.839324082136955 -3.2561939955726302 0 0 0 0 131.43341715418774 35.071276184145063 0 35.071276184145063 32.48939779027819 0 0 0 0 -5.7774362181100969 22.073345542906281 0 22.073345542906281 -11.894388297805563 0 0 0 0 -13.603677356560784 19.102802774724729 0 19.102802774724729 40.877508369420632 0 0 0 0 -6.3925371819366426 1.1395782286366654 0 1.1395782286366654 14.464859716837587 0 0 0 0 -9.7343022772806762 309.77530877102117 0 309.77530877102117 -49.004899214181933 0 0 0 0 0.35029357228310509 3.1804776333111895 0 3.1804776333111895 2.5431954001376438 0 0 0 0 -109.66585992057162 -280.08782541096457 0 -280.08782541096457 255.21797723379768 0 0 0 0 170.78728058631714 -129.28358029895026 0 -129.28358029895026 -152.29024490680376 0 0 0 0 108.93664242382511 145.21724682813783 0 145.21724682813783 -171.88272980648293 0 0 0 0 34.316401669717834 -216.01363910931786 0 -216.01363910931786 268.41347397553091 0 0 0 0 -4.1972053406461782 -62.554662591027409 0 -62.554662591027409 60.229657721159128 0 0 0 0 145.51283973877526 -216.41006651611951 0 -216.41006651611951 -31.463713845436359 0 0 0 0 114.94057955134076 -290.52006403679752 0 -290.52006403679752 412.05567910896252 0 0 0 0 25.744978272090862 -105.29853637569002 0 -105.29853637569002 189.64728207204189 0 0 0 0 -6.8403149972318715 -95.244832136787863 0 -95.244832136787863 313.42057766080688 0 0 0 0 30.843977692576118 -149.57870159472486 0 -149.57870159472486 238.58495224257149 0 0 0 0 -10.027722783038371 216.28201735913535 0 216.28201735913535 279.2508236331596 0 0 0 0 -55.636780520489992 6.3566059068061804 0 6.3566059068061804 196.85947480618688 0 0 0 0 108.00362714261337 230.87790443621043 0 230.87790443621043 3.2115678117252173 0 0 0 0 -78.880704496515136 26.299398768393985 0 26.299398768393985 850.85577662714786 0 0 0 0 85.026792195833877 483.51939143378786 0 483.51939143378786 424.73839004931142 0 0 0 0 -46.498967088903612 139.42629816915149 0 139.42629816915149 147.38713210131391 0 0 0 0 49.643901697239471 112.46549317524568 0 112.46549317524568 49.935138943043739 0 0 0 0 6.02813811490023 93.241880682418923 0 93.241880682418923 182.01744570886785 0 0 0 0 -3.1926106451443665 -0.58576491190752211 0 -0.58576491190752211 -0.32130850601383187 0 0 0 0 -31.332156956498011 -25.469778571146207 0 -25.469778571146207 83.527065866328485 0 0 0 0 172.59427471062736 -26.35072647981815 0 -26.35072647981815 129.75605567891716 0 0 0 0 -12.785522396164424 -22.703724812909513 0 -22.703724812909513 77.207172057212574 0 0 0 0 -63.138339531720248 -45.026756787113982 0 -45.026756787113982 342.79431340399788 0 0 0 0 54.381097724357772 74.881089739501022 0 74.881089739501022 135.19594286543906 0 0 0 0 -11.132376276519608 3.054828655745041 0 3.054828655745041 113.63592046479971 0 0 0 0 -6.90641361382567 -7.1255143197085609 0 -7.1255143197085609 4.9284462302564265 0 0 0 0 -3.5168136106130987 -45.77615495921782 0 -45.77615495921782 42.350972815831483 0 0 0 0 -60.342685462394456 -73.861831559272559 0 -73.861831559272559 187.66049558303621 0 0 0 0 -72.417284368084438 -20.15549742767007 0 -20.15549742767007 253.83302154543617 0 0 0 0 -75.224895809656573 -82.152822767676298 0 -82.152822767676298 296.10582362899004 0 0 0 0 -60.064299408504667 12.689795790819517 0 12.689795790819517 286.95810188537928 0 0 0 0 -76.63433507870559 1.4103400726694417 0 1.4103400726694417 286.7409872908047 0 0 0 0 -17.870494939368655 61.526964344111548 0 61.526964344111548 205.9952020226101 0 0 0 0 -21.250376438183594 66.691224563018295 0 66.691224563018295 219.34629088020938 0 0 0 0 -58.25471012917933 -9.2450907022584943 0 -9.2450907022584943 217.34226710785242 0 0 0 0 -72.75407602881819 -0.44870121008307251 0 -0.44870121008307251 233.07483409171618 0 0 0 0 32.113615840284183 -12.996485295735511 0 -12.996485295735511 779.89883661843305 0 0 0 0 397.39282890411391 -422.66683920571518 0 -422.66683920571518 370.15315835685669 0 0 0 0 7.9857456198124055 5.4167745168042529 0 5.4167745168042529 330.95765993627629 0 0 0 0 -53.043211157614223 -14.204657939722892 0 -14.204657939722892 376.11426808555552 0 0 0 0 20.479963784738175 -68.247958948030146 0 -68.247958948030146 532.762143563672 0 0 0 0 96.767326584346847 164.23718885939434 0 164.23718885939434 424.33054746507287 0 0 0 0 5.0194660766665038 118.41538060333914 0 118.41538060333914 318.07112184544576 0 0 0 0 10.802578816206733 99.647348045705257 0 99.647348045705257 376.68391294078447 0 0 0 0 1.3465669274285732 -2.1194372943230659 0 -2.1194372943230659 4.3930610678228188 0 0 0 0 239.33502317470084 289.77795995030738 0 289.77795995030738 429.38113145512216 0 0 0 0 150.07493225819235 -158.16404728939483 0 -158.16404728939483 107.04875540334979 0 0 0 0 89.971323275991381 168.54898169141234 0 168.54898169141234 714.29512481885922 0 0 0 0 98.668476266055222 -7.1074757491696801 0 -7.1074757491696801 -64.346316716705587 0 0 0 0 -3.3758604610120528 92.608769672854805 0 92.608769672854805 -34.712418429462559 0 0 0 0 89.640963624953656 45.234626943141848 0 45.234626943141848 6.7634472368281422 0 0 0 0 226.52140821501564 206.43815988093377 0 206.43815988093377 152.89561559519643 0 0 0 0 20.620934869852135 23.277771516271969 0 23.277771516271969 54.619351812686546 0 0 0 0 -88.570257853382714 5.3786537206516982 0 5.3786537206516982 67.823535762667234 0 0 0 0 0.84448279649244729 -3.2257649431276549 0 -3.2257649431276549 15.229353887531587 0 0 0 0 76.449017933177402 25.854709144764684 0 25.854709144764684 14.948269006770715 0 0 0 0 -21.672953125881577 19.866120656581188 0 19.866120656581188 15.101642655821706 0 0 0 0 -1.345667874452444 -3.1938221369394664 0 -3.1938221369394664 4.2225230539798453 0 0 0 0 -21.949970880168621 54.068085875433098 0 54.068085875433098 129.68179176993635 0 0 0 0 -31.226013358389537 42.624304600518371 0 42.624304600518371 121.31800472725627 0 0 0 0 81.867881410579912 106.11952558903101 0 106.11952558903101 93.815293916999508 0 0 0 0 -12.328491649908756 72.264805829332545 0 72.264805829332545 108.75323600301999 0 0 0 0 6.8242065436188568 82.551192253288718 0 82.551192253288718 114.22465839321376 0 0 0 0 -31.583293746171648 44.875313274021892 0 44.875313274021892 192.55538555575185 0 0 0 0 11.577776346863175 103.10851519255448 0 103.10851519255448 202.79353963741721 0 0 0 0 24.652152583156749 51.358443161905598 0 51.358443161905598 55.917448147392861 0 0 0 0 25.999550792200353 53.185819755864031 0 53.185819755864031 50.91245658540538 0 0 0 0 -34.572464902626962 58.25831837982696 0 58.25831837982696 71.472546940665779 0 0 0 0 26.167667459263683 78.490665349689152 0 78.490665349689152 64.077085529810574 0 0 0 0 -59.628988993687017 100.255812094867 0 100.255812094867 86.25317681258548 0 0 0 0 -37.724393042917654 126.71066864563954 0 126.71066864563954 44.391844339425006 0 0 0 0 -6.0758564280940845 80.782333021933937 0 80.782333021933937 55.123591125586245 0 0 0 0 -4.4283436634693771 12.432180655298907 0 12.432180655298907 57.283724843204254 0 0 0 0 -11.498963625786473 5.329566257130864 0 5.329566257130864 73.343222686141871 0 0 0 0 -11.055197499819517 -1.2162557299473811 0 -1.2162557299473811 48.509241661311904 0 0 0 0 95.99581432993773 43.292964501252754 0 43.292964501252754 67.615847499737356 0 0 0 0 0.56950790041343069 11.578894114024942 0 11.578894114024942 8.217853457309424 0 0 0 0 2.996200340260657 46.961218494816421 0 46.961218494816421 71.309936115748314 0 0 0 0 -18.076619051346825 -3.8902937215218572 0 -3.8902937215218572 57.83515906011462 0 0 0 0 -11.802403002862775 -0.46218442107237934 0 -0.46218442107237934 46.380006515571893 0 0 0 0 -1.6518850404559657 -2.0452481614249791 0 -2.0452481614249791 10.670329285809203 0 0 0 0 -7.8638646220949031 -3.7049481762118526 0 -3.7049481762118526 17.994165405943722 0 0 0 0 -8.4250290299549793 -10.292189700957238 0 -10.292189700957238 68.186036251272981 0 0 0 0 -2.427706973787966 -6.1012942617145463 0 -6.1012942617145463 31.837653493851246 0 0 0 0 39.974447872803466 -27.552218604531845 0 -27.552218604531845 -22.684414372277161 0 0 0 0 -7.4664332834463494 -14.56507436230504 0 -14.56507436230504 17.527018673714338 0 0 0 0 1.7624569242764734 -10.90539293187315 0 -10.90539293187315 14.949507555512533 0 0 0 0 2.3654375639527072 -26.382586411228527 0 -26.382586411228527 40.015566441255352 0 0 0 0 9.8406280936284247 -28.074581709446647 0 -28.074581709446647 92.666071899235249 0 0 0 0 -3.801641040851564 -43.605330761625737 0 -43.605330761625737 86.520120384160691 0 0 0 0 4.5268060267459047 -34.974123493552732 0 -34.974123493552732 14.171346028765436 0 0 0 0 -16.658990241989613 -48.460667435334472 0 -48.460667435334472 107.76000786896475 0 0 0 0 97.095350254805908 -50.816849067497969 0 -50.816849067497969 -43.091931730772416 0 0 0 0 -7.9693455336878287 -44.367872217073227 0 -44.367872217073227 322.76581309675294 0 0 0 0 5.8565928677472598 -6.311601861945765 0 -6.311601861945765 -9.1467624017402578 0 0 0 0 -7.5645549141877382 -35.306765526637946 0 -35.306765526637946 159.24766618829744 0 0 0 0 31.381646954147982 1.4348462703082987 0 1.4348462703082987 43.263259003546409 0 0 0 0 135.15510460618816 -131.84164319052434 0 -131.84164319052434 138.19485933997703 0 0 0 0 50.539232868397903 -7.5588551235767909 0 -7.5588551235767909 -2.9687727138471018 0 0 0 0 24.056289731248398 -48.534440647243173 0 -48.534440647243173 148.93284512166792 0 0 0 0 44.625749643771087 -36.745462250013588 0 -36.745462250013588 138.54639491903072 0 0 0 0 -9.5168697371996789 12.694020144535731 0 12.694020144535731 19.941444496052085 0 0 0 0 -42.269702112979758 30.87734337733491 0 30.87734337733491 203.92120128602255 0 0 0 0 -1.4047649241881572 -6.4699947140416043 0 -6.4699947140416043 71.451948440437263 0 0 0 0 1.1629875046432971 -10.863121500042325 0 -10.863121500042325 69.226405590023205 0 0 0 0 -1.2324057744232846 -23.828317507302494 0 -23.828317507302494 60.395243748626996 0 0 0 0 -5.7417462832754609 -38.185881125515152 0 -38.185881125515152 56.579755413880775 0 0 0 0 -9.037887398400926 -8.3004253069811966 0 -8.3004253069811966 30.707882601208098 0 0 0 0 -8.2068330013062223 -50.286362697953336 0 -50.286362697953336 34.778868253524706 0 0 0 0 298.52023412309063 558.72621478742076 0 558.72621478742076 582.9420170583835 0 0 0 0 -7.5146432590167578 32.279874151279387 0 32.279874151279387 46.863001261000029 0 0 0 0 -10.98500461297408 -109.13572247668981 0 -109.13572247668981 80.378574226597266 0 0 0 0 -10.515222822279611 28.759765151047759 0 28.759765151047759 108.90587472052357 0 0 0 0 -1539.9721425826529 -820.38519899669404 0 -820.38519899669404 1827.9927782706845 0 0 0 0 20.422829606338382 125.9228054902128 0 125.9228054902128 181.50544757926673 0 0 0 0 14.748385801685799 -66.173612881467307 0 -66.173612881467307 40.093199890059566 0 0 0 0 -14.704391028865757 65.814351391790751 0 65.814351391790751 346.8451426844149 0 0 0 0 207.80457187048341 158.15251717411184 0 158.15251717411184 304.94568991235792 0 0 0 0 5.9314412074097476 -4.1999637482615562 0 -4.1999637482615562 3.6201221111281345 0 0 0 0 -8.852272365632416 -102.66463529784096 0 -102.66463529784096 -36.48882786145623 0 0 0 0 -135.85821522560582 343.35151765632054 0 343.35151765632054 675.52849047774362 0 0 0 0 -3.2618236732023433 -28.201654133327338 0 -28.201654133327338 -43.799287767396891 0 0 0 0 -50.816959980111278 -38.559610526727283 0 -38.559610526727283 26.470908259262615 0 0 0 0 -17.223047984060031 -49.776111934292203 0 -49.776111934292203 29.462075742593697 0 0 0 0 11.81672715484633 -15.343839855308293 0 -15.343839855308293 11.653472883610286 0 0 0 0 33.426986855067298 -30.710006036938012 0 -30.710006036938012 134.68962857355655 0 0 0 0 -6.9033706865056956 22.645834253023395 0 22.645834253023395 186.5740756805626 0 0 0 0 0.0042605688439163181 7.266257565159834 0 7.266257565159834 1.1039761288987613 0 0 0 0 -72.27174953811209 18.110390994376303 0 18.110390994376303 291.89389678230691 0 0 0 0 -50.167377059126466 -59.651636290392617 0 -59.651636290392617 129.39711882968641 0 0 0 0 117.67219385955286 10.031660184109569 0 10.031660184109569 116.5995405034505 0 0 0 0 50.523200540975267 67.874498129511267 0 67.874498129511267 206.7920105565463 0 0 0 0 -85.85869675181857 -37.713569426658523 0 -37.713569426658523 259.68544412718074 0 0 0 0 -53.313783657556996 -3.4867941518004955 0 -3.4867941518004955 138.73659367844448 0 0 0 0 12.338290138348384 100.26697002785295 0 100.26697002785295 -82.075040003424874 0 0 0 0 0.29481332767143975 -1.9449540747415188 0 -1.9449540747415188 8.1037891299724425 0 0 0 0 -10.474341799557351 45.945955476779091 0 45.945955476779091 -6.8776265623419022 0 0 0 0 -29.418201178414165 -14.067126133533748 0 -14.067126133533748 129.14161152533779 0 0 0 0 -17.498213157308783 -19.787589164547398 0 -19.787589164547398 -24.827401052945788 0 0 0 0 -6.2335682807497319 14.950717917697734 0 14.950717917697734 67.94179646186285 0 0 0 0 -8.4704619396461389 11.380725751492365 0 11.380725751492365 24.583577324008971 0 0 0 0 -72.515031639771678 -7.1588444137960323 0 -7.1588444137960323 258.61597681099829 0 0 0 0 -8.2933135850180406 12.453225001294413 0 12.453225001294413 85.405393481103147 0 0 0 0 5.5903626676035856 -31.140795793720827 0 -31.140795793720827 163.90823597169765 0 0 0 0 -6.2885136381127085 -7.7181269500439518 0 -7.7181269500439518 98.414206081272539 0 0 0 0 -26.536492818137049 31.493787865612831 0 31.493787865612831 192.68907395110273 0 0 0 0 6.3496797616426193 1.2634269834725274 0 1.2634269834725274 103.36382948183018 0 0 0 0 -2.5153151165695817 5.7331450740566652 0 5.7331450740566652 83.651830972541575 0 0 0 0 -2.1291268324166595 14.970453781286778 0 14.970453781286778 97.584473256771162 0 0 0 0 0.18209643445548807 -6.501075109439256 0 -6.501075109439256 117.4873433419707 0 0 0 0 -0.20686960415251221 -0.16738923637763037 0 -0.16738923637763037 23.635638649563759 0 0 0 0 3.4452883294925236 13.792382291952173 0 13.792382291952173 19.00637791338405 0 0 0 0 -7.8662295859300642 27.626288881116402 0 27.626288881116402 39.900940639745798 0 0 0 0 66.033806615391768 107.31452739692122 0 107.31452739692122 31.075433168121691 0 0 0 0 8.8494121767724678 -6.1194038979480112 0 -6.1194038979480112 106.86823760551124 0 0 0 0 5.3965098675444096 -9.3083977997885086 0 -9.3083977997885086 107.23957693628836 0 0 0 0 9.4264695580750413 -18.090240899447963 0 -18.090240899447963 119.73802918513684 0 0 0 0 -1.3172341519421025 -1.0020815789522999 0 -1.0020815789522999 80.642701286429656 0 0 0 0 -1.3346576896547049 -0.80134467367315665 0 -0.80134467367315665 105.03132971301966 0 0 0 0 -3.5572206504102724 11.979855093457445 0 11.979855093457445 92.775555631538737 0 0 0 0 -7.7076749321186071 7.5716366776832729 0 7.5716366776832729 73.133461180665108 0 0 0 0 -1.0520697001575172 -16.038988963748125 0 -16.038988963748125 133.42329044573853 0 0 0 0 -8.0283224654616347 13.406255090694863 0 13.406255090694863 19.178189555346233 0 0 0 0 -1.5391254903623626 5.7939092648696828 0 5.7939092648696828 4.2405105515847588 0 0 0 0 21.9354280291941 -0.39285306932833919 0 -0.39285306932833919 100.14220387831665 0 0 0 0 -0.93108906045665307 -5.1669550513520051 0 -5.1669550513520051 3.1091822893306125 0 0 0 0 -3.7096514206414213 6.704083332699156 0 6.704083332699156 101.86548613807827 0 0 0 0 -3.6395167178131942 6.5697287460807274 0 6.5697287460807274 86.696474264077551 0 0 0 0 0.53122921730755479 -10.41211317008856 0 -10.41211317008856 84.630664405181051 0 0 0 0 4.7396220614173217 -3.6202286558109336 0 -3.6202286558109336 78.354654400140134 0 0 0 0 -14.096955179913493 -29.5682620882435 0 -29.5682620882435 124.15666238918857 0 0 0 0 0.79115859985275705 0.52370541527223224 0 0.52370541527223224 -0.35576733317722287 0 0 0 0 -0.57906869688849838 -4.4332510644962895 0 -4.4332510644962895 53.710869164140604 0 0 0 0 9.7324641380687353 -1.4130639480272293 0 -1.4130639480272293 93.860851327117416 0 0 0 0 1.569504765985279 -0.36873110050704128 0 -0.36873110050704128 13.332719365682294 0 0 0 0 -1.2999443577173224 -12.891351816375391 0 -12.891351816375391 99.206346997900255 0 0 0 0 -1.7750556754237543 4.7158057644297102 0 4.7158057644297102 11.792865372732777 0 0 0 0 4.937392177309448 8.0842867214396392 0 8.0842867214396392 73.676564389497798 0 0 0 0 3.8491510228213883 13.90926837976258 0 13.90926837976258 81.577584479622601 0 0 0 0 0.42670625412096186 1.0806288902252064 0 1.0806288902252064 50.343451553060731 0 0 0 0 -1.472479324876506 -3.9456878785246303 0 -3.9456878785246303 7.8183661632479184 0 0 0 0 0.50408950997839952 7.0081250729441535 0 7.0081250729441535 60.33178883670189 0 0 0 0 -1.3315994077242976 4.250751893465349 0 4.250751893465349 63.14515362502425 0 0 0 0 -1.2568716193834972 6.5900323241139844 0 6.5900323241139844 62.184340987000269 0 0 0 0 -7.0354521402623504 0.52542569990328047 0 0.52542569990328047 61.84140410130658 0 0 0 0 -2.8816171755133837 8.3649513721102267 0 8.3649513721102267 61.365823226336943 0 0 0 0 -3.9672590836016752 7.5509460411176406 0 7.5509460411176406 59.388703005995922 0 0 0 0 -3.747252576397841 4.155783294415869 0 4.155783294415869 53.460877387653454 0 0 0 0 -6.4666561444319086 -3.0225249209834146 0 -3.0225249209834146 52.794802571620494 0 0 0 0 -17.30756728142569 0.089393299847870367 0 0.089393299847870367 54.024564131166699 0 0 0 0 -6.2793609760392428 3.4567077332212648 0 3.4567077332212648 44.94895952384104 0 0 0 0 1.5551423792303813 -0.95366801147271474 0 -0.95366801147271474 39.020544129569785 0 0 0 0 -0.46622249585743702 -2.7398284399678232 0 -2.7398284399678232 50.841159350115049 0 0 0 0 -3.2239275878018816 -3.2742202378176444 0 -3.2742202378176444 53.188925762515282 0 0 0 0 -1.6298567003171316 -1.0843366129618826 0 -1.0843366129618826 46.047891684858953 0 0 0 0 -4.4927322651646548 -2.1233573584646805 0 -2.1233573584646805 29.932960042344099 0 0 0 0 -4.4183799135753361 -4.0828487889157259 0 -4.0828487889157259 52.71053187887992 0 0 0 0 -9.3746723396234302 -10.354782034456548 0 -10.354782034456548 46.13325907161925 0 0 0 0 -9.1195452527779288 -11.812989686901382 0 -11.812989686901382 32.051553763905062 0 0 0 0 -19.365573744405992 30.847708458285695 0 30.847708458285695 205.87692655529929 0 0 0 0 -13.889422951054428 -11.147808690730045 0 -11.147808690730045 58.943089672546243 0 0 0 0 -4.6647686062678986 -3.9533499393401144 0 -3.9533499393401144 52.450504308493691 0 0 0 0 -9.0098026251635019 -5.8128408725460758 0 -5.8128408725460758 53.466915795739624 0 0 0 0 -4.7963389642775347 -2.2466947573176839 0 -2.2466947573176839 47.739385024884946 0 0 0 0 -7.1020068938960321 -4.3019869903873769 0 -4.3019869903873769 54.085827754404818 0 0 0 0 11.914862759925853 -1.4136783389303673 0 -1.4136783389303673 68.319029251812026 0 0 0 0 -4.707237890727507 -2.0644462121797673 0 -2.0644462121797673 53.264272176745195 0 0 0 0 -5.8030717066576472 -7.4946956358289754 0 -7.4946956358289754 49.392217689877725 0 0 0 0 -8.9664170476390517 14.647890350720267 0 14.647890350720267 96.856735113189501 0 0 0 0 -19.606186080840416 14.825478538200741 0 14.825478538200741 104.74606021113732 0 0 0 0 176.75319551843131 64.628718670990111 0 64.628718670990111 -100.45107399922813 0 0 0 0 -16.607686486729108 19.760066793407873 0 19.760066793407873 91.685971504971803 0 0 0 0 4.4142101865921788 -0.77458901566250837 0 -0.77458901566250837 8.5376421333862194 0 0 0 0 -20.18132566015052 -27.006089851232815 0 -27.006089851232815 9.530322527331009 0 0 0 0 6.2321393390629964 11.280433601102686 0 11.280433601102686 87.866860860341149 0 0 0 0 -0.80995586473678027 -22.424376092220275 0 -22.424376092220275 35.705947762495661 0 0 0 0 -44.047483442909652 -6.260508340151091 0 -6.260508340151091 97.843352117287395 0 0 0 0 -1.4897452470027268 -3.2337638035883316 0 -3.2337638035883316 55.443061995151339 0 0 0 0 36.255045129877928 32.212294658571409 0 32.212294658571409 126.70060425739211 0 0 0 0 -21.252397461641522 -10.082898644355737 0 -10.082898644355737 38.330697968867753 0 0 0 0 -8.0640953918890759 -7.071928448966105 0 -7.071928448966105 61.983694451996733 0 0 0 0 -14.30056247642824 14.740031606303091 0 14.740031606303091 229.94225772628124 0 0 0 0 1.6706484024941481 2.7570105670184404 0 2.7570105670184404 14.443643042291932 0 0 0 0 8.1453965824439365 -21.832392069554771 0 -21.832392069554771 162.79628402748858 0 0 0 0 9.8002993662776134 45.694872828256848 0 45.694872828256848 173.450456692437 0 0 0 0 -18.221906900350177 -3.1146187241988628 0 -3.1146187241988628 189.70873275088525 0 0 0 0 -25.121566922069178 -33.813149947134661 0 -33.813149947134661 130.60255377556769 0 0 0 0 -6.184651935881579 -19.513410487655317 0 -19.513410487655317 64.199190738417443 0 0 0 0 -2.8301605094822904 -7.4064820270836549 0 -7.4064820270836549 58.184007348313877 0 0 0 0 -13.78959434387798 -2.9786178459289658 0 -2.9786178459289658 64.707743060325811 0 0 0 0 -0.27226967466049246 -8.0022943325384404 0 -8.0022943325384404 82.0632250444487 0 0 0 0 3.0787375135469119 -5.532416935715446 0 -5.532416935715446 64.702493210221292 0 0 0 0 11.97298618543573 -3.2857818568227231 0 -3.2857818568227231 62.658024279448 0 0 0 0 3.4511382847376808 -9.3380137288040714 0 -9.3380137288040714 70.55589217927627 0 0 0 0 8.0868861446160736 -0.93254343049557065 0 -0.93254343049557065 74.964476363980793 0 0 0 0 3.0192469797020749 -12.266516320982191 0 -12.266516320982191 73.084839581111737 0 0 0 0 -6.2453262478375109 -7.4206262445877655 0 -7.4206262445877655 105.22904826972808 0 0 0 0 -41.077129558565503 4.5671629024654976 0 4.5671629024654976 65.617477873444386 0 0 0 0 -0.28142995987025188 0.015376815348375317 0 0.015376815348375317 0.25681376516398036 0 0 0 0 53.286731983405843 8.067616644755617 0 8.067616644755617 15.603095996579214 0 0 0 0 1.809286853111189 -16.145064232681761 0 -16.145064232681761 91.557587353676354 0 0 0 0 78.481170243867382 -62.815507361461641 0 -62.815507361461641 68.822076362652297 0 0 0 0 5.4281507454488747 -31.863987444601662 0 -31.863987444601662 202.44092876867217 0 0 0 0 45.806499714110032 15.321503671535538 0 15.321503671535538 179.97553611708281 0 0 0 0 -31.114666245272019 18.510358977022406 0 18.510358977022406 195.00583118218856 0 0 0 0 30.607298239196098 32.673735072210548 0 32.673735072210548 173.52131676671343 0 0 0 0 -0.5363081749273988 30.672084899095353 0 30.672084899095353 189.51753491538693 0 0 0 0 10.950107086156095 4.9671108136026305 0 4.9671108136026305 132.68560765733855 0 0 0 0 -27.048899872148468 -13.42128498776583 0 -13.42128498776583 155.24706876730852 0 0 0 0 -16.359084679641455 -39.627774282289465 0 -39.627774282289465 96.360419195951181 0 0 0 0 -58.823004250074518 -3.7564737966531538 0 -3.7564737966531538 136.38593316327751 0 0 0 0 -1.9888853692382327 2.8695787803626445 0 2.8695787803626445 93.819845511039603 0 0 0 0 4.799862510901221 -16.172579353449692 0 -16.172579353449692 73.418764770376583 0 0 0 0 -28.775817279396506 46.81762468847603 0 46.81762468847603 185.87585129426589 0 0 0 0 -25.771687301210477 -18.56465094854866 0 -18.56465094854866 126.61831609502678 0 0 0 0 -24.281436297270375 -3.3675877206312634 0 -3.3675877206312634 158.35753256669886 0 0 0 0 41.82063245374593 69.007338836792769 0 69.007338836792769 225.26652402824038 0 0 0 0 -1.720200840987141 -11.730831574518204 0 -11.730831574518204 -2.8955534008582422 0 0 0 0 -26.18330971431352 -29.5432804312215 0 -29.5432804312215 69.511948279045441 0 0 0 0 -33.615829528653194 15.657193431115957 0 15.657193431115957 89.728341780144547 0 0 0 0 -5.9564844229366258 -81.987484951228566 0 -81.987484951228566 51.025158450277559 0 0 0 0 -9.355589039941151 75.387610524399861 0 75.387610524399861 139.35840702424775 0 0 0 0 -11.938386608802691 14.061917639349209 0 14.061917639349209 72.020765303064422 0 0 0 0 -8.1796551220871194 -25.294045822916814 0 -25.294045822916814 96.552327820620121 0 0 0 0 -15.589371374339407 -25.395756190286193 0 -25.395756190286193 107.14661255289474 0 0 0 0 -13.037141576240288 18.041029912842532 0 18.041029912842532 22.783799666758568 0 0 0 0 -20.008117901233163 -10.966272690553183 0 -10.966272690553183 63.92518698580534 0 0 0 0 -7.6745467666718064 0.48171285094764471 0 0.48171285094764471 55.271852314393392 0 0 0 0 -10.389135137262102 -22.442084934151353 0 -22.442084934151353 94.150053326795387 0 0 0 0 -8.0595475620948491 3.1381276206152506 0 3.1381276206152506 46.271425279994219 0 0 0 0 -16.116312750273458 -1.4847658596155622 0 -1.4847658596155622 42.767725234829648 0 0 0 0 -9.3660172309355403 9.1695848996437235 0 9.1695848996437235 61.426513659068632 0 0 0 0 -3.7619668657653662 -1.9072017263487453 0 -1.9072017263487453 41.910275562669995 0 0 0 0 -9.331695333348037 3.108813549065033 0 3.108813549065033 46.741403930192973 0 0 0 0 -11.021338929978967 -0.630062473831277 0 -0.630062473831277 46.087405307898379 0 0 0 0 -19.681188721603121 -9.7694731009696625 0 -9.7694731009696625 52.848235069996008 0 0 0 0 10.549249760245857 45.341814296897638 0 45.341814296897638 155.16596564362499 0 0 0 0 -15.063678188955851 -7.6739531807805257 0 -7.6739531807805257 35.992276855016691 0 0 0 0 -13.555246855705263 -2.9010170030451263 0 -2.9010170030451263 52.942451391861141 0 0 0 0 -9.3081378803781263 3.6597151837577258 0 3.6597151837577258 50.942674404679565 0 0 0 0 -11.894936917618907 -0.23972778601455502 0 -0.23972778601455502 56.21985818642861 0 0 0 0 -14.411423687482966 -2.008993112565804 0 -2.008993112565804 68.429258924967144 0 0 0 0 -1.1516491136107732 1.8167038892973277 0 1.8167038892973277 11.475630940854888 0 0 0 0 11.306907742557087 34.899577739195593 0 34.899577739195593 78.128488071339007 0 0 0 0 6.2496866767487518 61.774804401815118 0 61.774804401815118 132.17924020605733 0 0 0 0 3.0514775587125769 -53.783784130724371 0 -53.783784130724371 153.58632788284558 0 0 0 0 100.41583305800032 108.30209056063262 0 108.30209056063262 73.336126870667385 0 0 0 0 31.276548113106401 36.350815663898402 0 36.350815663898402 188.39786661616199 0 0 0 0 3.4286941070747616 3.2526225894418781 0 3.2526225894418781 11.940987146147927 0 0 0 0 34.860482552139729 -29.510725128617651 0 -29.510725128617651 64.703477430318344 0 0 0 0 3.4314344508893555 -81.49660886637821 0 -81.49660886637821 119.90396035553931 0 0 0 0 -10.742122570547508 1.7861856712261215 0 1.7861856712261215 31.532560876035859 0 0 0 0 -15.47355482905725 -22.662051938829066 0 -22.662051938829066 28.295363515148505 0 0 0 0 1.8636800099819766 -2.3150086039590043 0 -2.3150086039590043 -4.7379734539635106 0 0 0 0 73.013186273135943 168.07798004071265 0 168.07798004071265 175.98032982814345 0 0 0 0 13.184174821404667 113.08955450969643 0 113.08955450969643 160.64040404372497 0 0 0 0 1.507802042457584 -0.71547837381465396 0 -0.71547837381465396 0.28978383531291318 0 0 0 0 3.7059659518554326 23.79744310859229 0 23.79744310859229 194.65227864884218 0 0 0 0 29.300384185640723 12.00890329160211 0 12.00890329160211 90.785366972617339 0 0 0 0 -44.587702667378835 -90.848564389430521 0 -90.848564389430521 78.908383903197318 0 0 0 0 -98.790085866752634 105.50276985799587 0 105.50276985799587 216.01740622057855 0 0 0 0 -133.21524854494783 -107.86975954877289 0 -107.86975954877289 130.34275291573431 0 0 0 0 -5.7623326087340754 -8.6818748365902607 0 -8.6818748365902607 99.4896517051926 0 0 0 0 -14.478278695226937 5.1902617830233089 0 5.1902617830233089 9.3747575709270841 0 0 0 0 -159.29974277554766 40.713840241622705 0 40.713840241622705 156.43020417890511 0 0 0 0 -26.054230388564974 28.906066812805193 0 28.906066812805193 24.477430624269346 0 0 0 0 19.787181091169259 -152.35104856766884 0 -152.35104856766884 76.579722089867573 0 0 0 0 24.07476929333825 5.5794954544217035 0 5.5794954544217035 31.814364231584477 0 0 0 0 -7.3736378401578602 -5.6591214234552965 0 -5.6591214234552965 7.0817131291767339 0 0 0 0 25.899785530104054 -23.786041013925569 0 -23.786041013925569 60.686936470121509 0 0 0 0 -62.200613871846144 -145.38249811119022 0 -145.38249811119022 117.29886172763145 0 0 0 0 -132.30187069410113 60.743606545443981 0 60.743606545443981 129.80358305292975 0 0 0 0 -45.102859105249081 -58.856472118490274 0 -58.856472118490274 86.132401112550724 0 0 0 0 -0.12642504105699093 -5.3621613861053543 0 -5.3621613861053543 104.08710885996858 0 0 0 0 -294.56834095020258 -72.522211135623365 0 -72.522211135623365 215.33019053930548 0 0 0 0 -233.76985529354397 -72.870988857633819 0 -72.870988857633819 178.56342882907802 0 0 0 0 36.354371918725519 103.62075620105566 0 103.62075620105566 152.93149258294397 0 0 0 0 63.864028220776163 21.77988593177804 0 21.77988593177804 88.036376611625656 0 0 0 0 -164.47599198607259 12.697668988345299 0 12.697668988345299 155.75924929023267 0 0 0 0 58.478457067863928 118.02767472077358 0 118.02767472077358 151.7267436272432 0 0 0 0 -14.882040177106319 78.915517295809423 0 78.915517295809423 158.34227596342043 0 0 0 0 0.050026040498778457 69.341721588542214 0 69.341721588542214 126.26026448133803 0 0 0 0 0.70563379089799128 23.661766048790469 0 23.661766048790469 228.67210975300827 0 0 0 0 -1.0820473724232897 79.795393624382285 0 79.795393624382285 271.2882211099286 0 0 0 0 -57.190953853696556 -18.596322283983454 0 -18.596322283983454 221.02396097288579 0 0 0 0 -40.880520499371414 9.7957192310436767 0 9.7957192310436767 270.09427338362616 0 0 0 0 32.337069442270149 -103.19193110858987 0 -103.19193110858987 138.14745140844934 0 0 0 0 -60.394116109404422 5.0492247724407662 0 5.0492247724407662 86.639980166538635 0 0 0 0 -128.56207677871316 -82.382069905730987 0 -82.382069905730987 115.16089282771799 0 0 0 0 -48.51519375412272 -40.74421475153531 0 -40.74421475153531 86.966432677968214 0 0 0 0 54.908538665107699 -44.249502116817439 0 -44.249502116817439 68.326984192298823 0 0 0 0 -17.607866783614554 -80.016637340582406 0 -80.016637340582406 131.82956347077925 0 0 0 0 -19.615526889519288 -27.252644009283387 0 -27.252644009283387 64.890111032468212 0 0 0 0 -27.357731639226586 -58.505449880819967 0 -58.505449880819967 67.637803073761461 0 0 0 0 -7.4269029369206692 -37.190369556176847 0 -37.190369556176847 62.210741372698578 0 0 0 0 -122.00958463186544 5.1744357624738768 0 5.1744357624738768 98.165042740881745 0 0 0 0 -70.029568135450972 65.279536872309109 0 65.279536872309109 108.0394201361396 0 0 0 0 -78.439548241637567 75.998278463969655 0 75.998278463969655 94.729560954343469 0 0 0 0 -97.295661411240872 59.903408816071533 0 59.903408816071533 126.32475318368961 0 0 0 0 54.922285856046074 68.721558052886394 0 68.721558052886394 119.28976764609615 0 0 0 0 -7.8634691942479549 6.4539742322249367 0 6.4539742322249367 138.23393479590413 0 0 0 0 -96.994921373522629 83.800710510033241 0 83.800710510033241 197.5707236736198 0 0 0 0 -0.46609134686394693 -6.5786699287069759 0 -6.5786699287069759 102.4709718686467 0 0 0 0 -265.23995997689462 0.54244545833353186 0 0.54244545833353186 180.52335825615955 0 0 0 0 -35.475043331127608 20.240916539427644 0 20.240916539427644 183.05646953514952 0 0 0 0 68.591177848828011 30.396643717859206 0 30.396643717859206 122.52427593022776 0 0 0 0 -19.428257461513567 -67.434429492195932 0 -67.434429492195932 114.27242200427924 0 0 0 0 19.646556789739407 5.3191123302094638 0 5.3191123302094638 192.09763470859616 0 0 0 0 19.646556789735769 5.3191123302312917 0 5.3191123302312917 192.09763470861799 0 0 0 0 -9.7708198688414996 7.9874184644868365 0 7.9874184644868365 191.89245382019726 0 0 0 0 19.64655678973395 5.3191123302276537 0 5.3191123302276537 192.09763470865437 0 0 0 0 11.2932978843819 29.239743291407649 0 29.239743291407649 189.64772650141094 0 0 0 0 -0.82388366380109801 -63.635830591236754 0 -63.635830591236754 20.588057325871432 0 0 0 0 22.213797623073333 23.601138849317067 0 23.601138849317067 187.9167156754047 0 0 0 0 -16.108063130993926 -51.10639461171516 0 -51.10639461171516 34.695663375815407 0 0 0 0 -80.372041671294028 0.023535127194918459 0 0.023535127194918459 268.95926145929297 0 0 0 0 2.1246621241170942 128.07621136558237 0 128.07621136558237 313.75828403878268 0 0 0 0 40.098126996654173 38.511279710878171 0 38.511279710878171 215.17826997857196 0 0 0 0 150.41195239771332 148.60824138579846 0 148.60824138579846 685.46359450634736 0 0 0 0 1.5106986104004285 -1.5581698800554697 0 -1.5581698800554697 1.8622134197302556 0 0 0 0 27.923745543830819 224.0382270594026 0 224.0382270594026 640.72087844563021 0 0 0 0 105.6782899488262 -82.270657579162162 0 -82.270657579162162 -60.447241143412157 0 0 0 0 2.4549955205002334 -69.727366171091489 0 -69.727366171091489 -61.955737968141875 0 0 0 0 -12.911974244700431 -49.27250931175044 0 -49.27250931175044 41.726212351582923 0 0 0 0 53.761524066037964 63.358298540662418 0 63.358298540662418 -200.596348734407 0 0 0 0 -10.85290474742942 -45.777756950756157 0 -45.777756950756157 15.820987816772686 0 0 0 0 9.8230990389248518 -12.141401418608652 0 -12.141401418608652 -14.109617998722754 0 0 0 0 2.9819093295300263 -131.72541942258795 0 -131.72541942258795 318.49544695132499 0 0 0 0 10.796073975405307 -177.52425422440865 0 -177.52425422440865 369.15240794975989 0 0 0 0 108.38247869241059 -15.21497822771039 0 -15.21497822771039 748.77599809119056 0 0 0 0 138.80962044947773 -107.56916018262609 0 -107.56916018262609 135.07358343780288 0 0 0 0 85.770071206736247 112.3364914633853 0 112.3364914633853 317.75898544791016 0 0 0 0 1.2696123269905659 -4.5023216149123151 0 -4.5023216149123151 1.414692564653679 0 0 0 0 152.96879523353527 148.54905620464251 0 148.54905620464251 48.045546980276413 0 0 0 0 65.107534840546577 23.269298030389109 0 23.269298030389109 45.830164606461949 0 0 0 0 147.08267102910759 140.70407968576865 0 140.70407968576865 88.687879201914939 0 0 0 0 129.94840869654763 143.19489462481124 0 143.19489462481124 297.29596407372082 0 0 0 0 53.118733814495499 114.45444972865459 0 114.45444972865459 287.6921120519637 0 0 0 0 210.85422856449804 56.745869883000069 0 56.745869883000069 270.45512287616816 0 0 0 0 172.24416134320927 149.90073727210438 0 149.90073727210438 298.20112126800359 0 0 0 0 80.406537620719973 -25.822760920601468 0 -25.822760920601468 6.9883667463732309 0 0 0 0 7.6074080612888793 73.597379796659084 0 73.597379796659084 511.05424648496773 0 0 0 0 30.422231507753168 -111.33451576590073 0 -111.33451576590073 376.62130656859563 0 0 0 0 122.05117665537 -102.52104201933707 0 -102.52104201933707 106.57884978926177 0 0 0 0 19.961424002402055 -4.8811305405965868 0 -4.8811305405965868 72.132366924544272 0 0 0 0 45.95114415291755 11.523035032158077 0 11.523035032158077 55.263996382218465 0 0 0 0 -54.814935901642457 36.0528960914354 0 36.0528960914354 54.484210650494333 0 0 0 0 -178.96962300064661 -8.141913062157073 0 -8.141913062157073 69.20230160561195 0 0 0 0 -0.49292531967512332 -16.356655800314115 0 -16.356655800314115 69.053254099036394 0 0 0 0 46.46729756973582 47.666166101599401 0 47.666166101599401 25.908753246854076 0 0 0 0 -4.2241119951122528 65.669936222932847 0 65.669936222932847 24.176439142989949 0 0 0 0 12.905528235718521 37.946997199583166 0 37.946997199583166 39.610300204755276 0 0 0 0 -11.143927795743366 3.3848050489903017 0 3.3848050489903017 5.7613446468485563 0 0 0 0 4.797861345653736 -4.9343455675090535 0 -4.9343455675090535 4.6402063142108867 0 0 0 0 61.61643615191042 27.810880383126459 0 27.810880383126459 10.399529076782756 0 0 0 0 15.008848735516949 15.830393421017675 0 15.830393421017675 33.638920545193628 0 0 0 0 129.99652530787171 -31.216359941488918 0 -31.216359941488918 51.536702225988392 0 0 0 0 -3.3092039806288085 -7.9936208692225819 0 -7.9936208692225819 72.322830859706755 0 0 0 0 22.319513734248176 -41.351706617393688 0 -41.351706617393688 26.402838704457508 0 0 0 0 9.5192922663680442 -8.2797034480911087 0 -8.2797034480911087 4.6719149174126358 0 0 0 0 15.122991260259369 73.583830666031645 0 73.583830666031645 238.18278920088233 0 0 0 0 41.046111759152609 33.877287149539541 0 33.877287149539541 48.974298873089538 0 0 0 0 -51.166658938301225 25.373884257301029 0 25.373884257301029 206.30374061922123 0 0 0 0 30.048768497033961 -49.058083016075557 0 -49.058083016075557 119.35167597487111 0 0 0 0 41.329678723142933 -10.544911146241702 0 -10.544911146241702 94.559127540105351 0 0 0 0 164.8345378232209 -135.78767459735758 0 -135.78767459735758 221.44541289456038 0 0 0 0 73.095217120919187 128.79081727732989 0 128.79081727732989 326.28138973381954 0 0 0 0 2.0407633831711465 -2.3582288922030727 0 -2.3582288922030727 0.41994559742371429 0 0 0 0 138.90412692887912 -123.69492794740131 0 -123.69492794740131 44.608821429325531 0 0 0 0 11.586848322584046 -154.99945289464154 0 -154.99945289464154 241.82301110688294 0 0 0 0 -60.105422421846015 -63.260358608738017 0 -63.260358608738017 127.21906744483942 0 0 0 0 20.507383826357909 68.445928695346424 0 68.445928695346424 233.14863346909192 0 0 0 0 217.47743841734427 29.838484390563053 0 29.838484390563053 41.268379765323061 0 0 0 0 62.934744564775428 63.857180519800579 0 63.857180519800579 40.446789160637763 0 0 0 0 -222.40237770366821 8.843673937016149 0 8.843673937016149 146.67003248316337 0 0 0 0 -29.646858821447495 113.50864308374196 0 113.50864308374196 -6.5371621255233094 0 0 0 0 -47.644938182156693 -61.293656144384499 0 -61.293656144384499 -9.4775731827604197 0 0 0 0 -49.845442567845566 -53.204720360356077 0 -53.204720360356077 125.88726849838531 0 0 0 0 -58.74541619716183 -28.426479720139589 0 -28.426479720139589 151.03713097114343 0 0 0 0 13.712007243882908 -22.834401121228847 0 -22.834401121228847 151.37036038588334 0 0 0 0 -13.333106184980352 -27.060128953674251 0 -27.060128953674251 182.53472285008687 0 0 0 0 -12.342852887866023 -1.2775222671774593 0 -1.2775222671774593 -1.2587461894478542 0 0 0 0 4.4099847231009335 -2.8688355960518663 0 -2.8688355960518663 102.71866289725554 0 0 0 0 41.594388641015939 -54.082132281680558 0 -54.082132281680558 102.84926478544179 0 0 0 0 9.0995052392718208 -75.457440037274864 0 -75.457440037274864 128.16475248444021 0 0 0 0 6.9854512407982838 2.5865330100118342 0 2.5865330100118342 10.675663704638744 0 0 0 0 -50.21993317497072 -16.691609277921181 0 -16.691609277921181 103.98956363504044 0 0 0 0 -1.5245023083941387 8.2948864882209072 0 8.2948864882209072 13.776684536995486 0 0 0 0 -21.21796568556389 -4.0859740009824286 0 -4.0859740009824286 28.112768804517763 0 0 0 0 87.326718154188711 -29.12603524721203 0 -29.12603524721203 -3.9944802183407147 0 0 0 0 -21.032624478631078 -22.847345544718138 0 -22.847345544718138 134.37292979220956 0 0 0 0 -43.492278868416179 13.094098277652137 0 13.094098277652137 158.14609198343641 0 0 0 0 -5.2981358515135071 -7.3645964248263311 0 -7.3645964248263311 160.68496674379179 0 0 0 0 -13.740733581934172 -20.385496968949159 0 -20.385496968949159 104.51843467728314 0 0 0 0 -22.829918930125132 38.404069360839344 0 38.404069360839344 56.764643654544557 0 0 0 0 -7.7560835079596799 -5.2899904188428479 0 -5.2899904188428479 14.257143502128972 0 0 0 0 -19.073868546565791 -5.7358810021614772 0 -5.7358810021614772 178.97352310330552 0 0 0 0 -34.726226967744878 32.351145881606499 0 32.351145881606499 92.382643208261015 0 0 0 0 19.240214318365361 -24.421494218636326 0 -24.421494218636326 127.0648529633545 0 0 0 0 -6.3683169965778035 0.14760578226042753 0 0.14760578226042753 23.285751228932707 0 0 0 0 -7.1316720351363614 21.576880402566491 0 21.576880402566491 82.298326430065586 0 0 0 0 -12.28248290877309 7.9970530014434189 0 7.9970530014434189 141.10323236643308 0 0 0 0 -6.2042285688912671 84.093084483549603 0 84.093084483549603 57.034651480401408 0 0 0 0 1.1595590190042913 34.041213774285431 0 34.041213774285431 38.65655287560152 0 0 0 0 139.72798469739973 42.776216389353067 0 42.776216389353067 -129.07423029872439 0 0 0 0 -26.077765528076952 23.959399451795889 0 23.959399451795889 111.76315458779209 0 0 0 0 14.724327274238021 76.151379167917185 0 76.151379167917185 33.529966737814902 0 0 0 0 -4.6283705225068346 36.811390036372316 0 36.811390036372316 21.259645608615088 0 0 0 0 -31.823788056359831 65.420881156010182 0 65.420881156010182 63.931419711894705 0 0 0 0 -47.16446598426046 87.000527226626218 0 87.000527226626218 73.353713216929464 0 0 0 0 -38.660781129530733 73.49757586769374 0 73.49757586769374 93.88928838299762 0 0 0 0 -87.884954276688404 55.444172638896816 0 55.444172638896816 108.17959111764321 0 0 0 0 -2.3149930911637417 -1.3119369987242067 0 -1.3119369987242067 99.537557519861494 0 0 0 0 -67.007308154520615 47.546390730138228 0 47.546390730138228 103.40398194030422 0 0 0 0 -47.619101891748869 -29.903133120629036 0 -29.903133120629036 88.759537291040488 0 0 0 0 -5.8649645661302117 -2.4765150982813866 0 -2.4765150982813866 16.194507486571105 0 0 0 0 -1.4566139752073894 -0.56084933303295337 0 -0.56084933303295337 -0.79313177378519306 0 0 0 0 -112.20523529154343 106.19041724379406 0 106.19041724379406 -50.979972213610722 0 0 0 0 -17.884632696164772 -67.592402592358098 0 -67.592402592358098 51.120700925770734 0 0 0 0 -127.72781339817629 -12.877718705698186 0 -12.877718705698186 135.00675587232377 0 0 0 0 -29.930097009146266 0.029666446544865721 0 0.029666446544865721 65.118179036319702 0 0 0 0 -31.792771001375172 14.003274228011058 0 14.003274228011058 45.754991036749516 0 0 0 0 9.5461447782436153 -29.844640910737738 0 -29.844640910737738 86.153974319411944 0 0 0 0 1.7734543885486822 0.11294011666671366 0 0.11294011666671366 17.259575560834239 0 0 0 0 -68.435762726790927 -28.058515164115278 0 -28.058515164115278 158.75136910215889 0 0 0 0 -56.374468383108251 -33.618741514326686 0 -33.618741514326686 135.77629159355456 0 0 0 0 -4.0431475026353283 -0.56420592303062156 0 -0.56420592303062156 0.15831010932757122 0 0 0 0 -75.319243688592906 -3.3804503601797933 0 -3.3804503601797933 219.72674921565152 0 0 0 0 -136.4186732525668 -66.583143181103765 0 -66.583143181103765 157.81218270137165 0 0 0 0 -236.80794756874366 168.71802195770294 0 168.71802195770294 1519.184918148439 0 0 0 0 424.92362347345625 -101.04629465874513 0 -101.04629465874513 -237.54557625920495 0 0 0 0 0.30361366002769152 -2.3679149445762491 0 -2.3679149445762491 7.6833247644588276 0 0 0 0 -211.21586570544059 139.57855310848572 0 139.57855310848572 1591.0540602244541 0 0 0 0 245.28238506754496 301.16870445010591 0 301.16870445010591 381.79295596194152 0 0 0 0 428.36997108737523 888.86307568528764 0 888.86307568528764 715.55964769767616 0 0 0 0 835.62967371960804 596.66256583916856 0 596.66256583916856 -172.50229120671975 0 0 0 0 -102.24465967878905 -196.55565819934213 0 -196.55565819934213 -261.98808432640453 0 0 0 0 551.46399383396056 -52.763057916899925 0 -52.763057916899925 -529.32723630761348 0 0 0 0 -153.58391246737847 108.74030638121462 0 108.74030638121462 15.706249296502392 0 0 0 0 218.47513339551188 131.23978359336843 0 131.23978359336843 -185.79331334874394 0 0 0 0 8.8799319545796607 171.63179305664653 0 171.63179305664653 -180.35844962878991 0 0 0 0 -223.10302699779641 199.29694525685295 0 199.29694525685295 457.80513612351933 0 0 0 0 -125.27912593927613 -40.245444703982685 0 -40.245444703982685 544.3566705498954 0 0 0 0 -202.69805629016446 55.718472701035807 0 55.718472701035807 501.91656262558899 0 0 0 0 -123.40937863920044 49.020717870160297 0 49.020717870160297 314.72808339048242 0 0 0 0 -116.27317882859097 49.68145950927692 0 49.68145950927692 283.72064014633179 0 0 0 0 -109.43381752316236 56.301549096355757 0 56.301549096355757 75.685594453984777 0 0 0 0 -108.17240623169346 40.60004455703438 0 40.60004455703438 96.877293424154232 0 0 0 0 -73.481766211985814 2.3438093077687654 0 2.3438093077687654 82.353224932336161 0 0 0 0 -42.732410233796145 53.771307410187887 0 53.771307410187887 68.255091820518828 0 0 0 0 -10.711610426051266 25.853000705694285 0 25.853000705694285 11.40848803622157 0 0 0 0 -4.7973382943275666 23.959646720844454 0 23.959646720844454 11.0163785928777 0 0 0 0 -9.6595768653933192 91.955334988989307 0 91.955334988989307 10.468744704507571 0 0 0 0 -4.4749834590783379 4.5849290163886343 0 4.5849290163886343 17.559128974227178 0 0 0 0 -2.698623920299724 105.58446247392385 0 105.58446247392385 -240.39965915646235 0 0 0 0 -195.16246101679849 339.79669890065168 0 339.79669890065168 88.159132889249122 0 0 0 0 -251.21135508701082 210.71935306579871 0 210.71935306579871 1043.3177433621677 0 0 0 0 4.2941365643490563 -2.7121971108025029 0 -2.7121971108025029 3.3290001011998243 0 0 0 0 -278.71368851105944 550.34330586310352 0 550.34330586310352 666.42142641647843 0 0 0 0 4.9720639976352601 5.7056298340067908 0 5.7056298340067908 20.520520877730952 0 0 0 0 -473.3660898170001 -286.45581398276045 0 -286.45581398276045 -56.81503786617759 0 0 0 0 11.035202719911013 -13.122402291524466 0 -13.122402291524466 16.612430694456236 0 0 0 0 -97.140060888192238 -34.105374688811935 0 -34.105374688811935 43.865114972992728 0 0 0 0 11.538211951959966 -2.6481964256781794 0 -2.6481964256781794 47.729993085363617 0 0 0 0 -6.1691107066115052 9.3019565040754699 0 9.3019565040754699 25.798036441029808 0 0 0 0 -1.3076159846932569 7.0586507900043216 0 7.0586507900043216 14.152560593794988 0 0 0 0 -3.336287209756847 20.330406068580487 0 20.330406068580487 27.088826647841415 0 0 0 0 0.70737931986874258 15.485183216204074 0 15.485183216204074 15.993951251419368 0 0 0 0 -12.596136360257297 16.356700163336694 0 16.356700163336694 24.93844142880053 0 0 0 0 -9.9804966945185427 9.8895168445652839 0 9.8895168445652839 1.3485349969948714 0 0 0 0 -9.3633291633650515 24.878802289793384 0 24.878802289793384 36.329292324477137 0 0 0 0 1.0885035207518285 32.755333145542181 0 32.755333145542181 35.540449810530845 0 0 0 0 -1.4128255921023083 21.824892217766319 0 21.824892217766319 24.736273405853353 0 0 0 0 -0.034122853860282021 10.575987072434764 0 10.575987072434764 15.741171802004562 0 0 0 0 5.6326969871497568 11.041802321085925 0 11.041802321085925 5.2887541955496999 0 0 0 0 -8.4739109078648198 25.60673068510232 0 25.60673068510232 15.989282144193567 0 0 0 0 -2.3239422044862295 18.912190078566709 0 18.912190078566709 19.783241200362681 0 0 0 0 -12.124673084545066 12.006327614880774 0 12.006327614880774 17.814611015564878 0 0 0 0 -3.1612061285959498 21.749662438169253 0 21.749662438169253 13.924916173931706 0 0 0 0 4.6484361102565117 19.536462939762259 0 19.536462939762259 12.064536664463958 0 0 0 0 -7.0067995196086628 6.3454207531343165 0 6.3454207531343165 -1.5995852971255431 0 0 0 0 -29.652437099484814 65.715363493476616 0 65.715363493476616 -1.0035867304759449 0 0 0 0 -48.033913662251507 54.393687965039135 0 54.393687965039135 -2.2083267774987689 0 0 0 0 -155.38197361092716 -7.8615290319467022 0 -7.8615290319467022 13.833069664196955 0 0 0 0 -11.997474700707244 3.5600517371967726 0 3.5600517371967726 14.737709961238579 0 0 0 0 -65.320393888243416 27.677095396011282 0 27.677095396011282 19.68114165957013 0 0 0 0 -7.2436432361387233 40.627485582132522 0 40.627485582132522 12.494149876347365 0 0 0 0 -10.259749605067555 22.779387212938673 0 22.779387212938673 28.836032084191174 0 0 0 0 -9.2789871145030816 20.670291408423118 0 20.670291408423118 0.4456771919130631 0 0 0 0 20.615593785807505 -12.418245381840279 0 -12.418245381840279 -41.483985555249092 0 0 0 0 -0.37360501173455418 3.0884417944290163 0 3.0884417944290163 0.63969442299369916 0 0 0 0 259.35717475082492 116.24120398298328 0 116.24120398298328 -30.293534143078432 0 0 0 0 50.77508180994846 66.993856072487688 0 66.993856072487688 19.811268493565876 0 0 0 0 3.4208062696252455 145.78668620284589 0 145.78668620284589 106.2275382409498 0 0 0 0 -219.18699632985226 143.10945611743591 0 143.10945611743591 106.48192705603105 0 0 0 0 505.99348810164884 143.58143983294212 0 143.58143983294212 -190.83928970226589 0 0 0 0 -35.210408895694854 131.30197838113963 0 131.30197838113963 504.72291714838502 0 0 0 0 -121.99908120021973 367.78225973550798 0 367.78225973550798 -49.806852047688153 0 0 0 0 -1.0263027722979317 0.91338765381128439 0 0.91338765381128439 0.13820081742725243 0 0 0 0 76.530112353055301 200.32865752670114 0 200.32865752670114 301.03048854579538 0 0 0 0 -10.792585343737301 60.334003867494175 0 60.334003867494175 228.66572467092919 0 0 0 0 25.27453258146852 66.454463216286968 0 66.454463216286968 212.71469613989393 0 0 0 0 41.256267139604461 50.79593005694187 0 50.79593005694187 225.17729313083873 0 0 0 0 -10.213892644751468 156.95914950634688 0 156.95914950634688 197.75713745735629 0 0 0 0 -28.542833493465878 75.869669308307493 0 75.869669308307493 243.04614644192952 0 0 0 0 47.474667136773974 117.85017565646967 0 117.85017565646967 262.23120860612835 0 0 0 0 31.383041531513868 90.271252749122141 0 90.271252749122141 222.5205649274285 0 0 0 0 -98.436448821332306 -65.806058940870571 0 -65.806058940870571 -65.155482244768791 0 0 0 0 22.950961063846989 29.330170456076303 0 29.330170456076303 348.87065558483482 0 0 0 0 -4.5612114100858889 76.593673995754216 0 76.593673995754216 7.0021726085687988 0 0 0 0 -3.415211675576252 2.4347367200601937 0 2.4347367200601937 -0.061288735235477176 0 0 0 0 -4.8940522341763426 98.256507188791147 0 98.256507188791147 238.17509835473129 0 0 0 0 119.80593475737442 -118.83800616781264 0 -118.83800616781264 21.767039975678927 0 0 0 0 -3.062158432525095 1.3666506269310013 0 1.3666506269310013 -0.94649315499461295 0 0 0 0 -5.2639505312619121 56.090496565313629 0 56.090496565313629 48.930077614619222 0 0 0 0 1.7545596325762745 149.71110977779972 0 149.71110977779972 112.87542086189933 0 0 0 0 -3.9440871962572146 76.631796845577128 0 76.631796845577128 207.54889376201027 0 0 0 0 8.5434304542286554 156.3218886432187 0 156.3218886432187 106.53117408115213 0 0 0 0 2.0000926212815102 122.32632052959525 0 122.32632052959525 240.30952716646789 0 0 0 0 1.9710268519702367 141.56326977640128 0 141.56326977640128 147.15100792149678 0 0 0 0 8.6676630096426379 174.54902274804408 0 174.54902274804408 179.80347455581796 0 0 0 0 -27.627542082662785 186.14620814133878 0 186.14620814133878 178.51281896907312 0 0 0 0 -18.022912950407999 155.8567662500227 0 155.8567662500227 198.06305710296147 0 0 0 0 -21.895080760674318 178.21700472160046 0 178.21700472160046 158.17652052251287 0 0 0 0 63.860736633412671 176.49752862277091 0 176.49752862277091 157.46764638305467 0 0 0 0 -16.831188715929784 206.69542367741997 0 206.69542367741997 212.41514570786967 0 0 0 0 74.129385067033581 186.16553359006684 0 186.16553359006684 215.49008118648635 0 0 0 0 -75.186232952582941 229.73794255875873 0 229.73794255875873 316.71457986161511 0 0 0 0 -86.082347677979044 112.02507611031149 0 112.02507611031149 189.81085976293616 0 0 0 0 -452.78574853945429 145.00279912304723 0 145.00279912304723 365.84927320690531 0 0 0 0 -0.45494042069691787 -0.16688005053377708 0 -0.16688005053377708 -0.1975655183717322 0 0 0 0 207.44455262565407 -265.56595401076993 0 -265.56595401076993 201.23799735314606 0 0 0 0 -58.91060139334877 -35.333071245548126 0 -35.333071245548126 311.40842337925915 0 0 0 0 -134.53146727474086 54.244546063924645 0 54.244546063924645 212.80109912713306 0 0 0 0 -31.091783399442647 162.33011646299201 0 162.33011646299201 195.61123276404533 0 0 0 0 -72.601839349867078 94.983194284881392 0 94.983194284881392 162.24800601809693 0 0 0 0 -161.35088755797369 27.55958302324143 0 27.55958302324143 352.00531302731633 0 0 0 0 -50.098624365758951 -21.834895095136744 0 -21.834895095136744 179.23084702212509 0 0 0 0 -47.245561115194505 0.73530774023311096 0 0.73530774023311096 344.39245200059122 0 0 0 0 -77.598448435639057 -9.0185838618781418 0 -9.0185838618781418 476.08169023892697 0 0 0 0 -90.98632437508536 -29.366124339290309 0 -29.366124339290309 475.50098010116199 0 0 0 0 -48.789013165707956 84.757153287981509 0 84.757153287981509 373.29249902678566 0 0 0 0 -51.939264616157743 186.49675361871414 0 186.49675361871414 284.81851251226544 0 0 0 0 37.126762382717061 78.599923329256171 0 78.599923329256171 345.72132278877325 0 0 0 0 -132.04140812869264 38.98079017436612 0 38.98079017436612 350.09595518080459 0 0 0 0 -86.213546201337522 107.72000362708422 0 107.72000362708422 145.10922971226319 0 0 0 0 12.804286455885631 161.82768764885168 0 161.82768764885168 164.88860897527047 0 0 0 0 -139.76200637742295 304.0927729688301 0 304.0927729688301 -92.706258555544991 0 0 0 0 4.9061348936135118 84.648433946306113 0 84.648433946306113 -384.51695742228912 0 0 0 0 2.9253350759245222 206.16628886321996 0 206.16628886321996 56.332659077947028 0 0 0 0 -4.7685995900465059 116.29200774151104 0 116.29200774151104 26.603062268301073 0 0 0 0 -3.7856528606753272 125.38724967884991 0 125.38724967884991 17.810729440316209 0 0 0 0 -5.1936314019672807 2.3223018541740572 0 2.3223018541740572 -0.18709253660135872 0 0 0 0 -522.01081739156507 200.60693273087963 0 200.60693273087963 117.82302498535682 0 0 0 0 31.520153114763161 93.335118999824772 0 93.335118999824772 -41.097952002553939 0 0 0 0 277.08105345020135 323.52747952463915 0 323.52747952463915 -141.76673881086754 0 0 0 0 -2.8621225139007862 0.40087863137502211 0 0.40087863137502211 -0.023900630383320909 0 0 0 0 -129.57224530735948 15.967922537327468 0 15.967922537327468 379.85162659038542 0 0 0 0 335.68908143925421 -104.12865600367786 0 -104.12865600367786 68.826113410243124 0 0 0 0 -298.35947903369379 236.56827102743318 0 236.56827102743318 132.45322892173135 0 0 0 0 -292.86909607548205 225.55626127958749 0 225.55626127958749 2.070820559502863 0 0 0 0 -345.97996774519834 124.0057706963953 0 124.0057706963953 204.57178252783706 0 0 0 0 -91.843273067252085 23.450378292839559 0 23.450378292839559 -83.160225276980782 0 0 0 0 -53.573555682705774 127.14677362935618 0 127.14677362935618 151.37197827687305 0 0 0 0 24.208108425134014 134.06650829276714 0 134.06650829276714 -243.55393548321081 0 0 0 0 13.071339167010592 127.55914327547362 0 127.55914327547362 -221.91228279586358 0 0 0 0 20.591018832150439 7.6260938674749923 0 7.6260938674749923 -234.58931037587627 0 0 0 0 -3.5310246057312646 1.0812867676080486 0 1.0812867676080486 0.15294616843338105 0 0 0 0 -177.72162948098958 23.317613706953125 0 23.317613706953125 33.28707349780052 0 0 0 0 -110.61751129627737 344.36081567965266 0 344.36081567965266 -11.713026506686219 0 0 0 0 48.70707232325276 234.02573863814996 0 234.02573863814996 57.581515311067051 0 0 0 0 -246.19163142938851 220.84157585746652 0 220.84157585746652 32.410660920140799 0 0 0 0 77.954342236198499 131.45809575957537 0 131.45809575957537 -31.191337655196548 0 0 0 0 -13.095598608335422 78.436207847349579 0 78.436207847349579 -41.927946519331272 0 0 0 0 31.500806737636594 89.133076510395767 0 89.133076510395767 5.0668708614239222 0 0 0 0 11.219810583235812 136.36760675476762 0 136.36760675476762 -91.957968682843784 0 0 0 0 21.785284188938022 -5.4711369450851635 0 -5.4711369450851635 -105.5599596383131 0 0 0 0 32.208133195462324 37.01555918890881 0 37.01555918890881 -4.2607679644388554 0 0 0 0 -7.9358858444016391 3.9072088034506223 0 3.9072088034506223 -2.17559295390393 0 0 0 0 -2.1898273506049009 16.383713746075955 0 16.383713746075955 24.23403393238732 0 0 0 0 8.9434760179556179 49.193467876038994 0 49.193467876038994 0.45175844033383328 0 0 0 0 -11.641022962954594 43.005108977286 0 43.005108977286 -1.9756356279322063 0 0 0 0 -7.8666469289680663 10.726829211604354 0 10.726829211604354 42.463816970928747 0 0 0 0 14.121115317821022 -20.319192563773868 0 -20.319192563773868 49.747245235939772 0 0 0 0 -2.5753261215777457 5.5944986414633604 0 5.5944986414633604 29.617086008714978 0 0 0 0 7.7154851909289306 3.4797935018789232 0 3.4797935018789232 2.8256813158939202 0 0 0 0 -32.675500900473708 16.72304098188215 0 16.72304098188215 56.342280739529087 0 0 0 0 208.44621475961685 65.157552674390899 0 65.157552674390899 -92.164001208413538 0 0 0 0 1310.389201996717 334.31216731442692 0 334.31216731442692 470.09127879152948 0 0 0 0 18.089417531139901 10.317528515434375 0 10.317528515434375 3.8507330317612798 0 0 0 0 -19.345504675100528 63.6671239399966 0 63.6671239399966 -6.8973157213231389 0 0 0 0 -51.432407905514992 47.248088423177251 0 47.248088423177251 30.458624163459717 0 0 0 0 -614.67701775319074 -559.91289309866261 0 -559.91289309866261 1030.2730319916018 0 0 0 0 141.20498126937423 330.69078728390878 0 330.69078728390878 130.99263319306192 0 0 0 0 55.435545975567038 122.28100039227411 0 122.28100039227411 78.398696326315985 0 0 0 0 84.249344510279116 116.31301000457643 0 116.31301000457643 64.250553682915779 0 0 0 0 358.17900865399861 398.54398129607216 0 398.54398129607216 258.16676517408541 0 0 0 0 25.160837679733049 223.92771887841445 0 223.92771887841445 449.09307062428707 0 0 0 0 40.67681492570695 128.36615256895124 0 128.36615256895124 307.63440990195886 0 0 0 0 39.122570252805332 63.719101749304656 0 63.719101749304656 1030.1648352567609 0 0 0 0 697.2857391354737 -95.491022745022747 0 -95.491022745022747 232.81487014557752 0 0 0 0 116.26276574443182 48.858479756137058 0 48.858479756137058 197.39709466412205 0 0 0 0 258.5531149574872 -37.274641609315495 0 -37.274641609315495 44.952828272858824 0 0 0 0 84.528083246576898 -100.79562155296117 0 -100.79562155296117 323.87366130358532 0 0 0 0 120.67356383810511 8.2957963845810809 0 8.2957963845810809 42.235425883745847 0 0 0 0 133.44146540172369 36.91937857306857 0 36.91937857306857 -27.517127665176304 0 0 0 0 110.39272618958512 138.38497853420313 0 138.38497853420313 -150.8514168792517 0 0 0 0 182.42015394239934 21.973975030145994 0 21.973975030145994 -86.63201461990684 0 0 0 0 52.136962389340624 111.91390637423228 0 111.91390637423228 71.231190990203686 0 0 0 0 99.542796486741281 107.29178127922569 0 107.29178127922569 -89.09800673791915 0 0 0 0 97.450700738791056 101.1617163818355 0 101.1617163818355 -105.52730889551822 0 0 0 0 5.7916044522638117 11.49121813157568 0 11.49121813157568 22.484213431512529 0 0 0 0 -37.364039978823712 107.26300099665241 0 107.26300099665241 -96.235735042068882 0 0 0 0 45.937115949662257 72.407019003621826 0 72.407019003621826 -47.35841703562528 0 0 0 0 70.377296160811056 51.024675695802216 0 51.024675695802216 -44.150150122675768 0 0 0 0 90.253225733248655 31.071682440177938 0 31.071682440177938 -26.061110987378925 0 0 0 0 127.76827086288449 72.917356089305031 0 72.917356089305031 -48.666451675424469 0 0 0 0 20.425185690686732 15.047683600325554 0 15.047683600325554 4.8745996081440994 0 0 0 0 22.526344497820446 -6.8442266773793108 0 -6.8442266773793108 -43.885180546055381 0 0 0 0 -85.85623652355207 168.60443537023457 0 168.60443537023457 -66.495225349142856 0 0 0 0 12.512537840055387 16.518725045800714 0 16.518725045800714 19.237371620632427 0 0 0 0 -34.900655992016254 184.27748862874614 0 184.27748862874614 -105.23825202602711 0 0 0 0 10.219951154242153 -25.676074726507977 0 -25.676074726507977 2.1847288507970006 0 0 0 0 48.377847494401067 -37.058433500804313 0 -37.058433500804313 2.5948387975295191 0 0 0 0 207.05753824093699 -1.9969003832839007 0 -1.9969003832839007 -115.64428121972742 0 0 0 0 -126.48937178378947 -47.17496225193554 0 -47.17496225193554 94.057523067735019 0 0 0 0 151.96494332355542 -18.198888125642043 0 -18.198888125642043 -46.241653771938218 0 0 0 0 1.6151489618254775 7.3827244782092798 0 7.3827244782092798 21.249396298740258 0 0 0 0 -330.77939002993935 436.48669186407005 0 436.48669186407005 70.958786191382387 0 0 0 0 -519.09513215400875 -300.30734267186926 0 -300.30734267186926 1662.7588100579505 0 0 0 0 -83.632590447508846 -219.30969201089829 0 -219.30969201089829 10.141809555707596 0 0 0 0 119.70184758161304 400.99519999800077 0 400.99519999800077 1309.4124275991089 0 0 0 0 1.776878356954315 4.0918714324862115 0 4.0918714324862115 8.6912986783782316 0 0 0 0 446.21134912704292 441.33032008880491 0 441.33032008880491 380.75991787907697 0 0 0 0 -350.8804197066047 -375.39893450318732 0 -375.39893450318732 1159.123021668318 0 0 0 0 47.872929494486016 708.59559237743815 0 708.59559237743815 1027.3027036978115 0 0 0 0 -164.96370885504075 376.23095823906897 0 376.23095823906897 932.87070531082281 0 0 0 0 11.018620431481395 116.07762826957332 0 116.07762826957332 928.98123205490629 0 0 0 0 104.77579109994986 213.45368328996392 0 213.45368328996392 543.00095227145539 0 0 0 0 110.20011998549307 273.37711285783553 0 273.37711285783553 547.05029239643954 0 0 0 0 6.4389453263979703 153.4087158265877 0 153.4087158265877 678.04594397370602 0 0 0 0 -3.8055768549638742 80.354914686787197 0 80.354914686787197 700.64569806508507 0 0 0 0 96.810613104776166 24.029581106955902 0 24.029581106955902 122.70731250270182 0 0 0 0 249.34702606895189 242.63364737793722 0 242.63364737793722 374.01424607201261 0 0 0 0 184.69591768574901 35.133328737250849 0 35.133328737250849 24.231029570955798 0 0 0 0 86.499812259680766 115.78108445348153 0 115.78108445348153 493.2780823439025 0 0 0 0 76.86046395762969 -414.00646752159901 0 -414.00646752159901 327.7494930816647 0 0 0 0 16.978941080620643 -493.13992197552079 0 -493.13992197552079 241.38228306826932 0 0 0 0 -118.99565913644437 -192.33743216740515 0 -192.33743216740515 129.82580731030976 0 0 0 0 -15.248912587042014 699.98582087947761 0 699.98582087947761 1475.7881329468964 0 0 0 0 14.140838168767004 -245.00033424097683 0 -245.00033424097683 -86.660665217958012 0 0 0 0 4.4603057045762284 -4.0192426524757634 0 -4.0192426524757634 4.5936794902473714 0 0 0 0 193.95081188904987 159.73113545110664 0 159.73113545110664 604.18751734845318 0 0 0 0 122.36946813010672 -209.10043074664236 0 -209.10043074664236 -177.81362596146573 0 0 0 0 -462.21172392449444 -181.64446081339793 0 -181.64446081339793 1179.6142609678927 0 0 0 0 396.03640844936399 645.26292506469554 0 645.26292506469554 512.46617931403489 0 0 0 0 -84.077833376810304 72.438818167875866 0 72.438818167875866 4.3039340937114048 0 0 0 0 16.829783101645798 19.600883633765573 0 19.600883633765573 21.448358821115797 0 0 0 0 34.462166543694138 2.1346288297991975 0 2.1346288297991975 -4.3592088973384762 0 0 0 0 2.8530789185439289 48.227063377866159 0 48.227063377866159 37.15065896424835 0 0 0 0 60.097140528896489 223.28662514484631 0 223.28662514484631 -234.48174086968828 0 0 0 0 27.083853202370932 24.300529954143627 0 24.300529954143627 18.157454605952157 0 0 0 0 1.6897179547386258 63.726459456291195 0 63.726459456291195 -6.9372340964346222 0 0 0 0 15.898772874487529 16.023149782353325 0 16.023149782353325 11.691573441199179 0 0 0 0 -11.620810446966289 52.905281995037058 0 52.905281995037058 4.3266343514933396 0 0 0 0 1.9584632415725309 49.33640738674103 0 49.33640738674103 -35.573188186323023 0 0 0 0 40.522770214303819 -12.392635983575019 0 -12.392635983575019 61.122539282153866 0 0 0 0 96.077003701204944 -30.876143059295771 0 -30.876143059295771 -22.221297967229475 0 0 0 0 85.79526215588794 86.942776649088444 0 86.942776649088444 88.041655358063508 0 0 0 0 5.5001900336646941 -20.258737839450077 0 -20.258737839450077 -19.14374384992152 0 0 0 0 39.276515859633719 20.144973045718871 0 20.144973045718871 7.0400838578025287 0 0 0 0 22.069997292684135 18.779037104978613 0 18.779037104978613 10.749549747906457 0 0 0 0 101.81452295099007 24.899502533817667 0 24.899502533817667 -165.08279340563058 0 0 0 0 21.500781527322943 21.446651729592304 0 21.446651729592304 5.3315072677452235 0 0 0 0 19.897712156982379 35.453657472574378 0 35.453657472574378 -48.669088769598602 0 0 0 0 23.870169687021061 19.45084004240233 0 19.45084004240233 11.254440377881878 0 0 0 0 19.136900555338087 20.180399452300112 0 20.180399452300112 15.247359421522315 0 0 0 0 25.141498517472826 25.786193524133637 0 25.786193524133637 16.801576849084086 0 0 0 0 23.171344783470431 16.081524435572874 0 16.081524435572874 10.571902676382479 0 0 0 0 -3.6492255637588187 44.454712389811903 0 44.454712389811903 -0.9511691473016981 0 0 0 0 26.327652640118686 17.647107033173597 0 17.647107033173597 21.409116406954126 0 0 0 0 -25.33054405989003 58.717907997162001 0 58.717907997162001 59.046465021125186 0 0 0 0 -1.2141401002115613 -0.67810714040188458 0 -0.67810714040188458 1.2086837282479053 0 0 0 0 31.371606666341904 52.881221445184565 0 52.881221445184565 -136.97362580574554 0 0 0 0 28.201282037320198 62.522210727636775 0 62.522210727636775 52.077994621821745 0 0 0 0 85.319992080850341 103.61669408537296 0 103.61669408537296 -35.332048993517674 0 0 0 0 0.84669153380270679 2.2790886451455172 0 2.2790886451455172 4.0401006596151525 0 0 0 0 35.192343938002523 53.176330392892851 0 53.176330392892851 46.045256508897182 0 0 0 0 -32.553455756146604 92.961726795841969 0 92.961726795841969 -34.029566139130907 0 0 0 0 -29.886531755304304 84.556902409420218 0 84.556902409420218 -6.7507303082384169 0 0 0 0 -29.489226733862779 105.88770034991649 0 105.88770034991649 -7.2870530289474118 0 0 0 0 -53.884731337800616 86.116108749316481 0 86.116108749316481 -6.4374453494124282 0 0 0 0 -10.757318640817118 64.930740117987625 0 64.930740117987625 0.65519365494947124 0 0 0 0 -6.2317786110914852 44.600547594148338 0 44.600547594148338 4.3622018546793697 0 0 0 0 -25.682699757505958 91.064419824243259 0 91.064419824243259 -119.28704957274385 0 0 0 0 -41.359179291876423 99.574092376473345 0 99.574092376473345 -23.868376468624774 0 0 0 0 -39.540882557867974 51.536071790460483 0 51.536071790460483 -71.357156516713076 0 0 0 0 -33.438902306300179 44.384043624266269 0 44.384043624266269 -34.374537439583719 0 0 0 0 -30.016781616532626 91.920127228635465 0 91.920127228635465 -25.910172266541849 0 0 0 0 -5.9973028437691198 39.127330292151782 0 39.127330292151782 116.4444453798169 0 0 0 0 9.2185574963579029 74.415337931968679 0 74.415337931968679 198.08220938826435 0 0 0 0 -39.572404788488825 105.4388019995622 0 105.4388019995622 -124.23342853789109 0 0 0 0 5.2844827047923797 2.9549740390702617 0 2.9549740390702617 1.2607536110306921 0 0 0 0 -89.853934690610231 80.967206383020311 0 80.967206383020311 -83.473846081325974 0 0 0 0 -6.753063938138439 56.024493633009115 0 56.024493633009115 263.43510574551328 0 0 0 0 8.1645352072834285 88.263147764102541 0 88.263147764102541 172.13019741263997 0 0 0 0 71.815619369730996 173.1611526453944 0 173.1611526453944 158.13660437034014 0 0 0 0 39.40806542821565 216.03640225314211 0 216.03640225314211 321.61191197724838 0 0 0 0 119.92753868611862 268.81292237990237 0 268.81292237990237 26.678115591093047 0 0 0 0 2.3137656043614108 0.61929006556896482 0 0.61929006556896482 0.30908074806251662 0 0 0 0 90.039897071898849 173.85796372185177 0 173.85796372185177 -274.81644496952867 0 0 0 0 -49.179563594121987 43.113281161780378 0 43.113281161780378 -133.27901859128906 0 0 0 0 -34.499159510604613 82.105913816405064 0 82.105913816405064 643.41253311532455 0 0 0 0 175.70563057203435 208.49633182840262 0 208.49633182840262 296.12136083669611 0 0 0 0 68.74700873766642 30.111703423723156 0 30.111703423723156 293.62603163107656 0 0 0 0 27.124687445481186 87.348796265335295 0 87.348796265335295 216.34623884223402 0 0 0 0 -12.133835460497721 55.076289494410048 0 55.076289494410048 205.60991675938931 0 0 0 0 41.163231516172345 179.77174653445127 0 179.77174653445127 102.35062876360098 0 0 0 0 38.684511430795283 152.09059997317854 0 152.09059997317854 202.37581807495195 0 0 0 0 67.670676319813538 173.19579854597032 0 173.19579854597032 101.11170559417087 0 0 0 0 -11.276613009316861 54.454040239948426 0 54.454040239948426 25.63257011679525 0 0 0 0 -2.0439744140872502 3.0964827869233922 0 3.0964827869233922 11.071366010817034 0 0 0 0 99.795019898589089 29.815452571336209 0 29.815452571336209 42.927481854403595 0 0 0 0 76.844776688617458 178.54113774106372 0 178.54113774106372 73.064157455518853 0 0 0 0 -7.4091054370601341 83.558241470350367 0 83.558241470350367 161.27096783752495 0 0 0 0 20.945901948139181 100.68359624448931 0 100.68359624448931 53.419837249457487 0 0 0 0 -31.286929734816567 41.813226888206373 0 41.813226888206373 173.62431298061165 0 0 0 0 -9.3814113103169348 55.160323998234617 0 55.160323998234617 146.91968976659336 0 0 0 0 -33.803471721756978 29.393686431106289 0 29.393686431106289 114.24146666550359 0 0 0 0 -34.533248442579861 26.555309027672592 0 26.555309027672592 87.248233056434401 0 0 0 0 -24.397262312719249 0.80776452377631358 0 0.80776452377631358 84.863555251429716 0 0 0 0 -15.792633284465271 2.4496954439667786 0 2.4496954439667786 49.665330635651891 0 0 0 0 -3.136237720822237 -3.1386453686848199 0 -3.1386453686848199 48.854332266759229 0 0 0 0 -7.3171590931811465 16.432425835721688 0 16.432425835721688 77.411193190311224 0 0 0 0 -5.6607571159035928 17.237849474218365 0 17.237849474218365 76.411872509291243 0 0 0 0 -16.416352286159963 50.749838015341084 0 50.749838015341084 123.89382254484235 0 0 0 0 4.6513762701744348 24.386223820588683 0 24.386223820588683 66.153528060704346 0 0 0 0 -17.36041246992194 -12.71423720403037 0 -12.71423720403037 43.169392961553086 0 0 0 0 9.2874518454525514 38.915540779732055 0 38.915540779732055 84.057023271234584 0 0 0 0 2.1380424408876024 9.9230968893612044 0 9.9230968893612044 199.43422622438447 0 0 0 0 28.462225160837988 114.1693476419423 0 114.1693476419423 188.37657485966065 0 0 0 0 121.13906656676045 238.73776255879602 0 238.73776255879602 293.11094273756316 0 0 0 0 -10.571942806699553 5.7398054140940076 0 5.7398054140940076 392.22043976422356 0 0 0 0 14.237953515090908 32.055032172049323 0 32.055032172049323 90.176919896694017 0 0 0 0 11.469777782288411 11.783282206445648 0 11.783282206445648 78.392043642187218 0 0 0 0 85.712247739288614 49.256099222938246 0 49.256099222938246 -59.02976634377228 0 0 0 0 49.529076096528293 48.115296423465644 0 48.115296423465644 21.959777489141043 0 0 0 0 -16.591196105960201 -9.7136934550869434 0 -9.7136934550869434 48.447667981587053 0 0 0 0 27.286324898301928 95.576693398662428 0 95.576693398662428 137.85166509819646 0 0 0 0 53.013082690817313 46.031756998224822 0 46.031756998224822 9.5027967843207684 0 0 0 0 140.59978453247641 95.228216834975683 0 95.228216834975683 -34.979664767786744 0 0 0 0 59.844466116301192 118.38197289539767 0 118.38197289539767 99.646684515442757 0 0 0 0 97.441755768572875 105.00104976343027 0 105.00104976343027 98.971020259214129 0 0 0 0 13.534748059854792 55.545786065556968 0 55.545786065556968 126.43964691765541 0 0 0 0 69.3792266904602 54.537682162579586 0 54.537682162579586 10.718323897050141 0 0 0 0 23.407864841733272 19.732628681603344 0 19.732628681603344 -15.033094445103423 0 0 0 0 160.26049668047926 128.83063413997661 0 128.83063413997661 3.3866446110696415 0 0 0 0 296.68657931364214 29.54522709318735 0 29.54522709318735 102.91794091124757 0 0 0 0 -9.1290435341979901 167.69229638127126 0 167.69229638127126 69.986322314398421 0 0 0 0 54.072441118310735 15.179062572183284 0 15.179062572183284 127.44862381114217 0 0 0 0 85.179507457092768 26.095087054307442 0 26.095087054307442 63.652311285404721 0 0 0 0 23.140110396281671 25.117549731720146 0 25.117549731720146 31.107698339228477 0 0 0 0 23.577911964976408 14.921979261204511 0 14.921979261204511 -0.33182062724916506 0 0 0 0 35.746452293718903 135.78665880886911 0 135.78665880886911 67.853875905675068 0 0 0 0 6.2067856939353794 -0.90773112699239178 0 -0.90773112699239178 -6.1238971563061 0 0 0 0 57.938804117480686 127.32265622026716 0 127.32265622026716 150.00739144238105 0 0 0 0 63.105312978339953 75.161374656814587 0 75.161374656814587 105.74110193347224 0 0 0 0 64.087473552193387 56.302653098062365 0 56.302653098062365 215.10272870282643 0 0 0 0 52.154703416659686 105.60487275876949 0 105.60487275876949 72.959342685942829 0 0 0 0 14.536740290499893 71.096185339301883 0 71.096185339301883 172.62587037082994 0 0 0 0 96.570588610755976 157.88347283972962 0 157.88347283972962 99.772178192335559 0 0 0 0 61.41701512714917 174.01703952096068 0 174.01703952096068 139.77273251688894 0 0 0 0 55.2274440282672 135.18522453837431 0 135.18522453837431 135.99940852759028 0 0 0 0 58.721744434023094 190.93489135109303 0 190.93489135109303 166.32284301678737 0 0 0 0 81.518549786424046 139.76355124708061 0 139.76355124708061 165.04708321405747 0 0 0 0 -2.2174189507136859 -4.3998864295628159 0 -4.3998864295628159 7.7969971221264061 0 0 0 0 295.5902649872005 146.95877984614526 0 146.95877984614526 98.316882283823361 0 0 0 0 132.45304993522768 -53.192445157116708 0 -53.192445157116708 362.77013309812173 0 0 0 0 108.96393552421523 225.87426221251917 0 225.87426221251917 375.82635518755706 0 0 0 0 98.880555329034905 46.867811111180345 0 46.867811111180345 125.79347108307468 0 0 0 0 53.216027668367133 153.40150020036526 0 153.40150020036526 215.65815957153245 0 0 0 0 79.132614810792802 -39.109902105046331 0 -39.109902105046331 27.161801117596042 0 0 0 0 4.5190317138797624 8.7521605354255794 0 8.7521605354255794 13.669801321044162 0 0 0 0 37.475424948393993 -37.347104881479027 0 -37.347104881479027 58.746611323766047 0 0 0 0 62.193985269557743 -0.1999640008489223 0 -0.1999640008489223 28.545606310886797 0 0 0 0 13.004810233353055 -31.379471930595173 0 -31.379471930595173 40.922463075447013 0 0 0 0 -12.001554127935378 -11.341951674734446 0 -11.341951674734446 47.880550354646402 0 0 0 0 279.88548141310093 -1.3826220718647164 0 -1.3826220718647164 -173.27737568225893 0 0 0 0 -6.9095763890554736 1.3462033505197724 0 1.3462033505197724 63.11383146402477 0 0 0 0 -49.871001705676463 -151.16750489691549 0 -151.16750489691549 -241.12377692007522 0 0 0 0 153.93964343783182 327.54435010244345 0 327.54435010244345 -828.56149557608796 0 0 0 0 3.8531662128862081 6.3636584737951729 0 6.3636584737951729 33.581504948211617 0 0 0 0 18.547836150208241 -23.171176020435269 0 -23.171176020435269 20.46342056530375 0 0 0 0 90.734904959539563 331.13859946442744 0 331.13859946442744 428.47489050585136 0 0 0 0 1.5971970660011721 4.3491907716370406 0 4.3491907716370406 44.648468465893529 0 0 0 0 812.69697044058739 452.03336969848101 0 452.03336969848101 -412.08978477084474 0 0 0 0 -232.87967477320126 -176.51280129562133 0 -176.51280129562133 260.25087042577411 0 0 0 0 -0.86282433429595073 -9.2144303536496039 0 -9.2144303536496039 81.149383789369352 0 0 0 0 10.060116684706372 -153.30689629590779 0 -153.30689629590779 115.96557464249781 0 0 0 0 115.69342171616427 114.88018917786411 0 114.88018917786411 34.850832557871968 0 0 0 0 -5.3999974884507829 -19.893622781857786 0 -19.893622781857786 92.018383420521673 0 0 0 0 -103.97179779393446 12.310124646635813 0 12.310124646635813 138.1665906593189 0 0 0 0 -70.194141985717579 53.180076936660043 0 53.180076936660043 186.56109274510891 0 0 0 0 -113.16367050235567 -113.2338534511124 0 -113.2338534511124 118.97968598897359 0 0 0 0 -42.120901710088219 10.83074593140293 0 10.83074593140293 571.94586699173647 0 0 0 0 -191.28667413267067 246.32807245250615 0 246.32807245250615 1312.4458387504717 0 0 0 0 61.35482964836774 -149.6812362401588 0 -149.6812362401588 603.23617832418881 0 0 0 0 5.4865567709967706 1.0418830590224162 0 1.0418830590224162 0.38121349856331399 0 0 0 0 -65.493789457608727 91.876724410866927 0 91.876724410866927 599.85821822565936 0 0 0 0 134.5884558843245 -38.996136451863322 0 -38.996136451863322 412.36483621818729 0 0 0 0 50.821441800280809 114.83510695780359 0 114.83510695780359 331.03746652777863 0 0 0 0 22.285309136252181 11.333221995328017 0 11.333221995328017 49.575173231317287 0 0 0 0 -45.214208642013546 -48.953844058885181 0 -48.953844058885181 205.92102427035235 0 0 0 0 -104.41458417238755 -26.91211201498983 0 -26.91211201498983 439.89324829972247 0 0 0 0 -77.033323688011478 27.162831661239547 0 27.162831661239547 436.69132067265167 0 0 0 0 73.577176013062854 80.481796317953012 0 80.481796317953012 -701.17299374708023 0 0 0 0 13.947889290879999 7.50060607629836 0 7.50060607629836 1.9444344191980116 0 0 0 0 -114.79644821254772 196.44120098036024 0 196.44120098036024 -148.2452205839727 0 0 0 0 191.05785569718137 98.06225065124454 0 98.06225065124454 -175.45375953281382 0 0 0 0 -64.336720218598202 173.51897137171113 0 173.51897137171113 -48.069999276733142 0 0 0 0 -54.447402323812867 197.03930826354372 0 197.03930826354372 -42.086344352996093 0 0 0 0 20.066972834454909 11.298945673943271 0 11.298945673943271 2.7083328893057761 0 0 0 0 82.633508461081874 118.4872742721227 0 118.4872742721227 -503.50588599795628 0 0 0 0 207.32876663294883 218.20131042365733 0 218.20131042365733 154.80267862877474 0 0 0 0 -2.9247651742225571 386.77127406248286 0 386.77127406248286 814.60931042149161 0 0 0 0 -128.64825632804786 125.52894423789715 0 125.52894423789715 387.15611870933418 0 0 0 0 -82.953803334143231 -142.11867924244763 0 -142.11867924244763 -75.022420972060758 0 0 0 0 -267.3847200299806 -295.03365669786706 0 -295.03365669786706 932.92116526233258 0 0 0 0 519.62673281523985 167.7746935758928 0 167.7746935758928 177.69723108379594 0 0 0 0 -62.774546221785386 -31.731633122380941 0 -31.731633122380941 168.65364625630718 0 0 0 0 75.653116034694463 13.62184078656465 0 13.62184078656465 -82.014763782695013 0 0 0 0 74.628659757263449 49.494715149735498 0 49.494715149735498 387.1921103385896 0 0 0 0 6.5856789202717927 7.2912074722271925 0 7.2912074722271925 8.9311667459091488 0 0 0 0 68.153505691424925 362.30795410929824 0 362.30795410929824 45.607635242544916 0 0 0 0 84.774614448162538 446.29653598430423 0 446.29653598430423 469.20943814589134 0 0 0 0 -49.439223892770315 -551.43933330391337 0 -551.43933330391337 456.09805872731977 0 0 0 0 -75.520490660366704 -670.58600177887138 0 -670.58600177887138 1351.2493809288799 0 0 0 0 -94.874302199706563 -327.28953354540261 0 -327.28953354540261 771.16031581034986 0 0 0 0 -134.27134239784209 -57.997036615249726 0 -57.997036615249726 56.163110983602337 0 0 0 0 40.504787865389517 -54.739587981393697 0 -54.739587981393697 38.022158856362466 0 0 0 0 -69.459642999941934 -20.723635098068712 0 -20.723635098068712 71.262302077030057 0 0 0 0 128.25091449853699 3.6199839359521775 0 3.6199839359521775 -51.430315883533694 0 0 0 0 21.490255803827992 12.945305855389572 0 12.945305855389572 3.3198874679142234 0 0 0 0 -45.369826095081407 65.860610719018041 0 65.860610719018041 -92.844081916955474 0 0 0 0 44.26489046223287 149.59025171894245 0 149.59025171894245 -363.48898446982912 0 0 0 0 -27.257935447205455 123.1297591571838 0 123.1297591571838 -76.362770161058506 0 0 0 0 7.7113986206538812 96.269923840451611 0 96.269923840451611 -158.10066430777169 0 0 0 0 19.582339025728135 12.605738829796248 0 12.605738829796248 2.6388811964889327 0 0 0 0 22.293098115387693 72.672082197643249 0 72.672082197643249 12.776738020993093 0 0 0 0 -8.9468197692031026 98.455372520491437 0 98.455372520491437 -72.128205046776429 0 0 0 0 -21.446731682251539 123.97115248021055 0 123.97115248021055 15.457759055356291 0 0 0 0 -18.691140452005868 141.11754212344988 0 141.11754212344988 44.884988953912398 0 0 0 0 6.3196793825491113 98.471633599046982 0 98.471633599046982 -81.610488849968988 0 0 0 0 -22.031747534368606 31.653058227262591 0 31.653058227262591 87.713553338006932 0 0 0 0 44.075776909667184 59.883030401614633 0 59.883030401614633 99.017370306151861 0 0 0 0 -1.7622525241213225 13.763286334494751 0 13.763286334494751 -0.91087584747401706 0 0 0 0 7.1266814386004 1.391264842005512 0 1.391264842005512 0.19130870112427978 0 0 0 0 -57.828770840480956 11.634815992080803 0 11.634815992080803 223.24351572090382 0 0 0 0 7.3932936089387784 4.0523750587254952 0 4.0523750587254952 1.5751887798687392 0 0 0 0 -25.530030522210382 100.78940016564047 0 100.78940016564047 24.263560882987804 0 0 0 0 -33.04579422839231 49.482427691460771 0 49.482427691460771 31.241646009924807 0 0 0 0 -6.5864430197489128 26.565795454527688 0 26.565795454527688 -22.228623935631731 0 0 0 0 0.93859036830378972 1.6599471390196783 0 1.6599471390196783 2.765658618712628 0 0 0 0 38.532509894059388 11.953844099607522 0 11.953844099607522 30.923491464394829 0 0 0 0 22.876733830381681 29.611371945054998 0 29.611371945054998 17.333729940954072 0 0 0 0 27.501999092515348 38.535524886484382 0 38.535524886484382 45.255071934443549 0 0 0 0 57.899414799766156 68.067504481354263 0 68.067504481354263 55.39349737768589 0 0 0 0 46.189907687435152 34.65044372360444 0 34.65044372360444 9.4729800512977818 0 0 0 0 1.0191015274569963 3.2628523188859617 0 3.2628523188859617 40.506980429130635 0 0 0 0 146.51185885466191 91.635629034295562 0 91.635629034295562 50.147159646344107 0 0 0 0 6.4747024674090881 -17.353706015657508 0 -17.353706015657508 -0.70138501266774256 0 0 0 0 1.0265668046089105 0.47836181249810039 0 0.47836181249810039 3.7613383623272796 0 0 0 0 10.383475869755785 -7.7152241550556937 0 -7.7152241550556937 10.80291840647169 0 0 0 0 -14.251553018923914 4.5311026048375425 0 4.5311026048375425 20.478064363862359 0 0 0 0 6.0434548132575401 -15.8191020855229 0 -15.8191020855229 -4.3516670907010848 0 0 0 0 2.1474639745774677 -4.8258639747054559 0 -4.8258639747054559 6.6611512213162314 0 0 0 0 -104.565727551083 -69.271776568493806 0 -69.271776568493806 -16.613753914296012 0 0 0 0 -188.43995286270001 39.619894902874876 0 39.619894902874876 14.971666641299635 0 0 0 0 12.39942106335377 -21.611180560709272 0 -21.611180560709272 20.279379739513388 0 0 0 0 3.0529064212721062 -0.6471909930471913 0 -0.6471909930471913 -2.499640705259111 0 0 0 0 -9.1802655620758742 -9.8539733605202855 0 -9.8539733605202855 30.587671533015055 0 0 0 0 -102.52143504933338 72.725665321576344 0 72.725665321576344 -39.095595209579187 0 0 0 0 2.7898529044523102 -0.78644209361011264 0 -0.78644209361011264 -0.3554827576575903 0 0 0 0 27.591010837274553 115.13846115930846 0 115.13846115930846 82.195745459691352 0 0 0 0 -30.227592368280511 31.973278639384262 0 31.973278639384262 4.3475554134181493 0 0 0 0 -95.311378568761938 -7.0760154836391393 0 -7.0760154836391393 479.70666510198134 0 0 0 0 -42.265018953964955 35.361934922491855 0 35.361934922491855 144.61508419451275 0 0 0 0 101.55799426165868 214.83651207911589 0 214.83651207911589 -37.783858078225876 0 0 0 0 51.649003959650145 186.26769350919494 0 186.26769350919494 256.22204916849842 0 0 0 0 16.656550232098198 130.11551022230242 0 130.11551022230242 254.72447357961209 0 0 0 0 211.38084200846424 141.50467538515841 0 141.50467538515841 253.66174479228903 0 0 0 0 252.01384621446414 198.50915390952832 0 198.50915390952832 310.83925234251365 0 0 0 0 261.08939289753107 71.74546850405568 0 71.74546850405568 436.41981216800923 0 0 0 0 384.62936402617925 258.2522139954599 0 258.2522139954599 337.63152768082 0 0 0 0 57.302260143635067 214.22684265729276 0 214.22684265729276 313.24907606831766 0 0 0 0 129.24903300524966 65.649960374492366 0 65.649960374492366 262.15488407237444 0 0 0 0 -35.988250840004639 217.36753383662199 0 217.36753383662199 178.01919061429362 0 0 0 0 3.6926598036789073 154.53854266565941 0 154.53854266565941 275.32009702939831 0 0 0 0 -104.62902474043767 -102.14826116488075 0 -102.14826116488075 153.75955407155561 0 0 0 0 32.721099417107325 12.813986373794251 0 12.813986373794251 31.588434243976735 0 0 0 0 -187.47780713677011 -18.459181926161619 0 -18.459181926161619 114.50317290929524 0 0 0 0 38.389029029582161 -16.753296421522464 0 -16.753296421522464 70.79479458973583 0 0 0 0 24.757897412928287 -113.33827783810011 0 -113.33827783810011 78.080318557960709 0 0 0 0 -29.502229691853699 -57.124716617340255 0 -57.124716617340255 22.160277962240798 0 0 0 0 -42.664547789427161 -97.762512913221144 0 -97.762512913221144 8.4791283676604507 0 0 0 0 106.57638220968511 -39.383933262233768 0 -39.383933262233768 14.391052143296861 0 0 0 0 111.80734501179722 -68.312755451610428 0 -68.312755451610428 84.560066992984503 0 0 0 0 238.80491483608603 -28.881495898283902 0 -28.881495898283902 79.358892689539061 0 0 0 0 312.22488745219562 41.89177700667824 0 41.89177700667824 269.23207780827215 0 0 0 0 57.510915449809545 -70.682433123021838 0 -70.682433123021838 211.85560982151219 0 0 0 0 163.94658862626238 1.481961917175795 0 1.481961917175795 165.64583483638671 0 0 0 0 29.301948155062178 67.233376357558541 0 67.233376357558541 329.45639737595047 0 0 0 0 179.63303782203002 156.0242174466739 0 156.0242174466739 405.9317298330061 0 0 0 0 191.79487456050447 -77.988582138412312 0 -77.988582138412312 377.04094235181401 0 0 0 0 366.86132231778174 257.97191610168375 0 257.97191610168375 753.44841417696625 0 0 0 0 440.73836051484977 -141.57504582787806 0 -141.57504582787806 529.51332083643501 0 0 0 0 669.68080591344915 152.41339367870751 0 152.41339367870751 250.44743319394183 0 0 0 0 294.24857436163074 333.15055746333019 0 333.15055746333019 548.14552914425803 0 0 0 0 257.5203621563378 98.490472674115153 0 98.490472674115153 245.55009705922794 0 0 0 0 301.78037982628848 213.88540598454802 0 213.88540598454802 232.85788208415033 0 0 0 0 252.86320280256041 -76.963394473514199 0 -76.963394473514199 199.63901372958208 0 0 0 0 183.45674436475747 21.74207505805316 0 21.74207505805316 91.314784503743795 0 0 0 0 355.4055056708421 80.647416076508307 0 80.647416076508307 107.11649594183837 0 0 0 0 240.17067784278697 62.256650685113527 0 62.256650685113527 22.20107626709796 0 0 0 0 163.31840818030287 129.8435063814577 0 129.8435063814577 140.88752823764662 0 0 0 0 237.60457987207155 -1.5753489427879686 0 -1.5753489427879686 7.1322617628029548 0 0 0 0 69.532567376947554 69.432016560735065 0 69.432016560735065 67.676082121897025 0 0 0 0 79.226265133316701 103.19185136731176 0 103.19185136731176 169.89556956366869 0 0 0 0 152.37883651026277 92.194145462035522 0 92.194145462035522 46.844810004526607 0 0 0 0 136.58365363995472 103.5704705148637 0 103.5704705148637 161.28405934410512 0 0 0 0 138.00712240217399 150.80010525218677 0 150.80010525218677 189.61809099984202 0 0 0 0 4.8464279015058764 106.58016244840258 0 106.58016244840258 299.0689965843485 0 0 0 0 67.545275383268745 139.52926414932335 0 139.52926414932335 386.41445648421723 0 0 0 0 68.493038376473123 139.14268032611471 0 139.14268032611471 315.69061590666206 0 0 0 0 -43.956599371205812 80.971398506244441 0 80.971398506244441 419.75861068371523 0 0 0 0 3.9477682820688642 -5.2065701126502972 0 -5.2065701126502972 15.343937197324522 0 0 0 0 3.3629200170653348 -2.2822605474705711 0 -2.2822605474705711 1.2354903393244925 0 0 0 0 30.422740748837896 11.120142284346912 0 11.120142284346912 95.608584573186818 0 0 0 0 15.371900991412986 -92.645781844015801 0 -92.645781844015801 259.94446020192845 0 0 0 0 261.42700002445417 -54.50967023062185 0 -54.50967023062185 25.528212242032168 0 0 0 0 3.4666634242913759 1.4804371530715148 0 1.4804371530715148 1.5011116190145373 0 0 0 0 8.369684401241102 -9.102033408718853 0 -9.102033408718853 653.22819187340338 0 0 0 0 -49.269998252701043 -416.0769870252243 0 -416.0769870252243 -314.83470433799812 0 0 0 0 794.47271514390559 1131.450177015995 0 1131.450177015995 1046.6275707808818 0 0 0 0 755.64742777448555 249.66690730234586 0 249.66690730234586 320.4450996682499 0 0 0 0 522.26866451816022 86.639506761071971 0 86.639506761071971 219.13905603344756 0 0 0 0 317.08581136200519 48.088484247607994 0 48.088484247607994 223.96935956786183 0 0 0 0 -1.9362948050148674 -1.1110476336503119 0 -1.1110476336503119 2.3096890462173008 0 0 0 0 309.92943153160377 -25.911760143979336 0 -25.911760143979336 53.033839937425 0 0 0 0 1.9584643627837224 2.8736187100580164 0 2.8736187100580164 3.9733320322097825 0 0 0 0 440.16067250626656 52.097456373118803 0 52.097456373118803 87.523458289225346 0 0 0 0 110.01923334233834 -60.684922272736003 0 -60.684922272736003 -16.797766530850367 0 0 0 0 57.868316709092596 48.103758534291956 0 48.103758534291956 7.9898903404573502 0 0 0 0 -25.485980271459994 -11.125104479178844 0 -11.125104479178844 68.219076218810187 0 0 0 0 -1.4472931579650279 2.0786335272654277 0 2.0786335272654277 6.1614010314011622 0 0 0 0 2.7290250376000689 -1.7673781743128814 0 -1.7673781743128814 1.0747868933542684 0 0 0 0 -32.847257871347665 -125.89664871652167 0 -125.89664871652167 189.19472143228268 0 0 0 0 296.02540617491741 -202.09959703950699 0 -202.09959703950699 -159.63884507150942 0 0 0 0 -14.862869783170481 -84.19623742298063 0 -84.19623742298063 58.221607288051018 0 0 0 0 -29.202488121851729 -36.539440670928343 0 -36.539440670928343 91.078564199680841 0 0 0 0 42.416749649191161 -25.650969358972361 0 -25.650969358972361 -100.95368767556283 0 0 0 0 14.121853574602028 20.550748238974847 0 20.550748238974847 15.055106149415224 0 0 0 0 41.984961111578741 40.099956576263139 0 40.099956576263139 28.68304568676831 0 0 0 0 56.198008225768717 53.726605200115955 0 53.726605200115955 -25.308392122729856 0 0 0 0 42.862212029243437 5.223978950988112 0 5.223978950988112 -74.557740891665162 0 0 0 0 74.926661724997757 76.625309476048642 0 76.625309476048642 -10.161752191190317 0 0 0 0 110.04028855328033 62.417636373011192 0 62.417636373011192 -61.162368724213593 0 0 0 0 106.40492011173046 89.64240212560253 0 89.64240212560253 46.731247057977725 0 0 0 0 75.632708851855568 94.965513739171001 0 94.965513739171001 66.213504533924151 0 0 0 0 116.64559013684448 84.820182252211453 0 84.820182252211453 -9.064395888686704 0 0 0 0 163.13872620811162 5.3259446351075894 0 5.3259446351075894 -52.73418434485211 0 0 0 0 104.47720950976873 -27.894127686267893 0 -27.894127686267893 8.9854668470022716 0 0 0 0 155.29020586381921 63.593233262339709 0 63.593233262339709 -33.51923883134441 0 0 0 0 123.31614083632667 48.644620134342404 0 48.644620134342404 25.56658007741953 0 0 0 0 78.869668718274625 38.600018301909586 0 38.600018301909586 -38.183282032464376 0 0 0 0 59.060833204463052 -4.8083734901010757 0 -4.8083734901010757 -45.799183517985512 0 0 0 0 22.552970010674471 18.133925546757382 0 18.133925546757382 -92.232058424262505 0 0 0 0 82.007143280203309 3.4183855877781752 0 3.4183855877781752 -150.8161322672313 0 0 0 0 27.431476570549876 -5.3928830400506627 0 -5.3928830400506627 -0.0021830380218190726 0 0 0 0 0.0098272345276200213 -67.193786400925546 0 -67.193786400925546 -100.35359651721228 0 0 0 0 111.77130975312866 16.946045689321181 0 16.946045689321181 -95.69752694026829 0 0 0 0 19.968369732222669 -4.7727855957239456 0 -4.7727855957239456 0.82117964868508864 0 0 0 0 48.974294803523662 -73.20434513516193 0 -73.20434513516193 -170.12264301476171 0 0 0 0 25.678332656394559 -12.427039673559193 0 -12.427039673559193 48.151781781766658 0 0 0 0 -73.364385226883314 -29.407903800638451 0 -29.407903800638451 240.62471842685773 0 0 0 0 3.8621785723666484 0.79767899355937288 0 0.79767899355937288 -1.3370591977547903 0 0 0 0 -14.214836134176949 -36.412666577703931 0 -36.412666577703931 -113.42115942971759 0 0 0 0 43.433474910756559 -55.648414914632667 0 -55.648414914632667 -51.345385428401642 0 0 0 0 92.595982037950307 -29.768128843097656 0 -29.768128843097656 -101.7055591736671 0 0 0 0 -23.808234449170413 -85.583266749308677 0 -85.583266749308677 -38.075719147787368 0 0 0 0 55.63102881128907 -63.311068980718119 0 -63.311068980718119 -103.85209252528148 0 0 0 0 52.972523179578275 -88.220108639387036 0 -88.220108639387036 11.860427325410456 0 0 0 0 45.594969487769049 -65.539675026740952 0 -65.539675026740952 -40.943755292479182 0 0 0 0 124.34005663842618 -34.969416120315145 0 -34.969416120315145 -55.692430870374665 0 0 0 0 -104.36399453059403 -74.47556563346734 0 -74.47556563346734 10.588089433455025 0 0 0 0 -0.34179181994386454 -108.05554333910914 0 -108.05554333910914 -85.356759081645578 0 0 0 0 -42.366782845106172 -60.875471668223327 0 -60.875471668223327 -62.747678726474987 0 0 0 0 -0.78995927474534255 -114.23299515703548 0 -114.23299515703548 5.157049264046691 0 0 0 0 -9.4952684198442512 -13.965243238137191 0 -13.965243238137191 6.7597482862192919 0 0 0 0 1.9337645457553663 32.159883732241724 0 32.159883732241724 85.043466068813359 0 0 0 0 1.1080286268647086 -2.6472020883974494 0 -2.6472020883974494 1.2000284467182105 0 0 0 0 -60.166005827674326 -112.03810027512782 0 -112.03810027512782 -77.188240579991543 0 0 0 0 11.241502717043016 -4.8300735890472666 0 -4.8300735890472666 1.5888680229272758 0 0 0 0 45.231160630399245 -39.519865026613843 0 -39.519865026613843 -39.647958363166254 0 0 0 0 9.260070454237681 -4.3511850256336615 0 -4.3511850256336615 2.0586401300208834 0 0 0 0 0.17638454897314659 -67.169602912781556 0 -67.169602912781556 24.54978576670328 0 0 0 0 -50.29267603821345 -136.55144546945667 0 -136.55144546945667 -93.356516102030582 0 0 0 0 22.434595596772397 -101.48822509673846 0 -101.48822509673846 -126.71497120794811 0 0 0 0 39.569624273372114 -107.13303263995113 0 -107.13303263995113 -192.5380186364373 0 0 0 0 34.899427684030854 -43.532707552261854 0 -43.532707552261854 -58.871088813626557 0 0 0 0 30.501732518786241 8.4881604089678149 0 8.4881604089678149 44.118774510287039 0 0 0 0 69.638595600528674 19.611307700819452 0 19.611307700819452 -88.729100159102018 0 0 0 0 29.874048227122785 58.917298313732317 0 58.917298313732317 32.328787789836497 0 0 0 0 43.50219393788575 -21.815518738734681 0 -21.815518738734681 -56.016377324729547 0 0 0 0 50.780444729358635 -23.108209298557995 0 -23.108209298557995 -76.245325439587759 0 0 0 0 7.2168112498692381 42.989133354305523 0 42.989133354305523 -185.00814467397868 0 0 0 0 51.805958740427741 -6.894766194447584 0 -6.894766194447584 -215.33443099857686 0 0 0 0 60.050856730979149 -47.869551585685258 0 -47.869551585685258 -172.11451397083874 0 0 0 0 12.320837705333361 20.617195844693924 0 20.617195844693924 -110.01840331659332 0 0 0 0 39.715317089422115 -3.9862888829438816 0 -3.9862888829438816 -26.427952412432205 0 0 0 0 37.005103628228881 -121.39745396354192 0 -121.39745396354192 -114.97105336065579 0 0 0 0 -1.7733663683975465 113.39863091953885 0 113.39863091953885 71.658724693988916 0 0 0 0 8.4019064566620294 -4.0282222818533882 0 -4.0282222818533882 1.7216083666598578 0 0 0 0 -107.12373551725659 -72.930082248160033 0 -72.930082248160033 -23.927121585555142 0 0 0 0 -34.982270345577717 -82.92582250504347 0 -82.92582250504347 -24.847383529933722 0 0 0 0 -109.1371887318171 18.429841188739374 0 18.429841188739374 -62.463092816367862 0 0 0 0 106.95053548309846 23.56903939676522 0 23.56903939676522 30.789385706179019 0 0 0 0 35.096831328263534 -57.99449710029603 0 -57.99449710029603 76.583492474037484 0 0 0 0 140.41308992138283 97.12882851645918 0 97.12882851645918 107.27065473433777 0 0 0 0 42.285574414700363 35.259906063445669 0 35.259906063445669 168.89227097938783 0 0 0 0 112.88920559765506 182.28352712708875 0 182.28352712708875 235.98509377181108 0 0 0 0 104.63135520230504 105.65701105917287 0 105.65701105917287 61.737400446327229 0 0 0 0 47.861668551449213 17.557721464712813 0 17.557721464712813 78.205031406585476 0 0 0 0 103.26816279513956 146.48240565108063 0 146.48240565108063 249.7133534843706 0 0 0 0 90.492641618467474 78.622533198013116 0 78.622533198013116 143.33074503455282 0 0 0 0 135.32108833857978 155.22580333604492 0 155.22580333604492 122.17690896779823 0 0 0 0 134.19141312243974 137.13179188408685 0 137.13179188408685 292.03625918300895 0 0 0 0 238.87889970201869 209.68481687456369 0 209.68481687456369 212.94438583018746 0 0 0 0 167.17088401245024 287.81606383159306 0 287.81606383159306 360.01328264673066 0 0 0 0 163.0172310884922 187.42284273332007 0 187.42284273332007 267.41340086134005 0 0 0 0 52.666954380176222 174.51513462931118 0 174.51513462931118 333.44049823784371 0 0 0 0 295.48970702451652 371.73186076096363 0 371.73186076096363 290.93344814234661 0 0 0 0 54.491445653109082 16.206546986089961 0 16.206546986089961 -1.8861843393970048 0 0 0 0 24.086539686936248 88.842599568950391 0 88.842599568950391 174.71484031024011 0 0 0 0 14.330796287354348 11.593793000150072 0 11.593793000150072 64.156255123969459 0 0 0 0 58.115177382473661 177.01856504577518 0 177.01856504577518 206.74582905782336 0 0 0 0 169.89863116465816 203.30334402583867 0 203.30334402583867 148.16245605118456 0 0 0 0 89.360842660470112 118.41894526650776 0 118.41894526650776 96.543189853873628 0 0 0 0 15.256653845164877 73.023196021105832 0 73.023196021105832 139.70974752996426 0 0 0 0 59.155459592294015 64.912897158308624 0 64.912897158308624 29.745826045313152 0 0 0 0 -39.979680912328206 -48.321923557072296 0 -48.321923557072296 1.2160474225966027 0 0 0 0 19.692641475842549 45.142780965743441 0 45.142780965743441 -13.388989056395076 0 0 0 0 -14.00502117867245 -41.921247003636381 0 -41.921247003636381 -24.38802100547764 0 0 0 0 -7.0591217427108859 -0.38066172059552628 0 -0.38066172059552628 34.638198789769376 0 0 0 0 54.156122709709962 129.55951098510559 0 129.55951098510559 -63.911661033909695 0 0 0 0 -118.97489019362123 -106.49280440304574 0 -106.49280440304574 -51.222883349075346 0 0 0 0 0.16601791573930313 -0.65472231382601365 0 -0.65472231382601365 0.35152944738021574 0 0 0 0 -72.382079386919031 -64.636079906794293 0 -64.636079906794293 106.99302571845328 0 0 0 0 -141.44498454844822 20.962107070899947 0 20.962107070899947 -5.1987189111960106 0 0 0 0 34.180052715629898 81.643665909792617 0 81.643665909792617 -56.051388706633588 0 0 0 0 4.0508433165575752 -23.133908062560295 0 -23.133908062560295 10.289713235601084 0 0 0 0 6.9257881485173129 -24.476288276398918 0 -24.476288276398918 -13.063937832441297 0 0 0 0 -1.2640112903245608 7.3333863910156651 0 7.3333863910156651 7.9434698490513256 0 0 0 0 4.8663577647406058 -3.3756218670141465 0 -3.3756218670141465 2.1290378483069716 0 0 0 0 8.2541004185400197 13.737015857210281 0 13.737015857210281 29.545975556808116 0 0 0 0 40.722057963634938 68.308154908912911 0 68.308154908912911 -19.90884762386122 0 0 0 0 2.2956709879999107 0.76150794074301587 0 0.76150794074301587 6.6345537542110407 0 0 0 0 7.9438540441676473 -16.714429416916317 0 -16.714429416916317 -5.0164155169259175 0 0 0 0 -0.51120730996633945 0.34212214536006513 0 0.34212214536006513 2.9643775080488197 0 0 0 0 113.31860467262968 -56.627157871596864 0 -56.627157871596864 -108.13995789073306 0 0 0 0 110.4094201565531 -27.956177232488699 0 -27.956177232488699 0.74806808823632309 0 0 0 0 9.4863291540655847 -3.3189409062462829 0 -3.3189409062462829 2.6753632301727883 0 0 0 0 -46.636064878118141 -21.880794559421702 0 -21.880794559421702 167.32302126481227 0 0 0 0 543.73335617191844 80.289400484663929 0 80.289400484663929 42.989100737286208 0 0 0 0 423.78790137606438 426.19629572810845 0 426.19629572810845 284.61247926769465 0 0 0 0 2.8548907583051779 2.1137888128771678 0 2.1137888128771678 3.0822066768219116 0 0 0 0 85.45107181733465 -52.291827988297882 0 -52.291827988297882 18.180144550689874 0 0 0 0 328.51474438139832 45.923297066457963 0 45.923297066457963 -69.937041604582191 0 0 0 0 49.367912805134893 23.965784402676945 0 23.965784402676945 34.667909871601296 0 0 0 0 55.152540236482992 11.396328779472242 0 11.396328779472242 27.639895045424055 0 0 0 0 49.147070030918258 26.411561892555255 0 26.411561892555255 20.340249592656619 0 0 0 0 54.927581131855732 13.773588816518895 0 13.773588816518895 12.851142805964628 0 0 0 0 45.353754826196791 127.79486336332047 0 127.79486336332047 82.779457659238687 0 0 0 0 188.36810586268439 207.57410525051 0 207.57410525051 86.699474081204244 0 0 0 0 155.82793233758753 275.77503955074121 0 275.77503955074121 202.21670606084081 0 0 0 0 234.08326478603033 255.4929716224583 0 255.4929716224583 135.73106502388327 0 0 0 0 147.13704451092704 244.47446843582475 0 244.47446843582475 166.19941990643929 0 0 0 0 103.04689851925698 222.91227667458224 0 222.91227667458224 251.59144340355851 0 0 0 0 107.90846747512262 255.99521182501485 0 255.99521182501485 476.59515718721377 0 0 0 0 412.9638907852306 282.76534724531302 0 282.76534724531302 276.17586526230298 0 0 0 0 342.75501245540397 135.37362081754145 0 135.37362081754145 269.01749331466453 0 0 0 0 81.948230733508922 241.59798833694094 0 241.59798833694094 341.11336645089614 0 0 0 0 121.14467511165813 96.249749599109236 0 96.249749599109236 258.18598011298673 0 0 0 0 208.30271588469589 271.64983441047571 0 271.64983441047571 602.25267051361516 0 0 0 0 354.27514366287733 278.80411808586905 0 278.80411808586905 276.59834388772151 0 0 0 0 124.10973941177667 -98.276279799050826 0 -98.276279799050826 559.26877579672691 0 0 0 0 97.319908308132312 177.16718703488914 0 177.16718703488914 1260.5941173692991 0 0 0 0 109.33329312205215 -3.4206000098292861 0 -3.4206000098292861 271.83308714524173 0 0 0 0 -479.2033366612153 -428.14754871128071 0 -428.14754871128071 1008.9705316192412 0 0 0 0 -383.81576908556667 -1463.9409276654605 0 -1463.9409276654605 2492.6100262946438 0 0 0 0 -437.91659513699983 -418.06010928745263 0 -418.06010928745263 580.4033013245753 0 0 0 0 -1.0078539494537813 -0.98435250906975824 0 -0.98435250906975824 2.9077035973997134 0 0 0 0 248.45642161382239 613.55041157328014 0 613.55041157328014 1436.6698561984449 0 0 0 0 113.17809706241519 335.93343707681015 0 335.93343707681015 1120.7351521398487 0 0 0 0 152.81781919713183 558.70989543417272 0 558.70989543417272 1242.841956744629 0 0 0 0 211.49315044738097 444.02871046473842 0 444.02871046473842 933.0237111740862 0 0 0 0 -2.7212809962234772 -1.8544479014173518 0 -1.8544479014173518 5.8596901743463619 0 0 0 0 -410.58238524844825 168.33059110603881 0 168.33059110603881 2500.684369569999 0 0 0 0 -28.592199764673268 333.75134537627673 0 333.75134537627673 1481.052838076328 0 0 0 0 -1.8784868557159657 -0.4683229803420943 0 -0.4683229803420943 5.4522682821590891 0 0 0 0 254.10972925015409 873.26492579093883 0 873.26492579093883 2498.9885483542275 0 0 0 0 196.33460178223999 420.20587910266249 0 420.20587910266249 1055.5927610961262 0 0 0 0 193.21153094156239 354.57789076326299 0 354.57789076326299 806.92809615797523 0 0 0 0 130.23273734431098 483.46894534952298 0 483.46894534952298 1028.3715594454698 0 0 0 0 253.98790521991867 298.15402146778888 0 298.15402146778888 572.83558357924994 0 0 0 0 179.3164985295102 403.5857010287109 0 403.5857010287109 789.79679456936719 0 0 0 0 298.17399863720459 232.93602467884375 0 232.93602467884375 543.69905313547861 0 0 0 0 195.85869748125492 254.78173894912652 0 254.78173894912652 900.15596664146096 0 0 0 0 281.73578640671525 264.78156462689094 0 264.78156462689094 541.99405660204138 0 0 0 0 307.32772948985962 273.5261602094879 0 273.5261602094879 349.69146773255852 0 0 0 0 163.80015547366429 259.1093413194294 0 259.1093413194294 584.3541763562971 0 0 0 0 247.19601217116201 281.09132637266339 0 281.09132637266339 339.83145092652194 0 0 0 0 172.06559803411682 153.72508614842081 0 153.72508614842081 330.19390993213165 0 0 0 0 220.84981880048244 157.86245083129779 0 157.86245083129779 202.56671748274675 0 0 0 0 143.5387444702983 71.49154157537123 0 71.49154157537123 121.14497762978044 0 0 0 0 109.72899085089762 67.16073981221416 0 67.16073981221416 289.34970054145742 0 0 0 0 305.29504578350026 174.70875170788531 0 174.70875170788531 241.82304678470337 0 0 0 0 267.39348040861159 251.21522315785842 0 251.21522315785842 406.53466026053502 0 0 0 0 336.93421901724838 390.04023863973589 0 390.04023863973589 508.93578492970846 0 0 0 0 171.33541869998263 366.25290177156057 0 366.25290177156057 716.70271422096926 0 0 0 0 287.68080086393263 785.03392759130747 0 785.03392759130747 1164.3196509833688 0 0 0 0 134.15680450168946 508.25672389592728 0 508.25672389592728 720.61403387781263 0 0 0 0 -162.46570564868136 535.58590861375887 0 535.58590861375887 1299.8759635694041 0 0 0 0 8.1237369594255071 354.20581530866548 0 354.20581530866548 1081.0829729915204 0 0 0 0 84.791542242358915 1207.5711183857202 0 1207.5711183857202 2490.5568749906015 0 0 0 0 833.03735618635687 627.33982622179792 0 627.33982622179792 307.27931887148225 0 0 0 0 -32.877412334866221 79.474441359485354 0 79.474441359485354 271.82549374245355 0 0 0 0 468.07826200184832 147.93960837064242 0 147.93960837064242 71.043971452341793 0 0 0 0 117.21801047001051 -362.48609807881621 0 -362.48609807881621 2656.33833607017 0 0 0 0 1668.8292630273013 1193.5445684761071 0 1193.5445684761071 554.5082958158273 0 0 0 0 4.0974254566068549 5.1250168077537026 0 5.1250168077537026 9.8791060254281149 0 0 0 0 231.97466801899677 -299.4921211325327 0 -299.4921211325327 20.724407771856932 0 0 0 0 459.60541447400226 -1230.0792549240796 0 -1230.0792549240796 2723.0187750130808 0 0 0 0 868.95289914021168 -1632.5268672764905 0 -1632.5268672764905 2265.482118583659 0 0 0 0 -0.66098980871027335 0.64535231935654025 0 0.64535231935654025 9.2364094692206891 0 0 0 0 1171.9578100367848 -364.36252109851921 0 -364.36252109851921 2496.9769208051475 0 0 0 0 865.34179299063896 -1373.8739768432715 0 -1373.8739768432715 1613.9654447648863 0 0 0 0 50.801655102024597 145.70199602986213 0 145.70199602986213 49.267635239959418 0 0 0 0 34.541120597215468 -38.163232538099692 0 -38.163232538099692 -52.317391386166491 0 0 0 0 5.2538747925797145 11.353263477980654 0 11.353263477980654 24.573669920771167 0 0 0 0 79.344988617987241 -67.188547912701324 0 -67.188547912701324 30.690206868523092 0 0 0 0 -101.41668389635265 199.01552751210875 0 199.01552751210875 166.47947049841605 0 0 0 0 297.92689602813351 19.897550727035195 0 19.897550727035195 96.493254507455276 0 0 0 0 47.153680564738352 35.786036246730873 0 35.786036246730873 217.23446048520418 0 0 0 0 90.132183713574591 -65.580747675435305 0 -65.580747675435305 59.857397651798237 0 0 0 0 5.346051420268509 14.001739622361436 0 14.001739622361436 30.5360974509301 0 0 0 0 -105.985895625372 88.163536900783583 0 88.163536900783583 -68.182038946989451 0 0 0 0 -70.749845763413191 -57.801602969777377 0 -57.801602969777377 108.9942083348069 0 0 0 0 4.3086968728193824 74.100204367950028 0 74.100204367950028 150.06478473780226 0 0 0 0 -5.5946138858198537 39.979261749537727 0 39.979261749537727 141.41331518478091 0 0 0 0 -31.725339394061081 -15.83635620764278 0 -15.83635620764278 87.998647286103107 0 0 0 0 -51.567978893441705 -46.824357319273076 0 -46.824357319273076 80.900373470190971 0 0 0 0 23.23535165364774 39.009725061684549 0 39.009725061684549 138.68202889292161 0 0 0 0 35.063002673129631 48.470911799887745 0 48.470911799887745 129.45107210411243 0 0 0 0 63.388451036815241 73.121424311439114 0 73.121424311439114 108.17626544005725 0 0 0 0 49.519787899873336 93.339186673160839 0 93.339186673160839 56.207104200701906 0 0 0 0 38.505528245146706 47.378507475104016 0 47.378507475104016 72.348737552265447 0 0 0 0 49.152133166047861 88.516261821231637 0 88.516261821231637 123.64110445169626 0 0 0 0 100.19324836745136 180.08946984191073 0 180.08946984191073 131.37745294982415 0 0 0 0 -19.299906313484826 99.185795766839874 0 99.185795766839874 202.35329637783161 0 0 0 0 -2.9417985068921553 81.685328410591183 0 81.685328410591183 165.07511525994778 0 0 0 0 12.524275326013594 -10.078612606406296 0 -10.078612606406296 72.130691368191037 0 0 0 0 -95.89114819448514 -30.891889751556391 0 -30.891889751556391 195.24656349473753 0 0 0 0 24.247962672886388 -143.07685806754534 0 -143.07685806754534 446.6881599805165 0 0 0 0 75.735412408716002 246.38499987371051 0 246.38499987371051 383.43660846852617 0 0 0 0 4.7008374744719816 3.9019234741992648 0 3.9019234741992648 -0.6872462805975772 0 0 0 0 -9.0223921515598189 -4.5620655252696878 0 -4.5620655252696878 21.240427246068315 0 0 0 0 -44.592958486862244 -81.829549327449968 0 -81.829549327449968 88.153950961568626 0 0 0 0 -30.453910722772143 -9.2095987360273703 0 -9.2095987360273703 89.668691919961219 0 0 0 0 -6.2254576452364745 13.447082007890458 0 13.447082007890458 125.38988532720214 0 0 0 0 -32.465803196712002 -14.981402128345655 0 -14.981402128345655 86.868176230460833 0 0 0 0 -63.028862815630873 -20.861184115946344 0 -20.861184115946344 137.17803805175026 0 0 0 0 -5.5367287375220258 -23.154581933955342 0 -23.154581933955342 77.085955932147044 0 0 0 0 -25.61747943364594 12.047499841311947 0 12.047499841311947 230.06643863916179 0 0 0 0 55.224536133986248 60.989901142317649 0 60.989901142317649 166.92331892157745 0 0 0 0 -17.743985554311166 98.369913560575696 0 98.369913560575696 279.92834420583131 0 0 0 0 40.239805886482145 143.68142381476991 0 143.68142381476991 234.01685190106218 0 0 0 0 -98.412938060529768 91.095177667088137 0 91.095177667088137 214.56484684499628 0 0 0 0 -47.225937798718405 24.813639641441114 0 24.813639641441114 179.78542540914168 0 0 0 0 -86.097261638928103 -27.793011436666802 0 -27.793011436666802 120.2615224387846 0 0 0 0 49.908876667321124 230.61311652007862 0 230.61311652007862 198.6438538965449 0 0 0 0 2.0052596901534798 194.34446405857489 0 194.34446405857489 176.8757759172604 0 0 0 0 -39.281804410755512 195.98102191410362 0 195.98102191410362 313.30561020489495 0 0 0 0 -4.09285244514939 203.73803005717764 0 203.73803005717764 262.43247107973366 0 0 0 0 -109.03274919455635 225.66921672496574 0 225.66921672496574 258.24563491511526 0 0 0 0 -20.847122641248632 251.01316744597398 0 251.01316744597398 222.83866162919003 0 0 0 0 -27.426116905143886 271.18249178373298 0 271.18249178373298 324.07263879873426 0 0 0 0 -150.33151188951786 149.58060162039328 0 149.58060162039328 270.25552682921443 0 0 0 0 -320.39047816526863 -77.749657758036847 0 -77.749657758036847 101.55982912232895 0 0 0 0 -215.31888880477106 255.77660446968821 0 255.77660446968821 96.928128600149648 0 0 0 0 4.8790645859302799 82.573098247805319 0 82.573098247805319 173.46832097574588 0 0 0 0 -61.962626411802034 273.96640829393618 0 273.96640829393618 297.70396994730072 0 0 0 0 -36.514222436986984 -18.936526851950475 0 -18.936526851950475 77.974023287324599 0 0 0 0 -366.9779121429749 -46.052855841988276 0 -46.052855841988276 170.98961538854928 0 0 0 0 -76.65364825708707 77.172770885723367 0 77.172770885723367 223.21882484285925 0 0 0 0 -53.153229793113269 -86.798927604437267 0 -86.798927604437267 62.010333752303268 0 0 0 0 -6.3017569169577188 -4.2871751527169906 0 -4.2871751527169906 18.315956091805866 0 0 0 0 -27.086015441940113 -12.427073651626575 0 -12.427073651626575 92.609130805784304 0 0 0 0 -34.995750526816664 -33.094440906841555 0 -33.094440906841555 68.787042811713036 0 0 0 0 83.653072140929297 119.02758903121168 0 119.02758903121168 1.7879616400168743 0 0 0 0 26.270639082985902 35.212761105130269 0 35.212761105130269 53.451364060912766 0 0 0 0 -406.59020281213651 13.705715439793494 0 13.705715439793494 74.976002434425936 0 0 0 0 -450.99842555942166 112.23995434803692 0 112.23995434803692 40.168154861439689 0 0 0 0 0.21548751072483521 -9.240369475875136 0 -9.240369475875136 41.103899663570793 0 0 0 0 144.3043051785113 201.06867818979208 0 201.06867818979208 381.65484910243066 0 0 0 0 40.796681759362343 -95.625463456948182 0 -95.625463456948182 377.32155299021724 0 0 0 0 -246.67671437794061 -96.685247505454754 0 -96.685247505454754 190.10741705693135 0 0 0 0 -166.99613402254437 135.12187834479937 0 135.12187834479937 274.13700211457763 0 0 0 0 -413.28352260503738 -56.936857339804192 0 -56.936857339804192 184.03468540992617 0 0 0 0 -483.86806560598404 53.232918691430314 0 53.232918691430314 151.6382393848362 0 0 0 0 -785.12910972687303 -366.90244399139374 0 -366.90244399139374 160.38160111143702 0 0 0 0 -297.00644108347103 -33.973614746105341 0 -33.973614746105341 112.00394304193105 0 0 0 0 -134.29227173933691 117.83980535448882 0 117.83980535448882 448.46269715687595 0 0 0 0 -154.45473499749957 -69.41074779716746 0 -69.41074779716746 -310.71403587782697 0 0 0 0 -15.682624717034457 -460.98881187805091 0 -460.98881187805091 721.68843076446865 0 0 0 0 -1.3670620818931893 -11.557781559340889 0 -11.557781559340889 29.814618647660676 0 0 0 0 678.05940242552776 1480.190227261352 0 1480.190227261352 2497.0981431312739 0 0 0 0 -279.84498868899641 -1155.4558045457779 0 -1155.4558045457779 -71.176891140948555 0 0 0 0 0.070061188204887215 -4.0210560797265842 0 -4.0210560797265842 13.675532136784966 0 0 0 0 11.874607879081836 382.41930733208062 0 382.41930733208062 1152.6117555583587 0 0 0 0 -136.54558368646195 42.705120432614422 0 42.705120432614422 1651.186180990328 0 0 0 0 60.021886178502001 407.27185822465708 0 407.27185822465708 1258.6284981416275 0 0 0 0 192.55468917795378 705.59203088275171 0 705.59203088275171 1271.7843193951203 0 0 0 0 -356.21780940023183 581.40254944989283 0 581.40254944989283 2499.790322642818 0 0 0 0 -328.63786505993494 315.67598932113424 0 315.67598932113424 1753.9332031059184 0 0 0 0 -312.3757425303458 128.20817815671535 0 128.20817815671535 2500.0967403552618 0 0 0 0 -50.422063632124178 -139.51897229480301 0 -139.51897229480301 2013.275959892726 0 0 0 0 46.410420620689401 -42.641757082533616 0 -42.641757082533616 1682.2768205473421 0 0 0 0 31.309088880417718 -94.91521097950374 0 -94.91521097950374 1715.3512047073973 0 0 0 0 -124.2136291797575 123.67571045640216 0 123.67571045640216 1689.3573042614789 0 0 0 0 -7.6093483969147542 -202.47718722660102 0 -202.47718722660102 603.11690059464217 0 0 0 0 38.42125029530996 -91.864074329093 0 -91.864074329093 1395.1023069457315 0 0 0 0 72.893627213186619 39.402728200944694 0 39.402728200944694 49.353394136487623 0 0 0 0 31.966420690979643 34.912428044563839 0 34.912428044563839 28.518417919334677 0 0 0 0 5.3925638596793393 7.0857405055749236 0 7.0857405055749236 12.578970905524947 0 0 0 0 -89.447672051915106 -12.796629399367703 0 -12.796629399367703 6.0493862517938197 0 0 0 0 12.197512718929712 11.505373737856894 0 11.505373737856894 4.8859122594009143 0 0 0 0 18.122949831104087 16.783326400687709 0 16.783326400687709 15.057753253937936 0 0 0 0 -91.515193092035588 79.960006888005637 0 79.960006888005637 4.4495019628358783 0 0 0 0 75.752998402548656 17.451860326559199 0 17.451860326559199 -2.9839283361925482 0 0 0 0 21.349440311870239 45.301081755314499 0 45.301081755314499 115.20318882271931 0 0 0 0 48.491204452378042 34.27391996251913 0 34.27391996251913 103.85556659151371 0 0 0 0 1.7888805540536623 -3.7402283370489862 0 -3.7402283370489862 0.32636890624757786 0 0 0 0 11.262191315519885 33.713159517630629 0 33.713159517630629 130.28910736539092 0 0 0 0 34.091820299366191 57.740954092123047 0 57.740954092123047 50.491854823972972 0 0 0 0 7.5980438155481238 -7.0601968117155707 0 -7.0601968117155707 36.657177935885557 0 0 0 0 11.227951723148051 14.232283055470687 0 14.232283055470687 4.5275441285628997 0 0 0 0 7.1309248319610745 -7.6874703250308407 0 -7.6874703250308407 10.948290696791684 0 0 0 0 36.815568686850384 61.982187374467685 0 61.982187374467685 159.35721735812331 0 0 0 0 -83.609873065511351 -42.787470088927307 0 -42.787470088927307 132.14742003205856 0 0 0 0 -100.02822858530544 104.99172068905227 0 104.99172068905227 151.29475992599342 0 0 0 0 -33.523015391969487 -217.78531468092046 0 -217.78531468092046 155.48138083955246 0 0 0 0 206.72189642556941 -0.61568815683585854 0 -0.61568815683585854 -158.40874449075159 0 0 0 0 593.19847502287575 843.8452025523236 0 843.8452025523236 1055.0819191146409 0 0 0 0 192.02687925048963 82.037396721879531 0 82.037396721879531 -125.08209761915987 0 0 0 0 6.5125326581744245 5.8641859217725951 0 5.8641859217725951 7.3230848915640525 0 0 0 0 -16.67400423582859 -215.56400567783112 0 -215.56400567783112 3594.2551018244903 0 0 0 0 847.83281602847546 294.97877337484408 0 294.97877337484408 2499.847467908316 0 0 0 0 660.05793018090867 -109.93874270560428 0 -109.93874270560428 2573.7375309230506 0 0 0 0 -18.328160748016167 332.3852573998854 0 332.3852573998854 2500.1523921168782 0 0 0 0 -247.32015653733436 403.49784739650636 0 403.49784739650636 2263.2449011705025 0 0 0 0 -355.15446768017688 289.2424124291997 0 289.2424124291997 2624.4174146133373 0 0 0 0 -277.61375713185998 171.82647641658218 0 171.82647641658218 2238.2470546068971 0 0 0 0 -94.13822253597084 663.34195203038792 0 663.34195203038792 2061.985659964665 0 0 0 0 -226.90919611725394 437.8807619426118 0 437.8807619426118 2894.3506970067397 0 0 0 0 -139.52854576519337 28.284291584815719 0 28.284291584815719 1308.225577373252 0 0 0 0 138.59063067228149 511.95281114876252 0 511.95281114876252 2577.6440048312252 0 0 0 0 -188.14889093878119 279.63412880766373 0 279.63412880766373 2500.1850885076174 0 0 0 0 -22.298692658256869 -80.826656441333398 0 -80.826656441333398 2520.3560934157404 0 0 0 0 -16.828133180047416 189.23184500992829 0 189.23184500992829 3491.8238670176861 0 0 0 0 165.85917942947304 186.4123434147823 0 186.4123434147823 -443.38693424085068 0 0 0 0 -56.027759939126469 202.60651571044548 0 202.60651571044548 1760.9600796296681 0 0 0 0 11.665265862048861 14.151215528687031 0 14.151215528687031 6.8744114375364331 0 0 0 0 -66.921390840111826 160.00838237471226 0 160.00838237471226 -88.229990629088206 0 0 0 0 -122.44446792846611 28.896171646363655 0 28.896171646363655 83.714576307134848 0 0 0 0 -141.93260504558975 199.32886236010836 0 199.32886236010836 205.08879607832387 0 0 0 0 -113.61432471359421 -11.146528127978854 0 -11.146528127978854 221.98341819188613 0 0 0 0 14.439051797058069 17.158106889079541 0 17.158106889079541 6.8164536647543743 0 0 0 0 406.26315423667859 559.95097048133402 0 559.95097048133402 456.12007888616745 0 0 0 0 -29.634404173514667 42.641111401913804 0 42.641111401913804 51.752629974832416 0 0 0 0 -31.98535923679492 9.1422237475608199 0 9.1422237475608199 53.275224473714388 0 0 0 0 11.183991420988974 10.856152373180919 0 10.856152373180919 29.918506014477316 0 0 0 0 -34.614707860238013 -9.2158573759470528 0 -9.2158573759470528 24.178355575349997 0 0 0 0 407.40460738424554 22.855084663473463 0 22.855084663473463 54.383937556272429 0 0 0 0 68.694356412708487 -73.072982809321786 0 -73.072982809321786 53.736729662952712 0 0 0 0 5.8384305100182168 -8.2959319129192757 0 -8.2959319129192757 8.4696228864890664 0 0 0 0 -39.647077498841213 -26.583039107052173 0 -26.583039107052173 0.0089652654041856294 0 0 0 0 -86.16704306193742 -39.556746671654764 0 -39.556746671654764 108.63406764004139 0 0 0 0 -90.65817015767675 -20.932879082486579 0 -20.932879082486579 169.92645944700416 0 0 0 0 -57.157144682930152 -106.86357424592279 0 -106.86357424592279 159.16036970093046 0 0 0 0 -68.242836457446629 -50.477415317161103 0 -50.477415317161103 17.306666050302738 0 0 0 0 -98.916927934793875 -51.30908779040783 0 -51.30908779040783 18.093663744423793 0 0 0 0 -74.167026169387555 -96.350890536742554 0 -96.350890536742554 -19.743037321471093 0 0 0 0 3.0302344974964175 -5.9656401622842843 0 -5.9656401622842843 7.2096753716397934 0 0 0 0 -200.34639465876444 -94.685117253045973 0 -94.685117253045973 -78.221405655369381 0 0 0 0 -20.924036603731452 -50.877900358751504 0 -50.877900358751504 -76.079874880995703 0 0 0 0 0.21983019239713109 -2.197306418543274 0 -2.197306418543274 3.3560429211876652 0 0 0 0 36.965384954077592 216.08661198073014 0 216.08661198073014 396.46165489873238 0 0 0 0 2.1542017337351353 3.0815267312937067 0 3.0815267312937067 379.24565372995789 0 0 0 0 41.144370239599539 106.267464519442 0 106.267464519442 246.732556585981 0 0 0 0 89.90117061415549 154.15318957650379 0 154.15318957650379 224.89527305891897 0 0 0 0 27.083597372143231 129.15816288673159 0 129.15816288673159 146.70204593886228 0 0 0 0 28.04037577195777 136.14550208228138 0 136.14550208228138 196.99314766580392 0 0 0 0 280.91462045910885 138.74910912601808 0 138.74910912601808 19.949623817581482 0 0 0 0 109.96180743130299 105.15189455310883 0 105.15189455310883 108.19322795148037 0 0 0 0 32.171558180831198 -11.602731058055724 0 -11.602731058055724 36.313314807730194 0 0 0 0 143.72032773597402 280.12456345369628 0 280.12456345369628 294.99626874114074 0 0 0 0 -63.315558879625314 127.69952104303411 0 127.69952104303411 451.0584646033185 0 0 0 0 -52.049769908301641 43.942055088667985 0 43.942055088667985 229.42718018850792 0 0 0 0 212.76505141275459 -17.166015192949999 0 -17.166015192949999 -31.495404821205739 0 0 0 0 457.67120452173498 64.189772865591294 0 64.189772865591294 226.4815170926413 0 0 0 0 166.41232822230586 154.58893937467474 0 154.58893937467474 113.77363733354468 0 0 0 0 0.09705026521659943 -0.32684634160351322 0 -0.32684634160351322 1.1375230336430064 0 0 0 0 50.711614492012473 322.51953776401842 0 322.51953776401842 584.43269557454187 0 0 0 0 66.050908228652588 57.196360693311362 0 57.196360693311362 117.69890990756357 0 0 0 0 75.069472976890665 52.950213146496026 0 52.950213146496026 102.4512496418065 0 0 0 0 97.00884203959663 42.662395341627416 0 42.662395341627416 95.184934527704172 0 0 0 0 -221.62307957891494 -44.927190341797541 0 -44.927190341797541 77.521717864661696 0 0 0 0 -27.262386157150331 -34.518333144082135 0 -34.518333144082135 95.934588642579911 0 0 0 0 -26.318792356407812 -36.173786833751365 0 -36.173786833751365 8.01669507335464 0 0 0 0 67.567283622217019 -31.842426731218893 0 -31.842426731218893 9.3406826286081923 0 0 0 0 -0.0029742511934308657 2.1200365401600347 0 2.1200365401600347 10.836599879781645 0 0 0 0 -258.75704409215405 30.143024225422778 0 30.143024225422778 87.65234353064443 0 0 0 0 -271.59576035102782 -79.567568129066785 0 -79.567568129066785 364.70312047272455 0 0 0 0 -177.11108797781071 162.58858104090359 0 162.58858104090359 73.615215949238063 0 0 0 0 7.3458375888396858 28.674938528929488 0 28.674938528929488 50.048354308111811 0 0 0 0 -13.052319736010759 -92.053334505595558 0 -92.053334505595558 -54.950134914877708 0 0 0 0 100.47967911189494 80.197087313976226 0 80.197087313976226 23.791342235852426 0 0 0 0 -123.08260501350736 55.272412348960643 0 55.272412348960643 246.4757837079851 0 0 0 0 0.31522093866362599 2.4184821352105423 0 2.4184821352105423 9.8602763039212817 0 0 0 0 -85.941762220623218 -56.767985109478104 0 -56.767985109478104 3.2366103451022354 0 0 0 0 175.29321729904012 -208.53339231946939 0 -208.53339231946939 202.94955466401916 0 0 0 0 25.37859663217472 -24.415430182246837 0 -24.415430182246837 10.500107001882498 0 0 0 0 456.07704652068196 455.55765544480164 0 455.55765544480164 239.79596824878172 0 0 0 0 356.04279907352293 167.75761852284995 0 167.75761852284995 -14.435981417407675 0 0 0 0 0.81373807940958987 1.736849433486241 0 1.736849433486241 4.0063891248491501 0 0 0 0 369.84590365341057 353.05083930721537 0 353.05083930721537 20.141356760748749 0 0 0 0 305.54559756029278 388.4590921156323 0 388.4590921156323 46.245094815571065 0 0 0 0 228.43138641901353 315.60038814494874 0 315.60038814494874 279.82455567115903 0 0 0 0 330.14640878245575 370.11411040069106 0 370.11411040069106 -320.20582392940014 0 0 0 0 2.3329965368212555 1.9304513162788233 0 1.9304513162788233 1.239808230165341 0 0 0 0 -76.257536234111029 116.2180917603182 0 116.2180917603182 700.75395223029591 0 0 0 0 145.16380609713605 19.817551435279711 0 19.817551435279711 -167.19469520658458 0 0 0 0 166.98068814283249 173.09917827023673 0 173.09917827023673 375.37780790538454 0 0 0 0 -38.384138404084069 64.687301221200869 0 64.687301221200869 1051.2244867468507 0 0 0 0 223.43084416803572 310.11586852919572 0 310.11586852919572 424.63636717882082 0 0 0 0 182.54699179323387 220.33428434483199 0 220.33428434483199 824.7338743222117 0 0 0 0 41.561241801954651 72.138369330996284 0 72.138369330996284 1510.7894381977967 0 0 0 0 26.662908359170927 181.39531000762963 0 181.39531000762963 1102.0773485731766 0 0 0 0 -60.47709967715511 -124.40791888174158 0 -124.40791888174158 520.87749247617103 0 0 0 0 397.61806127776708 378.59184280438785 0 378.59184280438785 883.42160961578156 0 0 0 0 23.490763618351991 231.01360249547997 0 231.01360249547997 1978.6000680557845 0 0 0 0 414.15528076876336 576.30138894356878 0 576.30138894356878 1511.9297615580072 0 0 0 0 4.483162430081415 5.2789171548186147 0 5.2789171548186147 4.1297037579924947 0 0 0 0 434.91910499990399 715.88920957789287 0 715.88920957789287 531.63965860151734 0 0 0 0 371.71978154404394 495.58124832380645 0 495.58124832380645 2710.6570589757393 0 0 0 0 226.35121250274781 82.723576205807149 0 82.723576205807149 1890.717865281973 0 0 0 0 270.68841275461097 323.36947098173323 0 323.36947098173323 2499.5379770631534 0 0 0 0 -220.10594583900456 -118.904241292611 0 -118.904241292611 1798.4850200871388 0 0 0 0 -196.39705537264396 130.67627455474894 0 130.67627455474894 2500.0174485672233 0 0 0 0 -274.28916304178438 -106.66692948159971 0 -106.66692948159971 1801.9403016858851 0 0 0 0 -452.22919739450481 -329.40442455097218 0 -329.40442455097218 2499.0903045977211 0 0 0 0 -234.11583922253143 -332.46194786810065 0 -332.46194786810065 1618.2177808686959 0 0 0 0 -371.20701130680294 -426.21760848219674 0 -426.21760848219674 1596.7257798836235 0 0 0 0 -224.93462136230889 -868.24817936700765 0 -868.24817936700765 2500.949257310449 0 0 0 0 -250.2604157400271 -784.67603225470793 0 -784.67603225470793 2753.1948979248282 0 0 0 0 -272.57374454789561 -685.67389166187331 0 -685.67389166187331 2495.670127369498 0 0 0 0 72.808188914758645 -228.54604050436501 0 -228.54604050436501 -570.24799068918242 0 0 0 0 0.20607861272625627 -4.7680928321670351 0 -4.7680928321670351 0.77213014182751927 0 0 0 0 -187.79171284986268 -413.69277930970384 0 -413.69277930970384 396.14274526237023 0 0 0 0 -132.04204305243832 -143.64102529661614 0 -143.64102529661614 172.10723743589188 0 0 0 0 25.162935098077014 -56.524846590281413 0 -56.524846590281413 136.34079869791276 0 0 0 0 -108.99403301466702 78.148217800649945 0 78.148217800649945 578.58312701186924 0 0 0 0 -202.37086000850508 35.737008315081766 0 35.737008315081766 838.97229409290594 0 0 0 0 -66.541328986178542 37.27962053534975 0 37.27962053534975 421.94160117539832 0 0 0 0 -2.0090509692598459 149.65465067643481 0 149.65465067643481 477.84932611179465 0 0 0 0 -186.22343773048027 92.838408111606441 0 92.838408111606441 908.75942205269894 0 0 0 0 -131.85183429336121 -143.68769340923018 0 -143.68769340923018 912.2852412651755 0 0 0 0 -344.24164597331679 650.49011826614151 0 650.49011826614151 2500.1446423002599 0 0 0 0 -192.30300771266894 251.59881826840137 0 251.59881826840137 1947.9954704875418 0 0 0 0 1146.1246511328475 528.9716908115588 0 528.9716908115588 1564.5302734448305 0 0 0 0 961.89572756619771 1197.6830155555406 0 1197.6830155555406 1870.1807332048484 0 0 0 0 12.831651004160264 1.2977343104132828 0 1.2977343104132828 12.518021692433413 0 0 0 0 3.7951728977433792 -3.3698608274385009 0 -3.3698608274385009 14.39130444796541 0 0 0 0 908.37174208765339 1402.8024380887691 0 1402.8024380887691 2496.3054593301476 0 0 0 0 870.76201240343846 -650.52551042426057 0 -650.52551042426057 512.59694866707059 0 0 0 0 -4.8987868480203538 -6.8309780611368822 0 -6.8309780611368822 11.788794981695316 0 0 0 0 -38.271194113196202 -125.41622464891861 0 -125.41622464891861 -125.17137357685988 0 0 0 0 -129.8129147918936 -16.579261629425673 0 -16.579261629425673 327.09819820453777 0 0 0 0 -76.059195519723971 -17.054650589239827 0 -17.054650589239827 71.627336370459261 0 0 0 0 -119.31351598995224 -120.62054294583686 0 -120.62054294583686 92.407518605337827 0 0 0 0 -13.635856678963236 -2.7202454596591892 0 -2.7202454596591892 63.241055550951003 0 0 0 0 1106.0435079398637 233.87098355895068 0 233.87098355895068 -179.91241316494416 0 0 0 0 648.96624933556996 -235.53867823179098 0 -235.53867823179098 169.78452096257479 0 0 0 0 -887.51186080370326 519.51689186182193 0 519.51689186182193 2117.4320613430173 0 0 0 0 -11.241803169676446 -11.376786936827056 0 -11.376786936827056 87.768407325739304 0 0 0 0 -138.8711670468644 -48.202349008851343 0 -48.202349008851343 124.32010754565454 0 0 0 0 -196.34891446389361 1148.664653971482 0 1148.664653971482 -374.70571192745047 0 0 0 0 6.1416919043455174 10.322550282080073 0 10.322550282080073 12.230965886221412 0 0 0 0 -104.08339313582556 1856.0528418020729 0 1856.0528418020729 -1489.7152022219525 0 0 0 0 113.33885096258473 517.43127274715971 0 517.43127274715971 -1309.8820333572512 0 0 0 0 313.84551903337666 1160.3066456061933 0 1160.3066456061933 715.29014032066334 0 0 0 0 -53.478538674315985 -20.726955427476355 0 -20.726955427476355 85.824179329531034 0 0 0 0 -8.9296414700949835 -23.764477130470521 0 -23.764477130470521 90.370227413867212 0 0 0 0 831.32692765281081 -695.70262831649779 0 -695.70262831649779 -1257.7912237729688 0 0 0 0 -9.6025777408515296 38.810609225847656 0 38.810609225847656 114.81154290373888 0 0 0 0 -56.291905745419172 15.913987225206256 0 15.913987225206256 148.62160034450426 0 0 0 0 -29.637844045437486 115.34699410840983 0 115.34699410840983 167.65246328277135 0 0 0 0 -35.080473525478169 39.622062216926679 0 39.622062216926679 160.30745340300746 0 0 0 0 -26.744288713390461 142.76345865267649 0 142.76345865267649 217.44531210328114 0 0 0 0 15.374024697612072 81.659388167787256 0 81.659388167787256 189.83312654774818 0 0 0 0 -4.7385357692896832 105.13054180570452 0 105.13054180570452 240.17241872004524 0 0 0 0 5.4516154167243087 82.2925226679763 0 82.2925226679763 240.34798987049726 0 0 0 0 -25.549089372088133 92.423242053495414 0 92.423242053495414 395.93496814184618 0 0 0 0 18.587483928339452 70.384303106093284 0 70.384303106093284 339.96676001439937 0 0 0 0 -8.3441267524580098 81.667470749695894 0 81.667470749695894 344.49502644856329 0 0 0 0 -8.3993421156289401 69.98603812067995 0 69.98603812067995 466.0161436648159 0 0 0 0 15.999399692777615 131.34176978417599 0 131.34176978417599 339.28047896873977 0 0 0 0 21.066342417051032 50.314907461548501 0 50.314907461548501 396.57743023863441 0 0 0 0 16.823649074209584 117.76414735031176 0 117.76414735031176 257.2354898358717 0 0 0 0 14.180321874413487 67.939758455993911 0 67.939758455993911 254.4752019342377 0 0 0 0 30.978534047992753 102.3899576619624 0 102.3899576619624 189.11098640217642 0 0 0 0 9.5049255942601576 50.33682469355881 0 50.33682469355881 221.43352849502844 0 0 0 0 41.887469512096231 58.425803591884687 0 58.425803591884687 82.420496298778744 0 0 0 0 0.56146698302700315 154.70889837197319 0 154.70889837197319 247.1777518507979 0 0 0 0 21.762807424277867 62.060723592530962 0 62.060723592530962 346.67070161301308 0 0 0 0 3.0290903528052695 103.04261438644244 0 103.04261438644244 472.26996466300625 0 0 0 0 16.179904853097923 36.876629197944567 0 36.876629197944567 527.58738220026135 0 0 0 0 17.073187575110751 142.97713568224208 0 142.97713568224208 424.77686430354697 0 0 0 0 2.4729471861069783 74.165150327279662 0 74.165150327279662 458.46374069257581 0 0 0 0 65.666806308589912 170.33023858954402 0 170.33023858954402 349.34345035614388 0 0 0 0 -33.310829433959043 169.52087622905674 0 169.52087622905674 588.09554150801341 0 0 0 0 -42.355741277697689 139.89662108092307 0 139.89662108092307 821.34732227657514 0 0 0 0 101.68527424601075 22.121905165791986 0 22.121905165791986 155.14358587171591 0 0 0 0 15.746237664650153 18.307428479301052 0 18.307428479301052 176.43884841571344 0 0 0 0 73.261667835043454 72.633881749783541 0 72.633881749783541 205.30291207929258 0 0 0 0 -55.251676007914284 76.057428110761975 0 76.057428110761975 209.76062004727646 0 0 0 0 77.374489741339858 33.517466711333327 0 33.517466711333327 32.464839357413439 0 0 0 0 -0.23728553489543813 -1.5565509358984713 0 -1.5565509358984713 19.319929644953827 0 0 0 0 -68.948670037670752 141.91947236086889 0 141.91947236086889 66.954183903250851 0 0 0 0 -72.66003387877403 66.365287335102039 0 66.365287335102039 521.44081943700439 0 0 0 0 -205.23853947586406 55.380279855084154 0 55.380279855084154 452.11965675358488 0 0 0 0 3.2987280891567945 4.0347021324075989 0 4.0347021324075989 2.9136268360052391 0 0 0 0 -105.1580070971501 266.77875141433947 0 266.77875141433947 198.0026022139773 0 0 0 0 1.2974905905467469 1.7629339093849055 0 1.7629339093849055 1.5623496201436957 0 0 0 0 -5.0833765993621967 191.62574622107695 0 191.62574622107695 -217.24545798166764 0 0 0 0 -41.106873016821119 177.12778769353736 0 177.12778769353736 137.01189740368136 0 0 0 0 -7.7526577218582133 74.06838756756224 0 74.06838756756224 121.32575749983926 0 0 0 0 -80.846609347375306 50.214160052729312 0 50.214160052729312 140.50216215609544 0 0 0 0 -69.755663479117118 125.38477367464998 0 125.38477367464998 242.7186558382673 0 0 0 0 -80.190171141397954 71.983839481407813 0 71.983839481407813 266.28031914288658 0 0 0 0 -28.783065065511835 58.321139494088129 0 58.321139494088129 342.05265213506937 0 0 0 0 -21.201818994613983 97.582449462712248 0 97.582449462712248 277.05033291125437 0 0 0 0 -46.195988984174519 90.565430323438704 0 90.565430323438704 278.26789840045967 0 0 0 0 -58.806917125914367 97.237557316217135 0 97.237557316217135 329.28043674516516 0 0 0 0 -46.722731897081324 94.032708418284983 0 94.032708418284983 259.58182058711827 0 0 0 0 38.339004677632232 191.13200764606245 0 191.13200764606245 272.48027842521515 0 0 0 0 -55.08808683887483 26.779588736448204 0 26.779588736448204 250.30538801004514 0 0 0 0 46.157252977901607 267.61050072275611 0 267.61050072275611 325.54614183194644 0 0 0 0 0.10210511379448739 -0.51991976173273358 0 -0.51991976173273358 1.5768719987239876 0 0 0 0 23.794957865152398 215.34025598121389 0 215.34025598121389 277.50227508517128 0 0 0 0 66.575470009922014 63.402046178502133 0 63.402046178502133 173.1706719744052 0 0 0 0 50.029978284269589 79.985003853449598 0 79.985003853449598 184.72514916049113 0 0 0 0 29.157476676379588 10.824848721969829 0 10.824848721969829 252.1961030318289 0 0 0 0 -12.896172488944728 -38.580829904126176 0 -38.580829904126176 181.77760306222444 0 0 0 0 3.7898577609154245 2.3226713834351358 0 2.3226713834351358 250.67945194312779 0 0 0 0 -2.674901465527852 7.448310915651291 0 7.448310915651291 345.72929869503059 0 0 0 0 3.7404833121163392 -18.891139278821356 0 -18.891139278821356 163.90463144915338 0 0 0 0 7.8480931812520307 0.64803751301391088 0 0.64803751301391088 0.033153982470803811 0 0 0 0 40.632766867596899 38.873375930244038 0 38.873375930244038 366.72957044450413 0 0 0 0 16.74137887071447 24.951609075818851 0 24.951609075818851 158.46469021189387 0 0 0 0 60.598981972276697 127.85502945614644 0 127.85502945614644 312.24792462151754 0 0 0 0 -0.37697088923936595 -0.21964441929742762 0 -0.21964441929742762 1.2003501423291638 0 0 0 0 33.031421070952895 139.19594431296355 0 139.19594431296355 457.76947699149241 0 0 0 0 -53.323706233254086 17.360390593086777 0 17.360390593086777 248.31527024829256 0 0 0 0 -56.108630099071206 0.094786703655699966 0 0.094786703655699966 383.00117858434169 0 0 0 0 -16.488564639597257 23.422087522998481 0 23.422087522998481 327.22352874831904 0 0 0 0 -39.504332526570323 28.36486575536901 0 28.36486575536901 471.39573789520728 0 0 0 0 -27.98954289171445 45.638365516273552 0 45.638365516273552 376.12297499969281 0 0 0 0 -58.305519038429253 25.634935980000591 0 25.634935980000591 466.59692142081258 0 0 0 0 8.4763748802799785 16.977663569902646 0 16.977663569902646 3.3684823159154806 0 0 0 0 21.313043599453522 48.25562303256811 0 48.25562303256811 -55.663008703279047 0 0 0 0 10.164268834218595 1.3405715138652852 0 1.3405715138652852 5.0063183980296033 0 0 0 0 -33.035452348524871 2.0804136569458933 0 2.0804136569458933 501.22507436124033 0 0 0 0 12.59997206342382 1.0597008101738083 0 1.0597008101738083 165.49880877995929 0 0 0 0 1.9158355395743456 -6.6729390071959642 0 -6.6729390071959642 442.91768633197398 0 0 0 0 0.51976170158309287 -8.667622284283425 0 -8.667622284283425 457.48680428353327 0 0 0 0 -6.310320734663037 19.8219832347786 0 19.8219832347786 8.4210348456253996 0 0 0 0 -0.81044918020234036 19.395662166029069 0 19.395662166029069 -6.1840688950760523 0 0 0 0 0.33044988491155891 19.883207800996388 0 19.883207800996388 -20.674271967829554 0 0 0 0 -1.5154946336297144 31.651879504254794 0 31.651879504254794 -16.400517714340822 0 0 0 0 -2.1052700385389471 32.45002957417455 0 32.45002957417455 -2.5940962591430434 0 0 0 0 -6.4166050865924262 31.631966302295041 0 31.631966302295041 1.1405405308105401 0 0 0 0 5.9279899053408371 41.572666333529924 0 41.572666333529924 9.799398856192056 0 0 0 0 11.955344021844667 65.887164814586868 0 65.887164814586868 -34.040923953274614 0 0 0 0 -4.7300360597100735 40.102422775802552 0 40.102422775802552 9.6399151439836714 0 0 0 0 -76.552036995116396 28.709724287433346 0 28.709724287433346 264.02354803591606 0 0 0 0 1.1947938111631089 1.5958518377841386 0 1.5958518377841386 0.4895298490314115 0 0 0 0 -10.911293372802902 29.148045234534948 0 29.148045234534948 31.567128540096746 0 0 0 0 -11.465526733424213 23.344840758135433 0 23.344840758135433 0.32708992654079339 0 0 0 0 0.22592434610374568 0.7150305149147087 0 0.7150305149147087 0.28094170515150907 0 0 0 0 11.256706688333907 43.640802410416654 0 43.640802410416654 -69.734646788975624 0 0 0 0 0.69454246190923641 72.409830181841244 0 72.409830181841244 18.576727994804969 0 0 0 0 -17.530333048654029 19.601910180328559 0 19.601910180328559 145.86521357033052 0 0 0 0 -0.47121419552303223 79.536946422937945 0 79.536946422937945 100.81259511859389 0 0 0 0 7.3794994430254519 34.910000571922865 0 34.910000571922865 60.388110621915985 0 0 0 0 14.914254672472453 29.761657424054647 0 29.761657424054647 5.1321664686256554 0 0 0 0 12.404446063776959 22.974971492867553 0 22.974971492867553 64.172280600301747 0 0 0 0 7.6242180920470988 18.518309664617504 0 18.518309664617504 6.2757663538109281 0 0 0 0 3.1263097646042297 28.057296515529742 0 28.057296515529742 11.851042666603462 0 0 0 0 -9.703309145725143 23.64612469849817 0 23.64612469849817 13.841726588387246 0 0 0 0 -18.662071399639899 29.633965557331976 0 29.633965557331976 7.9339217537428794 0 0 0 0 -17.418633115973535 22.797504480891348 0 22.797504480891348 11.130274038150674 0 0 0 0 3.6046339024451299 22.209476092721161 0 22.209476092721161 4.0769841112014547 0 0 0 0 2.3836521031178108 -28.948239542153715 0 -28.948239542153715 -165.99905570314149 0 0 0 0 -40.323791351756881 105.84714136458206 0 105.84714136458206 -144.42743333138787 0 0 0 0 -391.06991566510624 -68.251034219618305 0 -68.251034219618305 715.93135776904091 0 0 0 0 -62.535129463196427 -157.91296905862691 0 -157.91296905862691 833.0495955720944 0 0 0 0 61.82624907650461 -117.81478289180086 0 -117.81478289180086 667.11739325784401 0 0 0 0 -52.97838705436925 -9.3752107699319822 0 -9.3752107699319822 846.29205360742344 0 0 0 0 -13.299829637176117 18.200376420976681 0 18.200376420976681 655.40249173075244 0 0 0 0 -24.207339708387735 16.664443306530302 0 16.664443306530302 686.7508041642941 0 0 0 0 59.712732225697437 -23.689236235088174 0 -23.689236235088174 698.84611524930733 0 0 0 0 59.827770457573934 35.070841562028363 0 35.070841562028363 773.60238776217739 0 0 0 0 102.65880915149319 12.925616784054 0 12.925616784054 725.28218804792414 0 0 0 0 -13.587158694311256 24.830737397922348 0 24.830737397922348 829.93192901447765 0 0 0 0 -5.9091127444573601 30.531939610319796 0 30.531939610319796 684.74455042571935 0 0 0 0 -10.026921289901111 -8.0698774874545052 0 -8.0698774874545052 761.13384913221125 0 0 0 0 14.116262240116271 75.447934163144964 0 75.447934163144964 559.73569240078359 0 0 0 0 8.189067572771819 -2.4775542261522787 0 -2.4775542261522787 660.12562979607173 0 0 0 0 4.5392533570685174 46.917146158344394 0 46.917146158344394 585.54601215469302 0 0 0 0 6.4160342532695722 -54.737135454131931 0 -54.737135454131931 744.51402156468248 0 0 0 0 -13.328165716371586 -23.818903544410205 0 -23.818903544410205 707.97273012915684 0 0 0 0 -8.4697262536026301 -50.121645689798243 0 -50.121645689798243 711.7321896723588 0 0 0 0 -42.962433680199865 -80.448870061110938 0 -80.448870061110938 873.19034770902181 0 0 0 0 23.637500049771916 -139.98861360818773 0 -139.98861360818773 788.50263194517902 0 0 0 0 2.8890298728067951 0.67163052886449748 0 0.67163052886449748 0.94857128421984171 0 0 0 0 91.667813921450033 63.894524145043761 0 63.894524145043761 -294.03098740956921 0 0 0 0 82.645978228776585 18.143614455846546 0 18.143614455846546 -261.4923722138883 0 0 0 0 21.890172067912896 10.756034293222619 0 10.756034293222619 0.22995913897280573 0 0 0 0 -12.433507505575108 20.556017493465333 0 20.556017493465333 -68.234602395983529 0 0 0 0 163.96271726256208 1.7584897944643672 0 1.7584897944643672 -94.779398129288893 0 0 0 0 -27.726450539412326 -47.343708859654726 0 -47.343708859654726 868.71306636525696 0 0 0 0 13.034673383934258 12.277214046545119 0 12.277214046545119 5.7423013911512193 0 0 0 0 -3.2930663284660113 -44.795011153646556 0 -44.795011153646556 599.80624183206419 0 0 0 0 16.505390899228814 4.9641976930479359 0 4.9641976930479359 -68.594987968270289 0 0 0 0 9.3670354533402165 2.0667228295125426 0 2.0667228295125426 -1.2175215773146686 0 0 0 0 59.629475641257159 81.177401135304535 0 81.177401135304535 -168.46141581124175 0 0 0 0 -10.71472780091608 118.8126624772267 0 118.8126624772267 -94.94180594701902 0 0 0 0 -69.339980584999466 70.105752890416625 0 70.105752890416625 -33.68554703949485 0 0 0 0 67.987434834249029 -75.561733858103253 0 -75.561733858103253 602.50562764089409 0 0 0 0 40.691392226837706 -40.714900233757362 0 -40.714900233757362 634.70402067519899 0 0 0 0 -1.4384344849265744 21.90841963400635 0 21.90841963400635 601.15922403500008 0 0 0 0 29.3528071446799 19.235837584536057 0 19.235837584536057 535.25798949499222 0 0 0 0 5.7417309042685361 75.53800820976403 0 75.53800820976403 468.16705551916675 0 0 0 0 10.551735436082481 -12.875983507547062 0 -12.875983507547062 538.64278010512498 0 0 0 0 13.959166749987162 16.376787239645637 0 16.376787239645637 417.24584813904312 0 0 0 0 -21.9129812089908 38.004188234514004 0 38.004188234514004 502.70184332025019 0 0 0 0 27.25289069088501 7.2084244855413999 0 7.2084244855413999 453.06328322409991 0 0 0 0 29.543370409803288 -61.716067187668159 0 -61.716067187668159 545.20953342835219 0 0 0 0 -12.880588155545865 64.343034393934431 0 64.343034393934431 16.377570644952357 0 0 0 0 14.029775714814605 13.038655785729134 0 13.038655785729134 -91.487378964789968 0 0 0 0 14.742271955597062 67.925728916987282 0 67.925728916987282 50.238552059165613 0 0 0 0 20.446320541986097 9.7204739713251911 0 9.7204739713251911 36.028095642519474 0 0 0 0 -24.345898164462142 43.287624278287694 0 43.287624278287694 166.31899583762788 0 0 0 0 313.52399317569689 175.87145839619552 0 175.87145839619552 -6.3350605826626634 0 0 0 0 2.1419226293642062 1.4525832951013342 0 1.4525832951013342 0.37605431177152582 0 0 0 0 -129.73454783761554 -66.081681709849363 0 -66.081681709849363 144.33031785294588 0 0 0 0 -186.23931556925481 -41.223892367544977 0 -41.223892367544977 423.67921948237199 0 0 0 0 9.7970710795825653 -16.718079906964704 0 -16.718079906964704 124.00980293703469 0 0 0 0 -14.262668545276028 53.685872376532643 0 53.685872376532643 71.469399189852993 0 0 0 0 54.875052108958698 79.562136648488377 0 79.562136648488377 51.683821534345043 0 0 0 0 71.084509994167092 25.785126797916746 0 25.785126797916746 47.165004934708122 0 0 0 0 24.691715141424083 36.678173636159954 0 36.678173636159954 -53.581873535746126 0 0 0 0 4.6082379774111359 34.371628646389581 0 34.371628646389581 -28.946806496300269 0 0 0 0 74.208173150212133 121.57309018022715 0 121.57309018022715 13.999677221290767 0 0 0 0 111.81624173951968 63.579452185083937 0 63.579452185083937 -121.78346204951868 0 0 0 0 -21.580345272814156 83.90961912734565 0 83.90961912734565 116.30340701581008 0 0 0 0 -11.86789947550551 -32.93989026680083 0 -32.93989026680083 -105.02512859266426 0 0 0 0 -38.165151385894205 116.62796881619579 0 116.62796881619579 367.05359831569513 0 0 0 0 1.2302445155316626 0.18108060791933411 0 0.18108060791933411 0.21144920278758406 0 0 0 0 -2.2741477005019988 53.327850169047451 0 53.327850169047451 -57.589516195658689 0 0 0 0 22.162706943497142 128.53525061166692 0 128.53525061166692 172.22774561930419 0 0 0 0 31.410254026423445 136.60747817901211 0 136.60747817901211 130.78223644849277 0 0 0 0 78.405456138226171 32.704080994682556 0 32.704080994682556 -52.639308258992969 0 0 0 0 -9.6538283921863695 67.262634458755201 0 67.262634458755201 118.85353804603074 0 0 0 0 -1.9753709020651513 19.653149663095974 0 19.653149663095974 -48.21829172802245 0 0 0 0 -17.367771791923587 3.2869731005998801 0 3.2869731005998801 92.361142715250026 0 0 0 0 2.9823605674446299 33.840988189229392 0 33.840988189229392 27.43135718510166 0 0 0 0 -54.218987363839915 55.081236183898 0 55.081236183898 115.45609505230095 0 0 0 0 -52.959628535581942 33.011698186375725 0 33.011698186375725 214.62867579128761 0 0 0 0 -53.256497619783204 68.250765908518588 0 68.250765908518588 175.4504805653487 0 0 0 0 -25.44749203151423 61.36715619304232 0 61.36715619304232 103.73907017462261 0 0 0 0 0.89976059539912967 25.840269008596806 0 25.840269008596806 43.104752676546923 0 0 0 0 31.325591667720801 37.080464307531656 0 37.080464307531656 -7.8566868611833343 0 0 0 0 -20.36609643280417 82.181762021236409 0 82.181762021236409 99.727257793419994 0 0 0 0 48.343955734591873 109.07264178962214 0 109.07264178962214 2.6064336168615228 0 0 0 0 -74.15288916649115 113.23876950395425 0 113.23876950395425 107.63693652855 0 0 0 0 -27.316258668578485 209.89052703966627 0 209.89052703966627 305.66387162346655 0 0 0 0 -10.591397880330078 -91.597088114383951 0 -91.597088114383951 277.90527342903806 0 0 0 0 1.0278806629071848 1.9140454778516727 0 1.9140454778516727 3.4881949168185713 0 0 0 0 -109.31312775426522 -3.1112718159820361 0 -3.1112718159820361 326.28210605287313 0 0 0 0 68.916562069005522 179.66695220641668 0 179.66695220641668 15.994759851793788 0 0 0 0 -9.0558066055527888 25.11532688513762 0 25.11532688513762 -57.716017537286461 0 0 0 0 37.21523255076886 66.744107831264046 0 66.744107831264046 -76.973623309266259 0 0 0 0 16.608893489686807 90.857302066597185 0 90.857302066597185 -82.050206448362587 0 0 0 0 -11.147286434895705 37.763664400752532 0 37.763664400752532 -28.654161074198782 0 0 0 0 37.138950222733911 22.632387289304461 0 22.632387289304461 19.719875769162172 0 0 0 0 108.27260631917488 52.851867540361127 0 52.851867540361127 -34.591640068800189 0 0 0 0 57.767938381522072 -29.612442241265853 0 -29.612442241265853 12.445673576730769 0 0 0 0 36.441463533800743 -1.2282025198182964 0 -1.2282025198182964 -24.634061635966646 0 0 0 0 42.469325925235353 9.4643172362339101 0 9.4643172362339101 -18.549844679888338 0 0 0 0 55.400567971945748 17.187714007814066 0 17.187714007814066 -63.694249482585292 0 0 0 0 32.074040522087671 55.76338088925695 0 55.76338088925695 -56.735661394508497 0 0 0 0 18.889875228624987 20.32787106199612 0 20.32787106199612 -30.372595898232248 0 0 0 0 6.068833970004107 38.463820122182369 0 38.463820122182369 28.307110698762699 0 0 0 0 -1.9175597491257577 4.4487001449342642 0 4.4487001449342642 -33.752002912762691 0 0 0 0 -0.32215549348278927 1.4037778135287802 0 1.4037778135287802 2.0369541438576846 0 0 0 0 35.850888030969145 18.479729347025568 0 18.479729347025568 -30.366956686488265 0 0 0 0 10.744438597491353 13.988834915759071 0 13.988834915759071 -0.21293658360809786 0 0 0 0 -0.14125036445575745 -1.1900969365454159 0 -1.1900969365454159 -0.19142447564762222 0 0 0 0 34.490743236105118 -10.739661944295221 0 -10.739661944295221 3.4833583063882543 0 0 0 0 -9.0567915333585063 -16.940541096999937 0 -16.940541096999937 12.989245246302744 0 0 0 0 -7.6776536492088781 2.7565243386052316 0 2.7565243386052316 -40.763202356349211 0 0 0 0 -5.366811707271026 -0.037971191377572211 0 -0.037971191377572211 10.404003878988135 0 0 0 0 17.669896979627993 5.2708308579567529 0 5.2708308579567529 13.417714534062725 0 0 0 0 26.244872882460186 12.37054195806013 0 12.37054195806013 12.64739601076144 0 0 0 0 4.5007639491303628 5.2329942369030817 0 5.2329942369030817 4.8877374879153734 0 0 0 0 1.4228849839419127 22.042289799810533 0 22.042289799810533 22.907582924171948 0 0 0 0 -9.9110199398010081 26.171900046065275 0 26.171900046065275 112.94217045454479 0 0 0 0 16.508453868471179 -9.4249942165679386 0 -9.4249942165679386 55.910176786801458 0 0 0 0 -10.094975596649874 -11.547073329767954 0 -11.547073329767954 97.349478637657739 0 0 0 0 -7.3105728803134298 7.3886696411245794 0 7.3886696411245794 99.384753656493558 0 0 0 0 -7.9018874003668884 -1.2981855271868881 0 -1.2981855271868881 115.00625286253489 0 0 0 0 -12.695988802719967 43.350558710253608 0 43.350558710253608 303.64842029608781 0 0 0 0 -2.3323713965214665 41.172454117642701 0 41.172454117642701 211.89620119129722 0 0 0 0 8.5949378044861078 -32.169382964915712 0 -32.169382964915712 135.25219633667803 0 0 0 0 -12.150332850593486 -44.230296221074241 0 -44.230296221074241 68.00967857957221 0 0 0 0 -48.711079438582146 49.143923202675069 0 49.143923202675069 44.815079781933036 0 0 0 0 -20.85753629936994 -5.7969128243394152 0 -5.7969128243394152 72.010530756750086 0 0 0 0 -7.5020676827127772 5.6429355545396902 0 5.6429355545396902 -6.3141571033193031 0 0 0 0 -155.1295673544787 122.25812526556001 0 122.25812526556001 -46.947205151023809 0 0 0 0 2.3666081488459199 5.0864907197731242 0 5.0864907197731242 9.303437496702017 0 0 0 0 -80.166734260526027 25.74980870089712 0 25.74980870089712 -4.5370049624780222 0 0 0 0 -164.53160751892074 151.43948641562838 0 151.43948641562838 -21.033636256070167 0 0 0 0 3.1040737644120071 6.941133967014558 0 6.941133967014558 13.100168410460711 0 0 0 0 -52.785834830227031 63.251504413276052 0 63.251504413276052 0.37271566918229837 0 0 0 0 -38.165905722914886 20.620479773091574 0 20.620479773091574 9.9169292348651652 0 0 0 0 2.4340621836131504 11.920353360424997 0 11.920353360424997 -0.28898160533935879 0 0 0 0 -15.713653232236993 -3.2694841595748585 0 -3.2694841595748585 55.055383546576195 0 0 0 0 0.9923129122271348 -10.442737493773166 0 -10.442737493773166 28.319767507324286 0 0 0 0 -27.961268053044478 4.4994823400538735 0 4.4994823400538735 21.27019074517375 0 0 0 0 -24.054235865251485 6.4060127361790364 0 6.4060127361790364 21.484187063200807 0 0 0 0 -3.4048914470540694 -9.2465870639316563 0 -9.2465870639316563 21.290977617898534 0 0 0 0 -5.7555600927612431 -14.595287188132716 0 -14.595287188132716 29.142604805609153 0 0 0 0 -13.011713040512632 -7.0215453480150245 0 -7.0215453480150245 36.622708912618691 0 0 0 0 -9.5586693084667331 -11.935185087851096 0 -11.935185087851096 54.293208592862356 0 0 0 0 -3.6112160833554299 -9.0451424656093877 0 -9.0451424656093877 37.029603167645291 0 0 0 0 -14.090966542489468 -8.1761191236964805 0 -8.1761191236964805 61.034048328965582 0 0 0 0 -2.8827513357475709 -8.1592581219492786 0 -8.1592581219492786 60.669747219719284 0 0 0 0 -12.524231844096448 3.3158907257711689 0 3.3158907257711689 85.947872425924288 0 0 0 0 -7.0001314020084919 -3.1660039161006353 0 -3.1660039161006353 65.719589920714498 0 0 0 0 -5.8680674675088085 1.4985249017117894 0 1.4985249017117894 58.437105577628245 0 0 0 0 -9.9869619058722492 13.140267405811755 0 13.140267405811755 94.74917023895614 0 0 0 0 -9.3335119690236752 5.2642234397899301 0 5.2642234397899301 83.885887627558986 0 0 0 0 -14.357237639273535 4.0703083870375849 0 4.0703083870375849 109.41283695393213 0 0 0 0 -1.4519457660348962 8.7157390733282227 0 8.7157390733282227 83.28727120874828 0 0 0 0 3.2381380448305208 -3.6816936982486368 0 -3.6816936982486368 57.739243197756878 0 0 0 0 -13.013384700295319 -10.084424776974629 0 -10.084424776974629 62.002020914009336 0 0 0 0 -1.4898500484077886 5.9503528289860697 0 5.9503528289860697 83.204092935899098 0 0 0 0 -7.3606992505874587 6.6465552734262019 0 6.6465552734262019 83.384608612012016 0 0 0 0 3.3754358602909633 5.5988444472718584 0 5.5988444472718584 62.082210436659807 0 0 0 0 1.986031468022702 -3.9821518695134728 0 -3.9821518695134728 59.781071633347892 0 0 0 0 -2.9022196987707503 -2.741982005412865 0 -2.741982005412865 45.235373656098091 0 0 0 0 -7.5600189740825954 -4.9536615378165152 0 -4.9536615378165152 66.03363293602888 0 0 0 0 -2.688109369069025 -10.255027467761465 0 -10.255027467761465 42.220525050692231 0 0 0 0 -7.3350637535786518 -5.5232733097218443 0 -5.5232733097218443 60.534187484260656 0 0 0 0 -4.525157209921872 -10.693107176684862 0 -10.693107176684862 27.201969040746917 0 0 0 0 -8.8737068879079288 -5.9543085914301628 0 -5.9543085914301628 39.231253203215601 0 0 0 0 -10.13916556424374 -10.552344782092405 0 -10.552344782092405 29.725246229329059 0 0 0 0 -13.242620388722571 -25.362833684734142 0 -25.362833684734142 26.887213830275869 0 0 0 0 -16.366726926029969 -20.085170241094602 0 -20.085170241094602 38.525131561569651 0 0 0 0 -2.7693742627649267 -11.432136078911196 0 -11.432136078911196 38.46717544170113 0 0 0 0 -6.7540851258258954 -6.7296687007674336 0 -6.7296687007674336 36.075478775092051 0 0 0 0 -10.243479044660944 -15.108266895753331 0 -15.108266895753331 43.163407228827054 0 0 0 0 -15.099171964473044 -19.616128062360076 0 -19.616128062360076 28.22845032667874 0 0 0 0 -12.142583286264653 -8.6815889691006305 0 -8.6815889691006305 24.820524380156712 0 0 0 0 -7.7259071113208755 -8.004717525947644 0 -8.004717525947644 31.805886655037114 0 0 0 0 33.034258764628248 40.31089808600882 0 40.31089808600882 66.388393721984983 0 0 0 0 10.575514847474551 70.417004380968137 0 70.417004380968137 149.65775750821194 0 0 0 0 -4.0926075872430374 22.797958582099454 0 22.797958582099454 118.66533929522484 0 0 0 0 20.388791627728324 18.812968629856186 0 18.812968629856186 69.282298229631124 0 0 0 0 -3.114437737742719 -0.48667621425647667 0 -0.48667621425647667 68.249171680818279 0 0 0 0 -4.5251572099114128 -10.693107176673948 0 -10.693107176673948 27.20196904075965 0 0 0 0 20.939866411647927 105.28443885901652 0 105.28443885901652 364.44356433745634 0 0 0 0 12.126086283104087 56.667403962826938 0 56.667403962826938 205.39773538866666 0 0 0 0 11.84705668636343 29.392618036060412 0 29.392618036060412 93.948620515729999 0 0 0 0 1.3653276171894504 32.972463052620697 0 32.972463052620697 237.54378873393216 0 0 0 0 52.386562551124371 4.6479266940605157 0 4.6479266940605157 98.370903695640663 0 0 0 0 125.2833189008503 -43.516490678196305 0 -43.516490678196305 24.964096152518323 0 0 0 0 37.506315989863651 -34.258349511486813 0 -34.258349511486813 106.93893735285837 0 0 0 0 10.569399843711381 2.6221387657524247 0 2.6221387657524247 58.485981762667507 0 0 0 0 13.156014552358215 -48.148244157399205 0 -48.148244157399205 -3.3922736044060002 0 0 0 0 5.8164343388539237 -9.6223211302609606 0 -9.6223211302609606 8.2799699812336414 0 0 0 0 18.428747519566514 19.323771716966803 0 19.323771716966803 62.520975511070901 0 0 0 0 -3.7152117789460259 -11.034666684958335 0 -11.034666684958335 44.132548390055589 0 0 0 0 9.0438735133955106 0.98427676555851562 0 0.98427676555851562 23.036665619341761 0 0 0 0 44.170520822423896 -13.945079114071632 0 -13.945079114071632 -41.466691794802045 0 0 0 0 76.984398379190679 10.747201377605961 0 10.747201377605961 -31.274275504489196 0 0 0 0 -6.2802707357296983 -9.9308401714702761 0 -9.9308401714702761 28.159729707859427 0 0 0 0 -11.020159304686331 -7.0813535386441799 0 -7.0813535386441799 47.137305864343944 0 0 0 0 7.5733604742297072 -7.2778258426978475 0 -7.2778258426978475 17.171833392000522 0 0 0 0 -9.3014185868737513 -25.828831058310243 0 -25.828831058310243 45.426594709544588 0 0 0 0 -4.5251572099223267 -10.693107176673948 0 -10.693107176673948 27.201969040761469 0 0 0 0 33.606391702580822 27.29174475309992 0 27.29174475309992 40.989877391330083 0 0 0 0 -15.050908123927002 11.820355212267714 0 11.820355212267714 108.49814605149641 0 0 0 0 -18.687473366446284 -33.466259832895958 0 -33.466259832895958 40.123010942902511 0 0 0 0 29.291012972554199 9.9069571729523886 0 9.9069571729523886 66.707945129313885 0 0 0 0 5.6616663027921277 0.58111456012011331 0 0.58111456012011331 51.325946475001729 0 0 0 0 0.52818779407698457 12.549489028293465 0 12.549489028293465 99.774386294928263 0 0 0 0 -4.9388891465837457 15.325135496611558 0 15.325135496611558 15.691766641950659 0 0 0 0 -10.583025173619944 -5.3282933228210823 0 -5.3282933228210823 101.71553034256431 0 0 0 0 79.342053798662164 95.257320649932808 0 95.257320649932808 35.822967003199665 0 0 0 0 2.1778101209816523 -0.79501065049565511 0 -0.79501065049565511 0.16072284636236578 0 0 0 0 -61.289530699712145 -89.211438076296645 0 -89.211438076296645 302.04321102297035 0 0 0 0 38.108847317390769 107.18207258647476 0 107.18207258647476 74.939966698528224 0 0 0 0 19.909838155606394 26.976938794595299 0 26.976938794595299 83.171076558510322 0 0 0 0 5.9436939452297679 21.98836429614812 0 21.98836429614812 99.155855504577289 0 0 0 0 13.481047836718021 19.876934896042425 0 19.876934896042425 31.502078208402011 0 0 0 0 -13.758675597068496 -5.2913084401809023 0 -5.2913084401809023 53.147171077679538 0 0 0 0 -30.773361046440868 -148.42058505005025 0 -148.42058505005025 54.33216807755889 0 0 0 0 -15.284588076580832 -8.1352257659790332 0 -8.1352257659790332 41.930007530989023 0 0 0 0 -75.373151114558823 -20.579449774213572 0 -20.579449774213572 64.669496652310045 0 0 0 0 57.954366016065705 63.29400017657008 0 63.29400017657008 75.0602651864574 0 0 0 0 -30.928290755722628 88.572885722946012 0 88.572885722946012 140.52628119915062 0 0 0 0 39.583228427190079 84.850047793261183 0 84.850047793261183 90.55607161275384 0 0 0 0 23.360827676234294 66.162518007078233 0 66.162518007078233 156.07938049701625 0 0 0 0 4.7050548917923152 46.995913185164682 0 46.995913185164682 83.094885819167757 0 0 0 0 14.637459951368328 39.191380592729274 0 39.191380592729274 87.231629658210295 0 0 0 0 -5.5946305667002889 93.281053839396918 0 93.281053839396918 176.00228390982875 0 0 0 0 49.75088676600808 329.94790142846432 0 329.94790142846432 271.9943414189911 0 0 0 0 -316.15184104253331 208.42079347586787 0 208.42079347586787 462.29445539565859 0 0 0 0 -211.09658241617581 -38.756145857039428 0 -38.756145857039428 143.66670939234609 0 0 0 0 57.891633257525086 62.179851467116805 0 62.179851467116805 60.944115243844863 0 0 0 0 -10.699903702709889 -21.479957420893697 0 -21.479957420893697 -27.201359578383517 0 0 0 0 -43.23874802061755 41.949866016668238 0 41.949866016668238 127.42577930098014 0 0 0 0 47.295992892273262 100.87380439419667 0 100.87380439419667 149.79855787739871 0 0 0 0 28.69047030547199 75.31599886141521 0 75.31599886141521 216.30124558395983 0 0 0 0 37.679483776478264 149.60074648261639 0 149.60074648261639 152.80846724182629 0 0 0 0 -83.646129445825864 202.90818417116679 0 202.90818417116679 153.84255814723292 0 0 0 0 115.41268720574089 174.11950057902141 0 174.11950057902141 154.80717601177821 0 0 0 0 91.212686368518689 -205.77905959422424 0 -205.77905959422424 168.53184854362553 0 0 0 0 49.438853251180262 -258.48299842156121 0 -258.48299842156121 -161.27995792585352 0 0 0 0 0.44976078413047715 1.5494290102266142 0 1.5494290102266142 4.946472441234917 0 0 0 0 113.31299374753782 197.79681252024488 0 197.79681252024488 -98.470262762533821 0 0 0 0 125.67134562170213 296.97640506734569 0 296.97640506734569 73.441891746284455 0 0 0 0 31.687917938972305 -107.34397491449454 0 -107.34397491449454 27.482989265816286 0 0 0 0 -113.40214755559191 66.222626513132127 0 66.222626513132127 -18.857869014180324 0 0 0 0 585.35050248060929 109.6200900611002 0 109.6200900611002 217.71250931136456 0 0 0 0 -28.370812293984272 -238.47100680903577 0 -238.47100680903577 311.72193718428389 0 0 0 0 -143.49823047196105 -188.91513648700311 0 -188.91513648700311 396.40680467644415 0 0 0 0 -175.37585926889824 -7.8138557356178353 0 -7.8138557356178353 256.00457165848456 0 0 0 0 -230.7808309682523 -83.871164395543019 0 -83.871164395543019 315.10202108887347 0 0 0 0 -97.280003826736447 -142.20066053025585 0 -142.20066053025585 311.8366593553601 0 0 0 0 -139.48336256644757 -78.336352769911173 0 -78.336352769911173 216.96132847414992 0 0 0 0 -58.108462917245561 -143.48350914066395 0 -143.48350914066395 209.91072977613658 0 0 0 0 -90.676048772039735 -27.78517624964843 0 -27.78517624964843 260.53551106907253 0 0 0 0 -60.252341801103739 -83.879985937712263 0 -83.879985937712263 134.52021711629641 0 0 0 0 -69.457028072048843 -103.99034770433718 0 -103.99034770433718 197.10141469877544 0 0 0 0 -67.837401499331691 -98.0365626736384 0 -98.0365626736384 217.63415034032926 0 0 0 0 7.3641586140176969 -34.823312951273692 0 -34.823312951273692 85.891191214675928 0 0 0 0 13.330125906326657 -9.7571794206469349 0 -9.7571794206469349 144.94456285729393 0 0 0 0 45.318084364946117 8.6575050736282719 0 8.6575050736282719 82.771963982945636 0 0 0 0 20.4659854917752 7.2061283553321118 0 7.2061283553321118 182.93952727362193 0 0 0 0 -28.367221887699998 -34.803122112141864 0 -34.803122112141864 209.90184638676715 0 0 0 0 -1.1719778660155953 -24.473214716186703 0 -24.473214716186703 139.27313671772572 0 0 0 0 56.056495720973714 39.617219853706501 0 39.617219853706501 164.49249910453727 0 0 0 0 30.39689020109904 -2.4271884720283197 0 -2.4271884720283197 171.39627651134288 0 0 0 0 39.045973400499861 7.5696404086811526 0 7.5696404086811526 181.30129455927454 0 0 0 0 5.6320497213791079 1.1291052815913076 0 1.1291052815913076 0.63302129354826775 0 0 0 0 18.642437036003685 -13.50175085437877 0 -13.50175085437877 262.77437366187769 0 0 0 0 32.876561158807021 8.7657684153900846 0 8.7657684153900846 229.92571185331326 0 0 0 0 51.697277546569808 -17.068206706631827 0 -17.068206706631827 211.69612040730135 0 0 0 0 34.682206025944197 -32.36368031775055 0 -32.36368031775055 231.95611149460194 0 0 0 0 -76.518804415625254 4.2630978816414427 0 4.2630978816414427 244.34123145520061 0 0 0 0 4.7635131650905196 1.0879191059527358 0 1.0879191059527358 0.56071650380191329 0 0 0 0 -63.341658750883425 -31.399699166129722 0 -31.399699166129722 210.02940613855753 0 0 0 0 -36.744391481256116 4.0284682140518271 0 4.0284682140518271 224.27378688663157 0 0 0 0 17.318056102936225 -7.0551269579118525 0 -7.0551269579118525 182.6126098941703 0 0 0 0 18.765849726951728 1.9185628103332419 0 1.9185628103332419 214.4512416129437 0 0 0 0 11.583590959539151 14.255978050718113 0 14.255978050718113 225.71175327751189 0 0 0 0 -4.4073841560311848 6.6028613489525014 0 6.6028613489525014 111.4341056705598 0 0 0 0 -34.351061644334891 -62.891675032774401 0 -62.891675032774401 216.23892549035372 0 0 0 0 9.306124020164134 24.075297524272173 0 24.075297524272173 67.951236070166487 0 0 0 0 9.9542039764728543 18.99647535879194 0 18.99647535879194 70.549861664450873 0 0 0 0 6.8212023903523393 18.289204809339104 0 18.289204809339104 5.9062605692827059 0 0 0 0 23.054547325803014 57.302079833207245 0 57.302079833207245 145.52025925299677 0 0 0 0 2.7654871301783714 15.001545244846056 0 15.001545244846056 83.450204583015875 0 0 0 0 -11.151811230225576 21.241326957340789 0 21.241326957340789 97.210682340293715 0 0 0 0 -0.36871297355537536 23.664057417219738 0 23.664057417219738 97.194882620598946 0 0 0 0 7.4919432118831253 32.386179242472394 0 32.386179242472394 82.057566745774238 0 0 0 0 -15.889990429800491 21.932493162006722 0 21.932493162006722 102.77419521750289 0 0 0 0 -2.9899358688935536 13.241518800172344 0 13.241518800172344 94.088660155801335 0 0 0 0 -2.5858508784403966 13.560273869697994 0 13.560273869697994 94.30034976054958 0 0 0 0 4.0761126952438644 3.552820918343059 0 3.552820918343059 100.70381185160659 0 0 0 0 2.7888532460092392 14.568142043437547 0 14.568142043437547 106.74988413060782 0 0 0 0 0.96137307289154705 14.454286189702543 0 14.454286189702543 91.040832640654116 0 0 0 0 -2.9653386510369444 6.3404075726184601 0 6.3404075726184601 99.231214298153645 0 0 0 0 16.138588635950327 8.5561774531124684 0 8.5561774531124684 96.804558335790716 0 0 0 0 -4.5383065442524639 6.9179051564588008 0 6.9179051564588008 96.763563757864176 0 0 0 0 4.7832854450532523 -4.219374599362709 0 -4.219374599362709 94.087860979911056 0 0 0 0 -8.1753294201939752 -4.2965758751706744 0 -4.2965758751706744 121.90883394253615 0 0 0 0 15.337342889135471 -3.5658136169804493 0 -3.5658136169804493 93.905054630688028 0 0 0 0 1.2548204411081798 16.848856685899818 0 16.848856685899818 4.1924239927862956 0 0 0 0 4.5481271023253571 0.50705223353632789 0 0.50705223353632789 0.5081419455756353 0 0 0 0 -52.412137832706321 -81.924066662420955 0 -81.924066662420955 261.66768496651434 0 0 0 0 31.862502051578758 89.723908218837096 0 89.723908218837096 114.97062590440692 0 0 0 0 4.7917820717324995 18.008235604430205 0 18.008235604430205 6.1418031172306584 0 0 0 0 -118.49339346968709 -79.228172161907423 0 -79.228172161907423 564.47318385544349 0 0 0 0 -114.72058411462022 37.584767295320489 0 37.584767295320489 781.49617040376324 0 0 0 0 0.045958852417708938 -128.37829845993474 0 -128.37829845993474 381.24727965128113 0 0 0 0 0.21258432826738505 -2.0636888349371532 0 -2.0636888349371532 4.9238180735830497 0 0 0 0 -162.13524282392842 17.956065348822449 0 17.956065348822449 490.11518544118735 0 0 0 0 87.446862590882915 -250.23495496578835 0 -250.23495496578835 415.30268176420032 0 0 0 0 321.60664258406507 -163.26607525188774 0 -163.26607525188774 82.243655882120947 0 0 0 0 22.39775238525101 -107.40666607073217 0 -107.40666607073217 118.14133485229104 0 0 0 0 -26.458677052813361 -8.8061737660427752 0 -8.8061737660427752 180.96750899750623 0 0 0 0 -16.297674766967305 58.779350826049267 0 58.779350826049267 546.32929843528836 0 0 0 0 189.08309766508376 175.20881597223342 0 175.20881597223342 282.62910254380404 0 0 0 0 -38.015062236838887 96.63057472959008 0 96.63057472959008 258.46325044683908 0 0 0 0 27.916567963206774 14.109518557219417 0 14.109518557219417 143.96141800536134 0 0 0 0 27.839968349960088 85.020277735500713 0 85.020277735500713 1404.5263690759493 0 0 0 0 2.7845791137740714 5.7257116639441819 0 5.7257116639441819 3.441522034149024 0 0 0 0 89.103693633824378 -314.11667797077098 0 -314.11667797077098 1181.1454284375068 0 0 0 0 80.54796169145385 81.821042485127691 0 81.821042485127691 34.433136693907727 0 0 0 0 -1.2224722026438106 1.1258469506330187 0 1.1258469506330187 3.5646090748254835 0 0 0 0 1.0330998195934171 30.922508162228041 0 30.922508162228041 1964.0168832972977 0 0 0 0 1.4914768909208711 -1.0486570043735668 0 -1.0486570043735668 4.5419459264059299 0 0 0 0 0.0015937428994305947 1.8002895648678532 0 1.8002895648678532 14.224094004253857 0 0 0 0 6.7016035133133016 24.379831762966205 0 24.379831762966205 1930.4398837750778 0 0 0 0 206.88923544642563 -57.028994738118627 0 -57.028994738118627 157.8772723637303 0 0 0 0 -16.6970855240193 -78.983431843980725 0 -78.983431843980725 155.72829880463541 0 0 0 0 0.2393189403784898 -0.78358844974287933 0 -0.78358844974287933 1.8034383876685638 0 0 0 0 -0.0055417604363588047 -3.537942773240502 0 -3.537942773240502 3.7159843229746912 0 0 0 0 0.91363687636378987 1.1196547814906808 0 1.1196547814906808 4.7684538013982092 0 0 0 0 0.0082369269918939475 -3.1630808361930058 0 -3.1630808361930058 11.213999982661335 0 0 0 0 0.48564399910875722 2.8253903171014372 0 2.8253903171014372 2.780691871984299 0 0 0 0 -2.2702101106460235 -1.2145534722803859 0 -1.2145534722803859 16.802079693328778 0 0 0 0 0.021599326827619988 78.91508532867374 0 78.91508532867374 1916.3757706614742 0 0 0 0 -142.45933988391107 378.89044548529091 0 378.89044548529091 2498.9099773678536 0 0 0 0 -8.8835615331170175 -17.063055688588065 0 -17.063055688588065 1872.4059689718706 0 0 0 0 56.120045738051971 63.175192626116768 0 63.175192626116768 1826.3148827244731 0 0 0 0 38.167925813436788 75.389315035414256 0 75.389315035414256 1892.1257154347477 0 0 0 0 -0.098154566839314894 0.43625023646754357 0 0.43625023646754357 4.0215916921989026 0 0 0 0 0.58212635176154193 73.014863640350086 0 73.014863640350086 2053.7823825136788 0 0 0 0 -77.644820276932734 60.610315764177358 0 60.610315764177358 2194.4895294583293 0 0 0 0 -60.642647202163232 440.03781167968555 0 440.03781167968555 1877.4640589871415 0 0 0 0 -17.420122525760359 157.21603906454447 0 157.21603906454447 1526.1475807290844 0 0 0 0 66.169717666039801 344.91309134368021 0 344.91309134368021 1649.2830237719172 0 0 0 0 -90.081817973548823 95.705044448834087 0 95.705044448834087 2058.1183080873066 0 0 0 0 -0.10611852979174641 0.24354646624165355 0 0.24354646624165355 3.1428441258820685 0 0 0 0 45.578759460201226 -70.204808771539319 0 -70.204808771539319 1562.0234025161335 0 0 0 0 -95.756155928096007 -98.594750310125164 0 -98.594750310125164 1343.5731511416307 0 0 0 0 -30.21351182407318 268.68295701494208 0 268.68295701494208 1767.5606014206714 0 0 0 0 64.640320794738443 208.70233678738441 0 208.70233678738441 1397.2550682282299 0 0 0 0 -1.8949993220630788 130.42258135458542 0 130.42258135458542 1343.8182127217879 0 0 0 0 173.83472343620627 66.658625400823439 0 66.658625400823439 1023.121705146863 0 0 0 0 -27.457121654217303 -76.524733311976888 0 -76.524733311976888 1068.8979206610029 0 0 0 0 333.90667768729338 354.00362968678746 0 354.00362968678746 805.89365705115051 0 0 0 0 168.62306099947909 210.04201963487685 0 210.04201963487685 1133.3619133038155 0 0 0 0 12.064794853031231 280.22542222258926 0 280.22542222258926 1618.4109363730749 0 0 0 0 129.08308861970551 368.05836034009099 0 368.05836034009099 1488.6418994181295 0 0 0 0 1.0319411239354963 773.99886106536724 0 773.99886106536724 2091.8026409889644 0 0 0 0 461.52679775808525 497.90511722100564 0 497.90511722100564 2094.1849064922562 0 0 0 0 125.46715903596893 473.79438191639747 0 473.79438191639747 2994.8493323760122 0 0 0 0 4.2972068181579246 2.1180674729011315 0 2.1180674729011315 2.3328576612732448 0 0 0 0 32.347869881888982 -101.10099856799206 0 -101.10099856799206 505.79871771654325 0 0 0 0 85.386148606947074 355.87087376389809 0 355.87087376389809 2659.7615444736366 0 0 0 0 11.60162370171272 7.5517341238040103 0 7.5517341238040103 1.9688509550288167 0 0 0 0 108.72618344565223 136.00766405736385 0 136.00766405736385 378.90044911342557 0 0 0 0 -36.78900545634724 16.189562406896584 0 16.189562406896584 914.90677373918879 0 0 0 0 -16.327387395281676 20.32378978550696 0 20.32378978550696 908.69547986159887 0 0 0 0 -4.1146506234403279 -1.5420904189403899 0 -1.5420904189403899 1.6646540693559082 0 0 0 0 -1.8477243945224573 -1.2390087475867659 0 -1.2390087475867659 1.4468892972131284 0 0 0 0 40.166276522420731 32.799092216551799 0 32.799092216551799 894.08161438374691 0 0 0 0 -14.371984009502739 37.720356691494089 0 37.720356691494089 971.95568561705295 0 0 0 0 -22.988262374074566 -49.714558262872742 0 -49.714558262872742 999.16839888031063 0 0 0 0 -39.081899380576942 -5.7578943937260192 0 -5.7578943937260192 932.36984622845921 0 0 0 0 -19.542079217036189 -32.67343773029279 0 -32.67343773029279 883.49997541653283 0 0 0 0 -17.600904318113521 -69.428220439425786 0 -69.428220439425786 904.48008520962321 0 0 0 0 -17.346336851338265 -57.874008166474596 0 -57.874008166474596 823.67767991610162 0 0 0 0 -11.84435031414025 -24.514287330084471 0 -24.514287330084471 206.17909022291133 0 0 0 0 6.163674399066096 -18.759798263712582 0 -18.759798263712582 214.13624387034906 0 0 0 0 5.5845107148150532 -86.561817075678846 0 -86.561817075678846 905.66854614899057 0 0 0 0 -5.2203321714270503 9.3941552084382778 0 9.3941552084382778 3.6331543218554323 0 0 0 0 5.8836856175816479 -61.066323961898888 0 -61.066323961898888 874.42824862316775 0 0 0 0 -84.125766783502314 30.10265247296411 0 30.10265247296411 227.81969835763448 0 0 0 0 111.26464812050136 -10.486255334366433 0 -10.486255334366433 980.28585037078301 0 0 0 0 0.054783937306797537 8.1843295226490227 0 8.1843295226490227 2.9107531632744923 0 0 0 0 -25.387527523237424 -34.099565486363645 0 -34.099565486363645 271.14805019949563 0 0 0 0 60.164632402943859 -145.7702647668084 0 -145.7702647668084 323.04409846399358 0 0 0 0 -214.87500077584053 158.77013296789301 0 158.77013296789301 -43.079056882095756 0 0 0 0 -137.79548660817156 -110.1780208047312 0 -110.1780208047312 311.76128371160303 0 0 0 0 -2.4598460173040673 -0.25956430419157073 0 -0.25956430419157073 1.5012710603858181 0 0 0 0 35.282803946824657 -86.549530095682712 0 -86.549530095682712 190.82760772180336 0 0 0 0 17.121320468896627 -45.690956499398453 0 -45.690956499398453 112.85109429150179 0 0 0 0 -10.339563544734768 -15.400755007352927 0 -15.400755007352927 226.01259583031788 0 0 0 0 17.467609427536459 -60.342340767048881 0 -60.342340767048881 172.09803207251025 0 0 0 0 -7.5575337958284763 -37.75852995180685 0 -37.75852995180685 111.9590722229932 0 0 0 0 -18.544611374315082 -0.86314101303651114 0 -0.86314101303651114 166.13628391518978 0 0 0 0 -13.690361138705384 -74.081335084963939 0 -74.081335084963939 151.48288831575337 0 0 0 0 -41.570604294014828 -32.09593743305777 0 -32.09593743305777 88.257405905314954 0 0 0 0 -4.9603336148388566 -36.154035883343411 0 -36.154035883343411 118.02238996203587 0 0 0 0 -63.118035967886158 -84.757073176391714 0 -84.757073176391714 131.26793877833734 0 0 0 0 -253.08619430187719 -328.46672102204138 0 -328.46672102204138 165.54245443988475 0 0 0 0 -63.079650253627278 92.794143691438876 0 92.794143691438876 323.98400689849404 0 0 0 0 49.159217937506497 -144.54104849681858 0 -144.54104849681858 24.31564103070923 0 0 0 0 -134.63586687862744 -167.51539060350296 0 -167.51539060350296 45.915321448484065 0 0 0 0 -9.842166639312822 -43.818021741852945 0 -43.818021741852945 113.50435259398544 0 0 0 0 -17.082243640737353 9.1807044159491369 0 9.1807044159491369 19.076214333178072 0 0 0 0 -35.947669553470973 -43.876900253568238 0 -43.876900253568238 175.84985350604984 0 0 0 0 27.011609597313964 99.801103088146192 0 99.801103088146192 546.36684564124153 0 0 0 0 -16.053224158413968 -64.949902351378114 0 -64.949902351378114 64.563796406768233 0 0 0 0 -32.69581708882815 -44.343373080790897 0 -44.343373080790897 10.288728825881613 0 0 0 0 52.211115224797595 -90.113360282570284 0 -90.113360282570284 -55.621074291066179 0 0 0 0 0.27798662731687962 -16.082213259345032 0 -16.082213259345032 15.404729499262999 0 0 0 0 2.3082629334406057 -3.9860280219916717 0 -3.9860280219916717 7.4076952655349828 0 0 0 0 5.9513597507352642 132.78203222405864 0 132.78203222405864 711.12266143700981 0 0 0 0 -52.545784400064804 162.0625582949433 0 162.0625582949433 714.356108650843 0 0 0 0 -82.386435225152127 149.02642270172146 0 149.02642270172146 949.36811831236992 0 0 0 0 -63.524420316846772 -11.677340216479934 0 -11.677340216479934 692.03299773072649 0 0 0 0 -71.021291019326327 -28.528981818984903 0 -28.528981818984903 843.40563825803838 0 0 0 0 -11.23655079137964 10.715082868330555 0 10.715082868330555 1.4058235507458825 0 0 0 0 -32.011368607793429 -20.575456223523361 0 -20.575456223523361 780.73655223113019 0 0 0 0 -61.900567944960585 -19.511100665458798 0 -19.511100665458798 881.97804192524927 0 0 0 0 89.374692269749218 248.96712430697335 0 248.96712430697335 2500.8736136682364 0 0 0 0 -56.900675131197886 -29.35957883348874 0 -29.35957883348874 842.709482248938 0 0 0 0 -34.853883975297549 -14.217016907859033 0 -14.217016907859033 869.1211788996734 0 0 0 0 -157.95130864439943 -45.48027397786791 0 -45.48027397786791 867.17311428251924 0 0 0 0 -3.0421794200130403 -1.8657653419814864 0 -1.8657653419814864 1.3672296697891566 0 0 0 0 -63.20310300150868 -122.92249066590739 0 -122.92249066590739 718.64000201363524 0 0 0 0 -21.589461732550717 -27.540101228158164 0 -27.540101228158164 851.1690966020833 0 0 0 0 -34.465958685020723 26.56828154255345 0 26.56828154255345 897.84973058594187 0 0 0 0 -72.057824097355478 -25.685867801606946 0 -25.685867801606946 641.38925265843591 0 0 0 0 38.256975253754007 193.543545887238 0 193.543545887238 2573.1540718431702 0 0 0 0 111.72278929985987 66.870143218937301 0 66.870143218937301 284.66028765570081 0 0 0 0 -112.40173116102596 -19.168099904367409 0 -19.168099904367409 586.40705649263691 0 0 0 0 16.314986825999881 12.968594580387929 0 12.968594580387929 0.82675910900470484 0 0 0 0 14.365127994864107 201.86134678571398 0 201.86134678571398 2711.9204205036949 0 0 0 0 8.6088003656557426 180.70061077182982 0 180.70061077182982 2635.311080455831 0 0 0 0 18.716554262839256 18.919699861244027 0 18.919699861244027 -0.77485728244262475 0 0 0 0 173.75700045567919 -15.506041379972885 0 -15.506041379972885 138.74686798627772 0 0 0 0 -169.38880467522404 3.5763755207244685 0 3.5763755207244685 618.04624129389413 0 0 0 0 -0.7311190444172162 -0.57073198737784026 0 -0.57073198737784026 0.70020100228203574 0 0 0 0 -118.45765248981206 39.969523084615503 0 39.969523084615503 810.03425830327615 0 0 0 0 604.02073243254199 -246.27922424838835 0 -246.27922424838835 151.8518291994842 0 0 0 0 -195.0391862834731 -185.55245227035266 0 -185.55245227035266 937.87646392075112 0 0 0 0 -164.71896565724728 -24.288764707127939 0 -24.288764707127939 1070.5370786073981 0 0 0 0 305.0687930306276 -602.45718161718105 0 -602.45718161718105 1418.1903870179522 0 0 0 0 123.55521030855925 686.13728862446078 0 686.13728862446078 1918.6289072488435 0 0 0 0 918.73793867492236 114.18685578550321 0 114.18685578550321 794.64600779702596 0 0 0 0 -252.77215267929796 -74.215309837178211 0 -74.215309837178211 1905.7735838664157 0 0 0 0 -243.43036129978236 -153.62236959524307 0 -153.62236959524307 959.07687489906311 0 0 0 0 88.489103812477765 192.2981152861712 0 192.2981152861712 253.54392186097539 0 0 0 0 -127.24631293794619 -167.24753819999387 0 -167.24753819999387 897.49585530721015 0 0 0 0 -141.93991824027125 -67.719416951877065 0 -67.719416951877065 775.03762011237086 0 0 0 0 144.65854387972331 50.865632354372792 0 50.865632354372792 348.65650977005134 0 0 0 0 325.08630435141185 -89.845312379584357 0 -89.845312379584357 -26.805061593622668 0 0 0 0 17.834287512047936 25.741594079239874 0 25.741594079239874 3.6708515281167564 0 0 0 0 84.176193879992979 431.01942242658697 0 431.01942242658697 2639.6963062456853 0 0 0 0 182.17062141984024 -156.24718808282341 0 -156.24718808282341 -56.104059128298104 0 0 0 0 -125.22873292035651 -21.252248512151709 0 -21.252248512151709 2499.6540852860835 0 0 0 0 6.6236211619598633 0.113718806994072 0 0.113718806994072 -8.1299998366126118 0 0 0 0 -138.66263799288708 24.029693700271309 0 24.029693700271309 200.18607426185918 0 0 0 0 114.63636342561904 171.24568263164474 0 171.24568263164474 285.15897637896705 0 0 0 0 10.368901347432351 30.463244966633468 0 30.463244966633468 39.917361992805581 0 0 0 0 -1118.6993445704984 143.74945914914861 0 143.74945914914861 1836.3969892692946 0 0 0 0 -46.35908150506009 227.85905097410796 0 227.85905097410796 268.9996502854483 0 0 0 0 -67.550299957168136 92.270148053117737 0 92.270148053117737 -6.6542487782817261 0 0 0 0 81.354263759479636 -420.1626129692886 0 -420.1626129692886 2917.8754278696797 0 0 0 0 1.4822312592976388 4.4108006328192459 0 4.4108006328192459 9.5892133530900079 0 0 0 0 -820.13146194735293 -271.59114362370747 0 -271.59114362370747 2984.0805513103951 0 0 0 0 -1113.8914863587677 211.51138293515032 0 211.51138293515032 2251.5552361706759 0 0 0 0 -958.4617918301434 493.33906374542858 0 493.33906374542858 1858.3681240660371 0 0 0 0 -858.07162038677404 309.79069002100368 0 309.79069002100368 1551.2929188356356 0 0 0 0 -1007.4990038691967 -40.216487984394917 0 -40.216487984394917 1317.9933398575922 0 0 0 0 -237.23125125889987 948.42659699937963 0 948.42659699937963 1089.6897011246401 0 0 0 0 -1014.9040564830714 480.16569911714942 0 480.16569911714942 869.45710653258357 0 0 0 0 -995.19253704992616 1308.9985030983062 0 1308.9985030983062 -305.49984963450697 0 0 0 0 9.6397224287030774 25.292872461995941 0 25.292872461995941 35.66295051574464 0 0 0 0 -120.77153973177066 -228.05870812451894 0 -228.05870812451894 940.18787244314444 0 0 0 0 -24.319821101992829 -219.45996739195471 0 -219.45996739195471 916.02955294403728 0 0 0 0 198.5289237989723 -890.0097721509992 0 -890.0097721509992 1876.3867651501896 0 0 0 0 -24.253915011849244 367.23475862989744 0 367.23475862989744 1251.0845568591394 0 0 0 0 -19.310861794558424 -41.763026817824567 0 -41.763026817824567 3.8536933384566012 0 0 0 0 184.81443655422379 42.99925405751128 0 42.99925405751128 -73.565712057577912 0 0 0 0 -230.59456240457007 59.364495976966282 0 59.364495976966282 900.27260830957675 0 0 0 0 -202.73273364797251 -252.88783908434925 0 -252.88783908434925 995.43885214142938 0 0 0 0 -265.59714754952097 -115.94799612031238 0 -115.94799612031238 925.04271777105168 0 0 0 0 61.58410983738213 -375.86342301955665 0 -375.86342301955665 597.76348947387305 0 0 0 0 480.89070028045126 -749.65767060044527 0 -749.65767060044527 427.32138726979611 0 0 0 0 -68.145153571049377 -0.65597048896961496 0 -0.65597048896961496 221.04616555608754 0 0 0 0 16.724188029123297 43.663982406331343 0 43.663982406331343 61.343772078951588 0 0 0 0 -22.159647740828557 -42.369306711730687 0 -42.369306711730687 -13.468455853632864 0 0 0 0 60.956428567688818 0.85740782865468645 0 0.85740782865468645 -78.376499481433711 0 0 0 0 -19.740017436007747 -140.85764372354424 0 -140.85764372354424 250.06647654643893 0 0 0 0 -28.955636222469593 -153.09379792746586 0 -153.09379792746586 89.291458491888989 0 0 0 0 64.247794462522506 -77.996219456514154 0 -77.996219456514154 317.99044478183896 0 0 0 0 -0.56294401805769212 17.470517201847088 0 17.470517201847088 257.71204458981447 0 0 0 0 -6.756643099879966 -72.282185157708227 0 -72.282185157708227 260.6696828055583 0 0 0 0 -75.889153638412381 13.808441357644369 0 13.808441357644369 669.26739827857455 0 0 0 0 -63.110505186811451 -200.57050815101684 0 -200.57050815101684 934.19524856146018 0 0 0 0 128.91380604592541 -282.81725189780991 0 -282.81725189780991 112.50530072051515 0 0 0 0 -0.023270716755427578 -1.1340557495999022 0 -1.1340557495999022 7.2786060457681003 0 0 0 0 295.16730885618153 561.66052395082352 0 561.66052395082352 952.45227428101498 0 0 0 0 217.49859060569088 335.62665070950243 0 335.62665070950243 353.71060663888784 0 0 0 0 -48.966154970632488 11.46769286644485 0 11.46769286644485 -46.380542394810618 0 0 0 0 1.4269990977325673 -11.863360353456461 0 -11.863360353456461 9.5166753243312172 0 0 0 0 -18.41864884155526 78.566978476687993 0 78.566978476687993 64.03739602081987 0 0 0 0 42.90141926445267 -23.76766091090758 0 -23.76766091090758 -269.18596680686233 0 0 0 0 19.67128045364116 8.9342275008787766 0 8.9342275008787766 1.1913809687885273 0 0 0 0 120.89915017357248 82.480145765507586 0 82.480145765507586 262.80248384350489 0 0 0 0 81.729000546055431 30.035400368422415 0 30.035400368422415 -321.71807027337218 0 0 0 0 24.780251141621935 10.641590404034496 0 10.641590404034496 1.0557852096450624 0 0 0 0 13.606694427390039 87.71077941583053 0 87.71077941583053 -149.25658542200836 0 0 0 0 223.35732033419072 -361.2848034391609 0 -361.2848034391609 824.13993502030644 0 0 0 0 172.57240823211305 -78.84599337794134 0 -78.84599337794134 353.90029524418242 0 0 0 0 -92.843252879418287 35.875824521335744 0 35.875824521335744 798.45366337773157 0 0 0 0 -68.540215899319037 176.84756572254537 0 176.84756572254537 1287.8609109835597 0 0 0 0 67.29230684461578 303.89252444193562 0 303.89252444193562 874.43014247364408 0 0 0 0 41.015721162489172 43.008265053420473 0 43.008265053420473 664.96828833008067 0 0 0 0 -20.943205614866883 122.19312349204483 0 122.19312349204483 577.82755309362619 0 0 0 0 -72.246180489458311 60.900250056396544 0 60.900250056396544 923.36109892446984 0 0 0 0 11.066741012920748 5.6514468302973881 0 5.6514468302973881 1.1728740540826159 0 0 0 0 8.2474106849559945 22.212279975781712 0 22.212279975781712 -299.82713571223576 0 0 0 0 33.374595401624674 50.090876982340887 0 50.090876982340887 -156.69302719603002 0 0 0 0 -15.035690533544425 -0.58001726849488477 0 -0.58001726849488477 -79.668311500208802 0 0 0 0 -30.458875022299164 2.7360412071570863 0 2.7360412071570863 -48.451540526060853 0 0 0 0 -35.822939980092997 56.497995045292555 0 56.497995045292555 -20.849216167438499 0 0 0 0 -10.411243289687718 -26.867545892517228 0 -26.867545892517228 108.76508097555416 0 0 0 0 6.6053346113858424 30.332009245345034 0 30.332009245345034 75.630310235930665 0 0 0 0 53.011972546268225 -46.157114363373694 0 -46.157114363373694 -54.877472752621543 0 0 0 0 49.626727619238409 -4.3717841497782501 0 -4.3717841497782501 -105.93850190575722 0 0 0 0 69.730407807373012 77.794199150244822 0 77.794199150244822 -101.21332629643439 0 0 0 0 230.70222702298861 39.711394159538031 0 39.711394159538031 26.903738519377839 0 0 0 0 49.152460613480599 76.4570008994354 0 76.4570008994354 20.529814912006259 0 0 0 0 -21.661988211417793 0.78471279424502427 0 0.78471279424502427 353.78801439871677 0 0 0 0 77.763878226929592 209.01238874560113 0 209.01238874560113 243.34617603025617 0 0 0 0 85.609200219269269 -78.360545416839159 0 -78.360545416839159 222.9864792911103 0 0 0 0 36.03785507191651 151.0347375458914 0 151.0347375458914 367.12731481824267 0 0 0 0 2.890911373000451 1.8266850975191034 0 1.8266850975191034 0.97918257079911086 0 0 0 0 250.97544460370545 86.901015704192105 0 86.901015704192105 21.316960868640308 0 0 0 0 75.046677033327796 1.43813677934304 0 1.43813677934304 9.9787780837000355 0 0 0 0 25.0786596236984 16.192284820057921 0 16.192284820057921 18.929046224242484 0 0 0 0 113.46412905094485 78.519695672454873 0 78.519695672454873 19.521965659252601 0 0 0 0 13.439644274730426 53.57153406692305 0 53.57153406692305 18.196330774387889 0 0 0 0 46.934053569540538 25.159534793086095 0 25.159534793086095 -0.4108555215789238 0 0 0 0 29.203313549428458 8.0700260608646204 0 8.0700260608646204 17.690424278247974 0 0 0 0 22.555083985314923 14.013141214541974 0 14.013141214541974 13.797315572970547 0 0 0 0 31.792493812974726 83.264085352220718 0 83.264085352220718 -9.6362700700483401 0 0 0 0 10.732019817570063 97.412448181659784 0 97.412448181659784 142.08382287111453 0 0 0 0 0.4632865200580909 69.711647871901732 0 69.711647871901732 71.799610786643825 0 0 0 0 -3.891947426112111 71.865157869056475 0 71.865157869056475 53.952854232564277 0 0 0 0 -10.531011460556215 49.941841305440903 0 49.941841305440903 57.081671103573171 0 0 0 0 -19.901894856296479 56.07445922005536 0 56.07445922005536 142.20672522432142 0 0 0 0 5.7128470804423159 65.177490453284918 0 65.177490453284918 129.16396824952244 0 0 0 0 -35.51612364963762 77.995864672089738 0 77.995864672089738 173.45408505886735 0 0 0 0 -60.46629071904411 38.099636144930628 0 38.099636144930628 139.74111848409302 0 0 0 0 -36.587807218816479 21.084868435209501 0 21.084868435209501 119.28535258389411 0 0 0 0 -24.369372195322814 29.938701814257001 0 29.938701814257001 119.7547094298061 0 0 0 0 112.84973147661412 64.969788248887198 0 64.969788248887198 108.63924702630902 0 0 0 0 -14.907174345197859 -3.3589940408955954 0 -3.3589940408955954 229.10502777520014 0 0 0 0 105.76066287394815 -53.222200854743278 0 -53.222200854743278 92.705243647520547 0 0 0 0 35.579111081856922 31.906592046356309 0 31.906592046356309 31.41137976697064 0 0 0 0 11.466289288970756 7.432000640039405 0 7.432000640039405 119.72080218130841 0 0 0 0 -12.061797930003934 43.786876907126498 0 43.786876907126498 67.068234746700909 0 0 0 0 -17.673131036041013 400.9180302534478 0 400.9180302534478 41.190132043702761 0 0 0 0 30.999334400915632 44.546361908905389 0 44.546361908905389 43.102214171903597 0 0 0 0 -40.19201646960164 -77.74358237245724 0 -77.74358237245724 338.94873389892746 0 0 0 0 25.560381941627263 40.853880474204402 0 40.853880474204402 41.483499371081678 0 0 0 0 -142.96031601668801 83.026772364439239 0 83.026772364439239 268.41584274224806 0 0 0 0 131.33166809362592 112.25133355762227 0 112.25133355762227 311.26699441967503 0 0 0 0 877.98472947716255 -146.48639550782536 0 -146.48639550782536 389.94469820209997 0 0 0 0 187.60394027278835 35.547866983197309 0 35.547866983197309 -286.8612549998943 0 0 0 0 54.369711147661292 -61.234260427543632 0 -61.234260427543632 157.78622532694135 0 0 0 0 118.94159859921729 -55.829148671542498 0 -55.829148671542498 -53.932977166827186 0 0 0 0 116.64851169649228 144.03242013312411 0 144.03242013312411 29.295338563184487 0 0 0 0 285.83734849147777 -56.685714543780705 0 -56.685714543780705 -70.312486712282407 0 0 0 0 131.6068653137263 258.71073168715156 0 258.71073168715156 -323.52762431246902 0 0 0 0 -32.689351366179153 48.571567336346561 0 48.571567336346561 -83.053746544668684 0 0 0 0 36.461237294833019 42.979662307243181 0 42.979662307243181 41.638050771380748 0 0 0 0 45.641206135446282 94.093621205862291 0 94.093621205862291 143.98298601351416 0 0 0 0 39.587112277797132 -16.867845979231788 0 -16.867845979231788 157.043815814759 0 0 0 0 2.0973617069883357 2.4029072655909118 0 2.4029072655909118 18.810241880400596 0 0 0 0 96.077319122854078 -36.978407627524575 0 -36.978407627524575 111.47958760909023 0 0 0 0 24.781964362944564 6.9766797881748062 0 6.9766797881748062 125.43534043089312 0 0 0 0 24.296057703804664 23.469355908444584 0 23.469355908444584 92.305153378998511 0 0 0 0 32.574138300177765 2.1801739852999162 0 2.1801739852999162 110.89307765014382 0 0 0 0 54.775153227319606 -12.02617084936719 0 -12.02617084936719 115.19623436840629 0 0 0 0 39.437887822921311 8.4788527286073077 0 8.4788527286073077 110.67942709892668 0 0 0 0 5.9630074032925222 -9.023557023095691 0 -9.023557023095691 130.30009069596417 0 0 0 0 51.848579786323626 16.95205789872125 0 16.95205789872125 92.293909599065955 0 0 0 0 21.664894562782138 41.016004894547223 0 41.016004894547223 99.232601428395355 0 0 0 0 47.205703909422482 72.879513354697337 0 72.879513354697337 138.26031677599531 0 0 0 0 66.35706069580101 78.11017980748511 0 78.11017980748511 46.305947848941287 0 0 0 0 64.670258690887295 6.4892588624243217 0 6.4892588624243217 92.155892786980985 0 0 0 0 62.936181173643604 -1.8004835808187636 0 -1.8004835808187636 86.684439270095027 0 0 0 0 73.707530354795608 -5.3841623378957593 0 -5.3841623378957593 11.54493350705161 0 0 0 0 1.4396908387550411 6.964048248148174 0 6.964048248148174 2.8048822703676706 0 0 0 0 10.421704197789495 45.944220048349962 0 45.944220048349962 105.74064635704963 0 0 0 0 -57.19949763584566 55.552795039680859 0 55.552795039680859 111.29993428588887 0 0 0 0 -50.29714610255138 89.184143681170099 0 89.184143681170099 -99.792994779143555 0 0 0 0 -27.410740983969845 97.2997319103888 0 97.2997319103888 -18.728380476533857 0 0 0 0 37.810360450177996 17.995766305107281 0 17.995766305107281 -69.99455701190891 0 0 0 0 106.19966221386403 292.21262262287564 0 292.21262262287564 -85.649358278487625 0 0 0 0 3.497235625352757 1.2394357007107573 0 1.2394357007107573 0.60273659918130384 0 0 0 0 125.55102426283111 137.75804689248253 0 137.75804689248253 -495.47506351332049 0 0 0 0 -53.810126987004594 -9.9208546664485766 0 -9.9208546664485766 -173.24719709219789 0 0 0 0 86.296038609992365 139.42382862936029 0 139.42382862936029 620.4205626068433 0 0 0 0 65.137087152055301 -89.281456149843507 0 -89.281456149843507 416.05229515683277 0 0 0 0 -64.465822623963959 222.5135788211428 0 222.5135788211428 1139.9617357386524 0 0 0 0 131.32130048353019 25.367723130473678 0 25.367723130473678 59.048129531559425 0 0 0 0 -233.08943287511238 -5.9286496309687209 0 -5.9286496309687209 464.82045110551553 0 0 0 0 -230.37589744036768 -110.0587507184955 0 -110.0587507184955 216.14828012086218 0 0 0 0 -26.182492654133 -100.92116515124872 0 -100.92116515124872 103.03838192956391 0 0 0 0 -8.3761572715332377 -31.497752437007755 0 -31.497752437007755 114.55043386401536 0 0 0 0 10.906204670363877 15.483565937406638 0 15.483565937406638 251.18301843156223 0 0 0 0 -13.711364441516373 -7.5466813618876003 0 -7.5466813618876003 44.66036148567602 0 0 0 0 -28.715311558159556 136.73418092621796 0 136.73418092621796 88.720750512817176 0 0 0 0 -79.245473656656941 159.66215413838654 0 159.66215413838654 154.6095109619564 0 0 0 0 30.447999878227165 311.68058124484014 0 311.68058124484014 362.29514485319669 0 0 0 0 -27.542665955816574 -40.187595150440757 0 -40.187595150440757 122.42493816045499 0 0 0 0 -59.926863664721623 -24.473052857953007 0 -24.473052857953007 126.02770877148032 0 0 0 0 -30.939199860728877 -15.640705356330727 0 -15.640705356330727 111.93466222171628 0 0 0 0 -53.520716143654681 -2.6348993822284683 0 -2.6348993822284683 107.52955294169442 0 0 0 0 -9.5988730675955498 -10.839880913130486 0 -10.839880913130486 22.565641837278548 0 0 0 0 -22.005953084084343 -78.106141641009344 0 -78.106141641009344 132.37795797607396 0 0 0 0 -4.103888769391002 -1.0174658799895582 0 -1.0174658799895582 -2.2485421276196007 0 0 0 0 -21.046457570458529 -24.183735192989843 0 -24.183735192989843 66.06239834050939 0 0 0 0 -114.89366989034443 74.421207587802201 0 74.421207587802201 40.795687411773542 0 0 0 0 -36.766601390187887 -63.61721135163134 0 -63.61721135163134 82.8846642315184 0 0 0 0 -5.846560538629177 -41.036360686142871 0 -41.036360686142871 98.858784706499137 0 0 0 0 7.4602953697235534 -93.937393488668022 0 -93.937393488668022 124.44726964092115 0 0 0 0 33.398013932449516 -155.06134345088321 0 -155.06134345088321 150.66265604417276 0 0 0 0 137.11467405829308 -33.208770894627378 0 -33.208770894627378 152.77688143606065 0 0 0 0 -32.541531976466899 13.305623316475248 0 13.305623316475248 167.57791444720351 0 0 0 0 -17.406998077249 -81.661555797807523 0 -81.661555797807523 270.93766426114598 0 0 0 0 2.5240881941745101 -66.681979237771884 0 -66.681979237771884 151.22214812892707 0 0 0 0 -34.017326879218899 -46.519767421566939 0 -46.519767421566939 150.66138473508181 0 0 0 0 6.4150855331094174 -6.5221745415765753 0 -6.5221745415765753 -4.5116303556265507 0 0 0 0 38.595972194209025 -79.022915082576219 0 -79.022915082576219 98.526853565526835 0 0 0 0 34.715469923421949 -87.113334760417274 0 -87.113334760417274 122.38914005550032 0 0 0 0 -26.623560366301547 -0.23364328893148922 0 -0.23364328893148922 26.715153373181238 0 0 0 0 12.252827013120999 -28.872222368801886 0 -28.872222368801886 192.22341381471051 0 0 0 0 2.433187430226599 -1.2659871230672941 0 -1.2659871230672941 0.95333024125906718 0 0 0 0 169.77039962126014 -163.88713163509965 0 -163.88713163509965 146.51868228624517 0 0 0 0 0.50436442373773671 -4.1284166667635205 0 -4.1284166667635205 36.039588724463016 0 0 0 0 -41.360758234606116 0.32862590042714146 0 0.32862590042714146 52.740696799213765 0 0 0 0 -28.479303610885438 -1.2456831365925609 0 -1.2456831365925609 38.152278132045467 0 0 0 0 10.281016226471593 -28.119659464977303 0 -28.119659464977303 111.21288461072254 0 0 0 0 9.4909167430098478 -13.505945632357907 0 -13.505945632357907 33.969892874942161 0 0 0 0 -11.34839729338745 -24.162498576403777 0 -24.162498576403777 62.917014657039545 0 0 0 0 -16.276123218927069 -53.66577535392571 0 -53.66577535392571 103.48849155290372 0 0 0 0 -1.5769982183938671 -10.83096479399407 0 -10.83096479399407 11.971150703935663 0 0 0 0 -38.598018758473245 -28.603711611674953 0 -28.603711611674953 110.41199267463526 0 0 0 0 -21.254664883860187 -68.504641742608328 0 -68.504641742608328 102.18070128957334 0 0 0 0 -8.5730471188551967 -33.259329863973662 0 -33.259329863973662 100.8116827076384 0 0 0 0 29.359621043920924 11.35636496659572 0 11.35636496659572 127.17463612895244 0 0 0 0 21.382496008051021 9.5146516255590541 0 9.5146516255590541 118.25442922980437 0 0 0 0 -7.6986439384898713 -23.730981478130666 0 -23.730981478130666 94.418740878328862 0 0 0 0 30.754885289476078 10.123075908659303 0 10.123075908659303 117.25239668425638 0 0 0 0 31.30474310266618 0.3610944315114466 0 0.3610944315114466 108.38980756954697 0 0 0 0 42.697949089601252 -12.906450309663342 0 -12.906450309663342 90.170038611409836 0 0 0 0 33.195164095872826 5.4423695168924553 0 5.4423695168924553 15.04205023598443 0 0 0 0 10.792820297405481 38.427970943536643 0 38.427970943536643 52.964645810808975 0 0 0 0 9.5298281865340719 29.316710606407305 0 29.316710606407305 38.054941982440695 0 0 0 0 16.701392575684167 1.3755751681310358 0 1.3755751681310358 68.926095986294968 0 0 0 0 31.524547525387945 2.8086532338370489 0 2.8086532338370489 65.371861864405219 0 0 0 0 28.050086787359987 -19.543187906459934 0 -19.543187906459934 112.78035639654263 0 0 0 0 21.229315628570475 9.558346333240479 0 9.558346333240479 70.976060135217267 0 0 0 0 -25.056811593310613 -1.5453632024000399 0 -1.5453632024000399 14.682976037773187 0 0 0 0 132.7081373402907 -17.886013815848855 0 -17.886013815848855 -224.3147858887869 0 0 0 0 54.540832744003637 8.6610946239634359 0 8.6610946239634359 192.0512677324441 0 0 0 0 5.2461981338019541 39.678285278023395 0 39.678285278023395 482.72823227574554 0 0 0 0 148.5505369708635 -75.099060611555615 0 -75.099060611555615 35.216492027571803 0 0 0 0 -131.69215414555538 85.243797672810615 0 85.243797672810615 471.572497924044 0 0 0 0 -155.43185554908268 -27.793037748862844 0 -27.793037748862844 713.10463275349321 0 0 0 0 401.56617716301957 -317.80135903687369 0 -317.80135903687369 403.22284465256234 0 0 0 0 21.125246470536922 -148.66469755571961 0 -148.66469755571961 602.98774080508156 0 0 0 0 0.210379756842897 2.569947389182639 0 2.569947389182639 4.0978231704002326 0 0 0 0 -163.04749431625805 164.22363045993552 0 164.22363045993552 1024.0317257852075 0 0 0 0 30.074402152862035 328.86697982147598 0 328.86697982147598 428.91054875492773 0 0 0 0 60.329365686627312 -23.570467406583703 0 -23.570467406583703 -43.552978098843596 0 0 0 0 -107.8794484228423 -82.497965704624221 0 -82.497965704624221 39.719899936459115 0 0 0 0 181.1726027417065 26.84066069052642 0 26.84066069052642 -68.569969812531781 0 0 0 0 26.367454979283821 -14.04484300670083 0 -14.04484300670083 -79.290279956199811 0 0 0 0 -8.2924908905479242 -1.9991513417335227 0 -1.9991513417335227 36.99599361201399 0 0 0 0 -1.7594591362372847 -14.275248578808643 0 -14.275248578808643 15.541541894522169 0 0 0 0 17.64885075105758 0.97817464066974935 0 0.97817464066974935 -28.861067067809927 0 0 0 0 1.1718481028909205 0.88527043467487765 0 0.88527043467487765 9.6492763799916474 0 0 0 0 -117.13552402865105 -7.9783192696977494 0 -7.9783192696977494 18.413757522648666 0 0 0 0 -4.2525076805464535 0.091162490579961286 0 0.091162490579961286 29.006732094374271 0 0 0 0 6.763747750701441 18.420498532359488 0 18.420498532359488 67.855479237608961 0 0 0 0 60.316417068094097 -78.254317718321545 0 -78.254317718321545 -106.75292296466796 0 0 0 0 10.112084059906117 3.765516749505295 0 3.765516749505295 0.39018784868944323 0 0 0 0 -0.17231604876416728 0.17981994613212748 0 0.17981994613212748 5.4191965399026927 0 0 0 0 -21.432919003937315 11.680470806510129 0 11.680470806510129 67.161722276636283 0 0 0 0 0.7888987200963129 3.4893856126363971 0 3.4893856126363971 73.188007451462909 0 0 0 0 1.351004689961087 4.8876625838456675 0 4.8876625838456675 32.924345740226272 0 0 0 0 -27.228371942725971 -3.1636493744263134 0 -3.1636493744263134 44.760627168172505 0 0 0 0 -24.217916923925223 -18.495533410536154 0 -18.495533410536154 58.304375984618673 0 0 0 0 -12.637293821559638 -18.738302921199647 0 -18.738302921199647 50.581408445781562 0 0 0 0 -2.8105280413280909 -4.6667465084838398 0 -4.6667465084838398 46.495183750661027 0 0 0 0 -19.612517946616208 -8.9494439931368106 0 -8.9494439931368106 81.961370343087765 0 0 0 0 8.2052563751179832 -45.045592505397508 0 -45.045592505397508 60.983225168893114 0 0 0 0 -12.130717712595811 -18.708983554352017 0 -18.708983554352017 36.832676203659503 0 0 0 0 66.288425151644503 -89.048691168623918 0 -89.048691168623918 107.26223612467584 0 0 0 0 0.50213612451453371 0.82598131324491675 0 0.82598131324491675 0.75438890622359622 0 0 0 0 17.695842750476771 -20.640267622327883 0 -20.640267622327883 21.563859394518659 0 0 0 0 -3.7300083117511589 1.3580263033930891 0 1.3580263033930891 5.9441527745906342 0 0 0 0 -51.040311794897207 -16.485397387652483 0 -16.485397387652483 39.847684317297535 0 0 0 0 -1.673728802641566 -1.7467115033670311 0 -1.7467115033670311 4.8533727586255111 0 0 0 0 -1.1961560381049594 -17.678674544615205 0 -17.678674544615205 25.914648911508266 0 0 0 0 -7.617357845591763 -12.677670938497243 0 -12.677670938497243 10.566690411257511 0 0 0 0 -2.5375489551526016 -14.105657961925317 0 -14.105657961925317 25.41610685564774 0 0 0 0 11.496548974346354 -25.721400942791661 0 -25.721400942791661 17.257423826682498 0 0 0 0 -4.7068613967749116 -30.404524663397751 0 -30.404524663397751 -16.129062820938998 0 0 0 0 -130.78985811901975 -66.55178691407491 0 -66.55178691407491 12.500277484257822 0 0 0 0 -0.84715287139290529 5.8191785603860104 0 5.8191785603860104 26.568424389590376 0 0 0 0 36.730276550343731 -24.94555052589385 0 -24.94555052589385 -51.871928986016428 0 0 0 0 -36.107907748190939 49.278869120887975 0 49.278869120887975 132.93282208248274 0 0 0 0 202.42813664258529 -108.74206336099451 0 -108.74206336099451 -107.17648083272798 0 0 0 0 -11.058338474264616 -201.13652675675803 0 -201.13652675675803 758.88910649031459 0 0 0 0 -45.44956058693117 364.94591219888753 0 364.94591219888753 523.76027727851033 0 0 0 0 1.3905253202062637 2.9305322724634451 0 2.9305322724634451 9.6742950244599797 0 0 0 0 326.07011911249492 -440.08716985081264 0 -440.08716985081264 779.54628544900334 0 0 0 0 108.5158590648407 -136.4229692874942 0 -136.4229692874942 -109.6782835823542 0 0 0 0 -10.20415568677268 -55.465715985206771 0 -55.465715985206771 301.50188681437248 0 0 0 0 -88.079911616981093 1.8448045608420216 0 1.8448045608420216 749.09641213194118 0 0 0 0 -34.660028060158368 -93.669579567318578 0 -93.669579567318578 270.38881638465318 0 0 0 0 -35.399030494349461 33.968806957404013 0 33.968806957404013 200.26915390339127 0 0 0 0 23.728739315152069 -12.273890799559013 0 -12.273890799559013 -11.704308618602226 0 0 0 0 -91.586500980481631 9.9563828190075583 0 9.9563828190075583 283.01865348327556 0 0 0 0 0.041791994923556397 -13.646867732768442 0 -13.646867732768442 -61.353214363552979 0 0 0 0 -79.266952043906898 -14.079466296276223 0 -14.079466296276223 59.412978538763127 0 0 0 0 103.27384333058981 -49.99129452498164 0 -49.99129452498164 64.774528310103051 0 0 0 0 -33.1251882128646 -11.314808047027327 0 -11.314808047027327 86.04651509989344 0 0 0 0 15.445616433738877 -64.326642753581837 0 -64.326642753581837 -100.44355661855661 0 0 0 0 -30.032309763835258 -27.742665452555229 0 -27.742665452555229 4.4361274390685139 0 0 0 0 -0.98905051477662842 0.28149388541437759 0 0.28149388541437759 -0.11438202138550935 0 0 0 0 16.57560624241853 65.739342894383299 0 65.739342894383299 12.741803618411723 0 0 0 0 -14.598905819602635 87.093158000701806 0 87.093158000701806 156.90018637205503 0 0 0 0 -34.282682114638135 26.805324608350929 0 26.805324608350929 42.738823781917745 0 0 0 0 -0.049451725441183335 27.441184466653795 0 27.441184466653795 245.42700009069813 0 0 0 0 13.347241457160194 118.48315728384478 0 118.48315728384478 135.53804448955634 0 0 0 0 -0.07790892313006989 -0.080671172408706582 0 -0.080671172408706582 1.4949913157617516 0 0 0 0 -54.981428846674198 47.294173877966386 0 47.294173877966386 243.04247461099294 0 0 0 0 -12.52725048215312 -27.60145087033743 0 -27.60145087033743 15.069451027709874 0 0 0 0 -31.438781037116406 2.9701584503491176 0 2.9701584503491176 -8.304446055641165 0 0 0 0 0.059803342757824091 -0.80358451411651544 0 -0.80358451411651544 3.1284195656114093 0 0 0 0 -53.967169397973478 -35.643868630702855 0 -35.643868630702855 -20.200014222442405 0 0 0 0 -28.32144802810409 -39.685051633350668 0 -39.685051633350668 -38.329463011643384 0 0 0 0 -0.049289115100751915 -20.622059680401435 0 -20.622059680401435 -37.578764655569103 0 0 0 0 -60.32190197343192 -54.26613025840561 0 -54.26613025840561 41.280894657218596 0 0 0 0 11.317055992527173 5.2961297072542948 0 5.2961297072542948 -26.278283988955081 0 0 0 0 22.152836458114251 -48.431581389369967 0 -48.431581389369967 127.51971637447423 0 0 0 0 27.166796713681947 -34.853007404512027 0 -34.853007404512027 -12.676573025528342 0 0 0 0 -10.533443248438857 77.979024712221872 0 77.979024712221872 67.789759622421116 0 0 0 0 -16.604434817414358 73.984333125008561 0 73.984333125008561 174.28026790951844 0 0 0 0 40.228200813526541 65.358892225660384 0 65.358892225660384 114.09171846077516 0 0 0 0 106.83011854607201 6.6330602588095644 0 6.6330602588095644 13.635643645815435 0 0 0 0 -5.2889037456860706 -4.7746962321107276 0 -4.7746962321107276 196.1387430669638 0 0 0 0 -23.558681031295521 -15.98911362709805 0 -15.98911362709805 69.408041937553207 0 0 0 0 -5.1385553955890657 -13.25982350940285 0 -13.25982350940285 77.299825208901893 0 0 0 0 -16.301598955963982 13.393662069007405 0 13.393662069007405 96.985891452532087 0 0 0 0 -15.987029294739045 15.804134072932357 0 15.804134072932357 42.539453013290768 0 0 0 0 -14.113660522566363 19.980938447013614 0 19.980938447013614 30.656927745365465 0 0 0 0 0.953318686153104 3.7474129137456487 0 3.7474129137456487 8.9475330893101273 0 0 0 0 -4.0724306715404168 37.420279090954864 0 37.420279090954864 10.469521404591433 0 0 0 0 32.634112852683415 38.218079650170694 0 38.218079650170694 35.823744767272728 0 0 0 0 31.02263751453134 5.6554118899475725 0 5.6554118899475725 -25.398156950861448 0 0 0 0 8.3613870108194419 -2.2099705127766356 0 -2.2099705127766356 25.324052845728147 0 0 0 0 -2.5301714013756431 2.1898792302511936 0 2.1898792302511936 5.0450090623492372 0 0 0 0 5.3561210640331751 6.832487336727354 0 6.832487336727354 -24.794638346971624 0 0 0 0 -13.953689519305428 -168.04436349711341 0 -168.04436349711341 143.82599309104262 0 0 0 0 76.573367219210013 -151.16125484362419 0 -151.16125484362419 134.21208781492896 0 0 0 0 95.292227818917922 -55.774959434512311 0 -55.774959434512311 44.09325311746943 0 0 0 0 -55.274357858150552 -23.313034881619387 0 -23.313034881619387 -1.548479929449968 0 0 0 0 -34.112778135769162 39.048643329453625 0 39.048643329453625 -33.76379922455817 0 0 0 0 -0.40782077429558106 -0.20520375263548374 0 -0.20520375263548374 1.031242688022644 0 0 0 0 -85.84864573023836 -127.69724052896345 0 -127.69724052896345 -126.94436840199342 0 0 0 0 -365.43266536399506 -80.701326509399223 0 -80.701326509399223 43.171082063752692 0 0 0 0 -51.918699023000535 65.460651989904363 0 65.460651989904363 88.727958987336024 0 0 0 0 -38.353027616596961 -71.079943036747864 0 -71.079943036747864 46.318518823700288 0 0 0 0 -34.925037327201238 -68.276348138118919 0 -68.276348138118919 -66.143436398982885 0 0 0 0 -130.49286496665229 -102.14010884711979 0 -102.14010884711979 -31.539202887681313 0 0 0 0 0.0067127926687649345 -78.981676600393257 0 -78.981676600393257 -54.964946282299934 0 0 0 0 -56.292922075289106 -45.835624754119635 0 -45.835624754119635 -38.674780648871092 0 0 0 0 -130.19731565356693 -98.117404393764446 0 -98.117404393764446 -29.132827061839635 0 0 0 0 -11.957919343966637 -16.941883157869597 0 -16.941883157869597 -16.674585657508942 0 0 0 0 -0.60312100263173052 -0.2550429240784382 0 -0.2550429240784382 4.2865287160698244 0 0 0 0 -4.9017946308457852 27.593733503788826 0 27.593733503788826 21.578749106542091 0 0 0 0 -1.3517594640550925 -15.275290729645349 0 -15.275290729645349 32.68502573861042 0 0 0 0 0.1156871394495852 -0.75657301792419673 0 -0.75657301792419673 1.0515894307870042 0 0 0 0 -42.875129090802972 23.745357100240653 0 23.745357100240653 -10.377408416047274 0 0 0 0 -0.066091849912574496 -0.71613566042549337 0 -0.71613566042549337 0.81569669556489943 0 0 0 0 -0.12023832636870758 19.077358676033327 0 19.077358676033327 -27.245105629401223 0 0 0 0 -14.562344781767187 25.558613147295546 0 25.558613147295546 -27.134657351474743 0 0 0 0 -17.959069148334216 36.530172571452567 0 36.530172571452567 -37.279116376303136 0 0 0 0 0.28708496474180373 26.323145664449839 0 26.323145664449839 9.1538092343398603 0 0 0 0 -30.652473677812196 24.570026931061875 0 24.570026931061875 67.576853743797983 0 0 0 0 -27.822414911876649 0.80587508559619891 0 0.80587508559619891 22.646725125494413 0 0 0 0 -2.9621409662422735 22.484225371983484 0 22.484225371983484 -40.484355729809977 0 0 0 0 -0.60328150849166917 11.317533276269387 0 11.317533276269387 -28.872507103334101 0 0 0 0 -21.502972929240897 24.732666276333475 0 24.732666276333475 -37.437219416532002 0 0 0 0 -23.668176989117754 33.926703058503335 0 33.926703058503335 18.36190388740215 0 0 0 0 0.71056722266843053 -4.148104645380954 0 -4.148104645380954 9.8834818583453625 0 0 0 0 -2.3385613653285993 0.95452117425656979 0 0.95452117425656979 5.0045242913281811 0 0 0 0 0.70647447978444688 -2.43348305354084 0 -2.43348305354084 10.026249002730765 0 0 0 0 1.8503315151597093 -3.2421066062879618 0 -3.2421066062879618 7.2530385198697331 0 0 0 0 305.79378634029717 -160.39559433591785 0 -160.39559433591785 91.729945016326383 0 0 0 0 461.96173378623257 -48.871454838234058 0 -48.871454838234058 -53.570481878588907 0 0 0 0 145.32816624565498 -195.09610434155911 0 -195.09610434155911 191.45911048593553 0 0 0 0 -50.44675784798369 -16.26583545745234 0 -16.26583545745234 12.734564679805771 0 0 0 0 -0.06227078974294209 -0.81901054618376889 0 -0.81901054618376889 0.0020783526797742979 0 0 0 0 -20.687961442230062 -18.26459248316678 0 -18.26459248316678 -3.4909499595014495 0 0 0 0 -0.54702442831677289 1.1780870865879081 0 1.1780870865879081 9.0045914320602662 0 0 0 0 -1.1610216101108093 -2.7514824440299321 0 -2.7514824440299321 2.3624833265013221 0 0 0 0 -33.164198926843824 -38.516392690973589 0 -38.516392690973589 11.331431115671876 0 0 0 0 1.4548608835875854 -3.1120249976098791 0 -3.1120249976098791 0.30714235666962297 0 0 0 0 37.868507397841768 -0.63821197619836312 0 -0.63821197619836312 -32.636439517428471 0 0 0 0 15.460095226756266 -31.353410054747656 0 -31.353410054747656 -5.3712125584424939 0 0 0 0 4.9420697698356975 10.652545722396098 0 10.652545722396098 25.215578130708309 0 0 0 0 36.795119512566941 4.1191357768984744 0 4.1191357768984744 26.250937563709158 0 0 0 0 45.586388981059031 70.706526640729862 0 70.706526640729862 144.83451962050458 0 0 0 0 -16.53002858888334 48.848495915676722 0 48.848495915676722 309.73207987088244 0 0 0 0 -4.1130490060363627 12.579052935725485 0 12.579052935725485 173.27208373376561 0 0 0 0 0.31349580309912661 0.53231878709060254 0 0.53231878709060254 3.0492857044941388 0 0 0 0 202.33215298634332 -427.46721486971364 0 -427.46721486971364 378.00494782219175 0 0 0 0 26.882746851271918 128.17348747412325 0 128.17348747412325 132.91540510239429 0 0 0 0 155.34190848070716 -192.9744216569452 0 -192.9744216569452 188.34342449452015 0 0 0 0 44.682523295046899 -4.9680849444017667 0 -4.9680849444017667 -21.952083014533855 0 0 0 0 238.4006655615816 -201.9735295106002 0 -201.9735295106002 187.30081641160359 0 0 0 0 159.65706093125391 -80.770411701778357 0 -80.770411701778357 513.39144482727716 0 0 0 0 283.38883038667529 -335.97309761332144 0 -335.97309761332144 405.39979531659628 0 0 0 0 -23.113560899684451 -85.422478986833539 0 -85.422478986833539 295.32174174733518 0 0 0 0 -32.558861702531999 -139.46019666882785 0 -139.46019666882785 544.10022015343384 0 0 0 0 -35.256881426495681 121.26781661212226 0 121.26781661212226 460.79801650476293 0 0 0 0 -21.477336755900197 -66.018861741133151 0 -66.018861741133151 244.53453275830907 0 0 0 0 -31.386968178462809 -82.450305756570742 0 -82.450305756570742 298.97021521742136 0 0 0 0 -28.685717593815923 -33.822519642606494 0 -33.822519642606494 255.94990002071427 0 0 0 0 -19.957611019265194 5.8855518043428674 0 5.8855518043428674 177.52550776241696 0 0 0 0 -15.534059912250285 -15.344402256137982 0 -15.344402256137982 166.79674254417478 0 0 0 0 19.655872406950408 45.044984683607254 0 45.044984683607254 106.98702526908892 0 0 0 0 -0.0058252924189566221 -0.02592893205088842 0 -0.02592893205088842 0.14407981516657742 0 0 0 0 -6.2349426966108155 -36.287757590966066 0 -36.287757590966066 91.219630483508809 0 0 0 0 -15.530363918099631 -21.920619411270309 0 -21.920619411270309 164.10235684357758 0 0 0 0 -19.023076509621902 -18.361676499844179 0 -18.361676499844179 162.82339786594457 0 0 0 0 -0.0056589779624672924 -50.677707601922123 0 -50.677707601922123 213.6413841717731 0 0 0 0 -23.315722889936623 -58.064233563840389 0 -58.064233563840389 218.64405087031628 0 0 0 0 -0.056883078602366403 -65.429540388260648 0 -65.429540388260648 220.85341949947542 0 0 0 0 41.974096320475276 -92.333069643167164 0 -92.333069643167164 160.64311880961031 0 0 0 0 41.160680747894659 -88.161146426020423 0 -88.161146426020423 152.88811768418236 0 0 0 0 0.13564473256555493 -40.790232556948467 0 -40.790232556948467 124.43738624563048 0 0 0 0 -160.9706336419255 -73.810725228109732 0 -73.810725228109732 1077.9413488128048 0 0 0 0 0.73891995780127195 1.2920253863457987 0 1.2920253863457987 2.6850889547613406 0 0 0 0 -132.36660540530991 -91.340341129711305 0 -91.340341129711305 731.65508716470504 0 0 0 0 0.12599114357029825 86.26081187676391 0 86.26081187676391 631.46499367659999 0 0 0 0 -53.131738434633803 -32.948875835812942 0 -32.948875835812942 1654.7835501396985 0 0 0 0 -42.483486768544026 -18.986363369662286 0 -18.986363369662286 679.43395703820352 0 0 0 0 -110.36497128993281 -106.34958225680384 0 -106.34958225680384 569.02379295706487 0 0 0 0 698.11794080782749 228.46531745572429 0 228.46531745572429 377.53064086817903 0 0 0 0 132.27461700916609 115.80803496906447 0 115.80803496906447 367.05701843401903 0 0 0 0 11.530682663976776 -252.25800505470761 0 -252.25800505470761 1380.9909647578606 0 0 0 0 110.57844461527941 -81.06610852879021 0 -81.06610852879021 -33.826970344765869 0 0 0 0 62.214399099544721 302.84976830062806 0 302.84976830062806 252.43931441443783 0 0 0 0 2.545068195941226 2.9859477576562625 0 2.9859477576562625 3.3167866590900985 0 0 0 0 79.389976562524424 -156.27154767560933 0 -156.27154767560933 198.5206345907136 0 0 0 0 121.1174102867071 -225.13185234569755 0 -225.13185234569755 312.15500538182823 0 0 0 0 198.68847644315676 27.227243307668687 0 27.227243307668687 377.36905924332677 0 0 0 0 220.04748905800076 -5.1363365188844909 0 -5.1363365188844909 -122.95093175803413 0 0 0 0 1.7942641818493463 1.4148839424980082 0 1.4148839424980082 1.4244066648979583 0 0 0 0 249.14763311333229 68.662067427623697 0 68.662067427623697 -101.63785260416626 0 0 0 0 -70.552132446747919 205.94371041269915 0 205.94371041269915 61.583674495035666 0 0 0 0 -252.37742160097648 100.10480570571963 0 100.10480570571963 31.977455719199497 0 0 0 0 -207.73798704722958 192.04773671692965 0 192.04773671692965 -2.516552609477003 0 0 0 0 13.763382733032813 25.833879389312642 0 25.833879389312642 175.94084398598352 0 0 0 0 -2.3748848821202255 -1.0359241781727349 0 -1.0359241781727349 0.75692334593549049 0 0 0 0 -136.29477727526773 -38.050511555138655 0 -38.050511555138655 -72.458663254197745 0 0 0 0 -433.68460286746449 453.68517303896806 0 453.68517303896806 312.471977016663 0 0 0 0 149.13386182013022 -36.235523010486986 0 -36.235523010486986 -147.24128398229368 0 0 0 0 123.91657186185773 -359.87604470413004 0 -359.87604470413004 1123.077181394372 0 0 0 0 -0.19152184458865795 0.20696815769377963 0 0.20696815769377963 1.1806640174924041 0 0 0 0 51.676681968661796 -91.299400936630263 0 -91.299400936630263 134.68335468454461 0 0 0 0 124.15223592340726 -431.85641908884281 0 -431.85641908884281 686.58872203392093 0 0 0 0 -141.53549471222505 -73.32502103340812 0 -73.32502103340812 989.35957008193509 0 0 0 0 93.370300234513707 6.8451645284658298 0 6.8451645284658298 862.30558139108689 0 0 0 0 -118.93726868741052 332.51663434235525 0 332.51663434235525 1147.8121893272109 0 0 0 0 -172.55452945419353 225.533094797589 0 225.533094797589 1526.8227949394204 0 0 0 0 100.23977535910932 91.295991335147846 0 91.295991335147846 1384.5936697819707 0 0 0 0 -149.12091678592287 0.38391929321005591 0 0.38391929321005591 825.68284174872679 0 0 0 0 -146.94793057092647 100.03824281578272 0 100.03824281578272 866.86218020949309 0 0 0 0 -167.86054052177815 35.560520695376908 0 35.560520695376908 672.70580712037918 0 0 0 0 14.305309279335233 -175.9099995202414 0 -175.9099995202414 506.45589477637986 0 0 0 0 5.7554167599246284 163.3184743748352 0 163.3184743748352 448.09360183288663 0 0 0 0 -10.250716175103435 49.404747148767456 0 49.404747148767456 122.10254376695957 0 0 0 0 -11.771882987790377 -10.457098171791586 0 -10.457098171791586 24.112056857338757 0 0 0 0 13.819984174457204 -69.373213738894265 0 -69.373213738894265 143.83065520998935 0 0 0 0 51.414897138393371 22.72211208254339 0 22.72211208254339 196.10806123871589 0 0 0 0 48.87138563082226 -89.978686297559761 0 -89.978686297559761 27.651430388072185 0 0 0 0 6.4196202534694748 -7.1656005549084512 0 -7.1656005549084512 8.8757852832368371 0 0 0 0 -5.9322716540409184 -6.1946945465954144 0 -6.1946945465954144 -0.2464249036914623 0 0 0 0 -168.34709931918994 -59.087913167884835 0 -59.087913167884835 -3.0948683795286343 0 0 0 0 26.75589366865961 -37.398855135306803 0 -37.398855135306803 -5.3461228432424832 0 0 0 0 -13.756380117371464 -67.312731282556342 0 -67.312731282556342 16.976095399950282 0 0 0 0 -12.835689129416096 -34.489451175206341 0 -34.489451175206341 1.7648215856024763 0 0 0 0 -27.081504312426205 -3.2366627519622853 0 -3.2366627519622853 59.448493026793585 0 0 0 0 -10.562942692147772 -2.7116902213892899 0 -2.7116902213892899 16.528345522645395 0 0 0 0 -11.239363552909708 -28.073437016540993 0 -28.073437016540993 27.135868624318391 0 0 0 0 -11.044964852548333 1.4911539839522447 0 1.4911539839522447 57.998048980763997 0 0 0 0 -11.72511380769177 -1.643376707046599 0 -1.643376707046599 17.08723230346456 0 0 0 0 -16.635824811707607 -13.11535724938949 0 -13.11535724938949 67.14137054431194 0 0 0 0 -5.2260999740615937 -17.200193493500237 0 -17.200193493500237 1.3691408075781553 0 0 0 0 0.082135885820790122 -2.316118528941189 0 -2.316118528941189 -4.4831038687200415 0 0 0 0 -4.7812064677127637 -43.12630773318233 0 -43.12630773318233 -30.117275616677944 0 0 0 0 -18.00311304327829 -94.128374646687007 0 -94.128374646687007 40.13459969868245 0 0 0 0 -60.666502537576775 101.7230127702278 0 101.7230127702278 35.440697606483127 0 0 0 0 10.290388808303305 -141.34972005854797 0 -141.34972005854797 -178.66511151843588 0 0 0 0 -172.82662386893111 -62.917497285881836 0 -62.917497285881836 198.73647752047691 0 0 0 0 -1.4270052335193493 -3.3253282463809626 0 -3.3253282463809626 2.9436063392484755 0 0 0 0 -111.1094169775447 137.70371515076113 0 137.70371515076113 -204.05875367384579 0 0 0 0 -39.444032844122944 10.716777768247994 0 10.716777768247994 -30.076019505257136 0 0 0 0 -271.94173654094095 83.04818929024259 0 83.04818929024259 46.890734364220407 0 0 0 0 -203.79244643383458 -166.09588790094131 0 -166.09588790094131 229.54644221259514 0 0 0 0 47.896298143270513 -233.22607469700597 0 -233.22607469700597 131.30381710339771 0 0 0 0 203.59703438218634 -74.138698275124625 0 -74.138698275124625 237.52550962558598 0 0 0 0 144.29585754361636 -268.57968497616821 0 -268.57968497616821 253.62576888956301 0 0 0 0 66.683471715565773 -222.55358373608033 0 -222.55358373608033 240.50863409235899 0 0 0 0 146.03401396869839 -212.6104257980478 0 -212.6104257980478 230.97565695265803 0 0 0 0 36.271269028800418 -92.430668953609711 0 -92.430668953609711 131.14139646607509 0 0 0 0 63.706557951109438 -238.541603265292 0 -238.541603265292 169.36788793302549 0 0 0 0 -35.974910897204495 -240.43217884365367 0 -240.43217884365367 269.10213892725005 0 0 0 0 -41.874024026359706 -157.28401007940556 0 -157.28401007940556 681.35474962412991 0 0 0 0 13.364257019892833 -169.18599368971627 0 -169.18599368971627 314.2122959420667 0 0 0 0 1.8715711318225003 -2.312605257789329 0 -2.312605257789329 1.5860059302652738 0 0 0 0 28.68718618799079 -171.647893239111 0 -171.647893239111 234.34928550975746 0 0 0 0 118.42358191487415 -141.55924378315831 0 -141.55924378315831 227.93282042437204 0 0 0 0 -2.5689017610220746 -0.7964266950965424 0 -0.7964266950965424 14.086881118784326 0 0 0 0 -18.314392811533367 7.4395218113822921 0 7.4395218113822921 1.149591889961016 0 0 0 0 -0.40889332520910826 0.55238836477045794 0 0.55238836477045794 2.0747164923440664 0 0 0 0 -2.0467155553505014 -0.47552087474798554 0 -0.47552087474798554 8.6294157637417754 0 0 0 0 -151.09998577530069 -77.611960526439361 0 -77.611960526439361 -23.756211231269845 0 0 0 0 -17.270094359329789 7.359045908349799 0 7.359045908349799 -2.5254691120353527 0 0 0 0 3.0405901905439165 -5.7982656542371842 0 -5.7982656542371842 9.4392030472954502 0 0 0 0 -103.98147735693431 -170.06440617225417 0 -170.06440617225417 157.22637873430358 0 0 0 0 147.44146894995106 -146.32819918602036 0 -146.32819918602036 -508.74011991641601 0 0 0 0 289.80783996416875 -501.71701649481838 0 -501.71701649481838 136.60594615450827 0 0 0 0 4.3688160733762977 -2.6723345953244433 0 -2.6723345953244433 2.3134964133955265 0 0 0 0 330.74761256738697 -122.22715748102928 0 -122.22715748102928 -113.63301218863489 0 0 0 0 -39.5313338127512 -38.336910498101133 0 -38.336910498101133 109.09897479382926 0 0 0 0 89.919490390067381 -280.35707381791872 0 -280.35707381791872 349.71650584904637 0 0 0 0 151.16785733093332 -16.022277296247921 0 -16.022277296247921 25.799317737946694 0 0 0 0 0.83274037435129411 -0.43966167654052413 0 -0.43966167654052413 0.066352449263943125 0 0 0 0 -35.633436733470262 -71.288558706426556 0 -71.288558706426556 -14.9319483464933 0 0 0 0 -9.8452568897212132 -3.0818663644944451 0 -3.0818663644944451 8.8585660721659849 0 0 0 0 -14.115567987568738 87.227397781942273 0 87.227397781942273 286.68890027217276 0 0 0 0 105.06623650044617 107.09321679744426 0 107.09321679744426 126.72786970607558 0 0 0 0 -12.383166596109492 -6.7390388319388563 0 -6.7390388319388563 11.012327187871421 0 0 0 0 -48.889322665330042 -71.181030668500171 0 -71.181030668500171 -3.4721081859242986 0 0 0 0 60.280598848145019 91.376157510036137 0 91.376157510036137 163.27796743775252 0 0 0 0 -72.87190690837383 18.481281364161987 0 18.481281364161987 60.47356857007253 0 0 0 0 -61.706959333446548 -44.573723102599615 0 -44.573723102599615 66.198612765700091 0 0 0 0 36.882422206870388 118.83950334691326 0 118.83950334691326 472.68929394755105 0 0 0 0 49.709089069166794 65.141008666199923 0 65.141008666199923 385.87705204412487 0 0 0 0 -2.1100630062881036 -2.0162959070089954 0 -2.0162959070089954 4.5817219992945297 0 0 0 0 7.8343758411471418 -10.785821970167092 0 -10.785821970167092 7.5270440376027778 0 0 0 0 31.516286750493919 133.81375640607439 0 133.81375640607439 431.36153645822196 0 0 0 0 112.98889591517991 142.13507747476251 0 142.13507747476251 315.36788632554817 0 0 0 0 8.8052543410835824 94.382468973388313 0 94.382468973388313 339.67092487973787 0 0 0 0 -19.158850887103654 4.4386250913303229 0 4.4386250913303229 296.94149193930207 0 0 0 0 -27.681670355485267 31.326097096552985 0 31.326097096552985 240.74859360893606 0 0 0 0 58.005176463513635 44.612143564716462 0 44.612143564716462 260.07426120314631 0 0 0 0 -58.21241252124139 -20.10029655175822 0 -20.10029655175822 200.81046430568676 0 0 0 0 -82.359095074597008 -16.66993343874492 0 -16.66993343874492 243.34086220267272 0 0 0 0 -69.132178086949352 -66.579674323838844 0 -66.579674323838844 218.4786839948647 0 0 0 0 80.283805247627242 -58.425925113166159 0 -58.425925113166159 140.95631789153776 0 0 0 0 -42.28264277030371 58.010932173543551 0 58.010932173543551 98.760902107758739 0 0 0 0 0.60732598012236849 67.930664449027972 0 67.930664449027972 201.24107430808544 0 0 0 0 -26.548187533713644 22.6166706822587 0 22.6166706822587 130.35283354838612 0 0 0 0 -41.233645269193403 -4.2373724431781739 0 -4.2373724431781739 48.282978326984448 0 0 0 0 -8.8023133662754844 -20.322713284316706 0 -20.322713284316706 58.316721319148201 0 0 0 0 -6.2607559035551894 -4.4588323334079689 0 -4.4588323334079689 8.1194903687062947 0 0 0 0 -23.03640421496857 -20.29979475827713 0 -20.29979475827713 53.3428444279416 0 0 0 0 -20.315605080599198 -15.193324947802466 0 -15.193324947802466 50.648131763793344 0 0 0 0 -4.357369268180264 -21.581583708830294 0 -21.581583708830294 52.145616483481717 0 0 0 0 63.245205968887603 -23.95696668686287 0 -23.95696668686287 53.484579660414056 0 0 0 0 45.99827967020974 51.539272959649679 0 51.539272959649679 -42.788942221464822 0 0 0 0 -84.378840330477942 -2.1558668875168223 0 -2.1558668875168223 83.586126415430044 0 0 0 0 -41.798268454669596 -21.06623564241454 0 -21.06623564241454 -4.2214258695166791 0 0 0 0 -0.56976742126640545 -0.8640205236614662 0 -0.8640205236614662 -0.42616469768532994 0 0 0 0 -6.5423015330488852 -23.706023281702073 0 -23.706023281702073 58.804502042270542 0 0 0 0 -7.6851107747963319 7.0911217350400904 0 7.0911217350400904 -0.27549163186230663 0 0 0 0 9.0113576126805128 -20.722949915842037 0 -20.722949915842037 50.727141830953769 0 0 0 0 -8.3271795250425384 12.100302217233548 0 12.100302217233548 40.403968922601052 0 0 0 0 7.1389807633604505 23.604315543168923 0 23.604315543168923 4.1962752516701585 0 0 0 0 -2.619442123504939 -0.33120889074436377 0 -0.33120889074436377 1.1442137360898457 0 0 0 0 -7.2711142586740607 -3.0929321309231455 0 -3.0929321309231455 34.740105670033927 0 0 0 0 -12.181699730287519 5.0505072994480145 0 5.0505072994480145 4.9062238649984575 0 0 0 0 -8.4082280682414421 5.8460649370390456 0 5.8460649370390456 48.18875863685389 0 0 0 0 -29.248744934875504 0.96577333065943094 0 0.96577333065943094 38.410538705924409 0 0 0 0 -17.020505802489424 -9.9625596637779381 0 -9.9625596637779381 -16.519228762487955 0 0 0 0 -20.875755027889682 10.69381962621992 0 10.69381962621992 48.452688925374787 0 0 0 0 -32.957251017885937 15.296783930491074 0 15.296783930491074 52.528740356960043 0 0 0 0 -9.6531154475305812 29.942884239004343 0 29.942884239004343 57.65685591273359 0 0 0 0 -49.160041809230279 -7.1959549494786188 0 -7.1959549494786188 62.711530900254729 0 0 0 0 -25.141240383285094 16.6571162230357 0 16.6571162230357 25.078309969016118 0 0 0 0 -2.308444256428217 -0.10444899067684066 0 -0.10444899067684066 1.3206440196075278 0 0 0 0 24.879218829389629 44.145726525151986 0 44.145726525151986 54.732286136244511 0 0 0 0 -25.954127111674097 21.195729531071265 0 21.195729531071265 95.380749736337748 0 0 0 0 3.083245202757098 17.589120619719324 0 17.589120619719324 42.823203020649089 0 0 0 0 12.731427255488143 22.359538194923516 0 22.359538194923516 39.7992819327701 0 0 0 0 73.275900281855684 -26.300208777382068 0 -26.300208777382068 -31.157424871053081 0 0 0 0 -10.687972382985016 -14.926299271946093 0 -14.926299271946093 7.1268305722587675 0 0 0 0 -73.8881903605552 -50.206345116501325 0 -50.206345116501325 29.981500341447827 0 0 0 0 -5.1795340723057279 -5.4336355616376792 0 -5.4336355616376792 38.617073142389529 0 0 0 0 -53.015741385557703 -4.8142924483727256 0 -4.8142924483727256 69.860951760711032 0 0 0 0 -20.962156500409947 22.530068239444518 0 22.530068239444518 92.895759992148669 0 0 0 0 18.099519255502855 17.934485950834642 0 17.934485950834642 51.842753753815487 0 0 0 0 29.831235026167633 -134.86833217968888 0 -134.86833217968888 156.82333666843442 0 0 0 0 0.45330630682642026 -2.1798538824589864 0 -2.1798538824589864 27.06575359125415 0 0 0 0 -165.46079079642459 -14.372654681865242 0 -14.372654681865242 213.54835754838132 0 0 0 0 78.520799085422368 -363.28286615468642 0 -363.28286615468642 582.64399295378826 0 0 0 0 233.29190493742954 -142.45571996517174 0 -142.45571996517174 45.997106459522911 0 0 0 0 -5.4913812148270154 6.4084939093881985 0 6.4084939093881985 434.71276414097883 0 0 0 0 -3.3657872195444156 -55.872981840589205 0 -55.872981840589205 1556.7662371371844 0 0 0 0 0.38015175878129526 -0.42373146347475199 0 -0.42373146347475199 10.321970077556728 0 0 0 0 57.879460764759642 511.98698073592459 0 511.98698073592459 1005.0926933206792 0 0 0 0 675.16857838271517 -565.37180980570338 0 -565.37180980570338 418.22776950356638 0 0 0 0 -9.3367873293236698 -347.4956097703689 0 -347.4956097703689 1408.1597404654749 0 0 0 0 -33.185659604814646 -97.489853517748998 0 -97.489853517748998 338.46987315626575 0 0 0 0 -111.62091435371076 -119.95746043311374 0 -119.95746043311374 697.83142198621499 0 0 0 0 -124.91768994649306 -66.894679256703057 0 -66.894679256703057 508.65166483134817 0 0 0 0 20.168451108791032 -242.27126933409272 0 -242.27126933409272 340.52781425796275 0 0 0 0 -68.812549444509386 -187.18818194068626 0 -187.18818194068626 421.35636461053218 0 0 0 0 -68.990633630555749 -226.35022658623348 0 -226.35022658623348 554.08612095555509 0 0 0 0 -22.415646852149564 -173.32038764406047 0 -173.32038764406047 424.35012607681711 0 0 0 0 -57.573103281494696 -92.471060553303687 0 -92.471060553303687 313.25410523828396 0 0 0 0 -14.463362290456644 -112.17200127566684 0 -112.17200127566684 215.08856502709386 0 0 0 0 33.871508214744267 -101.80172206488851 0 -101.80172206488851 216.3605286271486 0 0 0 0 -0.6596372042222356 -18.170144759780669 0 -18.170144759780669 94.627457448610585 0 0 0 0 -19.590703094448827 -75.330129488814691 0 -75.330129488814691 319.31914526772744 0 0 0 0 -19.605548322620962 1.1734715610073181 0 1.1734715610073181 365.29214367311579 0 0 0 0 16.970161542120877 5.661633129704569 0 5.661633129704569 165.33133313732105 0 0 0 0 -8.051335249647309 27.116100429051585 0 27.116100429051585 382.2041392926476 0 0 0 0 -29.715615311963234 -119.08160335558114 0 -119.08160335558114 489.94091953847965 0 0 0 0 -70.200765053734358 -98.07359196685502 0 -98.07359196685502 581.11674607478199 0 0 0 0 -10.412957914082654 -233.97942495746975 0 -233.97942495746975 482.20154894718507 0 0 0 0 -51.619052533995728 -173.58408652161052 0 -173.58408652161052 399.45819111831224 0 0 0 0 8.4725981284095724 -218.14116145363005 0 -218.14116145363005 434.18028305763437 0 0 0 0 135.07216737239287 -265.91706031518333 0 -265.91706031518333 380.37690281435789 0 0 0 0 18.959985136154636 36.229277800921508 0 36.229277800921508 37.848866932735291 0 0 0 0 34.401409393104586 -115.54767442974662 0 -115.54767442974662 214.56299465612392 0 0 0 0 5.8048157402222387 -149.40182315485617 0 -149.40182315485617 406.44109583535464 0 0 0 0 22.288964627543464 43.082791872602684 0 43.082791872602684 -10.50281032242674 0 0 0 0 -3.0714503846499266 6.6811511307524469 0 6.6811511307524469 21.269921587429309 0 0 0 0 16.517534171809871 23.327256792309072 0 23.327256792309072 16.76938540158153 0 0 0 0 11.508522930421547 29.639146667773176 0 29.639146667773176 37.182539810528652 0 0 0 0 181.83020526211493 13.041686030080882 0 13.041686030080882 85.644318826969538 0 0 0 0 519.00395176171151 -262.89817385369315 0 -262.89817385369315 181.2554064359465 0 0 0 0 -49.600312523581351 -73.851992124982644 0 -73.851992124982644 923.7802731767224 0 0 0 0 4.1478885519840514 4.4454295360997804 0 4.4454295360997804 16.260804548927638 0 0 0 0 -189.36703386228692 -386.25294691196177 0 -386.25294691196177 1070.3140929088004 0 0 0 0 -164.79620369864915 -438.58277352035293 0 -438.58277352035293 1177.2532373507274 0 0 0 0 131.42786980600704 -457.15664103639574 0 -457.15664103639574 875.35547481019603 0 0 0 0 208.93719873841837 203.86439017142402 0 203.86439017142402 889.20007441071357 0 0 0 0 152.5562269610673 -165.7014001384523 0 -165.7014001384523 231.45652196750234 0 0 0 0 541.43334509268743 -442.23468176309325 0 -442.23468176309325 739.2995745936787 0 0 0 0 287.58287636535533 159.88308478385443 0 159.88308478385443 225.44203329456286 0 0 0 0 -1.0787728910545411 39.075357548288594 0 39.075357548288594 392.61346849209076 0 0 0 0 -233.38699419305112 -219.74627448264255 0 -219.74627448264255 1115.2611622547556 0 0 0 0 2.0505434655428871 -37.475877139811018 0 -37.475877139811018 -31.308016691822559 0 0 0 0 -19.253926276002858 -4.0138885635424231 0 -4.0138885635424231 117.38014066230971 0 0 0 0 -64.056621932715643 -91.331804515459226 0 -91.331804515459226 121.00783312876047 0 0 0 0 -14.457171943650337 -1.5356015918514458 0 -1.5356015918514458 98.637242335731571 0 0 0 0 64.789879070962243 -0.28917593852457912 0 -0.28917593852457912 86.400696829121443 0 0 0 0 65.237666862568403 -32.034266652164661 0 -32.034266652164661 52.662005220998253 0 0 0 0 20.513625422807308 -39.489679999103828 0 -39.489679999103828 87.569087681389647 0 0 0 0 153.20137771753616 65.740723409522616 0 65.740723409522616 -83.987556557094877 0 0 0 0 -1.0720465402833383 -0.69162070133107534 0 -0.69162070133107534 2.0603383438948075 0 0 0 0 -1.3373830614859479 0.48947524570847634 0 0.48947524570847634 2.7959643310673243 0 0 0 0 -3.2523950578485099 7.0390632907541288 0 7.0390632907541288 1.914128810326519 0 0 0 0 -4.6573583697118863 -5.7899110957558406 0 -5.7899110957558406 10.333523499876421 0 0 0 0 -44.871072782601914 64.670384292665403 0 64.670384292665403 8.493477512645768 0 0 0 0 -59.076724861301045 77.545976697325386 0 77.545976697325386 215.63687447639313 0 0 0 0 2.8426469862197337 -142.06543166680785 0 -142.06543166680785 65.386448743865913 0 0 0 0 109.30509096631613 140.47818811318939 0 140.47818811318939 51.855056791748211 0 0 0 0 30.895162646432254 76.669800892996136 0 76.669800892996136 249.35892111563589 0 0 0 0 205.94994788507393 -203.25535854261761 0 -203.25535854261761 229.76861446690395 0 0 0 0 0.79672586039148818 1.1625394414418224 0 1.1625394414418224 1.9427710386589467 0 0 0 0 -137.02601667030513 200.21311578044515 0 200.21311578044515 24.209825483158056 0 0 0 0 43.411036803225215 134.39274585963722 0 134.39274585963722 32.135902880443609 0 0 0 0 -139.98138575257144 -12.71857698407257 0 -12.71857698407257 -33.10877838286433 0 0 0 0 -2.017812028310745 1.5557430614789496 0 1.5557430614789496 6.5400836915474656 0 0 0 0 -276.88446812165284 100.83958419239389 0 100.83958419239389 182.53242865687935 0 0 0 0 169.76018039315022 -92.790341164691199 0 -92.790341164691199 45.161451446809224 0 0 0 0 37.64798093650279 -106.70834163887776 0 -106.70834163887776 98.326312956192851 0 0 0 0 -16.933385452395669 -97.408355220853991 0 -97.408355220853991 75.896830398880411 0 0 0 0 -64.134076149415705 -74.444130653842876 0 -74.444130653842876 94.87930857266474 0 0 0 0 12.171905862564017 -67.501560641099786 0 -67.501560641099786 79.96928718520212 0 0 0 0 -45.593798719537517 -72.259822456660913 0 -72.259822456660913 53.849223297576827 0 0 0 0 26.550587494579304 -92.571715681822752 0 -92.571715681822752 76.455805255289306 0 0 0 0 42.886966539856985 -56.367368467010238 0 -56.367368467010238 109.29577063783654 0 0 0 0 -36.72262278483322 -5.6891272335778922 0 -5.6891272335778922 15.804492585288244 0 0 0 0 -6.8463570416537873 -12.77386930793574 0 -12.77386930793574 -6.0176974731587052 0 0 0 0 -11.829326792816317 -16.14466186630122 0 -16.14466186630122 9.7328295254980759 0 0 0 0 -1.8766749465248047 -3.2320828533012786 0 -3.2320828533012786 -3.8098230213153386 0 0 0 0 -96.722798592389154 -114.08799836869184 0 -114.08799836869184 -125.79963029206556 0 0 0 0 -19.874231864014291 -26.175025622360408 0 -26.175025622360408 9.5880494824050402 0 0 0 0 -21.833973704701293 -42.672484766381487 0 -42.672484766381487 -6.5891671094652509 0 0 0 0 -3.3992274523717096 -3.2359433672548263 0 -3.2359433672548263 2.1551245175559188 0 0 0 0 -15.034899796655736 -33.524956203989859 0 -33.524956203989859 150.97347618731146 0 0 0 0 11.563895717448759 -46.151831542316359 0 -46.151831542316359 55.456943138968199 0 0 0 0 8.0095075259669102 -93.101793343139434 0 -93.101793343139434 35.9742484298622 0 0 0 0 -53.293377267451433 -102.99350460536516 0 -102.99350460536516 67.950565492716123 0 0 0 0 -13.538880335820068 -118.79606123559643 0 -118.79606123559643 37.875233895785641 0 0 0 0 -0.042169740199824446 -41.332644538015302 0 -41.332644538015302 22.263190075842431 0 0 0 0 3.2844972701886945 -85.39862840427304 0 -85.39862840427304 0.81964095769217238 0 0 0 0 3.965747881442212 -80.585111556528318 0 -80.585111556528318 20.770226200285833 0 0 0 0 -2.1987440085622438 -42.455967299847543 0 -42.455967299847543 48.725234014360467 0 0 0 0 -4.2772689723143493 -2.718162432256392 0 -2.718162432256392 15.393490535584505 0 0 0 0 -145.00024605411818 -111.58315383853551 0 -111.58315383853551 -58.713495711443102 0 0 0 0 -139.43274210599975 -161.21614179822063 0 -161.21614179822063 256.55762737392979 0 0 0 0 48.899334030859791 -73.585502311776509 0 -73.585502311776509 -112.6144881635264 0 0 0 0 89.086994618631252 -19.838910941372887 0 -19.838910941372887 -83.737525597498461 0 0 0 0 -14.315802856050141 -23.344823664355317 0 -23.344823664355317 3.4224274678344955 0 0 0 0 11.755356171042308 -11.228823291039589 0 -11.228823291039589 -67.055426058053854 0 0 0 0 -14.661232659255802 -14.96859020224656 0 -14.96859020224656 6.0881692907023535 0 0 0 0 -66.768355151866672 -115.44198617622169 0 -115.44198617622169 -70.529765608458547 0 0 0 0 -1.1732894452686136 -14.369245481156526 0 -14.369245481156526 17.906691482999037 0 0 0 0 -11.207520474465436 -13.504389053155379 0 -13.504389053155379 16.676366658411254 0 0 0 0 -23.227652446777256 -33.516405565926107 0 -33.516405565926107 2.2198684484974365 0 0 0 0 -27.713111851888243 -9.0720801203715382 0 -9.0720801203715382 -65.485322279397224 0 0 0 0 -22.431836346409 -93.757234256008815 0 -93.757234256008815 -34.743025183546706 0 0 0 0 -0.19128441908777916 -1.8850857800561585 0 -1.8850857800561585 -4.4704797735247297 0 0 0 0 1.2281921200410579 -63.542919738421915 0 -63.542919738421915 -38.565185698716959 0 0 0 0 -22.041000574292411 -52.447316863370361 0 -52.447316863370361 -14.492832035728497 0 0 0 0 -58.96085756866978 -66.296698270813067 0 -66.296698270813067 8.9344915885158116 0 0 0 0 13.385701913575758 -34.960972396234865 0 -34.960972396234865 4.0488418341828947 0 0 0 0 -21.547211921528287 -56.15632919777272 0 -56.15632919777272 -3.0289048480481142 0 0 0 0 3.1000997142259621 -23.474393926499033 0 -23.474393926499033 -1.6153882907528896 0 0 0 0 8.9409767085298881 -17.32396064146451 0 -17.32396064146451 4.0056337089845329 0 0 0 0 29.170970687857334 -2.0054293670909829 0 -2.0054293670909829 7.4860230712947669 0 0 0 0 21.610445513013474 -11.043606520459434 0 -11.043606520459434 -6.8185716727602994 0 0 0 0 -19.701149244148837 -14.90621018553793 0 -14.90621018553793 -7.1584606966789579 0 0 0 0 28.196145490627714 -28.079647580037999 0 -28.079647580037999 -23.195273666889989 0 0 0 0 -5.1915588958458248 -17.409158932809234 0 -17.409158932809234 11.541411023827706 0 0 0 0 -23.731117879234262 -51.872401577675191 0 -51.872401577675191 -42.361944926662545 0 0 0 0 -0.54044737369251905 -1.5021361255246433 0 -1.5021361255246433 -2.006104377974637 0 0 0 0 0.23294504626574053 -31.635623013207805 0 -31.635623013207805 -18.47049001324558 0 0 0 0 -14.76289740698212 -13.041927599435439 0 -13.041927599435439 -10.928322217063396 0 0 0 0 -23.065409272446232 -9.1990054474954377 0 -9.1990054474954377 -14.251282564830035 0 0 0 0 -24.901262291034072 4.1990497044753283 0 4.1990497044753283 -38.70837072795257 0 0 0 0 -19.140023418032797 -24.281559164475766 0 -24.281559164475766 9.0221705740732432 0 0 0 0 -2.4910835048034534 -2.4920223229599543 0 -2.4920223229599543 2.1657970568251983 0 0 0 0 -10.40234837269238 -23.668587376648169 0 -23.668587376648169 -6.0798348923742651 0 0 0 0 -170.593052076719 -15.749901053961366 0 -15.749901053961366 69.361451338270854 0 0 0 0 -14.537606974240134 3.1786861263517494 0 3.1786861263517494 -7.4253526844986482 0 0 0 0 -2.0413228655458444 3.7185781771160009 0 3.7185781771160009 25.824564628957873 0 0 0 0 -8.0175882417276263 -5.5165767685071074 0 -5.5165767685071074 13.174576188535013 0 0 0 0 -11.824724303227413 -3.6536761979805306 0 -3.6536761979805306 7.4246421239513438 0 0 0 0 -5.4898898194132926 9.6148612313409103 0 9.6148612313409103 -2.8626875591435237 0 0 0 0 34.496461532898593 -0.21285887305566575 0 -0.21285887305566575 2.1253867286686727 0 0 0 0 4.1034999200537641 12.09270250233385 0 12.09270250233385 -2.5978573544562096 0 0 0 0 -22.713557794595999 64.689607082913426 0 64.689607082913426 14.52159209146339 0 0 0 0 13.353768554574344 -13.111805192675092 0 -13.111805192675092 28.140126441910979 0 0 0 0 46.566135596213371 9.3646904479974182 0 9.3646904479974182 38.864568188497287 0 0 0 0 88.696391855677575 -51.824736247712281 0 -51.824736247712281 82.956996268461808 0 0 0 0 33.262553761452182 7.4562496237995219 0 7.4562496237995219 193.41669369941155 0 0 0 0 29.599146702569215 -20.45027223987563 0 -20.45027223987563 215.558239525104 0 0 0 0 48.668937087750805 -24.830072804204974 0 -24.830072804204974 11.315268859223579 0 0 0 0 39.561201781984437 5.7020470861316426 0 5.7020470861316426 400.10192294144144 0 0 0 0 109.15301735766207 80.364550738449907 0 80.364550738449907 249.94411579277221 0 0 0 0 147.9007199577361 128.59110047408103 0 128.59110047408103 312.4491780277458 0 0 0 0 90.905190427917546 -23.374249171353767 0 -23.374249171353767 209.32289556843898 0 0 0 0 13.483268676075568 142.05314104188619 0 142.05314104188619 615.56730862207041 0 0 0 0 269.42512667559913 432.84239367182454 0 432.84239367182454 515.04019451124077 0 0 0 0 12.032292704313932 35.315358613337594 0 35.315358613337594 152.49064602195722 0 0 0 0 26.244631557153753 50.594758022765745 0 50.594758022765745 160.77830916404491 0 0 0 0 2.2639703859863403 24.62396678791265 0 24.62396678791265 193.5114333054953 0 0 0 0 73.334781448263129 3.8680045712426363 0 3.8680045712426363 197.29000719422402 0 0 0 0 22.383930867815707 46.039006773855363 0 46.039006773855363 240.32936242489632 0 0 0 0 22.812057856872343 25.85174740547518 0 25.85174740547518 198.99860688167246 0 0 0 0 -0.67160739857285989 -16.612449937523706 0 -16.612449937523706 153.28037997635693 0 0 0 0 -5.6051816755243635 -12.523935209654155 0 -12.523935209654155 149.89346602967998 0 0 0 0 -4.334731197183828 -13.647122776423203 0 -13.647122776423203 110.44072295288788 0 0 0 0 -30.662839541315179 -52.458163797780799 0 -52.458163797780799 119.79412337068061 0 0 0 0 1.8430050326132914 -42.859051905645174 0 -42.859051905645174 175.97137533814566 0 0 0 0 54.394764890355873 -34.534669928889343 0 -34.534669928889343 108.25925710694719 0 0 0 0 7.5230686587724449 -22.882430957208271 0 -22.882430957208271 106.22088228879875 0 0 0 0 51.769503616583876 -46.942834330920277 0 -46.942834330920277 26.979321551756584 0 0 0 0 7.0593750810303391 -31.084487098003592 0 -31.084487098003592 24.640765079675475 0 0 0 0 25.645505468114607 -32.66988888985361 0 -32.66988888985361 -3.4093567466890136 0 0 0 0 38.236527962532818 -33.85293657976581 0 -33.85293657976581 1.1110824493334803 0 0 0 0 -16.778840978559856 -16.520351810693683 0 -16.520351810693683 26.037877029149968 0 0 0 0 2.7882631097236299 -55.514824319263425 0 -55.514824319263425 73.785870565079676 0 0 0 0 -4.6365440240679163 -64.868955930458469 0 -64.868955930458469 -5.6439236425358104 0 0 0 0 -79.171316793146161 -9.7728404780136771 0 -9.7728404780136771 78.307873872341588 0 0 0 0 -83.229881502206354 -76.756797225370974 0 -76.756797225370974 116.90980239140481 0 0 0 0 -13.631845454604559 -30.858480398545453 0 -30.858480398545453 -40.430617739839363 0 0 0 0 148.57045738995748 21.847795394773129 0 21.847795394773129 -31.130998723981975 0 0 0 0 -123.04346193506035 -193.70907981951314 0 -193.70907981951314 11.36525279894704 0 0 0 0 2.7915322189313869 -17.592766300691327 0 -17.592766300691327 22.408871237989871 0 0 0 0 1.0882474012906398 -0.99074506691890463 0 -0.99074506691890463 2.5509185532402512 0 0 0 0 -64.985916326576444 -29.567247390164994 0 -29.567247390164994 14.773218212343636 0 0 0 0 181.38639368159357 -254.41868454732321 0 -254.41868454732321 -129.10044168285094 0 0 0 0 -210.25750919976872 149.40592647898666 0 149.40592647898666 179.08358265578136 0 0 0 0 174.38486896535505 0.22811571991769597 0 0.22811571991769597 50.60846446006326 0 0 0 0 18.297195486209603 -113.08196291037166 0 -113.08196291037166 117.68916052686973 0 0 0 0 -19.127326252661078 -56.017531620906084 0 -56.017531620906084 96.954289782250271 0 0 0 0 -33.317585012200198 -60.187175491675589 0 -60.187175491675589 111.60296917203232 0 0 0 0 10.689811104963155 -15.931752415166557 0 -15.931752415166557 129.13000098723569 0 0 0 0 -14.388884581199477 -44.052694648294164 0 -44.052694648294164 101.54843893720681 0 0 0 0 -40.698080425663193 13.980973007946886 0 13.980973007946886 93.975256027988507 0 0 0 0 14.490849484855062 6.3340054393484024 0 6.3340054393484024 32.705822129024455 0 0 0 0 -111.12385270012555 -57.686743489561195 0 -57.686743489561195 33.207942964421818 0 0 0 0 -64.093952168754186 2.3666356147878105 0 2.3666356147878105 63.437141335907654 0 0 0 0 -26.22764025910692 27.033283954428043 0 27.033283954428043 -1.4503576099814381 0 0 0 0 -27.955663918307891 44.04706136904133 0 44.04706136904133 95.539344326942228 0 0 0 0 -73.769943043833337 47.009260579805414 0 47.009260579805414 152.81343122965242 0 0 0 0 -4.1552048663996857 1.7915654486023413 0 1.7915654486023413 115.28481613935583 0 0 0 0 -17.359730715558726 23.967987827090838 0 23.967987827090838 133.43455201938741 0 0 0 0 -4.9293198279447097 41.683613504821551 0 41.683613504821551 151.2104419349962 0 0 0 0 223.12222547688316 -265.67617545428948 0 -265.67617545428948 -621.70063303770439 0 0 0 0 1.7944044369660359 -3.1951189865826493 0 -3.1951189865826493 5.1436045155477643 0 0 0 0 -148.94843210433839 -15.954167329580514 0 -15.954167329580514 8.7630292926623952 0 0 0 0 -146.27393596702314 -73.518266277624207 0 -73.518266277624207 16.089326566332602 0 0 0 0 248.44577780555574 83.99707748509536 0 83.99707748509536 -175.74734351468942 0 0 0 0 -23.215460272508835 112.09854980678847 0 112.09854980678847 174.85433745078626 0 0 0 0 -96.173691832902477 35.208846726673073 0 35.208846726673073 162.82722103715059 0 0 0 0 -73.184945379160126 39.315564607044507 0 39.315564607044507 161.42464839437162 0 0 0 0 -28.674147352885484 84.302357092030434 0 84.302357092030434 34.236764804045379 0 0 0 0 23.47416009351241 -89.050292517113121 0 -89.050292517113121 -16.460230917320587 0 0 0 0 -35.307611974186329 -18.931043266129564 0 -18.931043266129564 -81.446398369582312 0 0 0 0 -90.194965423916983 -91.024008351596422 0 -91.024008351596422 -40.231270550633781 0 0 0 0 -11.66310940105086 -129.53233828423981 0 -129.53233828423981 -6.0375792637460108 0 0 0 0 -104.17089238504184 -65.379110836399377 0 -65.379110836399377 12.577041706332238 0 0 0 0 -81.17448678312121 56.840939459449146 0 56.840939459449146 127.06295217098523 0 0 0 0 -16.623437970185478 -2.2015050687696203 0 -2.2015050687696203 9.1628675062238472 0 0 0 0 -85.203967108698521 -41.603888994591443 0 -41.603888994591443 15.947406658058753 0 0 0 0 -38.846997575793921 -62.859170924544742 0 -62.859170924544742 -13.576095669435745 0 0 0 0 -1.397241209862667 -2.3654029893553243 0 -2.3654029893553243 4.6474203370899971 0 0 0 0 -112.00303030770647 8.3796217854760471 0 8.3796217854760471 24.307007600335055 0 0 0 0 0.67408344435165723 -2.5815684304514086 0 -2.5815684304514086 3.2787019339336894 0 0 0 0 -20.38822584322952 0.972401263024949 0 0.972401263024949 24.883925782203733 0 0 0 0 108.01404933492631 -43.337944638049521 0 -43.337944638049521 -6.2238556461234111 0 0 0 0 81.83342826514172 14.972953022073852 0 14.972953022073852 45.125280694745015 0 0 0 0 23.310074752921992 -95.846758271671206 0 -95.846758271671206 2.2712744626041967 0 0 0 0 31.796648732899484 -63.334399561208556 0 -63.334399561208556 12.290393746504378 0 0 0 0 85.225587458846348 -29.630574761555181 0 -29.630574761555181 2.0641056142776506 0 0 0 0 -322.69262192046335 -65.787557013656624 0 -65.787557013656624 152.44617893135728 0 0 0 0 23.651386584076356 -85.850520246380029 0 -85.850520246380029 -1.8757693831430515 0 0 0 0 4.1054488404341472 -7.9287203991070179 0 -7.9287203991070179 17.301495161721078 0 0 0 0 11.880347475966573 -73.165928754395281 0 -73.165928754395281 -13.822898029153293 0 0 0 0 10.866724281287588 -83.589550468372181 0 -83.589550468372181 25.429126120878209 0 0 0 0 -94.212658465148934 -9.1018396016388579 0 -9.1018396016388579 10.418393566869781 0 0 0 0 -111.52439863551558 -15.120919941138709 0 -15.120919941138709 83.998019089867739 0 0 0 0 -83.16926138898134 -115.59497374104831 0 -115.59497374104831 181.08169826462108 0 0 0 0 61.050972919082369 119.67048396521932 0 119.67048396521932 49.119383685960202 0 0 0 0 -107.84268494885129 6.8940546877311135 0 6.8940546877311135 60.627280426968355 0 0 0 0 101.43160410089467 -113.49901609643712 0 -113.49901609643712 24.033539894786372 0 0 0 0 9.060263651718742 -80.633238985297794 0 -80.633238985297794 20.602434154367074 0 0 0 0 -95.237851624582618 205.38954270041722 0 205.38954270041722 122.29172565136105 0 0 0 0 -302.25599240612792 158.93148910124728 0 158.93148910124728 212.67579062041477 0 0 0 0 -1.6466068638799123 -2.9443987728300556 0 -2.9443987728300556 3.7603490480464004 0 0 0 0 -6.8517590616720554 -50.581068080326077 0 -50.581068080326077 -161.59009517678351 0 0 0 0 22.632176605223499 -130.01640497336223 0 -130.01640497336223 -161.00506983159721 0 0 0 0 -7.551663392917888 -14.588624282077944 0 -14.588624282077944 13.552138818238753 0 0 0 0 0.083289587390936504 -14.055952527502086 0 -14.055952527502086 -109.29447769641411 0 0 0 0 -62.329267279375699 -134.42411914822515 0 -134.42411914822515 -130.54985999728524 0 0 0 0 7.8980501222991535 -7.6407020909664993 0 -7.6407020909664993 2.8156250252400525 0 0 0 0 463.10007494853107 -101.78201201450429 0 -101.78201201450429 -90.058834674644459 0 0 0 0 -31.750384502153338 -26.781028603254526 0 -26.781028603254526 -84.591884337460215 0 0 0 0 90.416694895940623 -97.467461539730721 0 -97.467461539730721 -172.17031689969008 0 0 0 0 -161.94702585285381 -133.87780759840462 0 -133.87780759840462 34.462087380699813 0 0 0 0 -17.474428638405396 -12.551852068907607 0 -12.551852068907607 12.918602345578648 0 0 0 0 -18.433850879632246 -20.53817712356431 0 -20.53817712356431 -11.753935102940886 0 0 0 0 -19.724409599992214 -27.666095528074948 0 -27.666095528074948 3.2721952939828043 0 0 0 0 -14.787235208982565 -27.822044311637001 0 -27.822044311637001 -17.696656272208202 0 0 0 0 -73.087104560423086 -17.233692466237699 0 -17.233692466237699 -3.9652020542998798 0 0 0 0 0.23565992586039464 -12.394155060428034 0 -12.394155060428034 -9.5685534096703577 0 0 0 0 -19.483389066944255 -36.230169173097238 0 -36.230169173097238 -20.5274830955168 0 0 0 0 -44.552947068629919 -115.61210455562696 0 -115.61210455562696 16.252832297192072 0 0 0 0 -12.135611648364693 -27.860865365471611 0 -27.860865365471611 18.83659590119855 0 0 0 0 -7.2545614375758305 -49.256481610282208 0 -49.256481610282208 -34.967644187905535 0 0 0 0 1.3763419771985719 -10.621558032129144 0 -10.621558032129144 -2.7519164346989271 0 0 0 0 -16.688483978586191 -23.239408643225033 0 -23.239408643225033 -61.412658035369532 0 0 0 0 1.8894714144580576 -42.161799442892516 0 -42.161799442892516 -44.26960885898734 0 0 0 0 -30.597411158117438 -80.910009494752558 0 -80.910009494752558 -46.956908498556004 0 0 0 0 1.4416952576184485 -40.80364731949885 0 -40.80364731949885 -46.488341002623201 0 0 0 0 -8.9635075762507768 -44.886360707998392 0 -44.886360707998392 -34.051554734316596 0 0 0 0 4.6139037936034146 -4.99038476260084 0 -4.99038476260084 5.3280334107792839 0 0 0 0 -4.6545015756946668 -30.662412239515106 0 -30.662412239515106 -22.195310430333848 0 0 0 0 -1.772301911143586 -33.633693683030288 0 -33.633693683030288 -21.0047237809531 0 0 0 0 -122.91256004562547 -202.85265126606828 0 -202.85265126606828 -44.654461939106113 0 0 0 0 -52.927825613382083 -132.31136089854408 0 -132.31136089854408 -69.374050720995001 0 0 0 0 -13.163225934293678 -25.982077616654351 0 -25.982077616654351 -5.8010702514729928 0 0 0 0 58.281631348803103 33.537800563306519 0 33.537800563306519 -16.849064986337908 0 0 0 0 -111.84243955833426 -47.178174081745965 0 -47.178174081745965 216.04111765202106 0 0 0 0 1.0708468205827195 -1.9420784499589843 0 -1.9420784499589843 2.6066683314225827 0 0 0 0 -65.650771231591079 23.371360192359134 0 23.371360192359134 88.267360603276757 0 0 0 0 -126.8175004249058 -0.38392467952780862 0 -0.38392467952780862 201.34848431909631 0 0 0 0 -91.567445477416186 -56.333465869720385 0 -56.333465869720385 232.64196748835093 0 0 0 0 5.74720839073143 -7.7272187920716533 0 -7.7272187920716533 142.62637977614941 0 0 0 0 46.309926811323749 40.943754146828724 0 40.943754146828724 265.27271242730785 0 0 0 0 57.312150231385914 75.613526128983722 0 75.613526128983722 334.42039333944558 0 0 0 0 0.54280032784242849 20.638865598146367 0 20.638865598146367 380.93976173362171 0 0 0 0 -18.514433871836445 -16.464052630755759 0 -16.464052630755759 318.92460073596158 0 0 0 0 20.153235985809715 -17.522885499849508 0 -17.522885499849508 58.009219095562003 0 0 0 0 71.111577518783633 -135.94528446278491 0 -135.94528446278491 243.87237402189203 0 0 0 0 76.470130995152473 -47.831023888121962 0 -47.831023888121962 56.194288676721044 0 0 0 0 76.890423599207978 -121.49947461985667 0 -121.49947461985667 -8.971462481044 0 0 0 0 -13.574075819285099 -49.792557687283988 0 -49.792557687283988 3.8149748871219344 0 0 0 0 -32.961796731431605 -83.119409087586973 0 -83.119409087586973 199.20315013391883 0 0 0 0 88.095481869644104 53.112082321207708 0 53.112082321207708 -143.11691717029316 0 0 0 0 109.41518346607916 140.77181147458214 0 140.77181147458214 118.86519412009511 0 0 0 0 126.56431377360821 -43.230446078261593 0 -43.230446078261593 245.4574423307713 0 0 0 0 314.15051951312711 -90.664933719610417 0 -90.664933719610417 -30.643970400662511 0 0 0 0 165.80530911069332 -80.490863568964414 0 -80.490863568964414 65.97719673924621 0 0 0 0 377.95409920099991 -321.01601300107723 0 -321.01601300107723 439.62071689110235 0 0 0 0 66.239920900346107 160.95622092210488 0 160.95622092210488 900.0945190982311 0 0 0 0 -83.834935146353331 94.363797603211424 0 94.363797603211424 674.94240111668478 0 0 0 0 595.92882957422182 102.19033432817741 0 102.19033432817741 72.671119441889459 0 0 0 0 -373.00331473073084 186.81804064939934 0 186.81804064939934 216.61034432037195 0 0 0 0 -1.0978846626119347 1.4705762575551233 0 1.4705762575551233 9.4467694306296153 0 0 0 0 -97.050716224215222 -1.0296242525250818 0 -1.0296242525250818 20.624960167486279 0 0 0 0 -24.423054614370344 12.638878543417377 0 12.638878543417377 14.65758492545865 0 0 0 0 -4.0335009395998256 -4.6001697024767054 0 -4.6001697024767054 13.641516080333531 0 0 0 0 -0.016485866558888951 0.023486384294152174 0 0.023486384294152174 0.73757660789874535 0 0 0 0 20.517737699787805 -20.837494759160109 0 -20.837494759160109 -2.6362799158960115 0 0 0 0 -11.523296600563754 1.9039964800322196 0 1.9039964800322196 -47.362956786819268 0 0 0 0 -0.54827479816281754 1.5680463627421091 0 1.5680463627421091 7.975010348815573 0 0 0 0 -97.806732700682261 204.41643132195895 0 204.41643132195895 -64.312658693957928 0 0 0 0 -19.740895193948873 18.566942763918632 0 18.566942763918632 103.27958272576507 0 0 0 0 -2.270832343356858 -20.304056678440247 0 -20.304056678440247 -15.319007345067803 0 0 0 0 -1.9099348896496395 1.9325381282863532 0 1.9325381282863532 5.4297842698616705 0 0 0 0 -1.3013668143107053 34.313799674745326 0 34.313799674745326 43.984482546409708 0 0 0 0 -1.0850942903801979 -1.2628843378297461 0 -1.2628843378297461 18.511829244206638 0 0 0 0 1.3713911985266805 -14.014251254520786 0 -14.014251254520786 32.086233531110338 0 0 0 0 8.767777361982553 -9.8884674641521997 0 -9.8884674641521997 17.687404917669483 0 0 0 0 -0.80890849783906571 0.58242864595609944 0 0.58242864595609944 6.5449522371644377 0 0 0 0 6.2820791026966276 0.0042534722088021226 0 0.0042534722088021226 -15.788470775221526 0 0 0 0 -0.060085521242599471 0.72522416227247533 0 0.72522416227247533 4.8064427375318814 0 0 0 0 12.930627686689519 -19.272420614357543 0 -19.272420614357543 -99.003038566011583 0 0 0 0 74.510892301704843 72.868079449428478 0 72.868079449428478 -108.03252575347142 0 0 0 0 26.948060015952137 0.81190302997492836 0 0.81190302997492836 -94.143795596479322 0 0 0 0 121.38082232351508 -24.807183027820429 0 -24.807183027820429 -142.71242051063382 0 0 0 0 170.04438796081024 -108.89856860139116 0 -108.89856860139116 -74.015116259492061 0 0 0 0 129.11968145739581 34.121485565359762 0 34.121485565359762 -87.586373030801042 0 0 0 0 32.522738078539874 -48.947688437849138 0 -48.947688437849138 -97.131656469689915 0 0 0 0 48.213671045434239 -12.726352264391608 0 -12.726352264391608 -134.25768464049906 0 0 0 0 1.7504788886431246 -1.9215243842300325 0 -1.9215243842300325 -0.72306745138652673 0 0 0 0 31.000757509038252 -10.761210977062547 0 -10.761210977062547 -134.84733852985664 0 0 0 0 31.149887609139739 -8.0890896557721135 0 -8.0890896557721135 -46.28930000354012 0 0 0 0 46.914930123944714 -18.688244327655411 0 -18.688244327655411 -143.10269417236941 0 0 0 0 43.908114159469847 -10.963927860088006 0 -10.963927860088006 -83.765352328075096 0 0 0 0 45.946439280675804 -17.805167905869894 0 -17.805167905869894 -136.26013881604376 0 0 0 0 -2.1914325066863967 -8.0775224997196347 0 -8.0775224997196347 -90.586417913553305 0 0 0 0 -2.039130809166636 -31.436693521565758 0 -31.436693521565758 -85.652767594205216 0 0 0 0 67.400421280428418 -19.165167495710193 0 -19.165167495710193 -90.293021679579397 0 0 0 0 16.026578684988635 -9.6946334099338856 0 -9.6946334099338856 57.615558310368215 0 0 0 0 -32.997114454992698 -18.452085127588362 0 -18.452085127588362 -26.687766623130301 0 0 0 0 5.8700401111287022 -21.022722307399462 0 -21.022722307399462 27.73493399690085 0 0 0 0 -3.3200134651197004 -67.32031386255403 0 -67.32031386255403 21.493466491054278 0 0 0 0 -294.51837464105904 -106.11630455891054 0 -106.11630455891054 64.052477045290289 0 0 0 0 7.5717504940262357 -4.7231444016832285 0 -4.7231444016832285 -9.5107218295163989 0 0 0 0 54.816971242765646 -66.852935517314108 0 -66.852935517314108 -38.057617664919235 0 0 0 0 18.847732384441315 -5.4733812812992255 0 -5.4733812812992255 31.753974384628236 0 0 0 0 2.2778443623313702 -6.2600661374770397 0 -6.2600661374770397 15.37318973379962 0 0 0 0 -6.8290237592991616 -9.2400994146300945 0 -9.2400994146300945 4.5035133590572514 0 0 0 0 -20.053428401171573 -28.00748529907105 0 -28.00748529907105 54.352945217600791 0 0 0 0 2.7353179882935104 -14.889777405102407 0 -14.889777405102407 21.896802084868 0 0 0 0 6.0634445974951383 -26.034321625922416 0 -26.034321625922416 37.461067354694023 0 0 0 0 -34.95943295993311 -22.695230681834801 0 -22.695230681834801 19.727397998140077 0 0 0 0 23.563560367532773 47.954505114568747 0 47.954505114568747 73.132710476143984 0 0 0 0 6.3752039411065198 -23.467363186231523 0 -23.467363186231523 61.62923296498775 0 0 0 0 -17.17996410338128 -1.208690805331571 0 -1.208690805331571 42.31348206489929 0 0 0 0 -0.83948345730744478 -5.5372116551679937 0 -5.5372116551679937 12.677418506733375 0 0 0 0 7.61179031968868 -9.2910468085319735 0 -9.2910468085319735 9.4204704592993949 0 0 0 0 -5.1524032920619902 -13.558605795435142 0 -13.558605795435142 31.203431531786919 0 0 0 0 4.2246425714655036 -5.2644195263827243 0 -5.2644195263827243 4.8898817744407381 0 0 0 0 -0.47819435954723932 -5.0638829177686233 0 -5.0638829177686233 16.015378850167764 0 0 0 0 -1.9906234749082614 -17.685587201536691 0 -17.685587201536691 35.661243248090614 0 0 0 0 2.5448854725781018 -2.6088714055294986 0 -2.6088714055294986 15.531544957208098 0 0 0 0 12.91882388887791 -19.553097177893505 0 -19.553097177893505 16.839667571912287 0 0 0 0 1.3082596208283714 -4.73771446650359 0 -4.73771446650359 12.235226174466163 0 0 0 0 -1.6674340867075443 -7.2800795955809008 0 -7.2800795955809008 14.223409136648115 0 0 0 0 7.8117868293152242 -0.62289467640948715 0 -0.62289467640948715 13.660796165804641 0 0 0 0 1.9757171600483234 -5.0716883877244783 0 -5.0716883877244783 8.5617740796818396 0 0 0 0 5.4388941854875581 -6.6704468276268187 0 -6.6704468276268187 6.3667791144102885 0 0 0 0 10.840299267793284 -2.7353311367987772 0 -2.7353311367987772 8.3621939173754072 0 0 0 0 2.2950784023296364 -11.605712348828092 0 -11.605712348828092 31.662335490284022 0 0 0 0 -4.4346544079235173 -7.9395866648410447 0 -7.9395866648410447 9.5144609336275607 0 0 0 0 0.69809647996921598 -6.148265474851442 0 -6.148265474851442 25.050233648852732 0 0 0 0 4.9757600561737707 -15.238532314699185 0 -15.238532314699185 17.826906909000968 0 0 0 0 -1.2034513252738179 -8.5700514211785048 0 -8.5700514211785048 16.270951200625859 0 0 0 0 2.6561780664470702 -14.049891351494225 0 -14.049891351494225 14.043849043070509 0 0 0 0 2.1914272153298953 -5.5126134260208346 0 -5.5126134260208346 10.113509127248108 0 0 0 0 -14.715780075275688 -12.864306766990921 0 -12.864306766990921 91.69090773370408 0 0 0 0 -0.10045049107395165 -2.3980276245172263 0 -2.3980276245172263 8.9024123343522152 0 0 0 0 67.615964345801558 -23.678371625775981 0 -23.678371625775981 37.53018620153307 0 0 0 0 7.1940208921787416 -8.5849066434020642 0 -8.5849066434020642 41.56348931856337 0 0 0 0 -1.7667557082372696 -7.071837419673102 0 -7.071837419673102 7.1808184109686408 0 0 0 0 7.7624575175186692 -12.870576415261894 0 -12.870576415261894 19.397720698032572 0 0 0 0 0.61888918289071881 -6.1664766107912641 0 -6.1664766107912641 29.145000990613994 0 0 0 0 -0.47430432848341297 -5.1801038470293861 0 -5.1801038470293861 11.023013266327325 0 0 0 0 4.6674473894694817 -5.8028049343596706 0 -5.8028049343596706 22.858923656072136 0 0 0 0 0.63567704655419233 -5.6727001643274662 0 -5.6727001643274662 10.240079667083336 0 0 0 0 -3.7129571752993797 -8.5644009800744243 0 -8.5644009800744243 16.274879175587557 0 0 0 0 -5.3247945740113209 -6.7210226984607289 0 -6.7210226984607289 16.519359811965842 0 0 0 0 -3.278791058837669 -7.4730010989878792 0 -7.4730010989878792 16.793877510150196 0 0 0 0 2.3090841332337275 -2.7369860232985559 0 -2.7369860232985559 10.268079139770663 0 0 0 0 -3.278928610658113 -7.2998009059665492 0 -7.2998009059665492 17.075077511777636 0 0 0 0 -2.0081604372488124 -6.7477438237077365 0 -6.7477438237077365 29.206868056304664 0 0 0 0 -1.167649349152708 -1.9094764756663238 0 -1.9094764756663238 11.588757528012366 0 0 0 0 -4.5317361763936788 -6.145314407593105 0 -6.145314407593105 14.651648136850781 0 0 0 0 5.298206456600739 -11.328219713517129 0 -11.328219713517129 15.449971851075787 0 0 0 0 0.46729883461700239 -8.2634589427827301 0 -8.2634589427827301 12.557119209721463 0 0 0 0 3.1674244338079545 -8.7656894970246597 0 -8.7656894970246597 6.3637075043747018 0 0 0 0 -3.1220149253258036 -4.4927066871216965 0 -4.4927066871216965 16.700863801746763 0 0 0 0 7.2702162675586806 -11.664168260736915 0 -11.664168260736915 17.340404169255635 0 0 0 0 -0.13425978432374741 -6.354947387175848 0 -6.354947387175848 12.830326797180447 0 0 0 0 -4.2735719159518339 -6.0391717105449061 0 -6.0391717105449061 17.030576253077015 0 0 0 0 2.2951688724050561 -9.23874786326558 0 -9.23874786326558 10.269428277988027 0 0 0 0 4.0021864138329875 -12.386633190137218 0 -12.386633190137218 17.206475572532327 0 0 0 0 -0.18007255213222562 -2.264416937039563 0 -2.264416937039563 13.177905799516168 0 0 0 0 0.95768023055097729 0.21957322172238491 0 0.21957322172238491 21.650376535586474 0 0 0 0 4.1071490625184026 -11.613661308117571 0 -11.613661308117571 17.475573943906056 0 0 0 0 -1.9681345118751779 -0.70876184555891086 0 -0.70876184555891086 42.967318449732375 0 0 0 0 -1.33182932648453 -6.4581896957561327 0 -6.4581896957561327 -0.42370065843462612 0 0 0 0 9.8020122811685724 -56.329954213852034 0 -56.329954213852034 23.077333407229162 0 0 0 0 3.2552953840759074 -11.145466530077101 0 -11.145466530077101 39.98552683237358 0 0 0 0 0.89131953858240598 -4.404786217673621 0 -4.404786217673621 18.673094416283959 0 0 0 0 -10.180564167877037 -4.7079519770304614 0 -4.7079519770304614 18.122335256668521 0 0 0 0 0.31596815385127086 -8.4264200017785829 0 -8.4264200017785829 26.206271750723403 0 0 0 0 -0.64666153961573336 2.2969849298344371 0 2.2969849298344371 0.29899606994442252 0 0 0 0 1.5476749343342817 3.0380847602064023 0 3.0380847602064023 5.6900039433785423 0 0 0 0 3.1285761211194725 21.384604988832507 0 21.384604988832507 16.611364167300053 0 0 0 0 4.0696805358816732 17.75092720565226 0 17.75092720565226 27.882609021893586 0 0 0 0 -1.2064402726513208 -3.759251548804059 0 -3.759251548804059 39.690699696649972 0 0 0 0 0.86642840395209952 -5.434649613139527 0 -5.434649613139527 20.090932586658141 0 0 0 0 2.1008308232969739 1.5378880111384206 0 1.5378880111384206 18.516698252828064 0 0 0 0 0.77582651285153148 2.668141410303619 0 2.668141410303619 17.10410097816694 0 0 0 0 0.018345894709342003 -3.3863174030318817 0 -3.3863174030318817 10.124491984628293 0 0 0 0 -1.063892464728724 -2.2594384213734884 0 -2.2594384213734884 21.763382399592956 0 0 0 0 2.0821536547862252 -0.14027812296262709 0 -0.14027812296262709 9.476272221058025 0 0 0 0 0.35506796096228754 1.2738354112734669 0 1.2738354112734669 6.5840736488389666 0 0 0 0 1.3985713304556815 0.9902296096672103 0 0.9902296096672103 4.5823536343404214 0 0 0 0 -0.64377338416431629 -0.48858158011749708 0 -0.48858158011749708 4.3982483397798546 0 0 0 0 1.3792471221333216 -1.362867729959703 0 -1.362867729959703 3.2107637139270082 0 0 0 0 1.3812313837147379 -1.2826586543515646 0 -1.2826586543515646 2.4443875591969118 0 0 0 0 1.4404342708680007 -1.4084766146037424 0 -1.4084766146037424 1.5395095212038754 0 0 0 0 0.9174199690240451 -2.4188706964448983 0 -2.4188706964448983 5.2923390844790958 0 0 0 0 4.3806913275882238 -1.9019050638889894 0 -1.9019050638889894 10.285332430186827 0 0 0 0 3.7990706918636761 -18.951215002251047 0 -18.951215002251047 34.607808484084671 0 0 0 0 14.025278330438823 -3.1542744217804284 0 -3.1542744217804284 21.577797127116355 0 0 0 0 28.061892220229311 -31.387899260444101 0 -31.387899260444101 23.388126215912052 0 0 0 0 1.7812919890845778 -0.94219917690215027 0 -0.94219917690215027 -2.3623240318599699 0 0 0 0 -2.9733836520323393 -3.9971597998010111 0 -3.9971597998010111 43.921471587382257 0 0 0 0 2.2938847065943264 -15.960021300388689 0 -15.960021300388689 30.825344757220591 0 0 0 0 3.1062132238680533 -8.8433894065965433 0 -8.8433894065965433 9.7873471475515998 0 0 0 0 11.31163133243362 -3.2446390933218936 0 -3.2446390933218936 -1.6998288411123212 0 0 0 0 0.30986893378008995 0.16808802600127137 0 0.16808802600127137 0.081179905832740928 0 0 0 0 -0.72841770117588567 0.69076213162043132 0 0.69076213162043132 1.4987080344872084 0 0 0 0 7.2420729996172213 -14.311638810060686 0 -14.311638810060686 29.022024862824765 0 0 0 0 4.5431058312927064 0.72349758318159729 0 0.72349758318159729 1.4770653078667237 0 0 0 0 5.0747546150705318 6.0269371453832719 0 6.0269371453832719 9.7353679253574228 0 0 0 0 0.1664354355450654 -0.1700220373425978 0 -0.1700220373425978 0.15114932038193274 0 0 0 0 -0.22798707751456959 0.26812682758463779 0 0.26812682758463779 3.4206689437316982 0 0 0 0 0.1370682728368825 -0.4164429120104387 0 -0.4164429120104387 0.81103716619720601 0 0 0 0 1.0288736783118111 -0.51488061290001497 0 -0.51488061290001497 1.09497552299581 0 0 0 0 -0.0011869252746734074 -0.32368293747853727 0 -0.32368293747853727 1.3773001240814153 0 0 0 0 -0.12147131834787928 0.1344900714598225 0 0.1344900714598225 0.90194179143873043 0 0 0 0 0.19982593994464171 0.10327956145793848 0 0.10327956145793848 2.9568731188228696 0 0 0 0 7.3221854356723952 -3.5447796833541361 0 -3.5447796833541361 -0.63635998411336914 0 0 0 0 1.4156835904001859 -1.0674486980678779 0 -1.0674486980678779 0.37984541869100141 0 0 0 0 -2.5886826645485144 3.2795134526095353 0 3.2795134526095353 -1.1000189004116692 0 0 0 0 0.035705717971857842 -0.18464435354385955 0 -0.18464435354385955 0.28021876944782775 0 0 0 0 0.039917469505951431 -0.7476775863324292 0 -0.7476775863324292 6.8133367528644158 0 0 0 0 0.14946470311424775 -0.54743190833323752 0 -0.54743190833323752 5.126047282217769 0 0 0 0 0.36077107651550477 1.6124398017927888 0 1.6124398017927888 6.774705292852218 0 0 0 0 -0.81949186960167708 0.66352432483108714 0 0.66352432483108714 6.0664481879357481 0 0 0 0 -0.87792642713344549 0.26753473751523416 0 0.26753473751523416 5.0419209849424078 0 0 0 0 -0.049296785735610929 0.38428056267384036 0 0.38428056267384036 2.5806631606615724 0 0 0 0 -0.80520236945104173 0.69284322872272242 0 0.69284322872272242 4.1666330852458486 0 0 0 0 1.616449191178404 0.81753875541471643 0 0.81753875541471643 -2.1996744790303637 0 0 0 0 -0.45557154396661548 0.36331114252229213 0 0.36331114252229213 1.6543153590346265 0 0 0 0 0.064247135211159989 0.51827697150569207 0 0.51827697150569207 -0.09755704723536951 0 0 0 0 0.23307842114254107 1.0814430082485131 0 1.0814430082485131 2.5455928344882182 0 0 0 0 -0.73696315314128924 1.7454747206866159 0 1.7454747206866159 3.7229561984495376 0 0 0 0 -0.8488420208207117 0.98479421233059838 0 0.98479421233059838 4.1809181034695939 0 0 0 0 0.23030385369557835 1.7543168497467221 0 1.7543168497467221 1.6078889765583142 0 0 0 0 -0.59982561898631226 1.0017890855648162 0 1.0017890855648162 2.7149435184055903 0 0 0 0 -3.3562114429390704 1.6665476323396433 0 1.6665476323396433 0.65686723124235868 0 0 0 0 -1.1902284254199818 0.41551425078307602 0 0.41551425078307602 4.7420322803169483 0 0 0 0 -1.0604469028165795 1.1369642292120261 0 1.1369642292120261 4.6392928091227077 0 0 0 0 1.4908752257911146 3.3181937114713946 0 3.3181937114713946 4.4512434131465852 0 0 0 0 -1.1670104643391785 0.59355456357221215 0 0.59355456357221215 2.4522987668474912 0 0 0 0 0.14652271328890265 0.91213621407950995 0 0.91213621407950995 4.4920481596927857 0 0 0 0 -11.675498359249808 12.202408350138285 0 12.202408350138285 -0.56453881415109208 0 0 0 0 -0.034795256966870802 -1.7325168716520238 0 -1.7325168716520238 1.7881403341307305 0 0 0 0 -11.386390384653911 16.696235082017665 0 16.696235082017665 -10.864921426004003 0 0 0 0 -41.890547016254914 21.529257974027132 0 21.529257974027132 2.7346185408969177 0 0 0 0 -24.844704158404653 12.661379005032359 0 12.661379005032359 -5.0255598523508525 0 0 0 0 -0.083233125387871421 0.11262672034798982 0 0.11262672034798982 0.6888485348083293 0 0 0 0 1.098878088130391 1.5422274747979827 0 1.5422274747979827 4.7364647803842672 0 0 0 0 -2.5354003423594236 0.37347666808636859 0 0.37347666808636859 7.066925943872775 0 0 0 0 -0.036890132160149025 0.33410592181089527 0 0.33410592181089527 2.2216149427453331 0 0 0 0 -6.6914002532653711 -5.9492434627900366 0 -5.9492434627900366 26.233142651559319 0 0 0 0 0.0057758228750992707 0.081293673032973857 0 0.081293673032973857 0.075122049746198627 0 0 0 0 1.3981566382812218 -5.7701912105258089 0 -5.7701912105258089 8.5775829258782323 0 0 0 0 -0.0044769877625425534 17.286302458818682 0 17.286302458818682 -19.881133052840596 0 0 0 0 -1.3947930312110728 -0.18632843217346817 0 -0.18632843217346817 -19.442297116940608 0 0 0 0 -0.00031292715765299153 23.578757312701782 0 23.578757312701782 18.103470540554554 0 0 0 0 0.087821148352261458 0.59184294777180924 0 0.59184294777180924 0.60460875158320171 0 0 0 0 -0.19801764734791405 8.1527724918378226 0 8.1527724918378226 12.322763349191519 0 0 0 0 -0.19322369018401625 -0.24899014619043669 0 -0.24899014619043669 1.0594952816992276 0 0 0 0 -0.10677205893759001 0.40685976094391663 0 0.40685976094391663 3.9771812343606143 0 0 0 0 0.015101516279677383 0.16728948492622919 0 0.16728948492622919 0.47983170670131869 0 0 0 0 0.10048621787984757 0.43848768170573749 0 0.43848768170573749 2.0039264537481358 0 0 0 0 -0.68827053665431137 0.43068600489732489 0 0.43068600489732489 1.841557017643936 0 0 0 0 3.1045533552181297 1.8481313142910949 0 1.8481313142910949 -5.0120618756336626 0 0 0 0 0.18585083044757778 0.52696007629905495 0 0.52696007629905495 1.3564286411959188 0 0 0 0 0.1282605152766223 0.37921464472310618 0 0.37921464472310618 2.6256794825021643 0 0 0 0 0.1124963176145215 0.20016596390178165 0 0.20016596390178165 2.491825871707988 0 0 0 0 -0.21049417663337733 0.20669033804085757 0 0.20669033804085757 2.2685282553987953 0 0 0 0 -1.6840021027923857 2.1608444171415613 0 2.1608444171415613 11.944908054327243 0 0 0 0 -0.061955683343345377 0.46801784182618889 0 0.46801784182618889 2.8331168973734293 0 0 0 0 2.1527469883514243 -1.0648471734166378 0 -1.0648471734166378 -3.8626837945448642 0 0 0 0 0.28196327002445443 0.54582219443089741 0 0.54582219443089741 0.93798500292417941 0 0 0 0 -0.3508629243839021 0.42774523437765311 0 0.42774523437765311 3.3148554836152471 0 0 0 0 5.5233643017154515e-05 0.52403610914188903 0 0.52403610914188903 3.2776768664189149 0 0 0 0 -0.16051552640679667 0.76914285311795538 0 0.76914285311795538 3.5990008981098072 0 0 0 0 -0.0340794550202701 0.20083608251661644 0 0.20083608251661644 2.2842353144660592 0 0 0 0 -0.00041029585226592469 0.49037545511237113 0 0.49037545511237113 2.1058764452718606 0 0 0 0 -0.028684195894036535 0.1518768108462325 0 0.1518768108462325 1.8264013383022473 0 0 0 0 -0.29382642829456951 0.022460610191046726 0 0.022460610191046726 1.3610681774443947 0 0 0 0 13.153215259759023 -23.649069356091786 0 -23.649069356091786 20.777959480561549 0 0 0 0 7.4175912755301283 -20.773559959205159 0 -20.773559959205159 21.850150139366633 0 0 0 0 -1.8378004560456134 6.0263203314607381 0 6.0263203314607381 18.288703920428816 0 0 0 0 10.026455145994056 -15.337660437892737 0 -15.337660437892737 27.771811822385644 0 0 0 0 4.0126621022194513 -14.522165250949911 0 -14.522165250949911 29.424464636540506 0 0 0 0 6.5582465396756788 -16.265644038452592 0 -16.265644038452592 28.187611398388981 0 0 0 0 5.6204805326579503 -12.562504201800039 0 -12.562504201800039 16.943381567958568 0 0 0 0 11.793438468046645 -6.6551672793648322 0 -6.6551672793648322 22.202033715087964 0 0 0 0 -9.230931834852754 1.1006940517545445 0 1.1006940517545445 13.071613783889916 0 0 0 0 -2.0504827425208481 1.549081348723746 0 1.549081348723746 5.4169045704101109 0 0 0 0 -2.6055790580746105 -0.54209510807595507 0 -0.54209510807595507 9.152203833029489 0 0 0 0 2.9888440880471876 -19.146329939623683 0 -19.146329939623683 10.375681393466948 0 0 0 0 51.597692945273813 -67.550499764627602 0 -67.550499764627602 66.323510299651673 0 0 0 0 -0.00017785872321970613 0.22201726015730391 0 0.22201726015730391 1.213363139424473 0 0 0 0 -0.0037421141296368442 -0.059325686193545835 0 -0.059325686193545835 0.66744082207489441 0 0 0 0 7.3067911983981038 -11.771676916470824 0 -11.771676916470824 22.886472083577246 0 0 0 0 -21.074182234800901 106.16003448465926 0 106.16003448465926 -220.63695004741749 0 0 0 0 -1.5853105365851681 2.749996569803848 0 2.749996569803848 4.4677207462993493 0 0 0 0 283.89636128522216 182.61153350508539 0 182.61153350508539 -154.27615152060935 0 0 0 0 104.54791776793172 -233.95776256141835 0 -233.95776256141835 19.59297945949038 0 0 0 0 152.57397384250885 -88.502788572329337 0 -88.502788572329337 417.69021873388556 0 0 0 0 297.28568857288974 313.08610834284002 0 313.08610834284002 420.75954849637856 0 0 0 0 385.52647008499366 -105.17285824204009 0 -105.17285824204009 -34.160669078912179 0 0 0 0 4.5071161539018227 1.9658614503940797 0 1.9658614503940797 1.1407775445417698 0 0 0 0 -288.56946846307051 74.349054948777848 0 74.349054948777848 92.841288049854484 0 0 0 0 -21.489751284337217 -112.11948179414867 0 -112.11948179414867 159.41583771097521 0 0 0 0 11.014625637983546 6.9585821882934979 0 6.9585821882934979 4.7429782823974023 0 0 0 0 -30.236230445716956 100.21601824569188 0 100.21601824569188 31.176285679666762 0 0 0 0 -51.785152940896296 56.555018389020915 0 56.555018389020915 -33.110797629859007 0 0 0 0 -51.797749104320701 102.72071412193691 0 102.72071412193691 -61.826430922941654 0 0 0 0 4.1450710769142773 8.8363822177197733 0 8.8363822177197733 15.162428022365674 0 0 0 0 15.304883132264877 -9.2986285659790155 0 -9.2986285659790155 -17.801621594458993 0 0 0 0 1.1195049454270336 1.3564825489445056 0 1.3564825489445056 -0.048366708079711884 0 0 0 0 -69.719727417021204 7.1998609943693737 0 7.1998609943693737 64.10771542663133 0 0 0 0 -31.887658530510521 -5.5061964102133061 0 -5.5061964102133061 47.655574067313864 0 0 0 0 -22.029100282280979 102.94278360880708 0 102.94278360880708 -79.741248114964037 0 0 0 0 5.1542907839996257 10.555042211693312 0 10.555042211693312 12.762330723714854 0 0 0 0 68.41884538983868 109.24515244027862 0 109.24515244027862 -35.991634543053806 0 0 0 0 56.799187280678524 -98.356428991067787 0 -98.356428991067787 -81.719018653369858 0 0 0 0 144.83845759400992 182.38531049826997 0 182.38531049826997 166.09903927535925 0 0 0 0 209.66296469456574 -67.792437402444193 0 -67.792437402444193 56.064463236325537 0 0 0 0 -5.5115183550411047 0.49453183073520535 0 0.49453183073520535 6.1282208219816567 0 0 0 0 15.988440718478842 -1.032772369232589 0 -1.032772369232589 21.886427535981056 0 0 0 0 -29.733127936882738 17.377161204321965 0 17.377161204321965 18.696797708296799 0 0 0 0 -28.226509472357066 18.798012162915256 0 18.798012162915256 13.770948705463525 0 0 0 0 -159.50722071014388 59.680341231069178 0 59.680341231069178 52.77787094940868 0 0 0 0 -11.962910257430671 -1.6492906296228185 0 -1.6492906296228185 8.0442960201080069 0 0 0 0 3.3362478758638705 0.48664792520805378 0 0.48664792520805378 5.03659751701624 0 0 0 0 -19.498124783678122 -44.561344620276941 0 -44.561344620276941 849.65442241246637 0 0 0 0 -29.262452066242986 294.33144089621419 0 294.33144089621419 874.46387398197112 0 0 0 0 -68.50917372328604 220.88120856747264 0 220.88120856747264 956.94106665227446 0 0 0 0 138.42041016830899 516.37371664319289 0 516.37371664319289 1157.465490780352 0 0 0 0 -122.94712141885134 7.0918639539477226 0 7.0918639539477226 1190.0519850077471 0 0 0 0 22.622850635464602 -85.06489464871629 0 -85.06489464871629 155.70427926345292 0 0 0 0 2.7383596332363478 2.2419416647141972 0 2.2419416647141972 1.9808404061261911 0 0 0 0 -278.13793355723101 248.04272179501152 0 248.04272179501152 130.55763420149015 0 0 0 0 -253.92106338004805 3.3324617340040277 0 3.3324617340040277 15.471225852639691 0 0 0 0 4.2819572483184141 5.7153607439950491 0 5.7153607439950491 6.2377215615005923 0 0 0 0 36.791111473533419 182.49371076902969 0 182.49371076902969 18.440299169516948 0 0 0 0 475.96289412796614 386.41578456116622 0 386.41578456116622 -174.49974005817421 0 0 0 0 366.39930100350443 590.4181542169581 0 590.4181542169581 579.97386043462757 0 0 0 0 269.48909130420998 268.08367396046015 0 268.08367396046015 873.67016583964141 0 0 0 0 562.59285079885422 391.6726897330891 0 391.6726897330891 774.420365670092 0 0 0 0 402.46863550396029 138.7642326222558 0 138.7642326222558 725.38284294027108 0 0 0 0 212.01181346278827 60.27570040086357 0 60.27570040086357 600.33900590942017 0 0 0 0 283.73895868172531 269.04259499545878 0 269.04259499545878 619.47794338312315 0 0 0 0 241.07845091275703 120.14038954353236 0 120.14038954353236 499.84640779885194 0 0 0 0 89.80465963300685 42.875879073875694 0 42.875879073875694 550.42370507740088 0 0 0 0 215.89497984420359 151.04092087923891 0 151.04092087923891 442.60850934103064 0 0 0 0 147.19509250699411 22.582319105900751 0 22.582319105900751 410.90608953346236 0 0 0 0 230.88178617575807 152.90037724462309 0 152.90037724462309 428.92859788909846 0 0 0 0 579.05598625273842 404.80186245459299 0 404.80186245459299 146.42804544509636 0 0 0 0 617.57637665928632 232.18289238367652 0 232.18289238367652 387.44347882102284 0 0 0 0 -8.5413511829583513 9.5638732868101215 0 9.5638732868101215 487.11434241495044 0 0 0 0 -21.930302034523265 -30.037959897270412 0 -30.037959897270412 371.53735947219684 0 0 0 0 74.888341536229746 46.800953787795152 0 46.800953787795152 521.75206026639717 0 0 0 0 40.480974961913034 -21.822385199866403 0 -21.822385199866403 395.61106171938445 0 0 0 0 87.13206471007652 17.405328375247336 0 17.405328375247336 483.93109356109926 0 0 0 0 50.944640335136683 83.492713897925569 0 83.492713897925569 414.9507881156851 0 0 0 0 36.564130973921237 28.341982498817742 0 28.341982498817742 205.02329469095639 0 0 0 0 -36.545799083172369 34.367449545953605 0 34.367449545953605 378.82689364314865 0 0 0 0 -39.625881073089317 65.609316338291137 0 65.609316338291137 241.78813874303887 0 0 0 0 168.83738114064181 213.00336855890328 0 213.00336855890328 287.40796275859975 0 0 0 0 145.29164554454655 41.321250526019867 0 41.321250526019867 284.64530630750232 0 0 0 0 124.36156211539173 98.287135414453587 0 98.287135414453587 26.500442867923994 0 0 0 0 113.57167302612015 249.01227902872961 0 249.01227902872961 37.012470302401198 0 0 0 0 291.62209088687632 253.32635582904732 0 253.32635582904732 411.60588097198843 0 0 0 0 341.37289678384514 30.579959909331592 0 30.579959909331592 359.15820608728245 0 0 0 0 274.76727067836327 171.9568789821833 0 171.9568789821833 86.504673729203205 0 0 0 0 512.15653417726026 209.81509823475153 0 209.81509823475153 29.604228252370376 0 0 0 0 264.69326391892673 71.313727676753842 0 71.313727676753842 -43.639424441666051 0 0 0 0 217.41227132177391 215.6612405577016 0 215.6612405577016 114.51523468756659 0 0 0 0 328.63471863626501 200.06311268418904 0 200.06311268418904 -5.462349142650055 0 0 0 0 177.93885459172634 165.22525270961523 0 165.22525270961523 -11.959374198336263 0 0 0 0 177.52876399736977 143.83528602093929 0 143.83528602093929 28.584374998430576 0 0 0 0 149.98183354165155 67.273225904940773 0 67.273225904940773 3.0666540986785549 0 0 0 0 198.61448684613879 79.871622926821146 0 79.871622926821146 5.941366603536153 0 0 0 0 28.702173873067011 202.12305090095185 0 202.12305090095185 31.880516769575479 0 0 0 0 217.36168012888766 200.86508928104377 0 200.86508928104377 -9.6229104377962358 0 0 0 0 205.47748517958644 224.18471010963003 0 224.18471010963003 29.135687995621993 0 0 0 0 150.5174828051222 254.97528405503363 0 254.97528405503363 24.197297253085708 0 0 0 0 147.10986961264462 234.72721456835279 0 234.72721456835279 -83.314182008913122 0 0 0 0 74.545549313430456 338.02742774955186 0 338.02742774955186 34.084217883251767 0 0 0 0 91.134145888819148 255.3591039476778 0 255.3591039476778 174.94558836038777 0 0 0 0 114.48465575031423 187.97311289048776 0 187.97311289048776 120.34402858500107 0 0 0 0 90.56187029105331 239.09102785192226 0 239.09102785192226 40.011908906384633 0 0 0 0 28.70511867787809 172.39797028394787 0 172.39797028394787 253.13220694638312 0 0 0 0 26.059384953116478 144.72795446237706 0 144.72795446237706 118.60786378699049 0 0 0 0 26.67242706961747 218.7941916165222 0 218.7941916165222 158.63308761419103 0 0 0 0 94.984774559416337 68.94865387338541 0 68.94865387338541 44.298122725205758 0 0 0 0 102.55984271845682 139.39050325870994 0 139.39050325870994 34.799424764945798 0 0 0 0 57.958936460421 109.65149524973049 0 109.65149524973049 99.336562497584964 0 0 0 0 74.49950983865665 109.01135228617932 0 109.01135228617932 87.59755257712095 0 0 0 0 34.925984218898293 46.59315246569804 0 46.59315246569804 75.251719044939819 0 0 0 0 79.849641129219307 60.428554391760031 0 60.428554391760031 39.501865333004389 0 0 0 0 28.046313790452928 13.340642142786237 0 13.340642142786237 40.433444662354304 0 0 0 0 -11.533479702119321 -3.36018195207809 0 -3.36018195207809 25.863282302524766 0 0 0 0 20.356038613103351 6.1266154777229076 0 6.1266154777229076 40.403403156982677 0 0 0 0 0.90637526852742667 16.224169439188699 0 16.224169439188699 46.94319568733772 0 0 0 0 26.072870352074574 29.092736853672022 0 29.092736853672022 58.442171459915699 0 0 0 0 83.233463339154468 20.636073708759795 0 20.636073708759795 28.178159100174526 0 0 0 0 46.485904723317958 25.741986880717377 0 25.741986880717377 42.799093041188826 0 0 0 0 44.44403425320229 18.084422434042608 0 18.084422434042608 20.413092141654488 0 0 0 0 46.63629572827324 63.831132855609212 0 63.831132855609212 -21.144223911291192 0 0 0 0 -19.514262229280121 -2.5938400552367966 0 -2.5938400552367966 17.934596159238026 0 0 0 0 154.40849675148766 -20.048992983079643 0 -20.048992983079643 11.071377286560164 0 0 0 0 31.178282834420258 25.81434061368418 0 25.81434061368418 44.595235655720899 0 0 0 0 8.0946289132934908 76.122835206937452 0 76.122835206937452 -0.95263663331570569 0 0 0 0 -80.967539150715481 46.569524049607708 0 46.569524049607708 33.814728298442787 0 0 0 0 14.68776275823684 13.378428563372729 0 13.378428563372729 10.491817582540243 0 0 0 0 -41.255711870185678 -2.2573478336616972 0 -2.2573478336616972 91.313372361714755 0 0 0 0 0.38364147817242156 42.327548351587211 0 42.327548351587211 19.328915875499661 0 0 0 0 -12.563938321165001 3.0405957545651958 0 3.0405957545651958 20.704585620885879 0 0 0 0 2.9710042576011801 24.991632560657308 0 24.991632560657308 23.467312332711117 0 0 0 0 -17.014980327222474 -18.536474469252425 0 -18.536474469252425 29.151225906240143 0 0 0 0 -89.268654665457689 46.787525913234276 0 46.787525913234276 -11.100882000486308 0 0 0 0 1.7095473732980651 2.5586932744539048 0 2.5586932744539048 2.9762327178203662 0 0 0 0 -6.0730490469876486 -1.1828754335028862 0 -1.1828754335028862 17.286388028082001 0 0 0 0 -16.155973978251971 -2.5111233679969338 0 -2.5111233679969338 8.9585209442302585 0 0 0 0 -11.989158972043697 -4.2325049639293866 0 -4.2325049639293866 17.5472590862164 0 0 0 0 -14.431278350799857 -6.9267412793014955 0 -6.9267412793014955 19.253290939363069 0 0 0 0 -9.4338186077839055 -11.898612386234163 0 -11.898612386234163 21.420728594497632 0 0 0 0 -19.803572996740513 -1.5729261323904211 0 -1.5729261323904211 19.380175036951186 0 0 0 0 -16.158693783577291 -0.80490073627515812 0 -0.80490073627515812 14.846447285097383 0 0 0 0 -7.5857669127531153 -6.476900202133038 0 -6.476900202133038 14.11906484188512 0 0 0 0 -31.599202626561237 -8.8210733203632117 0 -8.8210733203632117 16.757390481827315 0 0 0 0 -30.400418366632948 10.923146214918233 0 10.923146214918233 11.214722121054365 0 0 0 0 -91.838185510950098 21.073009050876863 0 21.073009050876863 24.145651659871874 0 0 0 0 -50.584913872454308 -11.842709271595595 0 -11.842709271595595 28.41188534880348 0 0 0 0 -63.573929263487798 71.75713392018497 0 71.75713392018497 -10.187941546624643 0 0 0 0 -105.37430506355304 71.92745236754854 0 71.92745236754854 -54.899948696365755 0 0 0 0 -43.896383504339838 49.147987905947957 0 49.147987905947957 -1.6643049278427497 0 0 0 0 3.4346969542890573 7.8611050854991831 0 7.8611050854991831 15.335606081492699 0 0 0 0 -27.964713205549046 32.663366561901661 0 32.663366561901661 -12.95393838534801 0 0 0 0 -95.707916168047632 2.6708768556745781 0 2.6708768556745781 19.82238173832684 0 0 0 0 -48.674736062653551 40.314556747496226 0 40.314556747496226 27.039090715086786 0 0 0 0 -38.998505234073377 -18.64727743760568 0 -18.64727743760568 113.25223841816478 0 0 0 0 -0.27588700152591628 -42.357229680721503 0 -42.357229680721503 39.637076943157808 0 0 0 0 -169.12541939507094 82.162837305464564 0 82.162837305464564 13.703839584530215 0 0 0 0 -162.1737334870586 120.39512661717163 0 120.39512661717163 -17.368667551592807 0 0 0 0 -118.27485339842315 21.750194887750695 0 21.750194887750695 43.143965043223943 0 0 0 0 -99.921343916914338 10.236578114734584 0 10.236578114734584 27.98403247994429 0 0 0 0 -49.410359855201023 13.77193194078427 0 13.77193194078427 8.0275944619061192 0 0 0 0 -52.588871707272119 -16.263251247186417 0 -16.263251247186417 46.039599704219654 0 0 0 0 -35.495302935863947 8.9074094765383052 0 8.9074094765383052 16.166685938853334 0 0 0 0 -73.898800585524441 12.760874994557525 0 12.760874994557525 33.192840099596651 0 0 0 0 -50.84361558856699 15.358026944100857 0 15.358026944100857 33.320507055075723 0 0 0 0 28.732970470248802 -12.252041722620561 0 -12.252041722620561 37.958534586163296 0 0 0 0 36.305885890134959 -42.601265969500673 0 -42.601265969500673 44.466148169375629 0 0 0 0 0.070006662296705713 11.419144435308127 0 11.419144435308127 9.9795861941495332 0 0 0 0 2.2186467618441839 -19.857917593521961 0 -19.857917593521961 50.827541917074996 0 0 0 0 5.4432018965994757 -13.893656582354197 0 -13.893656582354197 28.463286830876314 0 0 0 0 -38.740803490805774 -2.5632868501052144 0 -2.5632868501052144 27.295849307687604 0 0 0 0 -20.261892376169271 -23.903472979956859 0 -23.903472979956859 45.847873557155253 0 0 0 0 -33.412012441236129 4.6568543967277947 0 4.6568543967277947 36.847914552912698 0 0 0 0 -17.479989259045396 -16.726698362886964 0 -16.726698362886964 47.642134912501206 0 0 0 0 -41.983710922842874 4.0981826659335638 0 4.0981826659335638 36.336685052567191 0 0 0 0 -64.859630302048572 22.195166741759749 0 22.195166741759749 39.187974877349916 0 0 0 0 -74.987476496338786 17.3419431508446 0 17.3419431508446 28.431403739552479 0 0 0 0 -62.446983865727816 22.585804903930693 0 22.585804903930693 28.905012578055903 0 0 0 0 -76.042415184694619 32.714021721581958 0 32.714021721581958 22.361574275208113 0 0 0 0 -67.178113115332962 34.044537298017531 0 34.044537298017531 -5.0845091547962511 0 0 0 0 -59.765283722032109 23.442571582570963 0 23.442571582570963 23.297426442097731 0 0 0 0 4.3122016464626327 9.3540005412728604 0 9.3540005412728604 16.331937717238375 0 0 0 0 -88.789098000232968 90.996017810642115 0 90.996017810642115 -0.97373236217390513 0 0 0 0 -67.369924215217907 11.834741447022679 0 11.834741447022679 71.128822759390459 0 0 0 0 -1.5016148624428585 -0.27974982446944097 0 -0.27974982446944097 2.8212612618215474 0 0 0 0 -43.008149235974997 20.131076813304389 0 20.131076813304389 -44.906278647831641 0 0 0 0 -100.42932515292296 75.248041440971065 0 75.248041440971065 -25.055583185388969 0 0 0 0 -2.6677777135532601 0.083633015165759161 0 0.083633015165759161 3.0585261011324079 0 0 0 0 -110.72869137092221 17.666757051463719 0 17.666757051463719 -12.104151946858792 0 0 0 0 3.2619233774606045 8.1387377074683798 0 8.1387377074683798 17.094028636520321 0 0 0 0 -128.19305277185049 88.455096197056264 0 88.455096197056264 -6.7392256847233512 0 0 0 0 -123.16592064587076 34.490896573464852 0 34.490896573464852 3.3740961753283045 0 0 0 0 -85.189550696964034 48.862310100591458 0 48.862310100591458 3.7362575513543561 0 0 0 0 -88.029441680202581 29.788068623565778 0 29.788068623565778 12.753359343980264 0 0 0 0 -65.0680688641487 29.231493368821248 0 29.231493368821248 4.6921487168001477 0 0 0 0 -66.700139857210161 69.612577642204997 0 69.612577642204997 -43.21095185231593 0 0 0 0 -103.82143800827725 56.002443060868245 0 56.002443060868245 8.586400663247332 0 0 0 0 20.507234337894115 32.112008460527846 0 32.112008460527846 34.988119985311798 0 0 0 0 -24.480357160267431 27.68432371673407 0 27.68432371673407 61.429970975605329 0 0 0 0 -16.975650660261635 47.543261866623652 0 47.543261866623652 59.707740404864126 0 0 0 0 -18.594774858734127 44.014471325346676 0 44.014471325346676 54.359305436173599 0 0 0 0 -24.850547463158478 27.940096428965262 0 27.940096428965262 92.924551073170733 0 0 0 0 -15.49969196191978 -58.154366512673732 0 -58.154366512673732 46.441059690070688 0 0 0 0 -26.49520837385171 21.304198251749767 0 21.304198251749767 80.661824778269875 0 0 0 0 7.0103706869249436 -62.766747804416809 0 -62.766747804416809 -32.045842464434827 0 0 0 0 -48.289564191613181 18.396691883200219 0 18.396691883200219 129.68002597753366 0 0 0 0 -8.8922615287610824 85.124272905755788 0 85.124272905755788 137.27811701125347 0 0 0 0 -18.591887551810032 58.194840874286456 0 58.194840874286456 66.397540941590705 0 0 0 0 42.074440354532271 76.842176511680009 0 76.842176511680009 25.337281040643575 0 0 0 0 123.9596844311111 67.897707888409968 0 67.897707888409968 10.96998574675672 0 0 0 0 1.4982626338737486 1.7940557900559071 0 1.7940557900559071 2.1583364230510682 0 0 0 0 79.981418339179982 144.11544488378058 0 144.11544488378058 144.72371400469274 0 0 0 0 76.54889756970897 -136.31311201541212 0 -136.31311201541212 284.87528555446443 0 0 0 0 -35.408340553158268 67.136471396350316 0 67.136471396350316 299.80461558835668 0 0 0 0 1.1390033700215429 -0.0036604925904129004 0 -0.0036604925904129004 -1.291706762990529 0 0 0 0 269.20465946696731 249.85505420622576 0 249.85505420622576 28.525947440517484 0 0 0 0 -22.220686713610576 -89.820169070821066 0 -89.820169070821066 184.50655556334823 0 0 0 0 193.48327368362698 -42.423766649826575 0 -42.423766649826575 10.804391872024553 0 0 0 0 9.5238290798579328 118.99426602641688 0 118.99426602641688 81.9086226370855 0 0 0 0 26.632904083094218 8.844352368843829 0 8.844352368843829 244.86406555989379 0 0 0 0 182.36143253101255 123.49261958258944 0 123.49261958258944 86.067993325501448 0 0 0 0 26.752265291517688 -13.395017120310513 0 -13.395017120310513 30.253197707983418 0 0 0 0 120.72017245417646 -70.322983625832421 0 -70.322983625832421 78.576455935231934 0 0 0 0 70.576286127791718 -9.9417711044661701 0 -9.9417711044661701 37.934367612746428 0 0 0 0 2.7629746270331648 3.9662341275672617 0 3.9662341275672617 8.450923118457041 0 0 0 0 7.3864500809136189 -29.889864579850837 0 -29.889864579850837 59.052325798060338 0 0 0 0 83.622159939034646 -53.947479576283513 0 -53.947479576283513 30.266769540347013 0 0 0 0 -25.633250571047256 34.753625570952408 0 34.753625570952408 -9.7247155849909177 0 0 0 0 -48.456168200745196 34.02039820950813 0 34.02039820950813 11.646826869655342 0 0 0 0 -1.7167640701700293 29.228190050631383 0 29.228190050631383 -19.369263760763715 0 0 0 0 77.122952206120317 -271.13560953805791 0 -271.13560953805791 553.7115955579211 0 0 0 0 -0.38984158305773065 19.675630441089297 0 19.675630441089297 25.466749752950221 0 0 0 0 -13.769293097539048 14.993988417726541 0 14.993988417726541 -3.179607150494121 0 0 0 0 30.369640335096847 5.9655888823726855 0 5.9655888823726855 -18.192743241181233 0 0 0 0 -22.681419486974733 22.990053836787865 0 22.990053836787865 -4.3876377724009217 0 0 0 0 205.3175510327892 135.67644623761953 0 135.67644623761953 334.71272337783739 0 0 0 0 17.756220221182957 77.647766153324483 0 77.647766153324483 25.312390186060384 0 0 0 0 26.560321335225126 76.580536497316643 0 76.580536497316643 -15.342355040520488 0 0 0 0 12.965855214553745 29.103229499708704 0 29.103229499708704 31.44938669627507 0 0 0 0 0.92672134082931734 -454.50744023787774 0 -454.50744023787774 750.16967446271155 0 0 0 0 612.72590712991223 -432.07794035011466 0 -432.07794035011466 483.32605342922398 0 0 0 0 -629.55554246655811 340.97627448168714 0 340.97627448168714 321.82551813714963 0 0 0 0 -0.5756413467570507 1.1487321014380996 0 1.1487321014380996 13.511698725958382 0 0 0 0 1081.44921731043 -1198.1066382279241 0 -1198.1066382279241 827.32365021757141 0 0 0 0 881.2310838596004 -599.0884560881168 0 -599.0884560881168 179.77132680617797 0 0 0 0 -479.90952931087668 -324.91722950087569 0 -324.91722950087569 1814.5427218459263 0 0 0 0 125.49914145786215 326.60831256935762 0 326.60831256935762 -93.893345255404711 0 0 0 0 -267.66035532390924 -75.596044296449691 0 -75.596044296449691 106.76308064009208 0 0 0 0 -108.90850660892193 -125.0257671578529 0 -125.0257671578529 28.372847961843945 0 0 0 0 206.17737620408843 -312.11224757150194 0 -312.11224757150194 448.11515027788482 0 0 0 0 -0.10344568125036524 6.7196364582408208 0 6.7196364582408208 35.458570479757356 0 0 0 0 -323.07870178179837 82.946834791897345 0 82.946834791897345 52.591961841506418 0 0 0 0 359.01838706049602 -369.24132485175141 0 -369.24132485175141 353.67273652494623 0 0 0 0 196.94693990427004 -202.51000278474385 0 -202.51000278474385 182.5132911587483 0 0 0 0 109.56144348344787 -306.96472255782646 0 -306.96472255782646 268.6503755841477 0 0 0 0 177.53313302503102 -311.80986483094239 0 -311.80986483094239 399.941151403822 0 0 0 0 87.223527480429311 -367.33210825582864 0 -367.33210825582864 367.13012660418462 0 0 0 0 204.09954473152959 -363.41020439753549 0 -363.41020439753549 449.63129874246079 0 0 0 0 159.78505390989994 -325.21167077316204 0 -325.21167077316204 567.29329248251452 0 0 0 0 207.59927167522915 -342.02934006733994 0 -342.02934006733994 387.5310312920119 0 0 0 0 205.10917604890938 -337.73888000659099 0 -337.73888000659099 438.34622684586793 0 0 0 0 -14.908028546373213 8.8540121940563523 0 8.8540121940563523 21.531816444270646 0 0 0 0 219.47605080106496 -372.78461338473426 0 -372.78461338473426 333.62753970703488 0 0 0 0 146.91577126904122 -399.5530281075844 0 -399.5530281075844 394.60126033823326 0 0 0 0 100.28992437004672 -434.37646328432311 0 -434.37646328432311 312.67810339098651 0 0 0 0 229.02605784408775 -425.71949845363315 0 -425.71949845363315 279.63275514567795 0 0 0 0 166.22699784420092 -399.03853332473227 0 -399.03853332473227 261.23897362068237 0 0 0 0 148.63389328692506 -455.66876691965081 0 -455.66876691965081 308.46564189318451 0 0 0 0 -10.611288872030855 -427.02264307003043 0 -427.02264307003043 290.73250346592977 0 0 0 0 101.8544714389682 -440.80787741458533 0 -440.80787741458533 316.22155263563036 0 0 0 0 104.3070233720855 -343.54448965597476 0 -343.54448965597476 220.86352160260867 0 0 0 0 -267.91172323377396 -35.702560957761307 0 -35.702560957761307 258.4260416173347 0 0 0 0 -285.94680451069325 -224.78261874221062 0 -224.78261874221062 362.24069726175003 0 0 0 0 -24.837308521444356 -398.70680582957721 0 -398.70680582957721 249.17337702825898 0 0 0 0 -125.24691209577213 -160.85832296432636 0 -160.85832296432636 1.3108667508113285 0 0 0 0 -29.368491095964828 -76.106333931555127 0 -76.106333931555127 27.625601312749495 0 0 0 0 -750.77709846361904 214.63492826783477 0 214.63492826783477 237.01421265609679 0 0 0 0 -516.96481836669227 133.57389614358544 0 133.57389614358544 59.664116042025853 0 0 0 0 -7.8819336998401219 -15.630146366931463 0 -15.630146366931463 -3.6285756021964914 0 0 0 0 -540.74784608132177 19.261513763514813 0 19.261513763514813 -223.51845589274308 0 0 0 0 -6.725106130063093 0.9976415764971307 0 0.9976415764971307 9.5968931111220996 0 0 0 0 1.3474035791987262 -4.4203555265339673 0 -4.4203555265339673 56.929338451620424 0 0 0 0 -190.28228357908847 -117.69600033388997 0 -117.69600033388997 232.46661715823575 0 0 0 0 -97.332620463155763 -248.45124301422038 0 -248.45124301422038 99.206173261605727 0 0 0 0 -177.95435772868223 -304.59640707560175 0 -304.59640707560175 258.17873707032049 0 0 0 0 -234.731829493021 -193.61225541422755 0 -193.61225541422755 199.11296162725193 0 0 0 0 -33.366775059213978 -333.93310586601001 0 -333.93310586601001 286.00801353849238 0 0 0 0 11.158287759802306 -284.79384085114407 0 -284.79384085114407 227.25029822488432 0 0 0 0 -12.64184831921375 -96.485834911334678 0 -96.485834911334678 185.63692813236207 0 0 0 0 -116.34474307621713 -27.751145791613453 0 -27.751145791613453 92.713611604311154 0 0 0 0 -122.11970302574628 -12.722401057057141 0 -12.722401057057141 79.543760789631051 0 0 0 0 -3.5294466869802079 10.772072682347108 0 10.772072682347108 56.708638705865894 0 0 0 0 -94.023209007586047 -22.190246907139226 0 -22.190246907139226 79.717336944851468 0 0 0 0 -19.229665566231162 -21.186846589171921 0 -21.186846589171921 58.994870639833238 0 0 0 0 -84.806379177809504 -33.238810605842446 0 -33.238810605842446 67.865187857911224 0 0 0 0 -99.490608397230972 -34.032201308269578 0 -34.032201308269578 76.6405468520461 0 0 0 0 -41.240031819057549 -63.416410842612095 0 -63.416410842612095 64.287041609124572 0 0 0 0 -96.77110544874995 -54.264263684483012 0 -54.264263684483012 79.732151117714238 0 0 0 0 -62.551853709741408 -71.71312752247286 0 -71.71312752247286 86.300666653580265 0 0 0 0 -128.59309129068788 -20.614431275505922 0 -20.614431275505922 94.588022794079734 0 0 0 0 -138.20801786457014 -70.469517109384469 0 -70.469517109384469 98.409371692079731 0 0 0 0 -61.564086040678148 -64.221479592062678 0 -64.221479592062678 62.442735488410108 0 0 0 0 -35.425253132361831 1.441534331683215 0 1.441534331683215 62.068925043513445 0 0 0 0 -18.706677549716915 -24.404639679883985 0 -24.404639679883985 62.926609315737551 0 0 0 0 0.74683628956972825 93.278734941559378 0 93.278734941559378 17.533810280721809 0 0 0 0 -22.59420347645462 6.6786568649128739 0 6.6786568649128739 16.975435005480264 0 0 0 0 -49.961110882961293 16.28683782914959 0 16.28683782914959 42.886215963013456 0 0 0 0 -29.784523125041233 6.3252429622298223 0 6.3252429622298223 36.394797076227405 0 0 0 0 -36.005042929746878 8.7195443850432639 0 8.7195443850432639 5.8847626304050209 0 0 0 0 -70.199949755458135 25.087572394396517 0 25.087572394396517 36.589234369792393 0 0 0 0 -69.804525920828382 67.542004642327811 0 67.542004642327811 -8.5915646776556969 0 0 0 0 -64.161801444850425 28.489396940363804 0 28.489396940363804 35.077749445466907 0 0 0 0 -36.561103307031317 -9.9218512862507851 0 -9.9218512862507851 46.152822974981973 0 0 0 0 -41.338032435925925 17.174762719398132 0 17.174762719398132 26.482992968161852 0 0 0 0 -30.990814905840125 -4.1848858151624881 0 -4.1848858151624881 52.170397556546959 0 0 0 0 -32.372803908836431 10.353507776784681 0 10.353507776784681 41.260681744344765 0 0 0 0 -44.585936077464794 8.4056895542234997 0 8.4056895542234997 43.533107741794083 0 0 0 0 -16.900465670511775 9.7194373548303901 0 9.7194373548303901 22.227799769625527 0 0 0 0 -39.179566955933296 8.30027245054589 0 8.30027245054589 42.323327096077264 0 0 0 0 4.3864486684724397 -35.71055886047543 0 -35.71055886047543 70.854051707873623 0 0 0 0 -7.8022844863880891 -12.022920121991774 0 -12.022920121991774 47.418342153261619 0 0 0 0 -14.062584735168912 -15.199841559068773 0 -15.199841559068773 72.863232206058456 0 0 0 0 -1.8478191371314097 -1.9002106523112161 0 -1.9002106523112161 58.739524725344381 0 0 0 0 0.18171630704637209 -2.2797150576188869 0 -2.2797150576188869 50.338860739313532 0 0 0 0 354.09481416242397 -327.33473749167024 0 -327.33473749167024 349.87263876101861 0 0 0 0 -6.4248860253187861 4.4503790066930122 0 4.4503790066930122 3.3756379851908207 0 0 0 0 370.37933019520665 -345.05398982853148 0 -345.05398982853148 215.25580497308692 0 0 0 0 495.23924879638616 -367.74919553326617 0 -367.74919553326617 210.4118161774386 0 0 0 0 369.30114741735679 -447.30517483901713 0 -447.30517483901713 215.31154472356138 0 0 0 0 339.60018392091479 -433.3442313851192 0 -433.3442313851192 274.05044499020005 0 0 0 0 -22.870039469367612 22.581536138764932 0 22.581536138764932 -50.070437031405163 0 0 0 0 -54.855151701693046 1.8996721955627436 0 1.8996721955627436 10.06615817698912 0 0 0 0 74.046252524443005 37.381735352326359 0 37.381735352326359 15.003772696556553 0 0 0 0 -2.0720542726172875 -1.6486238381187803 0 -1.6486238381187803 4.4625162086470027 0 0 0 0 584.50417268571528 -296.85136467883603 0 -296.85136467883603 131.12149372225394 0 0 0 0 619.93459743221229 -373.19926061175101 0 -373.19926061175101 155.45394087873865 0 0 0 0 695.04530683553639 -301.98265707366954 0 -301.98265707366954 105.72107534140741 0 0 0 0 332.57322576329261 -544.29304366726865 0 -544.29304366726865 290.39486053487781 0 0 0 0 493.53336943737759 -452.25616935779544 0 -452.25616935779544 215.45926418450472 0 0 0 0 513.44549622977866 -447.25851060472269 0 -447.25851060472269 123.72734758720617 0 0 0 0 792.38322466118279 -491.38212441821815 0 -491.38212441821815 130.06021603006047 0 0 0 0 724.29935221345477 -753.29321582737612 0 -753.29321582737612 417.51137163872772 0 0 0 0 43.530131367163449 -100.89515091311478 0 -100.89515091311478 989.2812228510993 0 0 0 0 370.18472216436612 -616.63906132356715 0 -616.63906132356715 371.37495801299519 0 0 0 0 633.71837430201708 -4.6181913974487543 0 -4.6181913974487543 -183.61238484152273 0 0 0 0 9.7847423806909362 -3.646480951416784 0 -3.646480951416784 2.043282474458934 0 0 0 0 994.64124289926076 -377.68648737409967 0 -377.68648737409967 124.62231126118786 0 0 0 0 12.319527636514977 242.32779198773278 0 242.32779198773278 617.82998261658759 0 0 0 0 106.42383485229584 -84.495207678653969 0 -84.495207678653969 1415.8023051068449 0 0 0 0 46.247931459758888 158.29348683193757 0 158.29348683193757 135.61362563207513 0 0 0 0 -194.68041384491153 23.451629317776678 0 23.451629317776678 254.36273135004012 0 0 0 0 -101.00243430565934 30.980219571345515 0 30.980219571345515 25.55135438090656 0 0 0 0 -27.972840287425242 1.3550034021209285 0 1.3550034021209285 39.958813730956535 0 0 0 0 -180.08664034479969 -136.74416454432333 0 -136.74416454432333 23.603582449017267 0 0 0 0 -27.308572394564958 0.97815267406709694 0 0.97815267406709694 17.25935320467768 0 0 0 0 -53.634837586927915 -27.418829796014506 0 -27.418829796014506 39.167094688287762 0 0 0 0 20.548487805392611 -13.41549538476653 0 -13.41549538476653 9.4188891332996718 0 0 0 0 99.067022220256149 -82.260992423383868 0 -82.260992423383868 386.3026948603183 0 0 0 0 -9.3045933349777101 41.323239403609023 0 41.323239403609023 866.04048323462848 0 0 0 0 203.10673947807481 92.159667253808948 0 92.159667253808948 603.85662356395733 0 0 0 0 393.30401522601687 -100.54965383616582 0 -100.54965383616582 747.38306276082585 0 0 0 0 399.54552874654826 -86.103593793899563 0 -86.103593793899563 484.92790549666097 0 0 0 0 953.19165908288096 -626.81081484417518 0 -626.81081484417518 907.71106628260168 0 0 0 0 916.08973340766715 109.05167631099539 0 109.05167631099539 298.48464894733115 0 0 0 0 155.76764713148413 149.38975317022238 0 149.38975317022238 455.36379149682762 0 0 0 0 469.07821670350995 345.33527571405466 0 345.33527571405466 42.642734807312081 0 0 0 0 561.95591145164281 27.639249735904741 0 27.639249735904741 560.65209251409215 0 0 0 0 0.78453921285258943 -0.2676378054755375 0 -0.2676378054755375 1.2502705621040775 0 0 0 0 397.91748509190165 305.16708791366364 0 305.16708791366364 239.25319628344369 0 0 0 0 487.60123476681088 58.939211807124593 0 58.939211807124593 119.49541581131416 0 0 0 0 184.00756328704983 221.37055071461691 0 221.37055071461691 294.38462741611511 0 0 0 0 -0.091922484797031245 -0.89738045874870664 0 -0.89738045874870664 3.720439467372529 0 0 0 0 175.8709380037867 37.838936621124958 0 37.838936621124958 135.79151714083855 0 0 0 0 185.42040941856339 235.14834798449738 0 235.14834798449738 385.84515311759242 0 0 0 0 162.50071761566232 207.5338112038562 0 207.5338112038562 434.43255386362944 0 0 0 0 265.19265660684346 177.95686202613797 0 177.95686202613797 433.89535184576016 0 0 0 0 371.02579405655547 54.831285970979479 0 54.831285970979479 562.98706019683959 0 0 0 0 -74.909506420782691 -56.243975291168681 0 -56.243975291168681 45.826758015653468 0 0 0 0 -107.07314381073047 -24.280682157121191 0 -24.280682157121191 36.532769291765362 0 0 0 0 -80.816716852470563 -46.616119618131052 0 -46.616119618131052 45.048829445684532 0 0 0 0 -107.52576060439605 -181.95232337593916 0 -181.95232337593916 29.102834570512641 0 0 0 0 -21.29560077143589 -22.215080544587778 0 -22.215080544587778 53.57954956640981 0 0 0 0 -92.729095253585001 -60.365085948902561 0 -60.365085948902561 74.456684696218872 0 0 0 0 -59.572331723282332 -59.784509903834987 0 -59.784509903834987 45.680464740788011 0 0 0 0 -14.426861535372154 -127.62314957465424 0 -127.62314957465424 95.269953700997576 0 0 0 0 -1.0651524337217779 -113.57538340905739 0 -113.57538340905739 -103.97670039263903 0 0 0 0 -77.541634895587777 -19.581978210124362 0 -19.581978210124362 11.511660222371574 0 0 0 0 -60.508065344052739 -43.741015217376116 0 -43.741015217376116 24.52302677854459 0 0 0 0 -17.873046629320925 -87.562670598330442 0 -87.562670598330442 11.150527350328048 0 0 0 0 -22.229529914722661 -65.237866563380521 0 -65.237866563380521 -0.73609627763289609 0 0 0 0 -17.13231855529466 -79.104822264776885 0 -79.104822264776885 35.021324060464394 0 0 0 0 -8.8279373752347965 -50.693876123819791 0 -50.693876123819791 31.084237951028626 0 0 0 0 -13.641680834356066 -89.871827051294531 0 -89.871827051294531 62.03113880645833 0 0 0 0 -28.164119989000028 -68.009474472812144 0 -68.009474472812144 39.840395126186195 0 0 0 0 -59.575097181564161 -59.755478281611431 0 -59.755478281611431 45.494127136929819 0 0 0 0 -18.941968250920581 -105.19927578860006 0 -105.19927578860006 19.280150927727846 0 0 0 0 40.263994586883655 -96.574127472526925 0 -96.574127472526925 20.145503536012257 0 0 0 0 122.98971079056219 -79.983739887753472 0 -79.983739887753472 2.3580031635428895 0 0 0 0 -0.993520090200672 -1.0858676804615328 0 -1.0858676804615328 -4.3381640520768485 0 0 0 0 11.386705650625572 -57.559770631185529 0 -57.559770631185529 32.207518316950882 0 0 0 0 -704.18280859503363 -115.54441597851246 0 -115.54441597851246 315.17836238399468 0 0 0 0 -793.27777746726451 433.89646275998894 0 433.89646275998894 -120.35159766400466 0 0 0 0 57.212757516436341 -240.61604743288808 0 -240.61604743288808 -47.014772850874579 0 0 0 0 -651.67815576971907 -52.612353498492666 0 -52.612353498492666 568.0886826606511 0 0 0 0 155.84164974129888 11.393579415729526 0 11.393579415729526 -194.1342124189905 0 0 0 0 -59.521971878120894 492.52248057545876 0 492.52248057545876 0.31433222535360983 0 0 0 0 168.91778854342795 98.324491652202596 0 98.324491652202596 219.03068712646927 0 0 0 0 266.55876775481192 514.4783045149743 0 514.4783045149743 343.74095085006365 0 0 0 0 -51.193687266379129 -56.501523957015706 0 -56.501523957015706 219.50830202432553 0 0 0 0 71.149023815563396 129.13982111715814 0 129.13982111715814 239.99716278950655 0 0 0 0 -347.70431915704762 -45.860547754215986 0 -45.860547754215986 186.30474552884698 0 0 0 0 -52.693514602907612 -54.589795516580125 0 -54.589795516580125 34.373710641855723 0 0 0 0 -41.472274002508584 -23.494801661710881 0 -23.494801661710881 92.744913954470576 0 0 0 0 -87.865371930563015 -66.301706438156543 0 -66.301706438156543 46.262913852173369 0 0 0 0 -259.36645276720765 109.9227989199062 0 109.9227989199062 134.21755933520762 0 0 0 0 -133.98545958690465 -62.642516927327961 0 -62.642516927327961 60.399151095691195 0 0 0 0 -89.952638521922836 -28.508906619033951 0 -28.508906619033951 56.501575478338054 0 0 0 0 0.87179453643251614 2.4928139446862119 0 2.4928139446862119 6.2294783410578987 0 0 0 0 -64.490528742830293 -10.218841460635304 0 -10.218841460635304 330.52665264487587 0 0 0 0 190.61534879000965 379.51958307887253 0 379.51958307887253 213.24441289488095 0 0 0 0 2.6174818152084569 6.7339330642098076 0 6.7339330642098076 15.492814664093146 0 0 0 0 43.92186220941403 33.729802166908485 0 33.729802166908485 -142.2294325683979 0 0 0 0 37.339063527495597 103.67034198438603 0 103.67034198438603 372.96178260364832 0 0 0 0 -0.97256299803635216 -2.4009911574711396 0 -2.4009911574711396 7.8201996325741732 0 0 0 0 203.30568839389298 293.3103261692213 0 293.3103261692213 484.60771114109957 0 0 0 0 35.754010811190255 413.68822961670594 0 413.68822961670594 246.94483101835795 0 0 0 0 -300.70989159705186 1063.1904535200738 0 1063.1904535200738 192.97453284088988 0 0 0 0 145.1757159312059 340.40200048270435 0 340.40200048270435 542.77008876024047 0 0 0 0 144.07215024382685 333.21260728086054 0 333.21260728086054 518.69360063599015 0 0 0 0 -1.6404484677749736 -1.3399250642258735 0 -1.3399250642258735 5.8779015389227709 0 0 0 0 178.73337569301475 319.45591466910082 0 319.45591466910082 445.63523634361627 0 0 0 0 221.99603103118079 170.07379969919566 0 170.07379969919566 112.92430918938771 0 0 0 0 64.307583227982377 124.14879908423063 0 124.14879908423063 346.58408609786056 0 0 0 0 140.91309184650891 208.3326482894081 0 208.3326482894081 565.78213281150965 0 0 0 0 153.19997648130447 275.35443471745384 0 275.35443471745384 390.32587273795434 0 0 0 0 65.493241172390753 273.16752349437411 0 273.16752349437411 610.77404258940078 0 0 0 0 78.043758633767084 277.65230402632369 0 277.65230402632369 585.93966746664955 0 0 0 0 57.489405747874116 288.66849723065388 0 288.66849723065388 585.69905427294225 0 0 0 0 81.330921383417262 274.82312062324127 0 274.82312062324127 545.27200386925688 0 0 0 0 56.301121663869708 260.45253550265988 0 260.45253550265988 541.05565665687027 0 0 0 0 89.88753271457972 285.87506513107655 0 285.87506513107655 492.76633832346124 0 0 0 0 74.37092019580632 247.44854007265531 0 247.44854007265531 453.8948399253859 0 0 0 0 65.804575317408307 233.30068525448587 0 233.30068525448587 462.94340499414102 0 0 0 0 53.594475263752884 260.16144309033371 0 260.16144309033371 538.3676615854929 0 0 0 0 45.650940281817384 231.66427231011039 0 231.66427231011039 502.61936927177885 0 0 0 0 69.349820767225538 272.66794336099701 0 272.66794336099701 522.04902192471491 0 0 0 0 65.351765645267733 286.44140165719 0 286.44140165719 568.9000525600859 0 0 0 0 48.886208640147743 271.58870425450732 0 271.58870425450732 570.86422882215993 0 0 0 0 60.396662635575922 293.57303167318605 0 293.57303167318605 597.74491153062263 0 0 0 0 82.059971377353577 287.30081310289825 0 287.30081310289825 578.21564384619705 0 0 0 0 52.498201908134433 269.89009632614761 0 269.89009632614761 589.59111630140615 0 0 0 0 62.147338645785567 254.10797925293446 0 254.10797925293446 531.95429725872964 0 0 0 0 60.652823507195535 261.62599481646612 0 261.62599481646612 536.5506141990918 0 0 0 0 74.79566480930589 283.90500096218602 0 283.90500096218602 577.47895109523961 0 0 0 0 51.70598621145291 215.74300129977928 0 215.74300129977928 489.0971344366335 0 0 0 0 115.6189755623509 274.9980565592632 0 274.9980565592632 578.7963030943356 0 0 0 0 66.988311705856177 259.02107879899995 0 259.02107879899995 610.52193080137113 0 0 0 0 71.587016471317838 235.54518212928815 0 235.54518212928815 552.51320298763312 0 0 0 0 106.65923836225193 296.32748679848009 0 296.32748679848009 604.4403754787345 0 0 0 0 117.52425379552551 304.15351200282021 0 304.15351200282021 611.52400453445443 0 0 0 0 75.922401125862962 271.44019015500817 0 271.44019015500817 603.81967101886403 0 0 0 0 91.403949066010682 313.80298307509656 0 313.80298307509656 617.49864887235526 0 0 0 0 113.89685101905394 340.72566371780772 0 340.72566371780772 622.50375454081222 0 0 0 0 111.01672733336727 312.38474218067859 0 312.38474218067859 574.85854647025553 0 0 0 0 82.730474696475994 282.30238450776596 0 282.30238450776596 546.14060856685683 0 0 0 0 197.1745431879026 353.76304006223654 0 353.76304006223654 545.82982851303314 0 0 0 0 342.51416297111609 336.24079527758295 0 336.24079527758295 476.13234454439407 0 0 0 0 528.36969824402649 561.94753666692122 0 561.94753666692122 624.35127198314876 0 0 0 0 419.77108260363821 385.25294983804997 0 385.25294983804997 506.98088782018749 0 0 0 0 222.9180796102919 349.59886489625205 0 349.59886489625205 664.20869084675633 0 0 0 0 291.98667663563538 441.47429541518068 0 441.47429541518068 658.34395334502915 0 0 0 0 196.82532294145403 362.82922235345177 0 362.82922235345177 597.12453607640055 0 0 0 0 169.1143797642826 342.68065996505902 0 342.68065996505902 630.34252005530288 0 0 0 0 162.74475246708062 359.95310998486093 0 359.95310998486093 695.17688463836384 0 0 0 0 108.62357146038084 283.40166710148333 0 283.40166710148333 645.75387267791666 0 0 0 0 172.31265569882908 314.45031402692257 0 314.45031402692257 630.04099125241919 0 0 0 0 105.48124780143007 267.23191306504305 0 267.23191306504305 643.6097912736368 0 0 0 0 182.75110596525792 302.08184558739595 0 302.08184558739595 625.49449655342323 0 0 0 0 200.62657719661092 285.35089470857201 0 285.35089470857201 641.15408525834937 0 0 0 0 242.921999929295 470.33136236898827 0 470.33136236898827 830.69099405211455 0 0 0 0 152.36241617410087 302.94269913552125 0 302.94269913552125 718.4165838065237 0 0 0 0 277.09243706509551 380.15395154037833 0 380.15395154037833 661.03975560875551 0 0 0 0 223.67277126635963 389.59323048856459 0 389.59323048856459 693.35259162422153 0 0 0 0 174.37374257075317 367.62527859417605 0 367.62527859417605 807.42683014429349 0 0 0 0 280.13242691805954 387.01731854341779 0 387.01731854341779 737.64526760802619 0 0 0 0 178.6172443053465 458.41943333822564 0 458.41943333822564 1089.0201615586702 0 0 0 0 388.05415242149047 708.35112814455351 0 708.35112814455351 926.15225659338466 0 0 0 0 52.169347448868962 112.77808157834738 0 112.77808157834738 367.81231667421525 0 0 0 0 815.68854895288678 -227.10645215207478 0 -227.10645215207478 262.84455933078425 0 0 0 0 0.74692116215997295 -1.2818042531706624 0 -1.2818042531706624 4.2094509149080466 0 0 0 0 614.75536775276487 408.72217747791728 0 408.72217747791728 260.1713653981933 0 0 0 0 599.75562666207679 308.43021403839884 0 308.43021403839884 -379.69518326239995 0 0 0 0 2.9740397032541246 2.6627785302125062 0 2.6627785302125062 1.5996533648499707 0 0 0 0 -9.9601184084899046 169.88561476964014 0 169.88561476964014 752.44751929451741 0 0 0 0 46.346796620322834 -34.86320594524841 0 -34.86320594524841 126.54151797227678 0 0 0 0 443.52833451213019 434.48448861490851 0 434.48448861490851 497.45104900654405 0 0 0 0 596.07039678957517 248.93503474753925 0 248.93503474753925 248.15178976999414 0 0 0 0 392.83517863654515 102.70756553286446 0 102.70756553286446 431.5936530809704 0 0 0 0 138.43383910872853 266.48554680933012 0 266.48554680933012 417.6383214759735 0 0 0 0 184.098890598455 255.6457462790022 0 255.6457462790022 497.33316524042311 0 0 0 0 260.13473168808696 200.00919315467218 0 200.00919315467218 449.08087562839137 0 0 0 0 384.10684995376596 359.81902659664775 0 359.81902659664775 543.86684993904601 0 0 0 0 395.07046284590115 80.996971361149008 0 80.996971361149008 628.01296464207553 0 0 0 0 441.23536051761039 -12.52400045034301 0 -12.52400045034301 634.58367668800201 0 0 0 0 620.01148595973564 81.174907020909814 0 81.174907020909814 162.32415365314228 0 0 0 0 147.02947080106605 335.95709678853018 0 335.95709678853018 722.82293276679593 0 0 0 0 91.040347339630898 295.96340323544428 0 295.96340323544428 585.25628263759427 0 0 0 0 112.87014409733865 261.0258160759131 0 261.0258160759131 560.27703353547258 0 0 0 0 190.16430540407418 331.47941808513133 0 331.47941808513133 513.12300692369172 0 0 0 0 233.29397770539777 218.34021197741913 0 218.34021197741913 349.98975905316911 0 0 0 0 172.68162888500046 171.39050433404191 0 171.39050433404191 335.82285166589281 0 0 0 0 196.19360834228064 234.78309541338967 0 234.78309541338967 352.90038492664462 0 0 0 0 108.26632714311199 240.57868183096434 0 240.57868183096434 430.70239642809611 0 0 0 0 118.13101588613517 255.13624820951736 0 255.13624820951736 431.52296622187714 0 0 0 0 336.91962145829893 374.36700432928046 0 374.36700432928046 1070.5144976221454 0 0 0 0 332.78203281356309 322.12974257922906 0 322.12974257922906 458.13864843168267 0 0 0 0 168.72068626395685 -0.50674560115839995 0 -0.50674560115839995 -5.5534620528123924 0 0 0 0 -0.1922756817473239 -0.53575290817028076 0 -0.53575290817028076 4.4780787164146147 0 0 0 0 6.105693033355152 -2.2302933522704649 0 -2.2302933522704649 0.7486269983338687 0 0 0 0 46.684322238389541 -285.2016942700684 0 -285.2016942700684 765.70733980845398 0 0 0 0 432.49068740845769 149.35018004388075 0 149.35018004388075 354.01020596712624 0 0 0 0 349.45940284864446 -416.8875670596608 0 -416.8875670596608 629.55522739212392 0 0 0 0 102.48789250302434 -261.71245967632785 0 -261.71245967632785 -45.808294180340454 0 0 0 0 -285.21001772207956 346.34341279105502 0 346.34341279105502 142.1789584878934 0 0 0 0 -96.455133683457461 41.879557915744954 0 41.879557915744954 143.79480730208888 0 0 0 0 327.68479817977573 257.05255902372704 0 257.05255902372704 233.04071501967701 0 0 0 0 49.827941758721863 -359.02015692508212 0 -359.02015692508212 668.53916007830776 0 0 0 0 -75.929489165424457 -59.879353229440312 0 -59.879353229440312 4.4186150968889706 0 0 0 0 -206.67734303134284 83.373264794969145 0 83.373264794969145 -134.84638339525554 0 0 0 0 -283.17703197986702 134.93714327109046 0 134.93714327109046 283.89790009936769 0 0 0 0 -326.18761736452143 -22.677647698044893 0 -22.677647698044893 268.69284490778955 0 0 0 0 -291.58760432125564 -24.298361369983468 0 -24.298361369983468 113.05438508161751 0 0 0 0 -354.58708500774082 -53.575514529591601 0 -53.575514529591601 130.59048464463922 0 0 0 0 10.79152307070035 -135.07906696655846 0 -135.07906696655846 138.43825015019684 0 0 0 0 -5.7548632822145009 1.3134216762264259 0 1.3134216762264259 9.562356267033465 0 0 0 0 -7.7077103325320593 -0.55227991738532012 0 -0.55227991738532012 8.1283457108437318 0 0 0 0 2.4360367986493774 -8.0169470456057113 0 -8.0169470456057113 14.444818177521569 0 0 0 0 -313.75259186140465 -98.728680728003383 0 -98.728680728003383 60.755932364947512 0 0 0 0 -79.162351231914727 118.9816470168771 0 118.9816470168771 209.02105118257168 0 0 0 0 -254.19022680617354 -71.964368265158555 0 -71.964368265158555 13.667166435901891 0 0 0 0 -310.84253034107496 -38.887739482990582 0 -38.887739482990582 103.97773709897592 0 0 0 0 -192.7427773254949 31.790958218465676 0 31.790958218465676 78.006017631396389 0 0 0 0 -133.81225969844672 -16.518738640392257 0 -16.518738640392257 -0.61648075947960024 0 0 0 0 -238.32748412584351 -35.855848424469514 0 -35.855848424469514 -4.1339943363927887 0 0 0 0 7.772149342917043 -9.2656184274566087 0 -9.2656184274566087 8.7837319749272922 0 0 0 0 3.667577003057886 -8.3357166866881016 0 -8.3357166866881016 24.340806323345532 0 0 0 0 -3.3159162519735226 2.2909672493429269 0 2.2909672493429269 15.198324694828614 0 0 0 0 -165.81982451525255 257.99179104479845 0 257.99179104479845 -363.09511373657733 0 0 0 0 -111.05945733265617 393.57316860385981 0 393.57316860385981 -206.76678904058645 0 0 0 0 3.8770087173567873 4.2875169849868016 0 4.2875169849868016 6.7337321724162251 0 0 0 0 -0.89153682303711435 -0.29793038693244966 0 -0.29793038693244966 2.7656187189274561 0 0 0 0 -44.110240797389451 220.56133395710367 0 220.56133395710367 20.121006530273007 0 0 0 0 -158.1105423302306 58.499249552536639 0 58.499249552536639 -137.68404020555317 0 0 0 0 -277.20596737665983 93.435177063729498 0 93.435177063729498 87.216158104987699 0 0 0 0 23.199167198090436 320.31964670834714 0 320.31964670834714 -112.28166894911556 0 0 0 0 -288.2244734972719 137.02028561542102 0 137.02028561542102 79.577406740145307 0 0 0 0 60.990302389658609 -79.987169966872898 0 -79.987169966872898 110.20089136888583 0 0 0 0 19.704786975067691 -101.66819763937656 0 -101.66819763937656 -3.6884612270005164 0 0 0 0 20.881890669521454 36.649148450307621 0 36.649148450307621 66.061263366165804 0 0 0 0 32.264773667702684 -6.3457672391123197 0 -6.3457672391123197 112.78117437112815 0 0 0 0 -34.215221544072847 -20.540601379900181 0 -20.540601379900181 146.78396940052062 0 0 0 0 38.487406439904589 -45.111267000353109 0 -45.111267000353109 111.3319552209141 0 0 0 0 -9.6086855671393607 5.8934055161827956 0 5.8934055161827956 8.8757351007417213 0 0 0 0 41.44117609722889 -83.933164820889942 0 -83.933164820889942 151.22420526062342 0 0 0 0 -43.263300493238241 -3.151323331577494 0 -3.151323331577494 36.681493649162796 0 0 0 0 -34.623491229136562 14.665397023441983 0 14.665397023441983 31.489197061433515 0 0 0 0 -5.2661230315607099 -52.574291097003879 0 -52.574291097003879 59.895960197340173 0 0 0 0 14.55831876776665 77.734834449560822 0 77.734834449560822 123.64505952153559 0 0 0 0 -15.13930586043681 -8.8082693274552071 0 -8.8082693274552071 29.561287543735389 0 0 0 0 -60.47296763265058 48.572269851697001 0 48.572269851697001 110.11878055562192 0 0 0 0 1.5258213461493142 -44.850595366546258 0 -44.850595366546258 38.216823313799978 0 0 0 0 6.9810255467600655 -12.62086825129154 0 -12.62086825129154 18.942045582589344 0 0 0 0 7.6698625737353368 -18.325374500712297 0 -18.325374500712297 27.169628746485643 0 0 0 0 -97.510347382507462 -166.5197016795064 0 -166.5197016795064 29.159208656843475 0 0 0 0 11.546673639684535 -17.772595296761693 0 -17.772595296761693 19.302913881916723 0 0 0 0 -191.1836480052134 208.2768008275616 0 208.2768008275616 207.63346771076613 0 0 0 0 -241.95971555716096 -32.050314553000135 0 -32.050314553000135 153.51309082263469 0 0 0 0 107.49840279762884 -32.101045914266251 0 -32.101045914266251 -136.30982714320999 0 0 0 0 -22.382495488000131 -225.51884254157449 0 -225.51884254157449 77.114935843829471 0 0 0 0 -61.250602957071351 -140.29334730329174 0 -140.29334730329174 33.139792812435189 0 0 0 0 18.328066150600101 -15.890429478112337 0 -15.890429478112337 13.375687098980308 0 0 0 0 15.117821223945585 -16.2527916037835 0 -16.2527916037835 14.483878545319854 0 0 0 0 12.562274280991915 -20.12906318691239 0 -20.12906318691239 8.7786537700885674 0 0 0 0 -7.1902558133931507 -4.2409317964211368 0 -4.2409317964211368 189.45175761078281 0 0 0 0 75.66962060950118 -38.576444681631983 0 -38.576444681631983 -75.804041517252699 0 0 0 0 107.49748682605059 97.034325604196056 0 97.034325604196056 230.38015412100503 0 0 0 0 41.1990280753364 21.963308828264417 0 21.963308828264417 386.47576601288165 0 0 0 0 -0.65894405622930208 21.175329491932644 0 21.175329491932644 135.21366108336952 0 0 0 0 118.76459881435494 121.30634167262542 0 121.30634167262542 178.30783445608358 0 0 0 0 212.89326894466922 -34.456034992228524 0 -34.456034992228524 78.08877183959703 0 0 0 0 99.410856934413459 -123.66904643792077 0 -123.66904643792077 148.26228242876823 0 0 0 0 61.503315007248602 -26.723710150457919 0 -26.723710150457919 83.953680150239961 0 0 0 0 -16.670747304918223 17.741936891759906 0 17.741936891759906 104.66814727601013 0 0 0 0 53.631790867102609 92.894247904685471 0 92.894247904685471 34.567622011512867 0 0 0 0 60.985621156409252 37.901510112667893 0 37.901510112667893 101.96557089073576 0 0 0 0 39.938050793374714 74.123063074395759 0 74.123063074395759 96.026446540341567 0 0 0 0 47.305347150590933 -54.337293516015052 0 -54.337293516015052 -62.957568570800504 0 0 0 0 98.801132500600033 81.931837123749574 0 81.931837123749574 306.33313259556144 0 0 0 0 -7.9457752583666661 47.932355708677278 0 47.932355708677278 328.93649250680028 0 0 0 0 1.8077451236354136 37.52500614665405 0 37.52500614665405 382.93416096946748 0 0 0 0 114.95623467055975 230.86146329897929 0 230.86146329897929 448.31571806900865 0 0 0 0 137.01591279256081 189.06700687388548 0 189.06700687388548 605.38508515689318 0 0 0 0 150.98804224965352 120.70634035975127 0 120.70634035975127 525.72482235240386 0 0 0 0 164.11016111005119 155.20002479968389 0 155.20002479968389 456.46286124544349 0 0 0 0 33.195712416142214 106.03503000131059 0 106.03503000131059 447.16689814941492 0 0 0 0 137.74254829507117 62.760391285875812 0 62.760391285875812 403.44726187306151 0 0 0 0 131.83459983936223 39.323619100632641 0 39.323619100632641 352.25356128206477 0 0 0 0 90.643134557795747 71.006718013177306 0 71.006718013177306 405.46509986382443 0 0 0 0 151.23581280764847 51.474445664740415 0 51.474445664740415 411.3625491312705 0 0 0 0 130.03347535557259 81.483435938327602 0 81.483435938327602 492.45434382122767 0 0 0 0 136.65117001306135 50.56932872199468 0 50.56932872199468 412.27335090036104 0 0 0 0 85.393117915163657 128.57587431357024 0 128.57587431357024 545.29308586587285 0 0 0 0 191.81291083032283 151.32702996212174 0 151.32702996212174 525.06510698882266 0 0 0 0 154.17635824569697 109.07430332343938 0 109.07430332343938 585.88475415338326 0 0 0 0 195.80588826760504 187.95347303011295 0 187.95347303011295 650.45458512145706 0 0 0 0 141.66559677104033 86.333371298504062 0 86.333371298504062 546.80390099882788 0 0 0 0 203.49724918923857 114.80156790852925 0 114.80156790852925 494.79268073609819 0 0 0 0 236.14698449146817 107.21972634199119 0 107.21972634199119 539.48996034176525 0 0 0 0 174.89002513310879 101.25853919930523 0 101.25853919930523 608.01564481184687 0 0 0 0 252.34767712524513 265.87739977518595 0 265.87739977518595 777.12422054689523 0 0 0 0 317.68117896733497 104.70853354417977 0 104.70853354417977 597.46939439895505 0 0 0 0 190.15639317796195 175.77343117378041 0 175.77343117378041 660.0125405920171 0 0 0 0 146.82788932017957 213.15173003874952 0 213.15173003874952 937.06322008074494 0 0 0 0 176.12806879105347 161.77792492882691 0 161.77792492882691 695.09055399364297 0 0 0 0 143.76631325183916 208.94639391721284 0 208.94639391721284 787.65941256486076 0 0 0 0 35.285738255607157 186.70816983802069 0 186.70816983802069 855.24168582158302 0 0 0 0 203.09004083913965 117.16690144105944 0 117.16690144105944 654.14360353039592 0 0 0 0 129.99517893818847 176.49202315215371 0 176.49202315215371 690.4265651415335 0 0 0 0 -16.844399478525702 -14.123401814074896 0 -14.123401814074896 529.02253608086176 0 0 0 0 26.194912708905804 -7.6658888865094923 0 -7.6658888865094923 492.85334381184657 0 0 0 0 -16.543401848141002 -12.541609279443946 0 -12.541609279443946 520.44989584462019 0 0 0 0 -25.692776648374092 -13.453354891662457 0 -13.453354891662457 540.95728836461058 0 0 0 0 -43.985453595999843 -19.411657638240285 0 -19.411657638240285 532.01321676645603 0 0 0 0 -31.289343526506855 -24.662964253106111 0 -24.662964253106111 534.15548525452323 0 0 0 0 -17.684785503857711 -36.941896118649311 0 -36.941896118649311 500.0097855771055 0 0 0 0 -2.0592991061694192 -9.3782509396332898 0 -9.3782509396332898 528.2368629743869 0 0 0 0 15.892026178660672 -23.803729165421828 0 -23.803729165421828 517.16717935515771 0 0 0 0 18.831943193208645 -6.3518720945794485 0 -6.3518720945794485 524.90054924988544 0 0 0 0 41.573758014192208 -17.836341848578741 0 -17.836341848578741 514.68625513646111 0 0 0 0 120.76343188029205 28.359509567348141 0 28.359509567348141 514.90706871038856 0 0 0 0 52.266960780915952 26.740848081860349 0 26.740848081860349 558.67173430910043 0 0 0 0 138.29592729861656 95.837249199027156 0 95.837249199027156 606.52882235056313 0 0 0 0 257.78666727545897 184.68519003249457 0 184.68519003249457 729.59826964523018 0 0 0 0 127.84901881850055 10.406115699672227 0 10.406115699672227 557.21333010183298 0 0 0 0 201.12291557052868 76.547781815133021 0 76.547781815133021 528.35770389521349 0 0 0 0 113.98987960114209 34.105110959048034 0 34.105110959048034 470.09363816984842 0 0 0 0 103.55495191675254 32.153425834512745 0 32.153425834512745 524.54286207262385 0 0 0 0 166.99972503865229 69.228708695754904 0 69.228708695754904 478.37013642246893 0 0 0 0 71.456370092633733 -5.8029260343319038 0 -5.8029260343319038 522.4245827111954 0 0 0 0 94.697271145239938 43.927407502782444 0 43.927407502782444 525.74365969491191 0 0 0 0 48.434584579516013 15.893936771502922 0 15.893936771502922 523.23905968630288 0 0 0 0 22.582274923950763 6.0379521808204117 0 6.0379521808204117 521.47993161506747 0 0 0 0 56.453381608327618 -5.962878175178048 0 -5.962878175178048 485.02322717913921 0 0 0 0 16.788746888511014 17.331390358020144 0 17.331390358020144 473.60328731003756 0 0 0 0 55.237537527417317 39.120218277014828 0 39.120218277014828 408.71927894668625 0 0 0 0 31.478901701638279 -14.234341453928209 0 -14.234341453928209 431.09874422916619 0 0 0 0 7.0580398895526741 12.379434530012077 0 12.379434530012077 416.21153744452022 0 0 0 0 96.648768202096107 46.470116194155707 0 46.470116194155707 480.74348316202895 0 0 0 0 58.351480193034149 12.47308911208529 0 12.47308911208529 470.30868571051326 0 0 0 0 108.66821848625841 52.334589855652666 0 52.334589855652666 416.77176647914894 0 0 0 0 74.402182622123291 29.083932909539726 0 29.083932909539726 340.88770865940751 0 0 0 0 -43.333551630003058 -39.852696857768024 0 -39.852696857768024 334.63374349837841 0 0 0 0 79.662061824059492 62.421429933914624 0 62.421429933914624 345.29799510554585 0 0 0 0 66.410016785938751 10.412500961083424 0 10.412500961083424 403.75970411242815 0 0 0 0 1.6621681236274526 -9.5983091901689477 0 -9.5983091901689477 291.50117744122781 0 0 0 0 43.035709764436433 -11.692071782497806 0 -11.692071782497806 291.09570459679526 0 0 0 0 7.8217000307122362 -30.179480405706272 0 -30.179480405706272 347.82550805380743 0 0 0 0 -2.0552629962039646 18.401044448273751 0 18.401044448273751 408.85738983413682 0 0 0 0 66.308010056537569 -17.856062819249928 0 -17.856062819249928 213.81808513610395 0 0 0 0 15.261517793943767 3.7138463421342749 0 3.7138463421342749 407.36549482418195 0 0 0 0 24.049867936053488 32.206662537450029 0 32.206662537450029 293.85857734105957 0 0 0 0 27.803570007756207 11.871110492465959 0 11.871110492465959 336.83554075650318 0 0 0 0 0.55579158844102494 19.824409061860933 0 19.824409061860933 417.69728641382972 0 0 0 0 3.4190726743236155 -16.214432455184578 0 -16.214432455184578 492.22010208905613 0 0 0 0 -15.792526714685664 12.991866922682675 0 12.991866922682675 528.17654038783803 0 0 0 0 -7.0172258613547456 4.4514154099615553 0 4.4514154099615553 488.94978222760983 0 0 0 0 -16.098778095476519 15.559248066980217 0 15.559248066980217 508.27710145922902 0 0 0 0 2.8783088432173827 44.571398486950784 0 44.571398486950784 435.35025483482605 0 0 0 0 6.8571270823613304 32.657342715119739 0 32.657342715119739 466.17104946423933 0 0 0 0 13.213220951777657 54.730461539345924 0 54.730461539345924 500.21907330818794 0 0 0 0 29.190035567104132 101.58953843780546 0 101.58953843780546 420.81378306638362 0 0 0 0 60.699495954113445 81.523757640257827 0 81.523757640257827 236.94924868218004 0 0 0 0 30.921231541944508 102.51961630974984 0 102.51961630974984 309.73137436200341 0 0 0 0 13.709398837032495 34.179004289711884 0 34.179004289711884 424.32113183795445 0 0 0 0 1.653554036072137 -31.009833461485186 0 -31.009833461485186 3.9690376184698835 0 0 0 0 -87.79844551203314 65.513489394692442 0 65.513489394692442 161.40722384975197 0 0 0 0 10.390783719979453 -5.3158043608508692 0 -5.3158043608508692 0.90218674487214656 0 0 0 0 -4.2645221411898788 -1.6254683854008292 0 -1.6254683854008292 1.7798119179240643 0 0 0 0 -1.226562687625119 86.104959548505576 0 86.104959548505576 -31.832356258866639 0 0 0 0 27.390387985839418 -20.873912900133529 0 -20.873912900133529 12.837752856747819 0 0 0 0 7.0529301249466698 -62.909499744289405 0 -62.909499744289405 28.766152239099029 0 0 0 0 9.1736378872426201 -8.3123250916422151 0 -8.3123250916422151 9.1304521186689129 0 0 0 0 -4.7283470410638984 -43.078905813830261 0 -43.078905813830261 -90.547155024902167 0 0 0 0 -18.673280321625498 -39.253090301413977 0 -39.253090301413977 -88.450170916869865 0 0 0 0 6.0392111393799297 -3.3637192204595863 0 -3.3637192204595863 0.22415894681304849 0 0 0 0 -331.96490165084106 -72.002296610957274 0 -72.002296610957274 29.203910496610661 0 0 0 0 -5.4326396275300795 -35.585639177870689 0 -35.585639177870689 -124.57529359866385 0 0 0 0 -30.303651088746847 -93.727583395033434 0 -93.727583395033434 -105.31679059676298 0 0 0 0 -11.86702292632981 -42.640421933012476 0 -42.640421933012476 -129.71414220086535 0 0 0 0 1.1590474440688254 0.40495915894996415 0 0.40495915894996415 0.35439083144797223 0 0 0 0 -3.6214006055670325 -90.335454694846703 0 -90.335454694846703 250.44347482832382 0 0 0 0 107.31489868680887 -109.3693331076056 0 -109.3693331076056 -115.62853815970448 0 0 0 0 61.474223834657096 6.735319606417761 0 6.735319606417761 -19.130824241154187 0 0 0 0 -22.299788379399615 31.970760103817156 0 31.970760103817156 140.13285807425927 0 0 0 0 57.310357978525644 18.618171756430456 0 18.618171756430456 146.52830961953077 0 0 0 0 126.14091274521343 -173.28126420378976 0 -173.28126420378976 -335.11605506201158 0 0 0 0 -3.7886204670984398 -92.890848860144388 0 -92.890848860144388 57.351336534629809 0 0 0 0 39.017496273284401 -28.025110182658121 0 -28.025110182658121 16.070154174707469 0 0 0 0 6.2366413471425766 -6.5809269188252983 0 -6.5809269188252983 10.522446428952975 0 0 0 0 4.2146940254761844 -0.93367997302195249 0 -0.93367997302195249 -0.37689769429153586 0 0 0 0 1648.3598578043311 306.09465082838142 0 306.09465082838142 -283.80212302387736 0 0 0 0 529.91523752284957 -217.30685781204829 0 -217.30685781204829 -278.87115249021099 0 0 0 0 -323.33418336635202 94.206304230572414 0 94.206304230572414 292.37210533448524 0 0 0 0 -517.56867738491565 163.63221425405573 0 163.63221425405573 601.64105119447049 0 0 0 0 84.415910974590588 -167.7071713898149 0 -167.7071713898149 -115.35298499537021 0 0 0 0 40.523027606959864 -31.230450050392303 0 -31.230450050392303 18.381158674665407 0 0 0 0 9.1032461602816284 -4.4979114507456579 0 -4.4979114507456579 2.0317251040592623 0 0 0 0 299.40594270163274 -103.70222477686548 0 -103.70222477686548 -183.16750661409606 0 0 0 0 413.86579613615231 -127.99043371700736 0 -127.99043371700736 20.515409878265928 0 0 0 0 353.4433228525595 226.05556382351278 0 226.05556382351278 -5.6561983155625057 0 0 0 0 113.83315005119948 27.317108464725607 0 27.317108464725607 58.856018404188944 0 0 0 0 8.578257089597173 331.11585678170741 0 331.11585678170741 114.16861643185257 0 0 0 0 195.47978012122257 -193.79950113477753 0 -193.79950113477753 101.15123092205977 0 0 0 0 86.623621418992116 -169.71683037455296 0 -169.71683037455296 115.29970897654857 0 0 0 0 23.424843024607981 -108.41391640606525 0 -108.41391640606525 98.633702391096449 0 0 0 0 -58.451058120954258 -33.943009148523743 0 -33.943009148523743 66.356882019616023 0 0 0 0 6.6001202287552587 -131.46999710426462 0 -131.46999710426462 34.462944721784879 0 0 0 0 35.790611498347062 -98.02422927373118 0 -98.02422927373118 62.820090475866891 0 0 0 0 2.6935242020663281 -139.43826534679465 0 -139.43826534679465 70.153621462014371 0 0 0 0 61.122707081063709 -91.77196468654256 0 -91.77196468654256 75.368133926560404 0 0 0 0 184.7313886990305 -61.457773034697311 0 -61.457773034697311 10.528617904672501 0 0 0 0 122.04612580924368 -60.993436895223567 0 -60.993436895223567 28.321971289473368 0 0 0 0 103.05861675818596 -16.876359456600767 0 -16.876359456600767 95.963944952829479 0 0 0 0 -37.058907300266583 -93.561630017298739 0 -93.561630017298739 -80.464385459901678 0 0 0 0 -65.12445273155754 -145.51766741152096 0 -145.51766741152096 -61.830026620079479 0 0 0 0 -45.282113357818162 -123.18677811100588 0 -123.18677811100588 -6.8565836675459195 0 0 0 0 -27.765173210347712 -61.27796831238993 0 -61.27796831238993 -10.229944902275747 0 0 0 0 -49.144327499861902 -110.67331018215918 0 -110.67331018215918 66.368115527606278 0 0 0 0 -0.069161463376076426 -119.08680055509467 0 -119.08680055509467 45.751522059499621 0 0 0 0 -55.307403927798077 -112.81488381583858 0 -112.81488381583858 14.720497251262714 0 0 0 0 -82.611952949857368 -151.75815980276093 0 -151.75815980276093 56.839890119485062 0 0 0 0 -73.02754936493875 -144.73770171297429 0 -144.73770171297429 60.932542226462829 0 0 0 0 -68.969304078516871 -131.37380710638854 0 -131.37380710638854 100.76211838143718 0 0 0 0 -65.782982564262966 -131.66410774369706 0 -131.66410774369706 67.898982056089153 0 0 0 0 -107.88679931753904 -134.51143223925283 0 -134.51143223925283 100.73633389402158 0 0 0 0 -81.631785090788981 -91.648656284430217 0 -91.648656284430217 95.616300282848897 0 0 0 0 34.314551502750874 -90.131476688572093 0 -90.131476688572093 12.632177441679232 0 0 0 0 69.946701290808051 -111.23281274075271 0 -111.23281274075271 35.806085059619363 0 0 0 0 30.637740317950374 -94.676354765848373 0 -94.676354765848373 31.09713167636346 0 0 0 0 -2.2632411637241603 -82.74141316279065 0 -82.74141316279065 88.776443882350577 0 0 0 0 -5.9415004490238061 -97.093627826591842 0 -97.093627826591842 141.89744131075167 0 0 0 0 -13.833297963203471 -5.5114753645621626 0 -5.5114753645621626 -4.2418586993619058 0 0 0 0 7.3215509769727305 -51.54765036089475 0 -51.54765036089475 113.28842880046614 0 0 0 0 75.67862679487007 31.275829028626504 0 31.275829028626504 -283.78007763054302 0 0 0 0 -4.7326845668563067 -2.0640329411166185 0 -2.0640329411166185 -0.63227897429593227 0 0 0 0 5.7269012721417312 -58.17549451293371 0 -58.17549451293371 -50.668577165792158 0 0 0 0 18.145074295793165 -80.607357007225801 0 -80.607357007225801 -20.231703668941009 0 0 0 0 -89.198462452731292 -156.43797626591913 0 -156.43797626591913 119.75520701028108 0 0 0 0 -84.015196191086943 -143.82870987353726 0 -143.82870987353726 119.13423640775545 0 0 0 0 -224.35708366141989 -82.256159868577015 0 -82.256159868577015 170.49825084087934 0 0 0 0 -191.77509584343807 -254.82300582853043 0 -254.82300582853043 5.1388440432292555 0 0 0 0 7.2143907605932327 -124.84583020933405 0 -124.84583020933405 -169.14826141994945 0 0 0 0 15.782583120271738 114.03431293290123 0 114.03431293290123 -32.587354198161393 0 0 0 0 -27.611121029371134 103.04815848959606 0 103.04815848959606 279.35035129716744 0 0 0 0 -64.984791174119891 3.2142439358052286 0 3.2142439358052286 345.34628921688636 0 0 0 0 -68.132047987502233 -78.442712592085513 0 -78.442712592085513 269.69496918704499 0 0 0 0 1.2966902491578125 -0.043377791573217195 0 -0.043377791573217195 0.47767301934575102 0 0 0 0 -14.339337441662792 -39.617714250336576 0 -39.617714250336576 121.75645209844015 0 0 0 0 -343.96967029651751 35.094952045247283 0 35.094952045247283 573.53409911681774 0 0 0 0 43.52522632822911 -190.83917216735153 0 -190.83917216735153 -145.17670063362493 0 0 0 0 -6.1453360784744291 -183.10148098684704 0 -183.10148098684704 189.2397237954674 0 0 0 0 104.39356149544619 -122.0098285550248 0 -122.0098285550248 -71.50363359780431 0 0 0 0 34.126102596581404 -112.78886070401586 0 -112.78886070401586 65.080234300967277 0 0 0 0 104.9289459622396 -25.83536729896241 0 -25.83536729896241 35.641396536553657 0 0 0 0 5.3259606698871238 -1.9410108867775193 0 -1.9410108867775193 1.1850489542686091 0 0 0 0 -12.780550461046005 -7.3324415667466383 0 -7.3324415667466383 365.68823380356298 0 0 0 0 -50.559756433562143 69.16611800746432 0 69.16611800746432 196.86106197238041 0 0 0 0 -5.6653078798299248 7.9061820396796065 0 7.9061820396796065 277.20983604617504 0 0 0 0 -82.688897274872033 21.221722369587042 0 21.221722369587042 281.71027628948468 0 0 0 0 -115.43732183119573 -14.638300594813018 0 -14.638300594813018 524.44025707586661 0 0 0 0 -59.6852239159889 -33.654916997102191 0 -33.654916997102191 332.13320266604478 0 0 0 0 492.48268680212823 -610.28755295272367 0 -610.28755295272367 488.11144772690386 0 0 0 0 -586.15598696296911 -344.86809659359324 0 -344.86809659359324 1135.1795862628242 0 0 0 0 -253.79681851319037 170.14654497254924 0 170.14654497254924 333.59246650301429 0 0 0 0 44.877172834152589 -214.08390999935909 0 -214.08390999935909 428.86461282209166 0 0 0 0 99.011964673929469 -52.719429812300405 0 -52.719429812300405 115.42670445917793 0 0 0 0 132.63590851951994 -148.11995669874887 0 -148.11995669874887 200.05871367403233 0 0 0 0 -21.36726612592247 -66.038095002023283 0 -66.038095002023283 259.23805453297064 0 0 0 0 -13.315018562097976 3.5477829119295166 0 3.5477829119295166 156.51010215911356 0 0 0 0 -6.7785332471139554 -105.15330137164801 0 -105.15330137164801 286.67122999843741 0 0 0 0 -16.457318787008262 5.3605029357504463 0 5.3605029357504463 285.08428968806743 0 0 0 0 12.352521341821792 -32.593895010070376 0 -32.593895010070376 28.108902331640564 0 0 0 0 -2.1239287327789498 -2.4734017488631252 0 -2.4734017488631252 276.45717551140751 0 0 0 0 -2.983779841568321 -54.360950669504746 0 -54.360950669504746 -59.689132061364944 0 0 0 0 -3.1465659008007663 -41.398367804838557 0 -41.398367804838557 30.236403997135071 0 0 0 0 121.87062141697243 100.8125524855576 0 100.8125524855576 311.38125339006365 0 0 0 0 123.02416234067641 80.292263967200881 0 80.292263967200881 309.74269208369878 0 0 0 0 83.634471357428993 92.448846674066772 0 92.448846674066772 344.22903366505489 0 0 0 0 85.867002187733306 48.192900688236477 0 48.192900688236477 285.42758700831291 0 0 0 0 77.543416898290161 29.812434732008114 0 29.812434732008114 287.48612575682273 0 0 0 0 1.0270368678138766 -15.682973319147095 0 -15.682973319147095 296.52620118509003 0 0 0 0 44.13719914754256 61.262642838734791 0 61.262642838734791 327.37598212889134 0 0 0 0 12.695415400889033 41.876421762491191 0 41.876421762491191 328.26489597854379 0 0 0 0 36.771704250393668 29.615214460862262 0 29.615214460862262 310.25849388407914 0 0 0 0 -21.890448990152436 3.3999744361740341 0 3.3999744361740341 287.30542636321752 0 0 0 0 -64.224295419084228 -20.673946634405183 0 -20.673946634405183 295.06087434686015 0 0 0 0 3.7864299451571242 -316.9044883525853 0 -316.9044883525853 239.62943520653607 0 0 0 0 -17.306136076755138 21.844173391305958 0 21.844173391305958 320.7275653877532 0 0 0 0 94.817269187413331 5.3519192781914171 0 5.3519192781914171 228.14062971173553 0 0 0 0 6.0359107942676928 66.886232818880671 0 66.886232818880671 250.31366157371394 0 0 0 0 30.585438592986065 -114.7755980354525 0 -114.7755980354525 536.57441803946494 0 0 0 0 -54.841985303788533 71.973941722433665 0 71.973941722433665 289.57820822421354 0 0 0 0 -56.677800799512625 82.218470762976722 0 82.218470762976722 282.57326452169264 0 0 0 0 -99.209223679099523 185.93271564171937 0 185.93271564171937 689.41999934074192 0 0 0 0 302.68456025371597 -111.48015215758869 0 -111.48015215758869 -221.4480517948723 0 0 0 0 314.53676346543216 -139.25881526129615 0 -139.25881526129615 -185.08463713528727 0 0 0 0 -115.63594734374783 377.67032449211001 0 377.67032449211001 211.9953683549893 0 0 0 0 -6.314655167509045 205.40242460815716 0 205.40242460815716 269.78949643390661 0 0 0 0 0.95836143660144302 2.3944061716560157 0 2.3944061716560157 5.8035419966239701 0 0 0 0 244.84949071795563 -260.07061660540421 0 -260.07061660540421 -417.22450806196139 0 0 0 0 1093.3522888859879 -145.29724963373519 0 -145.29724963373519 261.59543286030203 0 0 0 0 0.19401609984682722 1.904106115655722 0 1.904106115655722 6.4341199533310842 0 0 0 0 -109.01211486260581 298.06992039044053 0 298.06992039044053 1137.9755327606272 0 0 0 0 194.32685175120423 423.33972717283632 0 423.33972717283632 319.06953580033769 0 0 0 0 2.515704542392001 -2.9615692862925123 0 -2.9615692862925123 1.6219773706846503 0 0 0 0 -94.743911552406644 -109.4949107280936 0 -109.4949107280936 68.133528316428055 0 0 0 0 -192.98512457563629 -85.427839058778773 0 -85.427839058778773 649.60529803528516 0 0 0 0 -300.91993482891849 -22.13198208920312 0 -22.13198208920312 768.80569075213407 0 0 0 0 118.28151217607956 37.580462513398743 0 37.580462513398743 -32.682660094735184 0 0 0 0 -271.35490281929378 -110.08548904463169 0 -110.08548904463169 -35.120110549007705 0 0 0 0 15.850832832586093 -119.47809551583032 0 -119.47809551583032 -157.75526764352617 0 0 0 0 -14.918523403463041 60.725611432495498 0 60.725611432495498 -61.865286727786952 0 0 0 0 7.0473150162487812 -3.7458800126195779 0 -3.7458800126195779 1.8026839753334025 0 0 0 0 -107.83401143465744 84.171603861876065 0 84.171603861876065 199.32453174412967 0 0 0 0 36.919866893549624 -73.73258402076317 0 -73.73258402076317 93.443981065688604 0 0 0 0 -105.85027415740478 -169.5525885332454 0 -169.5525885332454 -2.5235416184568749 0 0 0 0 55.271868457214168 -140.50395322188501 0 -140.50395322188501 -112.87332543465891 0 0 0 0 -89.897821688373369 -37.007849343672206 0 -37.007849343672206 116.13401138910831 0 0 0 0 38.254801295510333 -139.15956602241522 0 -139.15956602241522 -329.99588504990788 0 0 0 0 -1.2769834353483134 -1.274483080544929 0 -1.274483080544929 -0.67666952215224541 0 0 0 0 10.250158328297402 -56.865002122076476 0 -56.865002122076476 88.414287246605454 0 0 0 0 17.008942593947722 -47.431003756590144 0 -47.431003756590144 24.969084865876539 0 0 0 0 0.63629661050892139 -12.591871999348971 0 -12.591871999348971 18.016847474650028 0 0 0 0 -11.509901813395118 -89.078736513292824 0 -89.078736513292824 55.723613965102231 0 0 0 0 105.42952131203492 -187.27144357912834 0 -187.27144357912834 -217.56354863052002 0 0 0 0 -39.996670615666517 -36.710255981073715 0 -36.710255981073715 -93.312572255021223 0 0 0 0 -9.5109124341906863 -63.005205279328948 0 -63.005205279328948 106.97259021666468 0 0 0 0 -0.85034960107468294 -5.5170473498811035 0 -5.5170473498811035 7.4896456512068079 0 0 0 0 199.90828773452449 -145.37008676018195 0 -145.37008676018195 -298.4307601630926 0 0 0 0 4.6728435836515345 -2.6986181877031239 0 -2.6986181877031239 -3.788183350696535 0 0 0 0 -158.67401882277227 -44.036813189795794 0 -44.036813189795794 6.8180545717323184 0 0 0 0 16.406049464939315 -43.072597698130267 0 -43.072597698130267 78.682851724217471 0 0 0 0 15.929411932174997 -33.887837027671793 0 -33.887837027671793 51.551657901352641 0 0 0 0 16.066188815071655 -37.502774671310362 0 -37.502774671310362 72.75247815743387 0 0 0 0 -21.871701832521921 -133.34720955798093 0 -133.34720955798093 -48.498305538087152 0 0 0 0 30.120204862080755 -79.864066699041359 0 -79.864066699041359 -153.11487158913951 0 0 0 0 32.059367963920522 -64.646265136052534 0 -64.646265136052534 89.574217081775714 0 0 0 0 -1.2082266718242423 -9.0983475182213738 0 -9.0983475182213738 14.131943947453578 0 0 0 0 5.2493605400904926 -36.270505319527729 0 -36.270505319527729 73.471894772579617 0 0 0 0 15.98577542003809 -34.540433002257856 0 -34.540433002257856 64.427159725122436 0 0 0 0 4.333692013993641 -40.278822550594668 0 -40.278822550594668 64.981901174716768 0 0 0 0 -315.17222890453195 -133.18986521880288 0 -133.18986521880288 57.42816402707831 0 0 0 0 12.646060233243334 -36.961475897787246 0 -36.961475897787246 68.903192083612112 0 0 0 0 10.130252535447653 -41.917007707540506 0 -41.917007707540506 65.185017004642305 0 0 0 0 -239.60368633188409 -287.29738962170268 0 -287.29738962170268 41.960750631420524 0 0 0 0 -38.894598216676968 -136.15466198099966 0 -136.15466198099966 -48.102768945682328 0 0 0 0 157.40083797753914 -143.71791223948367 0 -143.71791223948367 -33.079198767278285 0 0 0 0 166.86336094814214 -152.58003071722123 0 -152.58003071722123 -114.44760208073058 0 0 0 0 13.191317541292847 -183.50780785023017 0 -183.50780785023017 -26.465769266975258 0 0 0 0 9.9185848750330479 -80.664235326512426 0 -80.664235326512426 35.396130894524504 0 0 0 0 -42.303430188300808 -53.936392725261612 0 -53.936392725261612 83.679217923077886 0 0 0 0 6.750354426123522 -40.951692478236509 0 -40.951692478236509 59.315167751768968 0 0 0 0 -8.9285357163171284 -27.100248541471956 0 -27.100248541471956 63.170002368541645 0 0 0 0 6.0213178285812319 -88.412847367902486 0 -88.412847367902486 94.862107596296482 0 0 0 0 -7.2748371379238961 -62.736289835257594 0 -62.736289835257594 85.809684060878226 0 0 0 0 -17.39364598716223 -17.421005835796745 0 -17.421005835796745 8.0172520638083675 0 0 0 0 33.638306739816471 -59.430917694978234 0 -59.430917694978234 67.767493794668553 0 0 0 0 20.914290864820941 -64.987550411672601 0 -64.987550411672601 30.954742119531147 0 0 0 0 9.5876308077604335 -61.136655634800263 0 -61.136655634800263 67.78846223812107 0 0 0 0 29.310358785047757 -46.197205470642047 0 -46.197205470642047 52.864531865682487 0 0 0 0 -229.1106558667725 -202.46484561667239 0 -202.46484561667239 69.777991432434646 0 0 0 0 -9.1034464607182599 -65.520841970681431 0 -65.520841970681431 85.279574695563497 0 0 0 0 18.407970973344899 -39.743381152064373 0 -39.743381152064373 54.479997676397801 0 0 0 0 -141.30820992740519 -76.09112457680385 0 -76.09112457680385 111.99354179263173 0 0 0 0 -201.06098248598209 -163.97517045111454 0 -163.97517045111454 11.139951171069697 0 0 0 0 -153.83818583610991 3.444715735509817 0 3.444715735509817 143.30092507210793 0 0 0 0 -108.36142789764108 1.4993719744516056 0 1.4993719744516056 89.21306260626443 0 0 0 0 1.2847939784165874 -3.6331166021120609 0 -3.6331166021120609 7.9756669016619668 0 0 0 0 6.3141517238054803 -43.869894530922465 0 -43.869894530922465 26.885545747238211 0 0 0 0 26.572742532960547 -31.026506061092732 0 -31.026506061092732 -8.4962294533561362 0 0 0 0 338.63215575264167 -409.96487186993909 0 -409.96487186993909 319.16365525077345 0 0 0 0 -53.441686824455246 -20.061856820364483 0 -20.061856820364483 214.55060480457132 0 0 0 0 -40.068154817130562 -90.042470038169995 0 -90.042470038169995 355.23928276475635 0 0 0 0 -12.994788670113394 16.147665832574603 0 16.147665832574603 760.76361844203348 0 0 0 0 -60.551417813221633 -224.40208674566748 0 -224.40208674566748 -116.79980514066119 0 0 0 0 -50.791337478368405 -289.63223398712216 0 -289.63223398712216 200.57605998425424 0 0 0 0 -292.27744163738498 -351.55853141703847 0 -351.55853141703847 -214.88765867388793 0 0 0 0 -394.90064219069563 -75.937289397121276 0 -75.937289397121276 167.10878090921324 0 0 0 0 7.699869985535198 -12.176945086309459 0 -12.176945086309459 11.488049344394533 0 0 0 0 -157.16636633596863 -92.357208188608638 0 -92.357208188608638 140.41166612494271 0 0 0 0 -182.27650717520919 -68.334973491975688 0 -68.334973491975688 306.16540914676443 0 0 0 0 -23.02490380258314 64.653084449790185 0 64.653084449790185 239.28787472617842 0 0 0 0 -52.73797627607928 -2.9253421560279094 0 -2.9253421560279094 249.40490494491678 0 0 0 0 -155.09689587928631 15.819087365413907 0 15.819087365413907 321.81673271631007 0 0 0 0 -234.0086088898297 -44.486065513272479 0 -44.486065513272479 242.69538041535998 0 0 0 0 -152.90330436373625 -27.229990375327588 0 -27.229990375327588 180.90924236664432 0 0 0 0 -122.65511030839298 80.323036491929088 0 80.323036491929088 204.49766971867575 0 0 0 0 -113.9503741093713 58.239628913903289 0 58.239628913903289 245.08220884792536 0 0 0 0 146.37028919657655 406.89391485492979 0 406.89391485492979 -59.227190572360996 0 0 0 0 3.6536218858396374 -2.8808218262903864 0 -2.8808218262903864 2.2899351384828464 0 0 0 0 86.791147883700432 359.62095324352595 0 359.62095324352595 573.86375910090283 0 0 0 0 278.8804501740824 -516.98895720389555 0 -516.98895720389555 -80.419636500461593 0 0 0 0 138.65505501977623 241.16785826169507 0 241.16785826169507 397.85111006294028 0 0 0 0 -98.908640175350683 46.834750684869505 0 46.834750684869505 494.78001541639969 0 0 0 0 548.68588831409215 -406.15571351840481 0 -406.15571351840481 7.3421615182633104 0 0 0 0 225.01224105739993 -387.77454660242302 0 -387.77454660242302 127.190795645045 0 0 0 0 400.71238579386863 69.146445055834192 0 69.146445055834192 -23.502036948419118 0 0 0 0 43.626016784970489 38.527472350182506 0 38.527472350182506 350.53537528345259 0 0 0 0 41.855514426514105 9.5722680681872134 0 9.5722680681872134 68.780302762541396 0 0 0 0 -52.13780763210525 35.147790355709731 0 35.147790355709731 122.57987900121407 0 0 0 0 -115.3477577530939 -87.606257396277215 0 -87.606257396277215 169.71779500949924 0 0 0 0 274.25187845545861 -44.736561466563217 0 -44.736561466563217 -172.06265798542881 0 0 0 0 12.698986245733504 -7.2094242622662961 0 -7.2094242622662961 5.8317611671132141 0 0 0 0 -45.863633495662725 -111.07027183684477 0 -111.07027183684477 -44.865889344917377 0 0 0 0 24.897117848234302 -11.799009045484127 0 -11.799009045484127 5.3103978540839307 0 0 0 0 5.343790538817526 -4.4682764437721154 0 -4.4682764437721154 6.8767021476317467 0 0 0 0 -30.066186750696943 -33.279180726858613 0 -33.279180726858613 -28.790083137066176 0 0 0 0 -89.731343135787029 -107.83213705158778 0 -107.83213705158778 4.2654499932687031 0 0 0 0 102.48946414486272 195.14279930809425 0 195.14279930809425 286.13915815803921 0 0 0 0 102.49030291987947 224.84975244474481 0 224.84975244474481 370.60176399104239 0 0 0 0 89.792452252440398 210.75415931236421 0 210.75415931236421 387.97898766148137 0 0 0 0 122.287526121685 211.24158082660142 0 211.24158082660142 263.70015780357062 0 0 0 0 188.59445891202449 195.79135029242025 0 195.79135029242025 305.31912220288359 0 0 0 0 183.28873640954225 167.88705508825842 0 167.88705508825842 184.17374380052206 0 0 0 0 99.612817611281571 194.44997863635945 0 194.44997863635945 337.46289804193657 0 0 0 0 -1.3374203605562798 -9.7684810762657435 0 -9.7684810762657435 -0.31336245345300995 0 0 0 0 5.5896417619751446 -8.7635586301702872 0 -8.7635586301702872 12.784611987893847 0 0 0 0 71.147323755085381 24.42022921134776 0 24.42022921134776 43.851918262487743 0 0 0 0 118.37659282094501 129.32258388439368 0 129.32258388439368 193.39981442569115 0 0 0 0 112.79720999484925 150.25466666667489 0 150.25466666667489 239.03975857537444 0 0 0 0 67.684721396488271 173.01448214481002 0 173.01448214481002 227.570087394648 0 0 0 0 94.741385836243353 175.1942366638832 0 175.1942366638832 291.35687437147135 0 0 0 0 5.1406109356899385 -8.3450923754030768 0 -8.3450923754030768 10.064946310767041 0 0 0 0 2.8060769272108246 -7.6791668393511827 0 -7.6791668393511827 14.481096531184448 0 0 0 0 9.3795202532562723 -7.4791792333917355 0 -7.4791792333917355 2.5271369154559693 0 0 0 0 9.6529957727402405 -10.014264847581543 0 -10.014264847581543 7.6292941178687812 0 0 0 0 -17.666354142938872 -6.294267334154938 0 -6.294267334154938 28.167846316100622 0 0 0 0 -29.154128431604477 -11.683124698512984 0 -11.683124698512984 28.488372084020284 0 0 0 0 1.9055563037946754 -5.1599070420663153 0 -5.1599070420663153 11.913665318883133 0 0 0 0 -65.006138024109532 -33.283230367913347 0 -33.283230367913347 84.261288768826489 0 0 0 0 -63.562569627192715 -2.7121402685006615 0 -2.7121402685006615 51.767496431239124 0 0 0 0 -33.562737819904214 13.690002863746486 0 13.690002863746486 60.533111863449449 0 0 0 0 -57.030140767026751 72.315259208831776 0 72.315259208831776 1.0654095656100253 0 0 0 0 10.738829640448103 13.900881945923629 0 13.900881945923629 -90.264781091471377 0 0 0 0 -3.3240543078209157 -12.166432578518652 0 -12.166432578518652 7.0427355872816406 0 0 0 0 18.725553675556512 10.497554982372094 0 10.497554982372094 7.5618055532904691 0 0 0 0 7.2742022694128536 -2.1898106899825507 0 -2.1898106899825507 18.602410345951284 0 0 0 0 35.004926215606702 -3.914253387390545 0 -3.914253387390545 2.2916154416889185 0 0 0 0 -0.082847471802992345 -2.1902728237399387 0 -2.1902728237399387 7.2378348780548407 0 0 0 0 1.1215661409786497 -7.4001656765452406 0 -7.4001656765452406 17.984401207270011 0 0 0 0 2.1031701565179901 -7.8521552928559686 0 -7.8521552928559686 17.331492285127752 0 0 0 0 -16.528959985824258 -42.363557298041997 0 -42.363557298041997 45.874364808725659 0 0 0 0 -20.801655454357387 -58.107445882473257 0 -58.107445882473257 -5.422410393046448 0 0 0 0 10.176548318586356 -83.085496672414592 0 -83.085496672414592 -51.558794822067284 0 0 0 0 6.3502712509880439 -97.028674656074145 0 -97.028674656074145 -7.2751425318419933 0 0 0 0 5.0014402321921807 -96.322179914297521 0 -96.322179914297521 133.45977763786505 0 0 0 0 -2.4716365357282015 0.6824878263023848 0 0.6824878263023848 -0.61236628337463372 0 0 0 0 89.111844861201689 115.46613616872196 0 115.46613616872196 -309.16685926098216 0 0 0 0 80.576440384445959 -107.63393960215035 0 -107.63393960215035 -113.04032774788357 0 0 0 0 -89.582083816920203 38.329062239361519 0 38.329062239361519 90.682751540656682 0 0 0 0 86.211525896519561 183.16922386264923 0 183.16922386264923 478.79755859360739 0 0 0 0 89.260372690334975 207.05160208445852 0 207.05160208445852 441.48056313783309 0 0 0 0 94.722780819402942 87.346149807119218 0 87.346149807119218 284.86869889235822 0 0 0 0 290.20584410888523 250.60674982981072 0 250.60674982981072 804.78957176689437 0 0 0 0 132.72666044465345 305.48668095345056 0 305.48668095345056 626.07858922071318 0 0 0 0 275.58800232195574 339.53656687592411 0 339.53656687592411 596.72700277512195 0 0 0 0 215.34716796376597 212.97539552249145 0 212.97539552249145 704.46629479364492 0 0 0 0 134.16870284730544 160.3669033439449 0 160.3669033439449 520.21766817696334 0 0 0 0 179.6922485332243 287.00619095267029 0 287.00619095267029 587.74112239913302 0 0 0 0 140.97205461472936 185.41886911516758 0 185.41886911516758 526.57246245113492 0 0 0 0 104.83162376797281 255.00920845707878 0 255.00920845707878 634.72082433774267 0 0 0 0 80.361926358933488 186.12060661576834 0 186.12060661576834 528.77191317484903 0 0 0 0 115.76092519549684 176.30003608265542 0 176.30003608265542 395.44496804005757 0 0 0 0 92.118376665412143 177.8889251994915 0 177.8889251994915 388.25437688570673 0 0 0 0 58.741292837066794 109.52413985335807 0 109.52413985335807 401.61439882071863 0 0 0 0 127.63603702342152 139.16527512122411 0 139.16527512122411 426.06665730111854 0 0 0 0 128.52694942036214 206.54626304507838 0 206.54626304507838 426.68545155908214 0 0 0 0 76.624772539188029 98.975512774472918 0 98.975512774472918 332.98971289508336 0 0 0 0 85.366984189929099 158.88438705472799 0 158.88438705472799 423.67716437549734 0 0 0 0 5.7697735926194582 35.275302384194219 0 35.275302384194219 289.86579183253343 0 0 0 0 24.365658815316237 146.14701601456909 0 146.14701601456909 292.30300552022527 0 0 0 0 72.422906396670442 34.991643876070157 0 34.991643876070157 207.1487536096538 0 0 0 0 -0.63793482433247739 0.10019524705640492 0 0.10019524705640492 1.3382966729179344 0 0 0 0 68.226359632230015 52.911342454928672 0 52.911342454928672 223.74808292386297 0 0 0 0 58.026013157428679 91.612843393959338 0 91.612843393959338 328.00512406752387 0 0 0 0 97.256050454234355 101.38673499219294 0 101.38673499219294 173.80210183837335 0 0 0 0 49.953105193410011 156.09748655941803 0 156.09748655941803 384.27847210865002 0 0 0 0 86.632844175202081 126.64705233943096 0 126.64705233943096 247.7408799718105 0 0 0 0 45.441256930109375 172.61544730904279 0 172.61544730904279 174.23755076124507 0 0 0 0 63.181074604170135 148.36972471808986 0 148.36972471808986 196.20965073729167 0 0 0 0 66.715145410024888 122.29988992815925 0 122.29988992815925 291.16529963922221 0 0 0 0 63.186840423890317 160.70812621444929 0 160.70812621444929 286.6806124344248 0 0 0 0 85.029662908744285 127.1956676666814 0 127.1956676666814 307.64953581218288 0 0 0 0 74.263770588582702 93.138710232793528 0 93.138710232793528 312.49225354386726 0 0 0 0 79.842376908049118 169.9779635398445 0 169.9779635398445 370.19345675340446 0 0 0 0 56.35888592127958 162.18794894503662 0 162.18794894503662 472.18674529707641 0 0 0 0 80.307612277649696 189.93642254166662 0 189.93642254166662 564.33268549740023 0 0 0 0 90.49286018460225 222.18814780379034 0 222.18814780379034 464.31659911091447 0 0 0 0 57.178168612806076 183.79434048523763 0 183.79434048523763 497.5707562307216 0 0 0 0 62.750662260987156 213.19814775469422 0 213.19814775469422 435.64937414886663 0 0 0 0 48.569054856228831 181.37037327242433 0 181.37037327242433 430.45811605322524 0 0 0 0 37.211319932961487 165.41107241790451 0 165.41107241790451 431.8532529578597 0 0 0 0 53.497779703144261 180.92693550990225 0 180.92693550990225 365.34706764461589 0 0 0 0 30.288531310790859 150.2227470978396 0 150.2227470978396 356.73903130282997 0 0 0 0 40.029452394806867 169.29481214436237 0 169.29481214436237 344.50418973455089 0 0 0 0 33.990356982410958 125.41613681554009 0 125.41613681554009 323.56685435489635 0 0 0 0 70.16584794031769 178.55487597376487 0 178.55487597376487 353.6232058241003 0 0 0 0 58.206264309093967 194.88125808619952 0 194.88125808619952 396.74037969391793 0 0 0 0 41.761611641541549 154.39182510816318 0 154.39182510816318 373.08045647956897 0 0 0 0 44.02105817991287 170.71788380575163 0 170.71788380575163 401.66004794914625 0 0 0 0 65.620718086394845 207.90333691876731 0 207.90333691876731 409.35037054723944 0 0 0 0 48.734135591905215 225.52782102202764 0 225.52782102202764 480.61713072835119 0 0 0 0 97.313307719224213 238.56126791776114 0 238.56126791776114 402.30785558538628 0 0 0 0 52.025197138985277 202.63317611407911 0 202.63317611407911 435.63758930812764 0 0 0 0 85.8064914919687 211.53818754674285 0 211.53818754674285 364.92045552829222 0 0 0 0 75.395431277484022 197.93752597610001 0 197.93752597610001 377.45750680562196 0 0 0 0 87.201403442843002 164.15561782257282 0 164.15561782257282 301.85989373980556 0 0 0 0 96.47814347655185 143.55641957258922 0 143.55641957258922 236.21155155652377 0 0 0 0 61.083909240154753 155.35999638364592 0 155.35999638364592 334.04186137949728 0 0 0 0 53.74638499354478 115.95994022696686 0 115.95994022696686 287.57522422250258 0 0 0 0 62.222363369815412 130.93483084263426 0 130.93483084263426 286.64185247026035 0 0 0 0 78.141379755787057 103.84866727204644 0 103.84866727204644 251.72620105408714 0 0 0 0 1.0919519472226966 -9.1136316042611725 0 -9.1136316042611725 14.648062349729571 0 0 0 0 6.2454031673642891 -8.1371249574508298 0 -8.1371249574508298 9.5096928819918105 0 0 0 0 72.970961579292634 76.176585689041531 0 76.176585689041531 223.01040041428496 0 0 0 0 15.154774239654216 86.837566586851608 0 86.837566586851608 276.3007163341972 0 0 0 0 30.657538630870476 125.810423196388 0 125.810423196388 272.26901845569955 0 0 0 0 -4.4127852994788554 151.10580132711038 0 151.10580132711038 300.66738714085659 0 0 0 0 45.875660032146698 135.9850428298887 0 135.9850428298887 304.35805801107199 0 0 0 0 -50.086015045104432 142.57635674101766 0 142.57635674101766 270.35916186496615 0 0 0 0 31.769479013604723 127.20532546978211 0 127.20532546978211 265.58842903620098 0 0 0 0 -22.120405796857085 180.47112423766521 0 180.47112423766521 219.34337612603849 0 0 0 0 34.20517620571627 113.10738720360678 0 113.10738720360678 194.67100825114176 0 0 0 0 -12.83153163751922 94.637923430433148 0 94.637923430433148 274.99472269428952 0 0 0 0 -4.6009503740101536 -1.574662912983058 0 -1.574662912983058 7.9888492212503195 0 0 0 0 6.9303681311484979 -2.7685054642061004 0 -2.7685054642061004 -0.83914458096842282 0 0 0 0 -1.0616439308200825 -8.599366486983854 0 -8.599366486983854 30.687444564071484 0 0 0 0 4.9345185673118976 -6.1438089583225519 0 -6.1438089583225519 10.743084872090549 0 0 0 0 2.3154095586088737 -5.7924977577612173 0 -5.7924977577612173 13.623163505473542 0 0 0 0 2.053199929992843 -4.6289277961914195 0 -4.6289277961914195 11.150584449904272 0 0 0 0 2.9020032392569313 -6.5858306394667423 0 -6.5858306394667423 13.19345884473384 0 0 0 0 -3.9917480792109927 -9.9268948315768739 0 -9.9268948315768739 19.507990318161319 0 0 0 0 -4.4420094853448973 -3.2100457653650665 0 -3.2100457653650665 15.072218315915961 0 0 0 0 -0.50509791600143217 -11.520378712621095 0 -11.520378712621095 20.135957759506709 0 0 0 0 -0.51856958998490654 -6.5759953840890404 0 -6.5759953840890404 14.115189683305701 0 0 0 0 4.4301119311785442 -7.4880809637252241 0 -7.4880809637252241 26.932986394513136 0 0 0 0 15.687689732920262 -18.405018636534805 0 -18.405018636534805 26.043795832963951 0 0 0 0 -3.2910990399650473 -17.715543713791703 0 -17.715543713791703 44.544393973206752 0 0 0 0 1.0683205654875749 -3.0348938343864376 0 -3.0348938343864376 8.6471752039048155 0 0 0 0 13.721558782068314 -17.931066099874442 0 -17.931066099874442 19.74683654627006 0 0 0 0 16.713274070580766 -12.700356621138603 0 -12.700356621138603 15.893973709413089 0 0 0 0 -1.3967812095652334 -13.853645885435981 0 -13.853645885435981 43.055619947645027 0 0 0 0 3.4220534564521312 -5.0084768987551627 0 -5.0084768987551627 14.38629630591214 0 0 0 0 -0.0327616619829314 -3.863120375048311 0 -3.863120375048311 6.7054617692483589 0 0 0 0 6.3412354406042333 -6.5741008025740983 0 -6.5741008025740983 13.670500729093021 0 0 0 0 5.5249809333900082 -13.822872729488054 0 -13.822872729488054 24.698331443901026 0 0 0 0 17.990826058602579 -37.083221676948597 0 -37.083221676948597 39.38862561154383 0 0 0 0 16.355019173923665 -15.374028594642823 0 -15.374028594642823 34.185951486681006 0 0 0 0 10.405639146468758 -2.773338615006594 0 -2.773338615006594 5.8889616563365053 0 0 0 0 5.8895316061261838 -5.9681444248126354 0 -5.9681444248126354 26.732120969489188 0 0 0 0 8.532329269370166 1.0749377361353254 0 1.0749377361353254 21.31259073757974 0 0 0 0 12.076883648855073 -5.263012205981795 0 -5.263012205981795 18.010053303398308 0 0 0 0 2.1382732525027937 -2.4679475681784453 0 -2.4679475681784453 4.2050052161792451 0 0 0 0 -11.048076855966883 -5.293409066480308 0 -5.293409066480308 68.641023620199121 0 0 0 0 14.711930423091871 -22.79156292892003 0 -22.79156292892003 -27.581751694597187 0 0 0 0 2.9705576049768752 -3.8338487276105297 0 -3.8338487276105297 22.073717573890463 0 0 0 0 -0.85255001203040592 -66.942416733741993 0 -66.942416733741993 34.46647550274065 0 0 0 0 -22.797717387240482 -55.346486778296821 0 -55.346486778296821 56.998750496226421 0 0 0 0 0.28417126112035263 0.1712920170006953 0 0.1712920170006953 -0.11210163398948225 0 0 0 0 3.723569399338885 -1.6534555169928353 0 -1.6534555169928353 30.36769144286518 0 0 0 0 74.562067794176528 103.30820401848177 0 103.30820401848177 275.71963777665951 0 0 0 0 -14.876717051679407 -90.334582138115366 0 -90.334582138115366 55.374217518281512 0 0 0 0 0.23674535659938556 18.287617336696712 0 18.287617336696712 182.5808684598087 0 0 0 0 9.1291278640852518 0.13939490568805013 0 0.13939490568805013 1.6667202801476506 0 0 0 0 7.9791438863403528 -2.5052133368644718 0 -2.5052133368644718 21.404587484204967 0 0 0 0 -48.198868271865649 38.624136580878258 0 38.624136580878258 9.3927715790559887 0 0 0 0 33.577395098952138 11.11803497889332 0 11.11803497889332 16.113178564351983 0 0 0 0 3.1126921454514687 5.7572532190680263 0 5.7572532190680263 11.219849025019968 0 0 0 0 -52.914488067792263 149.87955152733048 0 149.87955152733048 -137.10339921238483 0 0 0 0 -34.587709756472577 46.459356090421352 0 46.459356090421352 -77.702306000035605 0 0 0 0 -30.716194966911644 27.060850628695334 0 27.060850628695334 42.434949112561299 0 0 0 0 -101.83857178794278 81.916210847266484 0 81.916210847266484 34.155222479996155 0 0 0 0 9.8137596183294988 7.1356559280581706 0 7.1356559280581706 5.2175020418605698 0 0 0 0 19.857008413832318 -23.045937520888401 0 -23.045937520888401 171.54602432015236 0 0 0 0 4.3409671342801772 0.15848238797951808 0 0.15848238797951808 -3.4625303516498889 0 0 0 0 57.430397169885055 144.11353525181039 0 144.11353525181039 408.20807134603092 0 0 0 0 -2.5357904863599288 -96.808520733300611 0 -96.808520733300611 188.31408320214541 0 0 0 0 26.071989460543136 -116.62575646635742 0 -116.62575646635742 172.31639504258783 0 0 0 0 28.618583975754063 -49.376844199854531 0 -49.376844199854531 107.64090237117489 0 0 0 0 -7.3416874061599628 -27.043365850453483 0 -27.043365850453483 57.410064040202997 0 0 0 0 -50.027406996539867 -53.028891372247017 0 -53.028891372247017 115.71585589667666 0 0 0 0 -13.827041131100486 -62.479195763676216 0 -62.479195763676216 165.19654889997037 0 0 0 0 30.404431525621476 -36.82977349581779 0 -36.82977349581779 112.45798096074577 0 0 0 0 -11.832381489848558 11.888925234572525 0 11.888925234572525 63.193348022701684 0 0 0 0 -42.272585437836824 -7.0991949421477329 0 -7.0991949421477329 116.90724081378721 0 0 0 0 -69.325891358836088 37.708622643720446 0 37.708622643720446 70.899980635615066 0 0 0 0 -62.536161972799164 27.984438060935645 0 27.984438060935645 72.355295911955182 0 0 0 0 -46.21587027032183 45.979366234976624 0 45.979366234976624 11.572717350019957 0 0 0 0 -32.53185832230929 -10.033734831604306 0 -10.033734831604306 35.11215491155599 0 0 0 0 -0.48644652231199714 -0.4461618450921776 0 -0.4461618450921776 7.0811515728858545 0 0 0 0 -60.052212119257092 20.153522833505122 0 20.153522833505122 45.109573849833396 0 0 0 0 -5.8602906275027635 7.0454968269405072 0 7.0454968269405072 24.019803134848189 0 0 0 0 -59.377402586762173 29.010343523957545 0 29.010343523957545 100.9559115786542 0 0 0 0 -6.9900452911915636 0.31246515150269261 0 0.31246515150269261 113.4793800793741 0 0 0 0 -1.7292021360739529 -3.1762337563427838 0 -3.1762337563427838 50.28414011298193 0 0 0 0 -45.347554571622823 -13.383620560278359 0 -13.383620560278359 67.957689466078136 0 0 0 0 -40.47513571721538 7.6638766785326879 0 7.6638766785326879 116.19090762700216 0 0 0 0 -4.8017724902752237 -2.8230142420709345 0 -2.8230142420709345 35.749446772056558 0 0 0 0 -6.9104243274923647 -1.3388088210049318 0 -1.3388088210049318 21.105914119281806 0 0 0 0 -11.776355799720477 43.037155379337491 0 43.037155379337491 62.358462705945385 0 0 0 0 -1.5606862931578114 0.70282651648844308 0 0.70282651648844308 35.117494450757789 0 0 0 0 -2.6603616488351545 4.1352038233779993 0 4.1352038233779993 6.1427902151744433 0 0 0 0 23.51078775096903 53.243947077338817 0 53.243947077338817 44.150781767093576 0 0 0 0 8.6429348991696315 11.623723983240779 0 11.623723983240779 12.421470301167574 0 0 0 0 2.4709499436228981 -5.8753108061687866 0 -5.8753108061687866 19.252645899462578 0 0 0 0 -4.7641276368522085 7.1509370464482345 0 7.1509370464482345 22.713770076981746 0 0 0 0 2.1336265859837162 -1.7499002173585616 0 -1.7499002173585616 14.521187744528419 0 0 0 0 5.2124207180968369 -2.0310663334057608 0 -2.0310663334057608 22.847523619388085 0 0 0 0 0.23398832635575673 -3.7035583106153354 0 -3.7035583106153354 18.141515445502591 0 0 0 0 -5.3980733601783868 -3.3363673434942029 0 -3.3363673434942029 14.671184010923753 0 0 0 0 -4.3784578699514149 2.0749698663735785 0 2.0749698663735785 33.737690584472432 0 0 0 0 2.6212751420459703 -6.0636990215402591 0 -6.0636990215402591 20.750259718542793 0 0 0 0 -6.3121168361796265 -1.2473773779920556 0 -1.2473773779920556 23.496357615675493 0 0 0 0 1.507298597241542 3.6109946122720302 0 3.6109946122720302 15.535312218292319 0 0 0 0 4.9306297967104911 2.3192470592184691 0 2.3192470592184691 17.54667922398562 0 0 0 0 -1.4743195425871818 -1.8767993473666138 0 -1.8767993473666138 19.428188351419521 0 0 0 0 -2.9110902793208098 -4.9386604945804606 0 -4.9386604945804606 39.581094995267804 0 0 0 0 1.9400573499524398 -16.810757860666854 0 -16.810757860666854 34.106049795540457 0 0 0 0 4.3286758848116733 -13.04773213527551 0 -13.04773213527551 32.647097573644714 0 0 0 0 -1.4041745901431568 -25.409661292213059 0 -25.409661292213059 35.949817884178628 0 0 0 0 0.091497582562624302 -14.613205443451079 0 -14.613205443451079 40.89311962085776 0 0 0 0 0.021269087625398697 -17.588961574701507 0 -17.588961574701507 19.753054720855104 0 0 0 0 4.9919054694146325 -15.296867081793607 0 -15.296867081793607 20.368074507488018 0 0 0 0 -3.903235471772728 -4.1994400987341578 0 -4.1994400987341578 25.018348731687965 0 0 0 0 -14.902677497718287 -15.679322317719198 0 -15.679322317719198 51.193572560319808 0 0 0 0 -1.7189992483570222 -9.6009268788870941 0 -9.6009268788870941 47.429947101169091 0 0 0 0 -9.4619137104030759 -6.5652234833315362 0 -6.5652234833315362 39.304149366261868 0 0 0 0 -5.9829618069939468 -7.6156722704023538 0 -7.6156722704023538 56.209874861893105 0 0 0 0 -2.9042116411422843 -6.1434317947207902 0 -6.1434317947207902 11.564066059222725 0 0 0 0 -75.678276924880265 -10.546981805502583 0 -10.546981805502583 70.403422347430023 0 0 0 0 -2.0277854648721361 -0.58112106267370311 0 -0.58112106267370311 59.982303401944804 0 0 0 0 -7.7527892709449588 2.4330851219983742 0 2.4330851219983742 67.677011620860867 0 0 0 0 -55.728554606863554 -32.489827135022097 0 -32.489827135022097 94.525975239401305 0 0 0 0 -6.7320400138531564 2.9948214648585889 0 2.9948214648585889 42.020093478980009 0 0 0 0 2.6749275809021582 -4.9892293795631195 0 -4.9892293795631195 47.603698401287886 0 0 0 0 0.77330898993399888 -5.1896303960038255 0 -5.1896303960038255 59.28194336415568 0 0 0 0 -12.749502898159335 6.255617847902613 0 6.255617847902613 64.802307683494291 0 0 0 0 -17.14961303626751 -14.51842100111935 0 -14.51842100111935 65.104204115261382 0 0 0 0 -6.0092540676605495 -47.135486181549823 0 -47.135486181549823 58.481888760405127 0 0 0 0 -11.064864751228015 14.328778448521916 0 14.328778448521916 67.673529246312683 0 0 0 0 -5.2678035403191643 -36.367105943530987 0 -36.367105943530987 100.74748991200613 0 0 0 0 9.7202162136063635 -3.5936021419838653 0 -3.5936021419838653 89.295598224642163 0 0 0 0 -5.0483145836052472 16.559354375840712 0 16.559354375840712 40.162978644111718 0 0 0 0 19.49612239977796 29.796799260955595 0 29.796799260955595 101.24943039253412 0 0 0 0 18.509234813172952 -41.546162714974344 0 -41.546162714974344 68.654186048355768 0 0 0 0 8.1298747529524604 6.4871183069536329 0 6.4871183069536329 17.568498525209066 0 0 0 0 -2.2538514756440229 -1.6856312150299715 0 -1.6856312150299715 13.373538874478783 0 0 0 0 -6.3171228507778778 3.0768546023350609 0 3.0768546023350609 -2.1491245662909932 0 0 0 0 -32.933885234273475 15.606300403895148 0 15.606300403895148 37.897389679623302 0 0 0 0 -20.875737258020308 41.589771867380477 0 41.589771867380477 -29.16520991553989 0 0 0 0 58.078389066860268 -131.44695744133196 0 -131.44695744133196 34.23176530325145 0 0 0 0 0.2626334557283414 3.84769382952679 0 3.84769382952679 3.7494625443130758 0 0 0 0 4.6171622962590497 5.5710415354991056 0 5.5710415354991056 4.6483319436872392 0 0 0 0 -54.023272392631043 49.753256026699091 0 49.753256026699091 -17.295866792090237 0 0 0 0 75.876144833380749 -80.487946966328309 0 -80.487946966328309 115.44519738072995 0 0 0 0 -12.380037927829108 -68.500980248665655 0 -68.500980248665655 104.58332287289159 0 0 0 0 -0.67307514834516979 -30.298985521764827 0 -30.298985521764827 -3.6136606829916733 0 0 0 0 -12.589152657598788 -71.297346451930707 0 -71.297346451930707 146.45677753168093 0 0 0 0 18.203941146632914 -31.014204361579406 0 -31.014204361579406 4.5097082948006824 0 0 0 0 104.51327327435865 -59.440539843301849 0 -59.440539843301849 -1.0426989306422456 0 0 0 0 39.105757745738856 -38.821580729804054 0 -38.821580729804054 60.792741422254039 0 0 0 0 32.182434798796749 -39.011501931621751 0 -39.011501931621751 58.415316606777196 0 0 0 0 5.4964913502035415 -32.073758359298154 0 -32.073758359298154 64.85642015331905 0 0 0 0 3.7394696016326634 -35.694305637358411 0 -35.694305637358411 59.100535102847061 0 0 0 0 -21.720647222195112 -5.4012229970394401 0 -5.4012229970394401 26.551774470585769 0 0 0 0 -22.768556231358161 -74.960654193793744 0 -74.960654193793744 44.964660734603967 0 0 0 0 -7.6008264755309938 -79.736116002455674 0 -79.736116002455674 -5.4386283625390206 0 0 0 0 -21.71029478613309 -51.152472513040266 0 -51.152472513040266 44.899376114542974 0 0 0 0 1.0155417826968005 -22.396251849248529 0 -22.396251849248529 3.0417676644283347 0 0 0 0 11.859742237080354 -29.733616027093376 0 -29.733616027093376 -45.222909133182839 0 0 0 0 -19.309310029082475 -31.540296476165238 0 -31.540296476165238 9.1983107703428466 0 0 0 0 -44.422444680911212 -26.99227160067494 0 -26.99227160067494 112.29250498500568 0 0 0 0 -38.980176522567717 -31.555243294268621 0 -31.555243294268621 91.84286267916832 0 0 0 0 -6.469362898790223 -47.766004739628897 0 -47.766004739628897 94.804871319060112 0 0 0 0 -12.072417065568516 -56.200206086588878 0 -56.200206086588878 86.314620947763729 0 0 0 0 -36.969825559030141 -28.05841878758747 0 -28.05841878758747 91.509102078111027 0 0 0 0 -22.492841731374028 -43.603772775139987 0 -43.603772775139987 105.33760005336444 0 0 0 0 -55.914713747667975 -35.926649408280355 0 -35.926649408280355 100.30035890285399 0 0 0 0 -93.640004428739303 20.638879030799217 0 20.638879030799217 63.364544193006623 0 0 0 0 -40.898630064079043 -20.143600224622787 0 -20.143600224622787 83.264160660941343 0 0 0 0 -68.764078224507102 -3.2543360750587453 0 -3.2543360750587453 101.2457980263207 0 0 0 0 -74.638905640968915 -15.107347900595414 0 -15.107347900595414 88.35814716819732 0 0 0 0 -18.268589365563457 -20.116946692572128 0 -20.116946692572128 101.40007134466396 0 0 0 0 -41.238941925545078 -19.37901167923701 0 -19.37901167923701 115.15376281355066 0 0 0 0 -14.951793172824182 -6.2826372190611437 0 -6.2826372190611437 136.18867366054974 0 0 0 0 -29.047745937848958 -4.490984423381633 0 -4.490984423381633 154.77098023845974 0 0 0 0 -17.956262968900774 -44.50043682330579 0 -44.50043682330579 128.68803282286899 0 0 0 0 -21.572231418925185 -39.555276582096667 0 -39.555276582096667 122.72731606761226 0 0 0 0 -14.547709342059534 -36.163284256144834 0 -36.163284256144834 148.70404532794237 0 0 0 0 -44.616695784696276 -40.270436512615561 0 -40.270436512615561 180.56555704709899 0 0 0 0 -22.990499088440629 16.297930041157088 0 16.297930041157088 223.41236878164545 0 0 0 0 -4.6706854653566552 55.698921415366385 0 55.698921415366385 183.91517393476079 0 0 0 0 -0.04431188512717199 54.326315048178913 0 54.326315048178913 165.45283518048564 0 0 0 0 -13.372543707684599 -7.0205703405645181 0 -7.0205703405645181 189.33826749782247 0 0 0 0 3.4707954153527929 0.55230697779849436 0 0.55230697779849436 -2.5000245552327414 0 0 0 0 20.394731394543669 47.088726700608277 0 47.088726700608277 141.90482551626701 0 0 0 0 7.4087937043843795 7.029788305520924 0 7.029788305520924 108.1581809225172 0 0 0 0 -44.489135460560647 -2.6416620743930253 0 -2.6416620743930253 129.17930092726601 0 0 0 0 -44.541151005518145 -0.66011588701735491 0 -0.66011588701735491 85.336035522195743 0 0 0 0 -71.246652319395253 5.5186305593397265 0 5.5186305593397265 82.515183873641945 0 0 0 0 -61.651827460380446 -5.3490475016114942 0 -5.3490475016114942 93.596759966992977 0 0 0 0 -67.480192410077507 19.059029674845078 0 19.059029674845078 97.575592651835905 0 0 0 0 -42.892537587827974 29.828132549992006 0 29.828132549992006 73.620766699232263 0 0 0 0 -73.607452396930967 62.279620521570905 0 62.279620521570905 109.09556913192137 0 0 0 0 -11.375621019727987 76.056529341843998 0 76.056529341843998 111.10148162585392 0 0 0 0 -46.515099426424058 25.678688913500082 0 25.678688913500082 143.60396568597753 0 0 0 0 -31.880822413715123 48.66868668927691 0 48.66868668927691 77.572025829726044 0 0 0 0 -0.13434184946981986 13.872161466739271 0 13.872161466739271 53.128534942099577 0 0 0 0 -14.305431644147575 12.441372547218634 0 12.441372547218634 57.722723131671955 0 0 0 0 -13.397457223855326 13.000452174799648 0 13.000452174799648 46.31251401193731 0 0 0 0 -26.465515565766509 0.22139143464482913 0 0.22139143464482913 35.011436069266892 0 0 0 0 -34.312631596162845 -4.3328128808642781 0 -4.3328128808642781 10.065671456589186 0 0 0 0 -40.63691320025282 25.470121876297526 0 25.470121876297526 34.34792033062331 0 0 0 0 -39.112532055173233 -5.3464875272347854 0 -5.3464875272347854 56.412677403601265 0 0 0 0 -2.3312771010212217 1.2385065545692768 0 1.2385065545692768 3.5670344754596073 0 0 0 0 -0.74227382525668872 66.519615434831621 0 66.519615434831621 -18.298230717384286 0 0 0 0 6.3234042469425731 26.659073112696205 0 26.659073112696205 84.40113990320242 0 0 0 0 25.853392725680806 -24.464183852614951 0 -24.464183852614951 83.956621709257888 0 0 0 0 -34.794288496646914 -0.072259523971297313 0 -0.072259523971297313 77.038275705839624 0 0 0 0 3.2719271827991179 -0.53151708492805483 0 -0.53151708492805483 42.211760369880722 0 0 0 0 1.0080361176999304 27.034717691224387 0 27.034717691224387 46.844034323839878 0 0 0 0 5.5975661333495736 11.010457967833645 0 11.010457967833645 52.613907690320048 0 0 0 0 -10.672771733995432 4.1595375877586775 0 4.1595375877586775 83.453846273187082 0 0 0 0 -12.675608318044397 10.188057376715733 0 10.188057376715733 113.00551104055921 0 0 0 0 -3.1016356833407608 3.3022121185206554 0 3.3022121185206554 60.374297113679035 0 0 0 0 -29.713894319634619 -13.906170206497336 0 -13.906170206497336 86.156374203044834 0 0 0 0 -4.6131341143764075 -6.3215486579429125 0 -6.3215486579429125 64.261718082367224 0 0 0 0 -1.6610279464275663 -2.7316188397667247 0 -2.7316188397667247 63.111303455079906 0 0 0 0 -5.3259471385085639 -1.0948631188261828 0 -1.0948631188261828 40.935361725451997 0 0 0 0 -0.6823175918668789 -4.8548189492815839 0 -4.8548189492815839 54.587499038097363 0 0 0 0 -60.957743140836556 -8.6534249575333888 0 -8.6534249575333888 56.740965468758077 0 0 0 0 -90.245779716664401 -27.433905781148496 0 -27.433905781148496 97.98870904478099 0 0 0 0 -6.7753051527963812 -0.45803468660885827 0 -0.45803468660885827 15.563810103770592 0 0 0 0 -99.932825426269119 27.624093356353114 0 27.624093356353114 56.447511031252361 0 0 0 0 -74.611036813647843 1.155008087148417 0 1.155008087148417 79.482107144132897 0 0 0 0 -67.259442124041016 17.178540723290553 0 17.178540723290553 56.253138767468045 0 0 0 0 -76.285401876530159 0.19144519526525983 0 0.19144519526525983 79.050197750819279 0 0 0 0 -60.730751782515654 2.5569670418808528 0 2.5569670418808528 37.793628097966575 0 0 0 0 -0.853743019954047 3.2993840237785452 0 3.2993840237785452 69.96721969904506 0 0 0 0 -64.123464558677028 69.027027693252876 0 69.027027693252876 28.561339749681792 0 0 0 0 0.9993967456051891 -3.8382272965617545 0 -3.8382272965617545 8.1802623153741649 0 0 0 0 -11.847930820700924 30.848255192328907 0 30.848255192328907 89.199803747451369 0 0 0 0 -22.507870365540612 -54.429554462037231 0 -54.429554462037231 122.17994999343864 0 0 0 0 -38.160533919866566 6.5104918910037668 0 6.5104918910037668 67.815005958931579 0 0 0 0 -2.5187155110287871 2.723575153383611 0 2.723575153383611 64.950434463721493 0 0 0 0 22.927287299965428 44.391689577558282 0 44.391689577558282 -10.723401749652112 0 0 0 0 19.597629399846483 33.059416952612082 0 33.059416952612082 -47.961075251190778 0 0 0 0 33.98165416230745 -7.1326696488404195 0 -7.1326696488404195 44.352018307879916 0 0 0 0 -38.490284260025874 24.499123746772966 0 24.499123746772966 110.96519520386209 0 0 0 0 -1.2496660850665648 -32.964523550930608 0 -32.964523550930608 80.791388691832253 0 0 0 0 56.330475334296807 -10.412969675671775 0 -10.412969675671775 18.800319437228609 0 0 0 0 -50.56392262932377 -7.2669748906228051 0 -7.2669748906228051 28.194957200590579 0 0 0 0 -3.0530701722592362 3.2248151566713226 0 3.2248151566713226 58.441771653591587 0 0 0 0 -5.8020450184967558 37.903373990378896 0 37.903373990378896 48.642788200741052 0 0 0 0 36.82302738992621 -35.186296993479118 0 -35.186296993479118 -8.8071489688081783 0 0 0 0 -0.65260527033022342 0.30121679835045967 0 0.30121679835045967 1.4740112513737245 0 0 0 0 -15.187386434548898 -65.808162009297121 0 -65.808162009297121 28.706311900656146 0 0 0 0 6.9116719176986408 36.3139226314197 0 36.3139226314197 96.777033722188207 0 0 0 0 -49.833261650042004 25.50252834352068 0 25.50252834352068 365.1007089366758 0 0 0 0 55.03068273628287 38.943803427802777 0 38.943803427802777 24.758078918890533 0 0 0 0 -4.0596879471378804 4.6435952061091292 0 4.6435952061091292 56.135073003778757 0 0 0 0 -50.690942047487624 8.7861194739671191 0 8.7861194739671191 71.134474530670559 0 0 0 0 29.860494173488405 48.465766022040043 0 48.465766022040043 -66.770055306493305 0 0 0 0 -7.5113867341540299 -6.389298651091849 0 -6.389298651091849 -7.8729739830305334 0 0 0 0 -1.3656901549476439 -0.13389869595637549 0 -0.13389869595637549 2.8265108651013975 0 0 0 0 -0.88778496904709847 3.5928210777524825 0 3.5928210777524825 16.703567064235287 0 0 0 0 33.788370499185476 22.63131177348987 0 22.63131177348987 61.549978131602984 0 0 0 0 -16.318531988600171 5.7359198128031039 0 5.7359198128031039 57.678702611512563 0 0 0 0 -5.8395283758317191 -0.85056820855464998 0 -0.85056820855464998 58.233832163524738 0 0 0 0 -86.589468966539243 -83.296078695408141 0 -83.296078695408141 259.65370762018574 0 0 0 0 123.22371552579261 75.576436347650088 0 75.576436347650088 -30.554781728853413 0 0 0 0 -5.809452167190102 11.13097905770519 0 11.13097905770519 59.821077777434766 0 0 0 0 -8.5045447444360924 -10.578634935630554 0 -10.578634935630554 23.611462657416112 0 0 0 0 5.0051095436022024 26.475469267032167 0 26.475469267032167 99.011142219078465 0 0 0 0 19.272599781360213 8.8696523978505866 0 8.8696523978505866 89.115239082796506 0 0 0 0 5.1338588606503208 27.354903113631735 0 27.354903113631735 65.497667521904077 0 0 0 0 27.373930526008337 27.100046966482296 0 27.100046966482296 48.87085260180902 0 0 0 0 15.43487745750258 17.130146673107447 0 17.130146673107447 61.507038103613922 0 0 0 0 35.520672117866866 13.221915388578964 0 13.221915388578964 58.483962144953693 0 0 0 0 35.014368108654367 7.7388676417585884 0 7.7388676417585884 63.486548630449761 0 0 0 0 -1.5433096634748233 -13.23821377032607 0 -13.23821377032607 56.816084698885021 0 0 0 0 -19.725796476705909 -10.969802030493156 0 -10.969802030493156 24.319934429462592 0 0 0 0 -67.511499516296766 -10.576144234383264 0 -10.576144234383264 79.184597650579235 0 0 0 0 -18.371852859482615 1.2387094654799284 0 1.2387094654799284 34.812375127094093 0 0 0 0 11.553712917417215 -9.7992730610003491 0 -9.7992730610003491 88.316956987750018 0 0 0 0 -8.8617609086034754 4.1662896468662947 0 4.1662896468662947 50.984558632269284 0 0 0 0 -3.8556895055304992 19.239101714975291 0 19.239101714975291 60.190466779188483 0 0 0 0 -3.8978396200246372 -2.3322019610052429 0 -2.3322019610052429 48.934522142297112 0 0 0 0 -19.425129857578327 27.422238998481589 0 27.422238998481589 54.4963508656474 0 0 0 0 -1.0859002434420475 -9.0753221185336965 0 -9.0753221185336965 50.738143820452592 0 0 0 0 -46.435712728356236 29.597829475435901 0 29.597829475435901 143.95907814697421 0 0 0 0 -8.5344049731995639 11.491221932554737 0 11.491221932554737 5.0356313521355389 0 0 0 0 -6.1583143991721414 3.0693584497431914 0 3.0693584497431914 12.105494449313142 0 0 0 0 -1.3072979954348511 40.249732582838078 0 40.249732582838078 72.125656105090457 0 0 0 0 23.189558117870547 -1.0390228770047543 0 -1.0390228770047543 73.819185322138765 0 0 0 0 -47.899423770612884 -2.9109050689366995 0 -2.9109050689366995 85.246244397296664 0 0 0 0 -55.993392591111387 -8.5852583327855427 0 -8.5852583327855427 85.957047188483557 0 0 0 0 -48.302907068911281 -5.8806044567090794 0 -5.8806044567090794 86.82538224156815 0 0 0 0 -37.473583842381458 -7.3155046686642891 0 -7.3155046686642891 54.720315208316606 0 0 0 0 -25.158685446004299 -6.4185544786381143 0 -6.4185544786381143 9.4468915695222577 0 0 0 0 -29.992528102608958 12.173647726973286 0 12.173647726973286 85.865561212618161 0 0 0 0 -33.623853412179415 12.55550349317673 0 12.55550349317673 96.373466490422288 0 0 0 0 -16.967919176379102 -9.9203953799715165 0 -9.9203953799715165 9.419821146029669 0 0 0 0 -5.9901538622796124 12.378705694070504 0 12.378705694070504 52.260021913949458 0 0 0 0 -16.78828015375143 29.904064829394883 0 29.904064829394883 107.61201795098714 0 0 0 0 4.0787251940270721 19.575784109909023 0 19.575784109909023 82.310108014247817 0 0 0 0 -10.54659630283993 11.274290242305142 0 11.274290242305142 82.294955360566746 0 0 0 0 -31.104406745302867 17.855317466768611 0 17.855317466768611 85.98644250311736 0 0 0 0 -10.845190222118163 16.55948571240333 0 16.55948571240333 82.910915884564702 0 0 0 0 -16.609863648424835 17.85668266245375 0 17.85668266245375 59.863994656005161 0 0 0 0 -4.5853622268775212 34.202911897680679 0 34.202911897680679 50.707601746384171 0 0 0 0 -24.815347327540508 31.214072038254926 0 31.214072038254926 69.442717384590651 0 0 0 0 -35.431066890932755 9.9488299704748897 0 9.9488299704748897 71.719422805803333 0 0 0 0 -70.711439790730537 -11.594843674925869 0 -11.594843674925869 58.702621598806218 0 0 0 0 -75.334165021788976 18.304837821631736 0 18.304837821631736 70.514114533867541 0 0 0 0 -53.781446682187379 -7.5202162309437881 0 -7.5202162309437881 78.814257288409863 0 0 0 0 -56.096205422737285 11.636435875696407 0 11.636435875696407 86.329218621453037 0 0 0 0 -50.905984914611508 -0.29959266197965917 0 -0.29959266197965917 83.817263140266732 0 0 0 0 -63.182350260636014 -22.939786315046149 0 -22.939786315046149 67.990101180956117 0 0 0 0 -67.00452479745536 1.2617704543772561 0 1.2617704543772561 72.989830042848553 0 0 0 0 -42.031107570239783 -14.053316794477723 0 -14.053316794477723 50.168038383485055 0 0 0 0 -20.330942066764237 -17.185642432188615 0 -17.185642432188615 57.060779196613566 0 0 0 0 -36.361044815999207 -26.789248650435411 0 -26.789248650435411 52.05171672259894 0 0 0 0 -24.006508158571023 -16.994281485811371 0 -16.994281485811371 63.972030797107436 0 0 0 0 -26.197121024983517 -21.184058271452159 0 -21.184058271452159 58.668918431961174 0 0 0 0 -43.915776688216965 -12.795870035511143 0 -12.795870035511143 76.040118978013197 0 0 0 0 -42.766016607742131 -11.125623672425718 0 -11.125623672425718 74.222912127286691 0 0 0 0 -23.122760055115577 -3.11106098277196 0 -3.11106098277196 80.535307839669258 0 0 0 0 -46.00703047422121 -9.9382141394089558 0 -9.9382141394089558 89.93766649823192 0 0 0 0 -24.064101759357527 -11.250696683138813 0 -11.250696683138813 67.096896682562146 0 0 0 0 -29.622865205024027 -16.062975356594961 0 -16.062975356594961 79.336273055196216 0 0 0 0 -27.444275517564165 -27.229223318188815 0 -27.229223318188815 96.999101383653397 0 0 0 0 -4.8457953519186958 -2.5982591247993696 0 -2.5982591247993696 85.704302559650387 0 0 0 0 -0.0073378670203965157 -49.702789154318452 0 -49.702789154318452 102.60342680854046 0 0 0 0 -26.073553800605168 -13.716806480456853 0 -13.716806480456853 120.52841098292993 0 0 0 0 -34.107191279338622 5.0697547587569716 0 5.0697547587569716 99.487543799688865 0 0 0 0 -16.071741597024811 -10.57362088426089 0 -10.57362088426089 40.826121984238853 0 0 0 0 -30.128344615962533 22.957358288155774 0 22.957358288155774 7.2567886079050368 0 0 0 0 -1.848719509118145 1.9779980845242093 0 1.9779980845242093 -1.4863820887671437 0 0 0 0 -20.627156415262913 -0.39604932691017325 0 -0.39604932691017325 6.0359503680821689 0 0 0 0 12.707579499628082 -19.466767025907757 0 -19.466767025907757 46.895301284232119 0 0 0 0 -37.830605179699887 17.53718287673837 0 17.53718287673837 20.394076250464423 0 0 0 0 -47.417269649332411 -6.4403155366162537 0 -6.4403155366162537 81.641787866832601 0 0 0 0 -78.548810724189934 -19.621699144245213 0 -19.621699144245213 67.627648521339324 0 0 0 0 -48.561627982160644 -20.094874280752265 0 -20.094874280752265 67.585640195671658 0 0 0 0 -21.963438951188209 -4.1414990852777009 0 -4.1414990852777009 86.363701129732362 0 0 0 0 -47.84107697789932 -8.7293769546849944 0 -8.7293769546849944 92.487060122213734 0 0 0 0 -41.710849533848886 -7.6865797222512811 0 -7.6865797222512811 37.662843692442493 0 0 0 0 -11.721222434692891 -8.921930125383188 0 -8.921930125383188 28.580568612529152 0 0 0 0 -7.0516718911184064 -5.6645705350055842 0 -5.6645705350055842 31.370669213069529 0 0 0 0 -27.044564332468475 -14.670754546882105 0 -14.670754546882105 15.096947686431482 0 0 0 0 -24.166164343661947 0.43659215242400862 0 0.43659215242400862 19.936746263095579 0 0 0 0 -30.942001524777879 -9.2024562900169258 0 -9.2024562900169258 39.464588741044281 0 0 0 0 -28.922773973714584 4.0222284424144163 0 4.0222284424144163 63.352094270660018 0 0 0 0 -7.2350601126035095 -6.8741322890841285 0 -6.8741322890841285 69.246773798868844 0 0 0 0 -35.940073930364633 -18.090968898115534 0 -18.090968898115534 80.913817766017019 0 0 0 0 -92.571367008020843 -68.952354883740952 0 -68.952354883740952 123.37919972721465 0 0 0 0 -29.607815703639062 -19.129701995041614 0 -19.129701995041614 76.088073378852641 0 0 0 0 65.768662478604483 -103.7050735842684 0 -103.7050735842684 67.980170933154795 0 0 0 0 -32.490170827286875 -15.981374648674432 0 -15.981374648674432 21.108387444217556 0 0 0 0 -72.497261008715441 -15.900955998137761 0 -15.900955998137761 53.119375481297766 0 0 0 0 -85.766820366234242 -60.992269842737159 0 -60.992269842737159 252.02221898751031 0 0 0 0 138.9153118592767 3.9915973494851187 0 3.9915973494851187 -62.34661502635845 0 0 0 0 -1.735108140411409 -5.7214244491829973 0 -5.7214244491829973 69.363225738373458 0 0 0 0 -65.100848281410208 48.988067650638897 0 48.988067650638897 141.49884342080227 0 0 0 0 -18.983008363298723 -14.775407417285351 0 -14.775407417285351 58.728532101318706 0 0 0 0 -2.3140743848058429 4.6269284553584544 0 4.6269284553584544 14.333203861488709 0 0 0 0 -75.891740419912324 -184.35765581140839 0 -184.35765581140839 -100.49567237985895 0 0 0 0 -40.710621430687873 -44.923471274885372 0 -44.923471274885372 -45.536001132353192 0 0 0 0 -143.48684727781438 -2.2550905100250418 0 -2.2550905100250418 -41.000516858205572 0 0 0 0 3.260984454814067 -6.2171081276822067 0 -6.2171081276822067 10.051833481666879 0 0 0 0 -43.423637149753631 -103.74330572444849 0 -103.74330572444849 -74.13146919610169 0 0 0 0 38.734616022837145 -90.591134793743549 0 -90.591134793743549 -81.868673621633548 0 0 0 0 74.246703206537632 104.92377920022648 0 104.92377920022648 135.24626539677547 0 0 0 0 21.104804036334826 27.378092215937386 0 27.378092215937386 62.7883087589654 0 0 0 0 -1.9429546274355953 -4.5660942340409374 0 -4.5660942340409374 28.595271849995086 0 0 0 0 -132.30851259620613 -50.768393464900214 0 -50.768393464900214 111.1994571903715 0 0 0 0 -114.92484919399658 -77.874927596271846 0 -77.874927596271846 66.064586473477902 0 0 0 0 -34.872895882192097 60.83500271612138 0 60.83500271612138 83.783986511860121 0 0 0 0 -68.876468593231039 1.1329199053193406 0 1.1329199053193406 91.130848364767189 0 0 0 0 -53.510719781330408 43.681477888009795 0 43.681477888009795 161.8698438178435 0 0 0 0 77.580928931883818 -167.96549360983198 0 -167.96549360983198 62.61183642643482 0 0 0 0 -113.901987326582 -11.702216433224123 0 -11.702216433224123 97.775833877137757 0 0 0 0 -82.537317385313145 -79.970929858080126 0 -79.970929858080126 241.89187700265848 0 0 0 0 -58.366656584410521 -41.688035275030416 0 -41.688035275030416 131.8214597629667 0 0 0 0 -66.089113504462148 20.170240081982229 0 20.170240081982229 90.185581075158552 0 0 0 0 -39.272232786894165 -21.88405893500385 0 -21.88405893500385 181.36805416214338 0 0 0 0 -40.866141606440578 -27.081865982843738 0 -27.081865982843738 164.50701902474248 0 0 0 0 -27.004740512194985 -19.879568833464873 0 -19.879568833464873 146.53833231225144 0 0 0 0 -47.564730568970845 -52.256353250140819 0 -52.256353250140819 153.73020750445085 0 0 0 0 -2.7663975724379917 2.6410437607852266 0 2.6410437607852266 88.567166022260466 0 0 0 0 -89.697641882738935 -3.4951911766147532 0 -3.4951911766147532 131.3140170429906 0 0 0 0 -75.585411827549251 -36.404209490754511 0 -36.404209490754511 146.66730008159357 0 0 0 0 -0.6136609975619649 -28.750929209862079 0 -28.750929209862079 96.211234217753372 0 0 0 0 -52.019534472443411 -27.050936612995429 0 -27.050936612995429 146.81090745970505 0 0 0 0 -23.95089914620803 -26.167137289452512 0 -26.167137289452512 136.48667625529924 0 0 0 0 -27.904683368608971 -8.6013192573804602 0 -8.6013192573804602 12.056571290652538 0 0 0 0 -23.547506441351288 -58.500014329029 0 -58.500014329029 109.66013063595528 0 0 0 0 -23.697526564443251 -38.190254860524874 0 -38.190254860524874 60.258714631248949 0 0 0 0 0.53158675109261821 -26.605633167871929 0 -26.605633167871929 0.67156490822526393 0 0 0 0 8.233685196722945 -57.220724634016733 0 -57.220724634016733 82.530852382958983 0 0 0 0 -10.497090049566623 -36.639964709461651 0 -36.639964709461651 89.02218571222329 0 0 0 0 -9.0636313440911636 -66.527780341053358 0 -66.527780341053358 78.213067701464752 0 0 0 0 22.682917330121199 -24.173919852066319 0 -24.173919852066319 93.429256961913779 0 0 0 0 -15.585058234610187 -53.52632467481817 0 -53.52632467481817 64.468740225938745 0 0 0 0 -8.491949835635296 -19.466109739554263 0 -19.466109739554263 29.626093883348478 0 0 0 0 -17.863264950596204 -3.5160801907259156 0 -3.5160801907259156 101.23626897623762 0 0 0 0 -15.074297892002505 -14.005381756513088 0 -14.005381756513088 17.807102645230771 0 0 0 0 -32.109832904490759 -7.70986003838334 0 -7.70986003838334 40.380142874848389 0 0 0 0 -24.124877659253855 -11.745635834159764 0 -11.745635834159764 63.418370031746434 0 0 0 0 -14.896844288642342 -14.378463024265383 0 -14.378463024265383 56.647567539200793 0 0 0 0 -33.537596064757963 -20.644290782731332 0 -20.644290782731332 -6.7180256819392525 0 0 0 0 -37.7772711370053 -13.765169854163105 0 -13.765169854163105 -1.0750927159824641 0 0 0 0 -20.345880776312953 -10.390248688766277 0 -10.390248688766277 20.462145997304841 0 0 0 0 -16.423753969399463 -31.095210276638362 0 -31.095210276638362 24.598812809068747 0 0 0 0 -33.267845533824584 -0.25898084841082891 0 -0.25898084841082891 24.502166241492887 0 0 0 0 -18.725951694090327 -23.740009922083118 0 -23.740009922083118 39.055989466211031 0 0 0 0 -12.79875523487317 -15.689674947904223 0 -15.689674947904223 49.959721836523386 0 0 0 0 -20.155977357222582 -3.0187102780855639 0 -3.0187102780855639 16.489485494888868 0 0 0 0 -8.2997083021728031 -22.694839643720115 0 -22.694839643720115 41.527964881071966 0 0 0 0 1.1267709035891968 -6.9471961098012613 0 -6.9471961098012613 -2.8252893020383141 0 0 0 0 -19.119566174907959 -44.637937973822773 0 -44.637937973822773 12.232628219364415 0 0 0 0 70.903903048980283 37.351957835395297 0 37.351957835395297 -284.15523958121776 0 0 0 0 10.119628924148856 -41.498096578779951 0 -41.498096578779951 59.629262293688953 0 0 0 0 -5.5172957371978555 -31.487974516418035 0 -31.487974516418035 62.202235147371539 0 0 0 0 -26.824727644963787 -6.4492583029665411 0 -6.4492583029665411 62.353922309741392 0 0 0 0 -6.1030296281134042 40.429423792561522 0 40.429423792561522 58.823685703966476 0 0 0 0 -6.8262359347831509 0.2327327157960255 0 0.2327327157960255 2.9235248116123929 0 0 0 0 -13.066309682205429 9.8610895156430161 0 9.8610895156430161 -1.7826710657318472 0 0 0 0 -35.340033886676878 -4.4226185737567079 0 -4.4226185737567079 8.8971350783080858 0 0 0 0 -42.855415098050344 16.608699685873717 0 16.608699685873717 80.455408215022544 0 0 0 0 -69.482672855188866 5.2449471472875757 0 5.2449471472875757 79.377153735349566 0 0 0 0 -60.804787845117971 -2.1166713827185504 0 -2.1166713827185504 65.724736074567772 0 0 0 0 -10.480728301090494 -23.217806008933849 0 -23.217806008933849 35.257524575438083 0 0 0 0 -45.400051306554815 -13.666785235613133 0 -13.666785235613133 72.49669627316689 0 0 0 0 -80.547009119994982 -15.371157307704721 0 -15.371157307704721 74.365935190260643 0 0 0 0 -39.701327131926519 -22.509275493718178 0 -22.509275493718178 41.125542968314221 0 0 0 0 -32.80443237324107 -0.8799026869401132 0 -0.8799026869401132 35.137180814286694 0 0 0 0 -25.333893265940745 -10.386289143736537 0 -10.386289143736537 51.039157338586847 0 0 0 0 -17.421347644017516 -21.06646868299228 0 -21.06646868299228 41.853249853831286 0 0 0 0 -8.5012202069920022 -16.069591680163285 0 -16.069591680163285 25.905350000037288 0 0 0 0 -22.473387849001071 -24.178267172274669 0 -24.178267172274669 41.483758339625425 0 0 0 0 -19.972867689487799 -14.419821076351127 0 -14.419821076351127 33.278448559226028 0 0 0 0 -23.009560788372603 -7.7255405532686074 0 -7.7255405532686074 15.928121504511674 0 0 0 0 -21.873827385976256 -12.034294065524364 0 -12.034294065524364 29.796414157105573 0 0 0 0 -15.974149235198116 -16.545890532718126 0 -16.545890532718126 24.665761100856287 0 0 0 0 -52.91521779996765 -7.6275723310432113 0 -7.6275723310432113 25.512717040597636 0 0 0 0 -26.47892099812816 -21.417811212823835 0 -21.417811212823835 29.511749702284988 0 0 0 0 -43.518629076630532 -14.658521894799037 0 -14.658521894799037 34.81159740516523 0 0 0 0 -27.689740904097562 -11.502796007113943 0 -11.502796007113943 31.19392219035808 0 0 0 0 -24.780970198946306 -30.617591761790663 0 -30.617591761790663 38.97662384904288 0 0 0 0 -23.306130389872123 -16.697331024927735 0 -16.697331024927735 29.201001954726706 0 0 0 0 -9.815436324317389 -13.09714609743731 0 -13.09714609743731 29.517997131285963 0 0 0 0 -48.482790470921827 -9.5075403583123261 0 -9.5075403583123261 44.439534002827713 0 0 0 0 -8.31922827942617 -12.299749588899431 0 -12.299749588899431 26.944257622530131 0 0 0 0 -1.7609737978527846 -35.960149885778264 0 -35.960149885778264 37.013090001553337 0 0 0 0 -17.492826572371996 -16.250669005860345 0 -16.250669005860345 55.141730914750951 0 0 0 0 -1.1215637193454313 -31.133588372130362 0 -31.133588372130362 54.648411176982336 0 0 0 0 -33.485921855074594 -7.6959702622029909 0 -7.6959702622029909 45.015628229591471 0 0 0 0 -27.534868291484599 -15.866265066137913 0 -15.866265066137913 34.931342197092604 0 0 0 0 -11.210201528632773 -14.613423114592234 0 -14.613423114592234 37.555003881337903 0 0 0 0 -11.816935804745299 -12.484310058369374 0 -12.484310058369374 77.357954661354597 0 0 0 0 19.745761447084078 -30.102526922377365 0 -30.102526922377365 68.261048057585867 0 0 0 0 29.755681874132279 -31.093286472282898 0 -31.093286472282898 68.858350352908019 0 0 0 0 22.89279475188232 -28.581042488995081 0 -28.581042488995081 68.193531443263055 0 0 0 0 31.333813618061413 -4.6765276013210269 0 -4.6765276013210269 78.683068193829968 0 0 0 0 -62.424055789568229 -12.1185186028506 0 -12.1185186028506 137.01311466910192 0 0 0 0 -132.95031383736023 -710.04343978709198 0 -710.04343978709198 365.32545960462448 0 0 0 0 23.107415581103851 62.305195990235006 0 62.305195990235006 201.33377958346318 0 0 0 0 122.06010591714585 2.3171042217145441 0 2.3171042217145441 64.318415799469221 0 0 0 0 65.677074545805226 -10.771077384313685 0 -10.771077384313685 79.838913490384584 0 0 0 0 30.805125751794549 -50.79790378319376 0 -50.79790378319376 79.467715734535886 0 0 0 0 93.910977794592327 -40.711982858823831 0 -40.711982858823831 61.961470448062755 0 0 0 0 35.672441967122722 -53.334730109549128 0 -53.334730109549128 64.297125917750236 0 0 0 0 3.9725086677644867 -40.717445758033136 0 -40.717445758033136 76.43525404191314 0 0 0 0 20.611618023875053 -33.015660067414501 0 -33.015660067414501 58.025802971722442 0 0 0 0 27.98444799191202 -44.351972411426686 0 -44.351972411426686 65.612125238138105 0 0 0 0 10.385953626882838 -46.685587609464164 0 -46.685587609464164 70.498667216699687 0 0 0 0 27.426236611325294 -48.341009974732515 0 -48.341009974732515 59.721556324057019 0 0 0 0 13.988590545093757 -45.675593662661413 0 -45.675593662661413 62.585297962865297 0 0 0 0 12.455600906294421 -51.083321784499276 0 -51.083321784499276 53.330284590153497 0 0 0 0 7.4928721103169664 -39.255153149225862 0 -39.255153149225862 56.874263143359713 0 0 0 0 3.9638004560744307 -36.846814347343098 0 -36.846814347343098 50.719481616066332 0 0 0 0 -7.7967779800783319 -42.916087028153015 0 -42.916087028153015 65.168535095206607 0 0 0 0 -10.49811901971043 -23.563961641797505 0 -23.563961641797505 40.232315510595981 0 0 0 0 -15.246805930328264 -37.932359016328064 0 -37.932359016328064 51.919288932960626 0 0 0 0 15.132742178117041 -52.769350434860826 0 -52.769350434860826 50.554382712492952 0 0 0 0 9.078364394561504 -41.246483769404222 0 -41.246483769404222 42.969040843310722 0 0 0 0 8.2999721775049693 -53.21102262547538 0 -53.21102262547538 65.124636365519109 0 0 0 0 6.1476122355579719 -61.320903562759213 0 -61.320903562759213 77.468274223159824 0 0 0 0 12.149328020968824 -56.09959469331352 0 -56.09959469331352 59.452896758994029 0 0 0 0 2.1903273530188017 -48.786568491074831 0 -48.786568491074831 58.511918075942958 0 0 0 0 7.7072836969018681 -54.42362762819721 0 -54.42362762819721 58.246440270530002 0 0 0 0 5.7479473120474722 -48.504027500675875 0 -48.504027500675875 61.732055790115737 0 0 0 0 8.573951856506028 -51.687356014006582 0 -51.687356014006582 65.308876175720798 0 0 0 0 -1.238277256161382 -51.716901577154204 0 -51.716901577154204 65.321443606058779 0 0 0 0 -12.173329558099795 -40.370337510184982 0 -40.370337510184982 68.830743528436869 0 0 0 0 -0.8372029017573368 -49.313178099488141 0 -49.313178099488141 75.534354363750026 0 0 0 0 8.416790239924012 -41.657900797844377 0 -41.657900797844377 68.750458742229966 0 0 0 0 -9.1854314133888693 -32.499172929214183 0 -32.499172929214183 68.303395361670596 0 0 0 0 -24.410313730288181 -43.705583969328927 0 -43.705583969328927 88.443406255901209 0 0 0 0 -15.984479029895738 -43.829201148582797 0 -43.829201148582797 75.974465301375403 0 0 0 0 -27.98231514523286 -34.601583040092009 0 -34.601583040092009 80.795217614788271 0 0 0 0 -14.576939546575886 -41.713758866373155 0 -41.713758866373155 75.035785197629593 0 0 0 0 -8.0399023473728448 -51.895209244888974 0 -51.895209244888974 80.417521068281985 0 0 0 0 -7.3652918966763536 -49.40313352346493 0 -49.40313352346493 78.915486983103619 0 0 0 0 -20.370877760957228 -38.592861268962224 0 -38.592861268962224 111.65000088539364 0 0 0 0 -18.652093808974314 -35.257827898361938 0 -35.257827898361938 72.152509955929418 0 0 0 0 -2.7750045479242544 -37.184559127365446 0 -37.184559127365446 99.467495129356394 0 0 0 0 -4.9305812633247115 -42.653647007955442 0 -42.653647007955442 172.93044369086783 0 0 0 0 6.596268034854802 -55.126570955149987 0 -55.126570955149987 98.424331276619341 0 0 0 0 5.5756359855804476 -65.22616957217906 0 -65.22616957217906 93.324054003207493 0 0 0 0 26.895316709364124 -66.562213090886871 0 -66.562213090886871 70.111134876757205 0 0 0 0 19.947160048028309 -62.005243218725809 0 -62.005243218725809 89.754595074948156 0 0 0 0 33.142350897222059 -63.077034177884343 0 -63.077034177884343 89.674678997471347 0 0 0 0 12.181566502636997 -45.860966577834915 0 -45.860966577834915 135.8503891303003 0 0 0 0 18.282219711560174 -82.396845019319699 0 -82.396845019319699 221.1462500050493 0 0 0 0 16.892292503165663 -76.663757074989917 0 -76.663757074989917 131.04379972334573 0 0 0 0 1.5163814279329131 0.71700416436662096 0 0.71700416436662096 -0.57353845516693802 0 0 0 0 -14.150447798292589 -3.7694855754998571 0 -3.7694855754998571 235.0513452549967 0 0 0 0 -23.907288538524881 -33.419102384563303 0 -33.419102384563303 -79.439653580322556 0 0 0 0 10.999290411171387 -50.303625363294486 0 -50.303625363294486 -81.75893681594971 0 0 0 0 -2.918681277838914 25.492501121516852 0 25.492501121516852 109.4536159684867 0 0 0 0 -4.4374854110064916 25.612761710644918 0 25.612761710644918 152.30897199946776 0 0 0 0 -29.433218622623826 -22.998627148165724 0 -22.998627148165724 44.047740904696184 0 0 0 0 -9.201698259144905 -23.779360588961936 0 -23.779360588961936 15.6961635994885 0 0 0 0 -3.3914521728282239 -6.2139741107887687 0 -6.2139741107887687 0.91959922874642963 0 0 0 0 -4.2817215949398815 1.2867788435869443 0 1.2867788435869443 28.525241625049603 0 0 0 0 -26.902934504421864 -7.3199799472067753 0 -7.3199799472067753 80.457640836673818 0 0 0 0 -18.969033101348941 -13.560870628969894 0 -13.560870628969894 33.020007117505031 0 0 0 0 -40.177539474112564 -37.858644649320922 0 -37.858644649320922 70.325569032818748 0 0 0 0 33.48577762118839 -78.19609496431076 0 -78.19609496431076 -94.255268854140013 0 0 0 0 -28.040526861899707 1.6068128328424791 0 1.6068128328424791 87.243197319635328 0 0 0 0 -13.877343148718044 -2.2708300044829137 0 -2.2708300044829137 81.154290477717524 0 0 0 0 -57.171769910608418 52.887321531306497 0 52.887321531306497 80.638498619751772 0 0 0 0 -3.9849702387235126 -2.7695757279074904 0 -2.7695757279074904 7.994569519210124 0 0 0 0 -71.004037948951009 -49.691058420635272 0 -49.691058420635272 67.658204738421773 0 0 0 0 20.795646648773982 -1.1143025042656518 0 -1.1143025042656518 35.156442075347513 0 0 0 0 -4.6098231501264593 -2.488773372842175 0 -2.488773372842175 17.395367405469386 0 0 0 0 18.401941669766529 -29.754015481375973 0 -29.754015481375973 35.8731730452173 0 0 0 0 41.057648591464385 -65.779540032757723 0 -65.779540032757723 75.79416836225937 0 0 0 0 36.855000083196501 -44.306049898641504 0 -44.306049898641504 48.054877524255971 0 0 0 0 105.25555468121456 -76.344029517858871 0 -76.344029517858871 99.059131088472441 0 0 0 0 26.29800570473526 -65.467145647369762 0 -65.467145647369762 138.79997568664839 0 0 0 0 91.99584455187869 -97.359047735675631 0 -97.359047735675631 143.34930600259713 0 0 0 0 -18.241848212361219 12.055673536076938 0 12.055673536076938 122.28591772727304 0 0 0 0 12.299967169567935 -28.033777518341186 0 -28.033777518341186 29.971408276715376 0 0 0 0 18.833054933478707 -132.01566451426334 0 -132.01566451426334 72.506481060423539 0 0 0 0 57.784254888656505 -73.989392955932544 0 -73.989392955932544 79.54252539168192 0 0 0 0 17.118943732217303 -48.215362370342973 0 -48.215362370342973 125.2600975815792 0 0 0 0 2.440294193376161 -4.9801205266667239 0 -4.9801205266667239 19.759788351608186 0 0 0 0 -304.16688644518217 36.144207526371247 0 36.144207526371247 332.75165531136372 0 0 0 0 -41.150505592617264 -162.18015281366115 0 -162.18015281366115 -188.31403514928479 0 0 0 0 -30.129746668311782 -1.1642294865414442 0 -1.1642294865414442 190.43192139444341 0 0 0 0 29.567386589786111 -126.49241137074614 0 -126.49241137074614 149.28534311929616 0 0 0 0 -51.145212629875459 -312.44211854856803 0 -312.44211854856803 -110.7623326908506 0 0 0 0 -111.92496386204402 -101.0685249730559 0 -101.0685249730559 -19.595177942763257 0 0 0 0 55.766122652166814 -16.020636718726109 0 -16.020636718726109 -5.7598969321516051 0 0 0 0 -3.0529494154841004 0.35836759925764738 0 0.35836759925764738 18.053486990078817 0 0 0 0 -161.92879084003471 -31.219756230639177 0 -31.219756230639177 53.918197234306717 0 0 0 0 -3.5263648151898863 0.16338738372218131 0 0.16338738372218131 2.7628289116181364 0 0 0 0 -105.45662086618995 5.4398457456932192 0 5.4398457456932192 23.272632374879322 0 0 0 0 -75.680840583307145 -28.259169912653306 0 -28.259169912653306 22.091172464697593 0 0 0 0 -29.510640985441569 -3.750444382076239 0 -3.750444382076239 4.4007364024146227 0 0 0 0 -9.3167085030727321 -27.79181374941254 0 -27.79181374941254 16.978021872575482 0 0 0 0 -10.520727839848405 -12.340246448251492 0 -12.340246448251492 32.806124181541236 0 0 0 0 -25.158832660134067 -38.765695792109909 0 -38.765695792109909 13.913907992005988 0 0 0 0 -93.992613876022915 -48.08626284405932 0 -48.08626284405932 27.10568702547971 0 0 0 0 -23.749181944167503 -15.910811576970445 0 -15.910811576970445 68.188884331531881 0 0 0 0 -14.666615001304308 -19.168301723022523 0 -19.168301723022523 17.941418669167888 0 0 0 0 18.861601991404314 136.1819014686007 0 136.1819014686007 259.54974912534453 0 0 0 0 39.247034078653087 64.283790911731558 0 64.283790911731558 -72.519911409184715 0 0 0 0 20.064013301447631 71.352635897021173 0 71.352635897021173 61.255975709027553 0 0 0 0 30.420681768882787 36.575343269516452 0 36.575343269516452 96.194206989228405 0 0 0 0 51.982275896938518 27.836756733894617 0 27.836756733894617 99.471006418621982 0 0 0 0 16.566294786480285 30.127203235375418 0 30.127203235375418 268.17650264367603 0 0 0 0 11.546822508161767 32.715723120227267 0 32.715723120227267 137.187981899644 0 0 0 0 -3.0410500406087522 30.075633948068571 0 30.075633948068571 138.68484467106737 0 0 0 0 5.7206039864158811 -9.3374025176203759 0 -9.3374025176203759 35.849426772601873 0 0 0 0 22.900298756545453 -6.3048879937450693 0 -6.3048879937450693 28.397409328303183 0 0 0 0 -8.1567400215171801 -24.385783840856675 0 -24.385783840856675 51.932072610377872 0 0 0 0 -22.106027733931114 -2.4508989930927783 0 -2.4508989930927783 29.997964472455351 0 0 0 0 0.4160360054429475 -28.160253203314824 0 -28.160253203314824 -14.21148503402037 0 0 0 0 -22.887160561980636 10.748117020228165 0 10.748117020228165 28.672062948966413 0 0 0 0 -18.523157143996286 -10.447046801204124 0 -10.447046801204124 41.518120260014257 0 0 0 0 -33.201764567392274 -50.766129540505062 0 -50.766129540505062 8.825598624018312 0 0 0 0 1.2939629902037098 -2.8206064550913084 0 -2.8206064550913084 1.6412213802232856 0 0 0 0 -25.757577377354842 0.33840025963353426 0 0.33840025963353426 15.175155184165593 0 0 0 0 -34.331331971151485 11.208896896696388 0 11.208896896696388 6.6357947657161276 0 0 0 0 -20.318719428774372 -12.42714087236237 0 -12.42714087236237 13.802042064274811 0 0 0 0 -17.987342638467453 -3.9645957766824722 0 -3.9645957766824722 44.519988145593743 0 0 0 0 -16.976738201394255 -2.9578889321269344 0 -2.9578889321269344 33.729840607909864 0 0 0 0 -16.560019479044058 -13.914306845387728 0 -13.914306845387728 30.87068245249975 0 0 0 0 -41.189001341665971 -18.722833499310582 0 -18.722833499310582 35.164419585405994 0 0 0 0 -21.270074049636605 -10.460460288473314 0 -10.460460288473314 21.653482439422078 0 0 0 0 -44.318036039038816 -2.9190770761138083 0 -2.9190770761138083 29.987471419859503 0 0 0 0 -67.946950852625378 -17.314267408451542 0 -17.314267408451542 24.685606738715705 0 0 0 0 -8.0781865705832399 -12.935309301499377 0 -12.935309301499377 32.446657592445042 0 0 0 0 -65.332258295955398 -12.805194956591549 0 -12.805194956591549 14.7339854411548 0 0 0 0 -6.4444015078389754 -3.483717548252832 0 -3.483717548252832 17.554074648234657 0 0 0 0 -39.824358068653964 -18.586664689865756 0 -18.586664689865756 10.153110417508287 0 0 0 0 -15.187126365846019 -23.238955861870259 0 -23.238955861870259 4.396956726581756 0 0 0 0 -22.03297244321767 -7.2282322924918638 0 -7.2282322924918638 26.754572425637079 0 0 0 0 -31.396453562950647 1.6567051547854161 0 1.6567051547854161 51.080251921604045 0 0 0 0 -33.87868030507525 -4.3280848829826937 0 -4.3280848829826937 30.35432489348932 0 0 0 0 -33.986515504399904 -37.056451561310496 0 -37.056451561310496 21.66725607137414 0 0 0 0 -24.022932440191624 -7.3862873933494768 0 -7.3862873933494768 17.9254180846156 0 0 0 0 -36.181677414591832 -33.641842420107423 0 -33.641842420107423 16.47826600303415 0 0 0 0 11.275008019692031 18.770904227741994 0 18.770904227741994 34.333688545055338 0 0 0 0 -0.96120942757897287 -1.6888641243158418 0 -1.6888641243158418 5.0635820797375573 0 0 0 0 13.267480958229598 21.277726141866879 0 21.277726141866879 32.695843970461283 0 0 0 0 10.925794205954645 16.939823020264157 0 16.939823020264157 30.4245130354102 0 0 0 0 12.894954522528163 19.635151035254239 0 19.635151035254239 29.721369502516609 0 0 0 0 -0.36680284747891234 0.15312965283455071 0 0.15312965283455071 2.7605608344563279 0 0 0 0 0.021889392900512429 7.9002643275853188 0 7.9002643275853188 19.262885392286989 0 0 0 0 120.94967789361209 290.95890627327026 0 290.95890627327026 516.81093864445575 0 0 0 0 57.361358766168422 188.81797211602316 0 188.81797211602316 503.49794894098568 0 0 0 0 -15.516109313995514 178.24014458070087 0 178.24014458070087 489.91878827063192 0 0 0 0 -9.4380143361137101 191.42065165628082 0 191.42065165628082 497.65688237054565 0 0 0 0 12.461898139565992 7.0230008342514338 0 7.0230008342514338 384.87219998600631 0 0 0 0 89.746486160599886 212.07701905644899 0 212.07701905644899 318.83229759164533 0 0 0 0 19.544637852941559 27.056575737756745 0 27.056575737756745 13.468311865610922 0 0 0 0 3.5487465148964961 3.3611936246667398 0 3.3611936246667398 14.655100734361355 0 0 0 0 31.186609552179107 48.540289882352226 0 48.540289882352226 257.52462379839199 0 0 0 0 21.675247801028156 25.030243417750171 0 25.030243417750171 49.735734374247841 0 0 0 0 26.539991676528693 20.646306707322196 0 20.646306707322196 9.4877741121732058 0 0 0 0 70.300501628089918 91.638151630735592 0 91.638151630735592 217.15795102198172 0 0 0 0 -131.33570800657253 229.03803736298141 0 229.03803736298141 -117.17118424124055 0 0 0 0 -237.86618965898742 -5.507214039345854 0 -5.507214039345854 35.4396228501937 0 0 0 0 3.5446359302061712 7.3405078468886273 0 7.3405078468886273 5.1881242589952024 0 0 0 0 34.59660818743032 42.28263805809911 0 42.28263805809911 143.96190269770159 0 0 0 0 47.476360242087139 42.9598691504616 0 42.9598691504616 31.675646338393562 0 0 0 0 33.1589887673872 120.87599221322307 0 120.87599221322307 208.93772450024335 0 0 0 0 21.087582073958401 59.74155160299415 0 59.74155160299415 177.01335612233379 0 0 0 0 14.777954703952487 26.414268563201318 0 26.414268563201318 17.815443431754318 0 0 0 0 -7.1761779852787768 23.072206659577205 0 23.072206659577205 85.083876579923526 0 0 0 0 -15.032478634538721 -16.90319843073523 0 -16.90319843073523 19.411842054209473 0 0 0 0 3.4082941077867872 53.87453895962426 0 53.87453895962426 135.52844630950858 0 0 0 0 8.969110138895779 20.267625851425692 0 20.267625851425692 45.203659664621227 0 0 0 0 21.590212171555127 24.011100489879937 0 24.011100489879937 37.880561949918047 0 0 0 0 14.457305954563267 17.664602204808034 0 17.664602204808034 33.24176013674878 0 0 0 0 0.010455345641611477 18.624031914470834 0 18.624031914470834 38.564906723018794 0 0 0 0 7.2336139409054452 24.65669625010014 0 24.65669625010014 41.076187118902453 0 0 0 0 -0.93913100923685167 0.154465972427829 0 0.154465972427829 14.213888899872089 0 0 0 0 0.015249810262782337 14.268630613718415 0 14.268630613718415 42.675451231349143 0 0 0 0 1.2784771269265172 4.2244291429293099 0 4.2244291429293099 13.374417729699914 0 0 0 0 10.834919020549194 19.040144691782189 0 19.040144691782189 36.231066046326305 0 0 0 0 -7.5796501844769253 10.175446819412173 0 10.175446819412173 136.72358796202388 0 0 0 0 11.27626791942504 23.59411727251063 0 23.59411727251063 30.248298441416409 0 0 0 0 -0.0084637748381375146 30.776852234357648 0 30.776852234357648 72.040107687214913 0 0 0 0 -7.6624194434311619 11.279879857487686 0 11.279879857487686 78.709498326665198 0 0 0 0 0.01779428568204211 0.36097304604983549 0 0.36097304604983549 0.22420078608069005 0 0 0 0 -8.9611080961846312 24.721999661011068 0 24.721999661011068 117.24733948882204 0 0 0 0 0.001130142446286818 29.829093405551852 0 29.829093405551852 110.81562980024319 0 0 0 0 -0.0033215873088616732 0.22412012852856833 0 0.22412012852856833 0.22244032411142101 0 0 0 0 -21.162770716749826 8.8870673106066533 0 8.8870673106066533 168.37891420025608 0 0 0 0 -12.842612282528577 -6.7371772918340866 0 -6.7371772918340866 67.301039227611909 0 0 0 0 -12.779888544069685 20.645570865402988 0 20.645570865402988 104.30717438214197 0 0 0 0 -33.104492150211286 16.994035356969107 0 16.994035356969107 114.77372641427064 0 0 0 0 -22.717694436779936 -15.552393906451471 0 -15.552393906451471 47.156500827768468 0 0 0 0 0.75777315222404518 19.013412839274679 0 19.013412839274679 2.975026805564994 0 0 0 0 -21.300018932547886 7.1565644230140606 0 7.1565644230140606 50.343706523492074 0 0 0 0 -10.343816120651052 -9.9214366911674006 0 -9.9214366911674006 -6.071000517666107 0 0 0 0 -19.536055981791023 31.893337810382945 0 31.893337810382945 -3.5239871908270288 0 0 0 0 -4.5336727806636929 11.335906118198182 0 11.335906118198182 -8.145289419699111 0 0 0 0 -0.0024562231889931913 22.819302737840189 0 22.819302737840189 39.648962269886397 0 0 0 0 1.6448513598733143 5.6927400613931241 0 5.6927400613931241 -3.1719986934585904 0 0 0 0 4.8690874903390409 10.247443752567051 0 10.247443752567051 17.900174442867865 0 0 0 0 15.405131356083984 63.584539067043806 0 63.584539067043806 89.506243427982554 0 0 0 0 10.612843910234346 38.336511791443627 0 38.336511791443627 117.2841313172903 0 0 0 0 43.101923747292233 61.599481867408031 0 61.599481867408031 85.645830923094763 0 0 0 0 0.53717622653120078 -0.072671415127388173 0 -0.072671415127388173 -0.011005817043695743 0 0 0 0 80.403578956618389 52.948627576537547 0 52.948627576537547 18.855221423713374 0 0 0 0 1.2145892068245985 1.9014034119463759 0 1.9014034119463759 0.11207050862140022 0 0 0 0 1.3699590856062538 2.4827694856599578 0 2.4827694856599578 -0.46279086305418105 0 0 0 0 0.3106045437801318 0.19560474590288379 0 0.19560474590288379 -0.088117106316019544 0 0 0 0 35.38360299840383 -3.1764433011994697 0 -3.1764433011994697 -8.5408040509209968 0 0 0 0 -0.09832718005462282 0.51713851221148843 0 0.51713851221148843 0.68356033281850159 0 0 0 0 -4.4495226591035077 17.041119367446299 0 17.041119367446299 -10.159138123010052 0 0 0 0 1.2681650992077245 0.98290307249908437 0 0.98290307249908437 -0.69305383684695698 0 0 0 0 -4.9683627024921861 -1.9610644292115467 0 -1.9610644292115467 4.9377097257383866 0 0 0 0 59.850497097271273 21.551714420784265 0 21.551714420784265 3.6093425701546948 0 0 0 0 -4.4739431175180755 -32.440285396816762 0 -32.440285396816762 61.987291526085755 0 0 0 0 -17.741810092346974 26.849122708770665 0 26.849122708770665 -1.9468744837795384 0 0 0 0 20.811967564756628 0.7203180226351833 0 0.7203180226351833 -2.7613937054775306 0 0 0 0 79.060383966707093 72.546198291925975 0 72.546198291925975 56.486067554127658 0 0 0 0 0.1313913006624049 0.3054868169864875 0 0.3054868169864875 0.97049513969540158 0 0 0 0 -32.035947955748121 3.74752066783185 0 3.74752066783185 146.56940971051517 0 0 0 0 -19.248892479502217 43.682692399110238 0 43.682692399110238 158.55188107918366 0 0 0 0 -13.693004955770505 40.723554524229257 0 40.723554524229257 200.06011490163655 0 0 0 0 22.847282571683621 100.74460958105192 0 100.74460958105192 146.18971591701848 0 0 0 0 16.038093158068932 64.053311791256419 0 64.053311791256419 89.09479266651033 0 0 0 0 16.314376538718506 61.87650628699339 0 61.87650628699339 104.23657347084372 0 0 0 0 -9.7563291226033897 34.099318241307628 0 34.099318241307628 123.53159494503052 0 0 0 0 -6.2178590033917089 30.787587472485029 0 30.787587472485029 110.73779090147582 0 0 0 0 39.403225266175951 21.167796881469258 0 21.167796881469258 9.3095872167468769 0 0 0 0 2.8686667063759757 -0.087196911810679012 0 -0.087196911810679012 67.992384067416424 0 0 0 0 -16.169662877102553 1.2801341588274227 0 1.2801341588274227 117.62850107439044 0 0 0 0 2.3253984337209204 -6.7094669415309909 0 -6.7094669415309909 158.05451745371101 0 0 0 0 -22.515460203628265 17.66092248543282 0 17.66092248543282 75.588994197150896 0 0 0 0 13.383284556077996 30.38234214417389 0 30.38234214417389 88.645055243709066 0 0 0 0 79.767696508878373 38.808919749993947 0 38.808919749993947 93.848850657203002 0 0 0 0 -22.277544737392702 1.6763348172389669 0 1.6763348172389669 83.709659050902701 0 0 0 0 -21.292083952086561 -16.765614014219679 0 -16.765614014219679 14.798505139103071 0 0 0 0 -7.8885617111260871 14.692901132893894 0 14.692901132893894 89.303474407213798 0 0 0 0 14.748650832000749 -7.3972831919163582 0 -7.3972831919163582 85.888089307234623 0 0 0 0 -72.929131151405329 21.862134532100754 0 21.862134532100754 147.62473538185259 0 0 0 0 0.019723934324786807 0.142695913384145 0 0.142695913384145 0.13138356564112996 0 0 0 0 103.44541430596291 169.47383551864186 0 169.47383551864186 -8.5541531832132023 0 0 0 0 -226.69502755960457 -221.22736716225336 0 -221.22736716225336 116.74981283042871 0 0 0 0 -25.356370392979656 -15.948314954305943 0 -15.948314954305943 14.280126202899382 0 0 0 0 23.43335710300741 -3.6455215612550091 0 -3.6455215612550091 66.96566724962031 0 0 0 0 -48.60867941242941 -56.324255927072954 0 -56.324255927072954 183.80670335764444 0 0 0 0 -14.62619346368956 -10.135025297080574 0 -10.135025297080574 23.90892103093438 0 0 0 0 -43.336105633870829 -13.716474409186048 0 -13.716474409186048 -1.9201650738832541 0 0 0 0 -23.633413522957653 -26.577700971973172 0 -26.577700971973172 3.8014101676235441 0 0 0 0 -20.362988076831869 -0.50819509740540525 0 -0.50819509740540525 84.665981922662468 0 0 0 0 -27.615250620639767 -13.760659999306014 0 -13.760659999306014 21.442847617287939 0 0 0 0 -28.682862740827712 -0.1847952502539556 0 -0.1847952502539556 85.308628572427551 0 0 0 0 -18.26571505263189 0.93033492693211883 0 0.93033492693211883 66.510001959471992 0 0 0 0 -25.972553103798063 0.18969398501212709 0 0.18969398501212709 78.712376144976588 0 0 0 0 -31.842458460011883 4.4805117897994933 0 4.4805117897994933 83.463787790111382 0 0 0 0 -23.661238742276538 -1.979785568335501 0 -1.979785568335501 86.86380391917919 0 0 0 0 -25.392457366921747 0.079229726507037412 0 0.079229726507037412 101.5322122930811 0 0 0 0 -13.93983638368303 -0.68209644851231133 0 -0.68209644851231133 78.775468184554484 0 0 0 0 -3.464213349516136 13.715633776680079 0 13.715633776680079 96.438481816381682 0 0 0 0 35.72016160603112 16.742495137219521 0 16.742495137219521 81.739891493198229 0 0 0 0 -20.680877692402447 4.7462377033152734 0 4.7462377033152734 95.030944425532653 0 0 0 0 -20.816405053071524 7.2010780232837988 0 7.2010780232837988 90.91030184351257 0 0 0 0 -32.464487662343963 1.9232112118043005 0 1.9232112118043005 94.117121194227366 0 0 0 0 -21.4232304090201 0.56757878109056037 0 0.56757878109056037 79.396968947577989 0 0 0 0 -26.546098819116953 13.261840311409742 0 13.261840311409742 55.856581283980631 0 0 0 0 -32.062541938151917 5.2804869718956979 0 5.2804869718956979 81.825107478740392 0 0 0 0 -28.124880973398064 1.8628289753687568 0 1.8628289753687568 87.082609992939979 0 0 0 0 -9.6061895145964513 26.482745929624798 0 26.482745929624798 39.845047875605815 0 0 0 0 0.52519977503698101 -4.7940276995250315 0 -4.7940276995250315 40.040878201845771 0 0 0 0 -24.700108483464007 31.544307955922704 0 31.544307955922704 42.741293802289874 0 0 0 0 -3.3749597215346849 9.0548000881550905 0 9.0548000881550905 30.572590730296099 0 0 0 0 -4.131567341919216 5.2883898889107428 0 5.2883898889107428 8.7241396538490505 0 0 0 0 -48.401500776135961 10.370972593140323 0 10.370972593140323 28.717998742998134 0 0 0 0 -12.311830962527694 50.991337408253457 0 50.991337408253457 49.879237573622959 0 0 0 0 27.558991487178162 21.932843619360938 0 21.932843619360938 12.235613437107531 0 0 0 0 -14.6287534552078 19.033142300628242 0 19.033142300628242 110.3448249080102 0 0 0 0 -12.430042961449189 10.633733101320104 0 10.633733101320104 49.345143595041009 0 0 0 0 -36.074454511697311 28.608887528775085 0 28.608887528775085 74.715669048338896 0 0 0 0 -42.430865376491681 -38.109683088876864 0 -38.109683088876864 86.706704195792554 0 0 0 0 -0.89424898843410827 -4.970930989194585 0 -4.970930989194585 45.568250860168035 0 0 0 0 -30.542721677789814 13.962878482445376 0 13.962878482445376 104.70912538045377 0 0 0 0 80.360556437533887 -93.16318619591766 0 -93.16318619591766 79.034763403164106 0 0 0 0 -70.247253932602234 -3.739979473688436 0 -3.739979473688436 55.451559237901165 0 0 0 0 -0.1548771385274561 -6.4497667170739739 0 -6.4497667170739739 0.97705662765943657 0 0 0 0 -6.1847696352999719 1.8834582301460614 0 1.8834582301460614 41.406651855846576 0 0 0 0 -21.574442612078116 3.9631334662847166 0 3.9631334662847166 80.260303785064025 0 0 0 0 -5.2956566349804186 4.7479388709552381 0 4.7479388709552381 40.792569420210782 0 0 0 0 -13.200852964838333 3.8052058701287024 0 3.8052058701287024 79.044223677818081 0 0 0 0 -11.0536506706952 -0.63474730640785282 0 -0.63474730640785282 37.885748431382211 0 0 0 0 -40.118316286063418 43.356543420934031 0 43.356543420934031 67.152594225724897 0 0 0 0 -77.642682258926015 -21.34638878764963 0 -21.34638878764963 101.05710266876849 0 0 0 0 -3.221751299640796 6.3675405572195203 0 6.3675405572195203 15.406905259646777 0 0 0 0 -4.6575064706726153 -8.2536207175871823 0 -8.2536207175871823 27.036477016052231 0 0 0 0 -13.653258331909406 -4.9855592175799046 0 -4.9855592175799046 49.910096704677727 0 0 0 0 -11.355355170780241 -4.7836013261787684 0 -4.7836013261787684 25.099293158122379 0 0 0 0 -21.453873457505779 -7.5975447566561343 0 -7.5975447566561343 33.170131108381611 0 0 0 0 1.4094306205175871 -10.697612302627398 0 -10.697612302627398 7.8473063966769701 0 0 0 0 -5.26438300512973 -12.175815835955291 0 -12.175815835955291 14.795027665131784 0 0 0 0 -2.8548688306405516 -7.8581314346053261 0 -7.8581314346053261 7.0849881228962914 0 0 0 0 142.97486403522032 -150.68544830712199 0 -150.68544830712199 -16.364837540484586 0 0 0 0 1.2575560871437448 -7.7260158871532383 0 -7.7260158871532383 8.4205187386927207 0 0 0 0 -5.718578729041127 -5.2648237880348461 0 -5.2648237880348461 23.870519118958327 0 0 0 0 323.30817502040236 -50.1442594165419 0 -50.1442594165419 16.589407962906989 0 0 0 0 -123.34837058495532 -45.358918768550211 0 -45.358918768550211 594.88902723017964 0 0 0 0 -179.13855048450296 76.576156085640832 0 76.576156085640832 609.65963449575065 0 0 0 0 246.78828821063024 153.29469803585357 0 153.29469803585357 274.64025970071089 0 0 0 0 -6.0001622979671083 -227.2867478280059 0 -227.2867478280059 -114.33338326208104 0 0 0 0 -438.20585912307979 -209.76530106428982 0 -209.76530106428982 437.2145589519223 0 0 0 0 -385.94670038034747 -109.3543760586399 0 -109.3543760586399 970.32024590135552 0 0 0 0 -143.63288936184836 -85.318415491390624 0 -85.318415491390624 394.99429506243905 0 0 0 0 -94.787812057481005 -63.829394520315873 0 -63.829394520315873 263.86211521898076 0 0 0 0 162.8876936515926 469.82386312145172 0 469.82386312145172 807.61558273278933 0 0 0 0 -179.23131661664138 60.097526231627853 0 60.097526231627853 594.78914267581422 0 0 0 0 -70.246775123764564 159.86286184092387 0 159.86286184092387 412.62703438779135 0 0 0 0 20.007194392455858 -67.055366471897287 0 -67.055366471897287 -52.54010518672294 0 0 0 0 23.190754050441683 -121.29318731090643 0 -121.29318731090643 642.96735551519669 0 0 0 0 2.291077119495661 -2.6097186259742671 0 -2.6097186259742671 3.1594895378145935 0 0 0 0 0.017838722054847267 -0.58612976704811359 0 -0.58612976704811359 4.0661560995087314 0 0 0 0 -181.99394879063766 200.82649470278557 0 200.82649470278557 771.67267276242637 0 0 0 0 30.021716404848121 -136.95136444333912 0 -136.95136444333912 70.259646166581661 0 0 0 0 -249.90549800287613 -21.828613025546474 0 -21.828613025546474 410.9724960794847 0 0 0 0 37.917146721429162 -113.40538124729937 0 -113.40538124729937 27.312580687083027 0 0 0 0 -184.81450075782777 298.03782903349929 0 298.03782903349929 183.84317597957124 0 0 0 0 -20.070257269876038 -217.27008822169682 0 -217.27008822169682 -94.65727630147012 0 0 0 0 337.11860566625455 550.44649188069889 0 550.44649188069889 -758.05445681603305 0 0 0 0 24.986476224898944 16.568585245813054 0 16.568585245813054 6.5344456151342598 0 0 0 0 705.81581576183999 53.234478106882307 0 53.234478106882307 153.05608948523877 0 0 0 0 -449.51671809849267 560.6080488918742 0 560.6080488918742 67.260493546588805 0 0 0 0 24.246907074872759 93.487108928537054 0 93.487108928537054 653.3363334252499 0 0 0 0 94.31112560772533 46.950388910991023 0 46.950388910991023 682.94046776006689 0 0 0 0 -13.529035382323547 19.980419794277623 0 19.980419794277623 546.11845793365501 0 0 0 0 62.53132275403631 256.39026131211358 0 256.39026131211358 527.01176014630983 0 0 0 0 -39.961302245736242 200.12889315258326 0 200.12889315258326 652.19311002627364 0 0 0 0 195.69481101743418 294.68064441023307 0 294.68064441023307 473.74729512445629 0 0 0 0 83.061644349346551 339.83229442387528 0 339.83229442387528 757.89420103214616 0 0 0 0 378.84306923541277 651.91757718375811 0 651.91757718375811 1061.2564363008642 0 0 0 0 238.56827682814765 144.35731525890878 0 144.35731525890878 453.31155979870528 0 0 0 0 679.75080441065916 376.48125763157987 0 376.48125763157987 337.98400571452657 0 0 0 0 1563.1013738532042 1306.1207352920756 0 1306.1207352920756 997.76956888892164 0 0 0 0 712.51092741549871 992.64882496660312 0 992.64882496660312 -770.75484383097501 0 0 0 0 85.981045023269104 1.561488317711337 0 1.561488317711337 1319.5132026498595 0 0 0 0 11.67203913019776 5.325925739832428 0 5.325925739832428 2.610985021154832 0 0 0 0 -91.992317990698254 364.73661342933337 0 364.73661342933337 2406.7190400053041 0 0 0 0 1.1175505344264431 -0.36345845098084339 0 -0.36345845098084339 -0.081616419594567446 0 0 0 0 133.52454692173478 72.721772161097761 0 72.721772161097761 213.87654054725863 0 0 0 0 234.15673866682084 -253.51660279861062 0 -253.51660279861062 -692.95386392726505 0 0 0 0 -8.7629450987026303 -142.60484875636394 0 -142.60484875636394 157.29585108582251 0 0 0 0 701.40017948884338 1329.1156225940128 0 1329.1156225940128 776.84740132281149 0 0 0 0 587.03492066572267 -155.22850100263167 0 -155.22850100263167 -200.14282640989404 0 0 0 0 79.624426741723937 -40.528764070584657 0 -40.528764070584657 794.70308588807529 0 0 0 0 1.5235727568385948 5.3574543151504592 0 5.3574543151504592 15.271290934681531 0 0 0 0 182.03385653243731 289.71474175297408 0 289.71474175297408 106.40052534370625 0 0 0 0 -965.86465373043484 -201.18694279400734 0 -201.18694279400734 406.51880480759064 0 0 0 0 -106.53018081142841 85.36925779709054 0 85.36925779709054 51.454029806220206 0 0 0 0 0.71603246545752164 7.3324104609155185 0 7.3324104609155185 34.772382418471125 0 0 0 0 34.184155045561965 31.526845830347156 0 31.526845830347156 3.3099715401731373 0 0 0 0 71.004565972785258 -10.06331953634799 0 -10.06331953634799 67.598964393229835 0 0 0 0 37.788244781089816 -31.702492463147792 0 -31.702492463147792 50.373632273251133 0 0 0 0 1.7976670813524507 -0.62258909411515617 0 -0.62258909411515617 -0.47067294545338711 0 0 0 0 31.257024813230601 -44.724358972081973 0 -44.724358972081973 130.60192093505611 0 0 0 0 -35.595110869044504 32.931099690259543 0 32.931099690259543 615.82876968513301 0 0 0 0 45.121581588839717 321.35878402217713 0 321.35878402217713 545.3217302820558 0 0 0 0 33.739316886847746 31.845153800864864 0 31.845153800864864 384.29924290443887 0 0 0 0 161.38837533381297 288.5779672102326 0 288.5779672102326 244.81474406792404 0 0 0 0 156.3995942953361 489.4337455292407 0 489.4337455292407 650.97520712643313 0 0 0 0 63.805881925324456 381.27083575491542 0 381.27083575491542 658.03395541399368 0 0 0 0 -63.461525576790336 411.3888074835595 0 411.3888074835595 1017.3566704187469 0 0 0 0 315.99777759461085 735.57681129611592 0 735.57681129611592 728.79964531788937 0 0 0 0 377.1547732070876 508.48953252565116 0 508.48953252565116 488.09743103358778 0 0 0 0 -88.204372696057135 -236.89627625687717 0 -236.89627625687717 1150.1732998300067 0 0 0 0 82.012583032412067 711.46008707816873 0 711.46008707816873 1627.7170191201876 0 0 0 0 516.48736893028467 1200.7631295009705 0 1200.7631295009705 724.29985183750978 0 0 0 0 244.72712118160874 293.68186180862108 0 293.68186180862108 1804.5273972655559 0 0 0 0 1027.9529380080703 47.196750707418687 0 47.196750707418687 441.21267051492032 0 0 0 0 934.88546285274379 993.82654750729853 0 993.82654750729853 856.51272119790519 0 0 0 0 126.41991183492135 93.989713072398445 0 93.989713072398445 458.6417039247317 0 0 0 0 171.06972385669269 227.30261011560106 0 227.30261011560106 308.38120660829009 0 0 0 0 254.66342408301944 -50.931263875376317 0 -50.931263875376317 144.16547816847742 0 0 0 0 -84.801426358136382 250.62484006585873 0 250.62484006585873 -75.896073693758808 0 0 0 0 395.10996420985163 616.09765496484624 0 616.09765496484624 375.69945488047961 0 0 0 0 2.301544240477567 -0.67606573669550585 0 -0.67606573669550585 -2.037638049859595 0 0 0 0 287.17320488788755 267.61502975830444 0 267.61502975830444 187.00130891569643 0 0 0 0 157.7864181015284 404.74232413947175 0 404.74232413947175 615.5399611020548 0 0 0 0 155.88796726622195 511.74945442631724 0 511.74945442631724 492.05982810702699 0 0 0 0 -1.8251995931984766 13.137619613618881 0 13.137619613618881 28.979817548570281 0 0 0 0 1.2588270588029897 4.7816862568438552 0 4.7816862568438552 -0.59426249622022453 0 0 0 0 8.1848024091189018 17.055927140801941 0 17.055927140801941 30.480215622716059 0 0 0 0 -2.0211054036813039 9.9351172531569318 0 9.9351172531569318 28.533573720099412 0 0 0 0 -0.90255631932510028 11.091486724773858 0 11.091486724773858 28.799216941748455 0 0 0 0 -1.6502091607864884 12.255711944017094 0 12.255711944017094 30.542502873940975 0 0 0 0 -4.6050981137207145 10.534381049386866 0 10.534381049386866 30.62224154903538 0 0 0 0 -11.148044919804303 3.1041607746655302 0 3.1041607746655302 3.9762306044981415 0 0 0 0 10.902240960209383 5.8123575363752025 0 5.8123575363752025 52.031960303691449 0 0 0 0 66.834657536230225 111.19748133225221 0 111.19748133225221 107.36148909820622 0 0 0 0 -17.62960650281093 -2.7291563291946659 0 -2.7291563291946659 -45.044884415896377 0 0 0 0 -6.7878189935474635 2.1601892006045773 0 2.1601892006045773 -1.1603921924535001 0 0 0 0 4.189005710769834 23.916651309664303 0 23.916651309664303 38.297614466602681 0 0 0 0 -4.1768093367442845 16.088480771040622 0 16.088480771040622 34.731833119927614 0 0 0 0 -30.696409334580039 -9.4106531155830453 0 -9.4106531155830453 101.6427773942778 0 0 0 0 -19.162513073705554 4.9814981292574885 0 4.9814981292574885 35.924132742307847 0 0 0 0 -95.173795377530041 -60.613556456912193 0 -60.613556456912193 121.78119347042957 0 0 0 0 -49.687245102052771 -75.862177681813591 0 -75.862177681813591 113.342283099817 0 0 0 0 -70.944808637390906 -2.9550305991360801 0 -2.9550305991360801 128.85558299839613 0 0 0 0 -71.723925657452583 -13.608441802687594 0 -13.608441802687594 214.27897975950327 0 0 0 0 -156.8976534785088 -49.780999949205579 0 -49.780999949205579 337.58304415608291 0 0 0 0 -104.70171149520411 58.825652767077372 0 58.825652767077372 323.70153084397316 0 0 0 0 -45.684592033140689 547.74459594723157 0 547.74459594723157 840.04380842766841 0 0 0 0 93.977692502282025 -143.34280744579519 0 -143.34280744579519 140.33474445776665 0 0 0 0 -0.5801079861175138 -0.5495442491907454 0 -0.5495442491907454 -0.39244895286725523 0 0 0 0 2.089513768723009 -65.226400170380657 0 -65.226400170380657 237.59757575626281 0 0 0 0 -195.85790747493684 -168.64436365044094 0 -168.64436365044094 164.53728428114118 0 0 0 0 -53.317557061034677 -101.77873111638473 0 -101.77873111638473 -47.744185798434501 0 0 0 0 -5.1348190761543719 54.145307384143962 0 54.145307384143962 168.14574143605569 0 0 0 0 -3.4205128360906123 0.90375949154851298 0 0.90375949154851298 0.22593744175012631 0 0 0 0 11.430324992147689 48.997981380402052 0 48.997981380402052 66.61790697518154 0 0 0 0 -27.769311568080411 4.6436197789225844 0 4.6436197789225844 106.11039669378806 0 0 0 0 -0.22446198547095264 57.9594663120115 0 57.9594663120115 144.13356945581563 0 0 0 0 -9.115829527919459 16.539018634292916 0 16.539018634292916 110.51661537580367 0 0 0 0 -42.826497902883602 26.762592065417266 0 26.762592065417266 152.74042935074488 0 0 0 0 11.735717898277926 24.504955639667969 0 24.504955639667969 26.795558264901047 0 0 0 0 -8.2037992560831299 13.102136921163037 0 13.102136921163037 52.435825090282378 0 0 0 0 225.87434361885573 331.66134754706218 0 331.66134754706218 747.60583832480916 0 0 0 0 1.6074448578312452 3.3800029630351247 0 3.3800029630351247 -1.9074301173225052 0 0 0 0 8.4018925757775378 17.630443974615446 0 17.630443974615446 24.839580043757451 0 0 0 0 161.8309640682246 431.82222403570267 0 431.82222403570267 726.72111551793205 0 0 0 0 136.84117691269466 390.61507018086559 0 390.61507018086559 686.08028863986692 0 0 0 0 152.71570489352689 487.33743740959108 0 487.33743740959108 662.26776720113412 0 0 0 0 81.727711165614892 419.77378880971537 0 419.77378880971537 765.8789775671903 0 0 0 0 164.95508496782077 -138.41064389038365 0 -138.41064389038365 728.06089820139823 0 0 0 0 199.68325212940181 260.88957225367631 0 260.88957225367631 890.00777740762351 0 0 0 0 2.8947783832852956 2.0639082597019751 0 2.0639082597019751 1.8750989714083346 0 0 0 0 337.04599023065384 524.04832222806726 0 524.04832222806726 1029.1768336260793 0 0 0 0 410.67271093352974 517.66351179673075 0 517.66351179673075 670.75427195178054 0 0 0 0 375.3061582379753 716.95715755354718 0 716.95715755354718 893.57803014911042 0 0 0 0 393.4483941580188 507.20395686093252 0 507.20395686093252 915.53400963184686 0 0 0 0 0.27259202663766047 0.90898519581888593 0 0.90898519581888593 0.42374149072229983 0 0 0 0 30.657515500553473 1.8203429236891679 0 1.8203429236891679 -7.2844265774037922 0 0 0 0 53.218482568378931 39.37057926765192 0 39.37057926765192 9.2609786687498854 0 0 0 0 328.06078503948038 553.44358978308082 0 553.44358978308082 949.30020341409909 0 0 0 0 228.37738867331518 358.89368633514459 0 358.89368633514459 575.90617568716698 0 0 0 0 650.70595438112059 370.75406583688527 0 370.75406583688527 484.9536829924582 0 0 0 0 254.15400281801521 173.25430191888881 0 173.25430191888881 376.37246275294456 0 0 0 0 336.91667035996079 198.61726988603186 0 198.61726988603186 208.92804851471737 0 0 0 0 284.90146986876016 384.7196911102983 0 384.7196911102983 321.5977528278745 0 0 0 0 -0.62728333097941835 0.30559332497261948 0 0.30559332497261948 0.36176932838364451 0 0 0 0 239.19530788301654 445.06741472292924 0 445.06741472292924 621.9605683271584 0 0 0 0 288.34137633411751 395.54963274312172 0 395.54963274312172 576.27438453721697 0 0 0 0 240.28048723545407 415.86129043388064 0 415.86129043388064 615.83148339470426 0 0 0 0 195.10552216690849 440.44405620454927 0 440.44405620454927 602.51279663313471 0 0 0 0 377.02716015199985 704.71212250477765 0 704.71212250477765 918.10674976697192 0 0 0 0 92.085548168108289 368.05318775705382 0 368.05318775705382 846.71768524637446 0 0 0 0 -38.287668049863896 60.071339013215038 0 60.071339013215038 544.86450928904742 0 0 0 0 138.84286523688888 84.074305010355602 0 84.074305010355602 207.56804264501261 0 0 0 0 14.715803938734553 288.04898998908538 0 288.04898998908538 1457.0458582957253 0 0 0 0 4.4202462985152184 3.1538075001195836 0 3.1538075001195836 1.7510354767304008 0 0 0 0 357.56063442529705 506.00296252220664 0 506.00296252220664 -276.91578329444019 0 0 0 0 24.508097247440674 -72.252756353533186 0 -72.252756353533186 26.936776619073498 0 0 0 0 187.75309881516461 107.56297528988011 0 107.56297528988011 189.70116249656712 0 0 0 0 -17.309192863709541 -86.792687346263847 0 -86.792687346263847 135.66298718194776 0 0 0 0 -33.228041701809161 -74.685222461037483 0 -74.685222461037483 217.81751651059312 0 0 0 0 -0.27595394130366913 -148.79709419828578 0 -148.79709419828578 381.29993808406289 0 0 0 0 105.01426276499114 -235.47638413198001 0 -235.47638413198001 273.28697530890349 0 0 0 0 -184.52729514367275 150.46141042233648 0 150.46141042233648 9.1400151553389151 0 0 0 0 -195.48649223688335 1.8622838276132825 0 1.8622838276132825 156.15839981429599 0 0 0 0 -87.685135643150034 -70.103788046086265 0 -70.103788046086265 172.42301692119509 0 0 0 0 -75.885099062237714 19.508187514460587 0 19.508187514460587 87.473856019692903 0 0 0 0 -58.907318789442797 14.696026239733328 0 14.696026239733328 78.14422736648703 0 0 0 0 14.904202445202827 -35.641218469376327 0 -35.641218469376327 105.12214087394386 0 0 0 0 -72.920866244538047 1.4083184063056251 0 1.4083184063056251 112.58588553509617 0 0 0 0 7.857128628564169 -100.63751491907169 0 -100.63751491907169 135.76661880016763 0 0 0 0 26.882170768162723 -121.24913896989892 0 -121.24913896989892 152.14654045863426 0 0 0 0 35.013594553649455 -127.90236931471736 0 -127.90236931471736 137.26080044507398 0 0 0 0 68.398279566508791 -103.74197398796241 0 -103.74197398796241 136.16685012140078 0 0 0 0 89.125644405739877 -146.5279739766047 0 -146.5279739766047 141.53140503037139 0 0 0 0 -12.72037399378496 -55.317658604926692 0 -55.317658604926692 131.74856498438749 0 0 0 0 90.053975816961611 -81.324944949403289 0 -81.324944949403289 128.77572603029603 0 0 0 0 21.721576725909472 -32.487311479955679 0 -32.487311479955679 189.00989180977194 0 0 0 0 128.13387260101081 -41.922728558361996 0 -41.922728558361996 151.32886796978346 0 0 0 0 67.033196238455275 76.092326771038643 0 76.092326771038643 189.15199658500205 0 0 0 0 21.619973605202176 -40.545353678997344 0 -40.545353678997344 151.35821997534367 0 0 0 0 130.84918951732107 -137.66557347189519 0 -137.66557347189519 129.6628045514808 0 0 0 0 159.47693287132643 -93.283853249711683 0 -93.283853249711683 129.38941187906312 0 0 0 0 -136.8806552010883 191.92080751141475 0 191.92080751141475 -58.018780017297104 0 0 0 0 1.4753354904910374 1.5351468715255407 0 1.5351468715255407 1.7527665090717619 0 0 0 0 64.583009075315175 -210.80446704209686 0 -210.80446704209686 -34.058378156682011 0 0 0 0 -88.962528350555658 53.368592380022164 0 53.368592380022164 18.355072233302053 0 0 0 0 -120.36757185468741 105.50123487897508 0 105.50123487897508 -11.311771738131938 0 0 0 0 -51.386368456052878 65.269040401035454 0 65.269040401035454 -144.53369889588794 0 0 0 0 -212.81034365627784 158.8506422628343 0 158.8506422628343 99.421641210501548 0 0 0 0 76.726322051414172 -169.56383307074429 0 -169.56383307074429 154.52294253214495 0 0 0 0 -153.96959995663201 196.43335675238632 0 196.43335675238632 470.0520674373256 0 0 0 0 2.9324766386192849 4.3661336022017849 0 4.3661336022017849 5.4281185140697943 0 0 0 0 81.898553870971227 -167.75412126445735 0 -167.75412126445735 153.5957185117295 0 0 0 0 44.991877186272177 -162.2580794433452 0 -162.2580794433452 160.86516758453217 0 0 0 0 43.943203028977678 -161.79409209614096 0 -161.79409209614096 164.37552024924662 0 0 0 0 24.71189879297981 -170.25139935210609 0 -170.25139935210609 211.3012176422053 0 0 0 0 -7.0679035656430642 -138.91299504528433 0 -138.91299504528433 186.25017174937966 0 0 0 0 93.491529870022532 -172.27221103691409 0 -172.27221103691409 151.11227173110819 0 0 0 0 134.10531200295191 -197.82192920275702 0 -197.82192920275702 165.79320218917564 0 0 0 0 69.734000507865858 -186.0558551090071 0 -186.0558551090071 181.37130425055511 0 0 0 0 60.035368390671465 -194.60708162574883 0 -194.60708162574883 245.41007155567058 0 0 0 0 46.914347280751826 -164.33251203849795 0 -164.33251203849795 189.5302171512194 0 0 0 0 150.15475489392884 -225.86683609172906 0 -225.86683609172906 213.90189229566022 0 0 0 0 157.39068857284929 150.7344534615986 0 150.7344534615986 -321.57450605097983 0 0 0 0 -254.79475166433622 -163.03308732750884 0 -163.03308732750884 116.59730618812318 0 0 0 0 -408.91574171616503 -190.96938949123069 0 -190.96938949123069 636.48660986879258 0 0 0 0 260.73900062492726 339.5365990818409 0 339.5365990818409 22.042379442529636 0 0 0 0 199.40493013276 493.6349698842605 0 493.6349698842605 580.00477885366854 0 0 0 0 -2.4166124420808046 -44.231669729149871 0 -44.231669729149871 189.18546907845666 0 0 0 0 104.10784659036563 15.464964607252114 0 15.464964607252114 89.632436171988957 0 0 0 0 -46.296470675475121 34.886619443404925 0 34.886619443404925 83.194589124250342 0 0 0 0 -206.57291175549108 111.3966793582149 0 111.3966793582149 236.59612599865795 0 0 0 0 -152.2027613635637 87.090023701086466 0 87.090023701086466 96.412908518730546 0 0 0 0 -124.24611965985241 -12.448410932978732 0 -12.448410932978732 160.51451858455584 0 0 0 0 -142.30641136599161 77.914409303702996 0 77.914409303702996 103.40656094654696 0 0 0 0 -66.78126877242903 22.476085761605646 0 22.476085761605646 32.304714684978535 0 0 0 0 -75.015428857339998 -4.0549930275365114 0 -4.0549930275365114 137.04027110156312 0 0 0 0 16.313842529715203 -41.519180332179531 0 -41.519180332179531 138.28811589994621 0 0 0 0 22.125177299752977 -43.244924879469181 0 -43.244924879469181 69.149515865756257 0 0 0 0 0.70176565192195994 -71.234393529681256 0 -71.234393529681256 94.2035994392063 0 0 0 0 -31.908870351988298 -25.389397266473679 0 -25.389397266473679 78.948966768759419 0 0 0 0 1.0404960716350118 -0.73964154363108037 0 -0.73964154363108037 -0.50196806207280531 0 0 0 0 -79.509562055300194 2.6334841697753291 0 2.6334841697753291 59.321668359851174 0 0 0 0 -31.469906200623882 -3.7175499446420872 0 -3.7175499446420872 57.172005841924147 0 0 0 0 -28.168368955967253 -2.4062025647563132 0 -2.4062025647563132 30.448334852451808 0 0 0 0 -54.126759049395332 24.733308508453774 0 24.733308508453774 27.139850854743599 0 0 0 0 -58.375390368610624 7.376939390462212 0 7.376939390462212 7.0583640935365111 0 0 0 0 -73.510319529348635 34.488700196139689 0 34.488700196139689 -8.0039683653740212 0 0 0 0 -60.648120177439523 39.677542900809613 0 39.677542900809613 2.5916359728726093 0 0 0 0 -86.851720183151315 26.709648898043724 0 26.709648898043724 -3.7175362921843771 0 0 0 0 -84.483258700805209 -0.92543896052529817 0 -0.92543896052529817 -58.510461047641002 0 0 0 0 -93.808225190334269 89.74740912818379 0 89.74740912818379 -19.266491349495482 0 0 0 0 -75.480350646770603 -5.2174621819867752 0 -5.2174621819867752 -34.448916053488574 0 0 0 0 -58.981495215992709 23.099790208418199 0 23.099790208418199 7.4281202103447868 0 0 0 0 -40.789508187279353 -36.160868551698513 0 -36.160868551698513 66.264660926324723 0 0 0 0 -89.588687016463155 48.491589440138341 0 48.491589440138341 8.7813453657145146 0 0 0 0 -17.976061265886983 -26.598469012180431 0 -26.598469012180431 85.689293893599825 0 0 0 0 -27.475666289574292 -14.135055097773147 0 -14.135055097773147 131.23017128736683 0 0 0 0 -27.465686169050059 -15.842383498216805 0 -15.842383498216805 73.579320039687445 0 0 0 0 -34.851499809294182 9.4477968573082762 0 9.4477968573082762 51.020653027677326 0 0 0 0 -43.684832289337351 -26.304330115440735 0 -26.304330115440735 90.167636788311938 0 0 0 0 -1.0280200282495571 -22.122850160943926 0 -22.122850160943926 55.776805188488652 0 0 0 0 12.300521224291515 -10.976757352123968 0 -10.976757352123968 39.475143261523044 0 0 0 0 -7.7230220840294805 2.1558730810638735 0 2.1558730810638735 33.447598225880938 0 0 0 0 -14.282112001059431 -12.005015794400606 0 -12.005015794400606 49.189234332243359 0 0 0 0 -4.9204608186958012 -6.7721527726525892 0 -6.7721527726525892 51.664811490583816 0 0 0 0 -13.758531347614735 13.315652464581945 0 13.315652464581945 39.713760354061378 0 0 0 0 -6.423416977531474 9.8696613224037719 0 9.8696613224037719 30.268125171540305 0 0 0 0 -4.1531243242874325 5.3577306530060014 0 5.3577306530060014 20.343940889164514 0 0 0 0 -10.100160082234993 -1.8434116859289134 0 -1.8434116859289134 14.880854128387 0 0 0 0 -36.152165974377567 -7.5033935520732484 0 -7.5033935520732484 18.653292327029703 0 0 0 0 -13.185722230364263 34.938984262334998 0 34.938984262334998 101.92985987141037 0 0 0 0 -13.549965027004873 29.123642867441959 0 29.123642867441959 60.244179882867684 0 0 0 0 -50.920230527683998 -15.876945248941411 0 -15.876945248941411 48.018131870994694 0 0 0 0 -0.7871064124840963 0.19921547527751926 0 0.19921547527751926 2.2964760322768427 0 0 0 0 -12.651559865699255 -2.7863964698299242 0 -2.7863964698299242 -6.0014125562520348 0 0 0 0 -22.941710906572553 -35.851124094113402 0 -35.851124094113402 11.756307281844784 0 0 0 0 -0.73262153652415307 0.4261894305716396 0 0.4261894305716396 1.4610165642060906 0 0 0 0 15.267671987807262 37.978915774401685 0 37.978915774401685 20.098117456134787 0 0 0 0 8.60787851567693 47.592072403575003 0 47.592072403575003 98.277983772983134 0 0 0 0 -5.7487476521905592 78.571980974881626 0 78.571980974881626 73.32537549391418 0 0 0 0 29.199038717142685 14.239742460398702 0 14.239742460398702 101.93202531324914 0 0 0 0 -7.9252720971610682 -0.58013317631477435 0 -0.58013317631477435 1.4751799288404754 0 0 0 0 24.616653558550695 56.636064832133798 0 56.636064832133798 64.031097955972655 0 0 0 0 34.276780531312397 -6.3974613206228241 0 -6.3974613206228241 98.548750772359199 0 0 0 0 -5.3167706502117209 7.0885893576284218 0 7.0885893576284218 -5.7346164941211839 0 0 0 0 -35.456898538678615 125.15396433725255 0 125.15396433725255 195.61338465168956 0 0 0 0 23.597110852750575 15.081185242452193 0 15.081185242452193 99.253927775658667 0 0 0 0 -14.118305413419989 -17.423720329605203 0 -17.423720329605203 9.376973614882445 0 0 0 0 -21.130618085897368 39.970743620782741 0 39.970743620782741 59.733691907335015 0 0 0 0 -0.97673581476686699 5.9137406171527545 0 5.9137406171527545 -4.1771202370017591 0 0 0 0 1.5159975728793142 86.342687854104042 0 86.342687854104042 69.248745574972418 0 0 0 0 33.270758283353643 12.059460986696649 0 12.059460986696649 108.49519180868811 0 0 0 0 -31.22513104819518 47.300454967375117 0 47.300454967375117 58.904724641601206 0 0 0 0 -7.649567351545091 -0.18592634226577331 0 -0.18592634226577331 2.4904350670724682 0 0 0 0 -19.217279395408696 19.028268131820369 0 19.028268131820369 106.52106243863091 0 0 0 0 -17.219682545299065 12.38882804766854 0 12.38882804766854 7.8018328315956751 0 0 0 0 -11.592267481775707 14.944620955953724 0 14.944620955953724 46.904811212414643 0 0 0 0 -0.72219639713835448 -0.52902706469235738 0 -0.52902706469235738 0.036589031491431001 0 0 0 0 -46.661128500020823 -12.593324057972495 0 -12.593324057972495 29.790769433348032 0 0 0 0 -23.676852545056136 -34.138918551980169 0 -34.138918551980169 40.494010995207645 0 0 0 0 -24.843109275492679 -26.318379776872462 0 -26.318379776872462 62.457361400061927 0 0 0 0 -14.325490623708902 -2.449251049747545 0 -2.449251049747545 22.631292817353824 0 0 0 0 -9.8166471885949704 1.2723818515451057 0 1.2723818515451057 25.181763868888083 0 0 0 0 -11.964850487891795 4.8891377326954171 0 4.8891377326954171 29.759620043099858 0 0 0 0 -4.902744977887096 5.2783121132342785 0 5.2783121132342785 29.310556396256288 0 0 0 0 -4.350454479309974 3.283472495208116 0 3.283472495208116 32.159968175023096 0 0 0 0 -4.3679789314473965 6.4920741334026388 0 6.4920741334026388 27.156078050313226 0 0 0 0 -1.3488038428604341 1.7555829024677223 0 1.7555829024677223 30.379528655219474 0 0 0 0 -2.0121393549107758 -0.49852089307758263 0 -0.49852089307758263 6.9835093260471055 0 0 0 0 -5.5206568577382313 1.8915255365755002 0 1.8915255365755002 39.744592095303233 0 0 0 0 -5.6671099680520456 3.854032027444191 0 3.854032027444191 32.97819462870757 0 0 0 0 -0.7438621175064184 2.7474538490004896 0 2.7474538490004896 31.307710736078946 0 0 0 0 -31.409313864317255 -15.343700753513986 0 -15.343700753513986 31.512546106852824 0 0 0 0 -6.9538647018371194 0.12927737241625437 0 0.12927737241625437 29.131974297248235 0 0 0 0 -10.977772660370192 -2.2069137644866714 0 -2.2069137644866714 40.588335393578745 0 0 0 0 -7.4001988544973756 -6.0874988800496794 0 -6.0874988800496794 18.610648423556995 0 0 0 0 -5.9383657125329137 -0.43283956527011469 0 -0.43283956527011469 23.301345074389246 0 0 0 0 -19.307940309333844 -12.781328193334048 0 -12.781328193334048 29.951549811645236 0 0 0 0 -2.2645371196942996 -5.0029994453772417 0 -5.0029994453772417 7.9236926363292213 0 0 0 0 -8.9486796109938496 -18.740271609316551 0 -18.740271609316551 24.478134801451233 0 0 0 0 -9.4313971190045436 -21.427530403286255 0 -21.427530403286255 10.418711117032217 0 0 0 0 -21.123513666172357 -21.400926318638085 0 -21.400926318638085 26.02674696926988 0 0 0 0 -19.482921850411003 -21.786828579915891 0 -21.786828579915891 26.116202253122538 0 0 0 0 -98.74573364682351 -35.762672615033807 0 -35.762672615033807 41.884927332204825 0 0 0 0 0.28306076983432771 4.0715927389302244 0 4.0715927389302244 33.711152166189066 0 0 0 0 -21.558549890360226 -34.26712246123634 0 -34.26712246123634 37.775967995032261 0 0 0 0 -173.5481502505763 -36.915531285423185 0 -36.915531285423185 59.985453613378922 0 0 0 0 -8.3031322329845807 -41.175409844388923 0 -41.175409844388923 34.083264819273609 0 0 0 0 37.085513297230136 -31.734550729350303 0 -31.734550729350303 10.080976245524653 0 0 0 0 0.2762022007306415 4.7289323072346008 0 4.7289323072346008 36.204834418591361 0 0 0 0 -4.6473629357610662 11.249352805785747 0 11.249352805785747 28.668985718795739 0 0 0 0 -5.6262859321041105 7.9910933972823841 0 7.9910933972823841 33.272416565083404 0 0 0 0 -10.785223869280003 11.456105761585604 0 11.456105761585604 31.176515063227271 0 0 0 0 -5.47330173092314 6.4888354216200241 0 6.4888354216200241 26.2377551811187 0 0 0 0 -0.95408636442653005 4.7301466071767209 0 4.7301466071767209 32.972034416969109 0 0 0 0 4.4272589739143768 4.7801060512647382 0 4.7801060512647382 30.961592112465951 0 0 0 0 4.9768937823106398 2.4638917215788751 0 2.4638917215788751 24.977913757989882 0 0 0 0 -28.269791915734231 5.2616483813617378 0 5.2616483813617378 19.673630169905664 0 0 0 0 116.41541215660118 -92.610197859234177 0 -92.610197859234177 -123.82750168124767 0 0 0 0 -412.73879067690223 -31.453946745496069 0 -31.453946745496069 98.712402063181798 0 0 0 0 0.37724541590200067 5.8663635410807267 0 5.8663635410807267 37.6096294040494 0 0 0 0 -23.541210793674736 29.618357702423964 0 29.618357702423964 19.681833754431864 0 0 0 0 325.25757847029877 169.27479051164119 0 169.27479051164119 49.434419472918307 0 0 0 0 198.36520203636206 174.26138856758189 0 174.26138856758189 197.58503282949096 0 0 0 0 237.75919904538728 113.12217756836617 0 113.12217756836617 290.54683303804995 0 0 0 0 370.75442786969558 107.00688694573364 0 107.00688694573364 126.38928249567107 0 0 0 0 140.25479303543221 150.3158670730536 0 150.3158670730536 249.86554930230704 0 0 0 0 93.377903281149457 232.85452519508726 0 232.85452519508726 402.42733350425988 0 0 0 0 259.71862651386027 303.88421311734055 0 303.88421311734055 446.46335720713978 0 0 0 0 13.499750068968893 198.19581888246466 0 198.19581888246466 483.81336233139518 0 0 0 0 -0.0089677594474451006 -0.28230320763509553 0 -0.28230320763509553 1.1672677544173098 0 0 0 0 160.74364420869591 96.597555561627814 0 96.597555561627814 87.159980354430445 0 0 0 0 62.098861955259196 66.491076804731165 0 66.491076804731165 83.040192753178417 0 0 0 0 46.683310774813947 33.876487637906394 0 33.876487637906394 57.649317022111063 0 0 0 0 19.195664991160811 -32.66212986739265 0 -32.66212986739265 49.947820718623916 0 0 0 0 157.01279562943714 -26.915327147140601 0 -26.915327147140601 34.193052267706662 0 0 0 0 27.35101652031608 -14.637911444453493 0 -14.637911444453493 123.79225429274447 0 0 0 0 94.517485838461255 14.905057413863688 0 14.905057413863688 32.296151030117471 0 0 0 0 15.985118484131249 -23.170013346258202 0 -23.170013346258202 21.908130223113403 0 0 0 0 14.347156921368565 -14.106929118084736 0 -14.106929118084736 29.031527384875517 0 0 0 0 20.387843005613888 -14.04590145615748 0 -14.04590145615748 10.75592206831061 0 0 0 0 7.5315455130346436 -36.021713471895055 0 -36.021713471895055 22.29331992661173 0 0 0 0 -7.2913299851907141 -19.055188712649397 0 -19.055188712649397 10.520403244449881 0 0 0 0 11.031169161719561 -20.553526377923845 0 -20.553526377923845 -34.25344965592376 0 0 0 0 -0.16288221740235453 -5.9784414386235198 0 -5.9784414386235198 2.3804409343055255 0 0 0 0 1.0046409359805466 -29.703904912810685 0 -29.703904912810685 -8.6045272244518856 0 0 0 0 -3.9320849284923725 -8.4104914090348757 0 -8.4104914090348757 3.5892826619456173 0 0 0 0 20.169345533852379 -17.471393574389367 0 -17.471393574389367 5.9516910106540308 0 0 0 0 17.521914554140473 17.900768180513296 0 17.900768180513296 17.266159274688107 0 0 0 0 28.338327446587826 36.842115958193062 0 36.842115958193062 63.28350399484043 0 0 0 0 43.889504371661189 7.2080430027308466 0 7.2080430027308466 19.424959932326601 0 0 0 0 36.157246670605502 33.534082283986208 0 33.534082283986208 64.653123225732998 0 0 0 0 0.083188457431717613 -0.61591721267041066 0 -0.61591721267041066 1.3777973927649043 0 0 0 0 54.033201373894329 80.219127411683075 0 80.219127411683075 103.95113632596622 0 0 0 0 18.617071981303098 29.323842858098942 0 29.323842858098942 89.755481242791575 0 0 0 0 24.774772245310146 43.171983777194328 0 43.171983777194328 71.927387461517355 0 0 0 0 16.093778388357322 2.7138503329697414 0 2.7138503329697414 39.199107472577452 0 0 0 0 -11.251654028632405 -6.6574597256148991 0 -6.6574597256148991 25.233732740645792 0 0 0 0 -0.10182329994988853 0.44393153549984277 0 0.44393153549984277 0.022750731581282935 0 0 0 0 10.499623877635997 11.877114731876645 0 11.877114731876645 -3.3025436155839998 0 0 0 0 6.4137280996529569 -12.258976228353276 0 -12.258976228353276 -3.3822304348741454 0 0 0 0 8.8660905994363279 16.646165544047108 0 16.646165544047108 76.770267234751373 0 0 0 0 25.33332206405743 34.274754313162703 0 34.274754313162703 35.285573233559262 0 0 0 0 34.999233268586643 3.433800076454645 0 3.433800076454645 -20.530843917353195 0 0 0 0 14.317463200255776 14.464113792382705 0 14.464113792382705 54.918073529338471 0 0 0 0 19.242853653032 31.375569085648749 0 31.375569085648749 99.979303247862845 0 0 0 0 50.081103446972556 125.45185594900977 0 125.45185594900977 157.02569399917968 0 0 0 0 39.685629398981959 55.826821976639621 0 55.826821976639621 48.814210936251584 0 0 0 0 18.31252889754635 47.02492774302209 0 47.02492774302209 61.58744159793423 0 0 0 0 4.3928449668855922 48.00192758337289 0 48.00192758337289 158.3787955037551 0 0 0 0 0.0068156551614097245 64.530264632181172 0 64.530264632181172 139.11540622182656 0 0 0 0 -17.952928713923619 25.807445697566436 0 25.807445697566436 83.510783149009512 0 0 0 0 0.074985684539739722 29.924061763496866 0 29.924061763496866 75.968670164784271 0 0 0 0 0.022097852938205029 -0.13017271560720189 0 -0.13017271560720189 0.59469223272745353 0 0 0 0 88.85193695649383 67.894500554248225 0 67.894500554248225 75.566010039274261 0 0 0 0 17.794471216742409 29.537164222027059 0 29.537164222027059 120.69641366495489 0 0 0 0 52.194651848467956 113.88807934955912 0 113.88807934955912 167.99676777981222 0 0 0 0 -0.12904283978781678 55.861880965658202 0 55.861880965658202 207.41677701798471 0 0 0 0 16.462423507454005 141.21220951431314 0 141.21220951431314 382.41239082077118 0 0 0 0 54.846553904296627 90.797739224250108 0 90.797739224250108 171.78211667459618 0 0 0 0 78.275787663981632 91.251553477392008 0 91.251553477392008 142.08750691892055 0 0 0 0 38.468385037515347 151.76988191726014 0 151.76988191726014 353.92968552870298 0 0 0 0 0.21859620715299377 -0.76736511399792562 0 -0.76736511399792562 1.6815993569349246 0 0 0 0 32.541907595375307 123.06468448005035 0 123.06468448005035 376.47800999874016 0 0 0 0 47.742607771601882 218.8084888500307 0 218.8084888500307 511.95772818716796 0 0 0 0 9.6594670646958889 215.18059763312021 0 215.18059763312021 530.98583595087257 0 0 0 0 181.15070037507707 273.1355639332578 0 273.1355639332578 519.07344479554013 0 0 0 0 165.91328674727239 501.89170335023664 0 501.89170335023664 1078.9257429781501 0 0 0 0 0.88932215407689486 139.13740768137538 0 139.13740768137538 542.96016535178933 0 0 0 0 107.25770411788781 132.71561889766599 0 132.71561889766599 380.43275165096657 0 0 0 0 10.32609086092134 151.29884284536729 0 151.29884284536729 607.73514047679782 0 0 0 0 166.20208020356273 -183.71719197779748 0 -183.71719197779748 544.29543994601408 0 0 0 0 76.847437166710066 -211.97797341621481 0 -211.97797341621481 582.67297686910024 0 0 0 0 0.13741198255904813 -187.46904058371365 0 -187.46904058371365 596.10135524182988 0 0 0 0 85.033960431187495 -255.11066751835097 0 -255.11066751835097 583.35847493009146 0 0 0 0 0.053925934271093712 -262.16371716338472 0 -262.16371716338472 652.78546253939567 0 0 0 0 105.43144533322885 -309.35162243886953 0 -309.35162243886953 595.71424319894868 0 0 0 0 204.22000046175822 -298.91207074906561 0 -298.91207074906561 501.91173480314501 0 0 0 0 201.70044564417594 -283.14959743943837 0 -283.14959743943837 414.12217982680158 0 0 0 0 148.17737935283799 -162.18575191515993 0 -162.18575191515993 389.29484011540444 0 0 0 0 254.41723211503179 -253.22268143811698 0 -253.22268143811698 424.42984944874479 0 0 0 0 181.16859297040207 -220.45468284014351 0 -220.45468284014351 466.74932446154526 0 0 0 0 118.21656517427843 -139.2814585787728 0 -139.2814585787728 469.3773543376592 0 0 0 0 179.36767269063012 -220.90683185491434 0 -220.90683185491434 468.32820524783892 0 0 0 0 192.01348339524554 -137.83051118280855 0 -137.83051118280855 357.47477354159491 0 0 0 0 40.472004057930917 -51.942406570109597 0 -51.942406570109597 397.55334721550753 0 0 0 0 129.79668325253397 -131.63669809556086 0 -131.63669809556086 459.37979661188729 0 0 0 0 -38.038848652287697 12.350714159787458 0 12.350714159787458 470.43340736162236 0 0 0 0 42.082525648831734 28.174147804929817 0 28.174147804929817 314.34636494419829 0 0 0 0 197.40137142128017 -199.14569229855988 0 -199.14569229855988 510.81539422211063 0 0 0 0 46.056687169367365 -111.17587884148816 0 -111.17587884148816 631.39423414545672 0 0 0 0 223.77187040065499 -71.662624491101724 0 -71.662624491101724 580.30371499739704 0 0 0 0 82.124779224624447 -162.34057104400199 0 -162.34057104400199 556.00196811808564 0 0 0 0 -0.060381523099787657 -64.796240877491073 0 -64.796240877491073 655.09953146103726 0 0 0 0 31.89923850386652 -231.746761192946 0 -231.746761192946 519.1877995205723 0 0 0 0 250.45761332278755 -191.09307678078767 0 -191.09307678078767 62.893366899996181 0 0 0 0 0.20713130794324419 -0.11812024199473647 0 -0.11812024199473647 3.954136080097868 0 0 0 0 11.758639926317109 45.423607190350594 0 45.423607190350594 97.438541202722263 0 0 0 0 0.12357150250285162 -41.504643655982363 0 -41.504643655982363 144.80818513283884 0 0 0 0 6.80953658799897 4.3860213650405058 0 4.3860213650405058 -8.2463055033331329 0 0 0 0 57.564316275268162 -69.10283982807232 0 -69.10283982807232 14.391591527157289 0 0 0 0 0.042326872577840693 0.087792506714151841 0 0.087792506714151841 -0.031998231821248169 0 0 0 0 -0.1301354143189597 -1.7811267892152642 0 -1.7811267892152642 9.3523444095649495 0 0 0 0 7.9550400756058437 -9.9355535815834628 0 -9.9355535815834628 -8.9685346137121087 0 0 0 0 -7.1042230183130499 0.63921095283149043 0 0.63921095283149043 9.2281000045477413 0 0 0 0 -0.51842329075771776 -0.037093142863895423 0 -0.037093142863895423 1.5854743571088719 0 0 0 0 -13.328213734360897 -9.3063174236594932 0 -9.3063174236594932 10.52388652089212 0 0 0 0 0.041929204743268146 1.4981702370934871 0 1.4981702370934871 11.48889808030799 0 0 0 0 0.33249117082892482 -0.52352424455322577 0 -0.52352424455322577 -0.73595059686658715 0 0 0 0 3.2716410393801425 0.39280819393752608 0 0.39280819393752608 -16.032105925143696 0 0 0 0 -36.149985064117359 3.888285878685565 0 3.888285878685565 72.357224167171807 0 0 0 0 1.6670886763511115 -6.3359481701462101 0 -6.3359481701462101 4.0765166509754849 0 0 0 0 33.900385538742512 -33.628801694259892 0 -33.628801694259892 -14.929689299122401 0 0 0 0 -21.029986625933191 28.609260011966398 0 28.609260011966398 62.602128205093322 0 0 0 0 58.291778595884281 108.75364936416588 0 108.75364936416588 197.39828402528656 0 0 0 0 56.673642459705775 -8.367799068462773 0 -8.367799068462773 65.177558764495188 0 0 0 0 42.603850495437129 230.92864856616552 0 230.92864856616552 406.38838460517582 0 0 0 0 -0.2708186971806299 45.2720744754115 0 45.2720744754115 320.97662774274249 0 0 0 0 7.5316020072443735 41.669579234607227 0 41.669579234607227 309.87710265532951 0 0 0 0 -3.8700483192367301 83.650355766527355 0 83.650355766527355 277.28940214965405 0 0 0 0 -14.138878250915468 68.858735354726377 0 68.858735354726377 286.22764851334796 0 0 0 0 -6.0815726981143143 84.566890907488414 0 84.566890907488414 307.95301388435473 0 0 0 0 -26.219305357854182 65.654724606849413 0 65.654724606849413 287.88700225498178 0 0 0 0 4.1932775148291057 43.814248766440869 0 43.814248766440869 120.79125523852417 0 0 0 0 -26.434227478507182 39.806591819033201 0 39.806591819033201 232.76838800453243 0 0 0 0 -27.505079254219709 20.074161545737297 0 20.074161545737297 235.15376029275649 0 0 0 0 -10.635538839898572 49.205552140094369 0 49.205552140094369 203.2830001633738 0 0 0 0 -0.61061688301316508 43.682765847757764 0 43.682765847757764 204.99699445303122 0 0 0 0 39.69745801501756 6.9099006122087303 0 6.9099006122087303 70.355059145847918 0 0 0 0 9.0024793930033411 -15.822678304597503 0 -15.822678304597503 74.899941739597125 0 0 0 0 -25.378764666409324 14.616950654075481 0 14.616950654075481 55.402963254076894 0 0 0 0 2.2312913495931888 -6.5999896612787126 0 -6.5999896612787126 2.989911455399195 0 0 0 0 18.961448758640358 -7.391699289848475 0 -7.391699289848475 -45.206158761728148 0 0 0 0 32.991070891815298 -28.688656002876087 0 -28.688656002876087 -28.90609957831839 0 0 0 0 -0.30291306481331048 12.755242113087661 0 12.755242113087661 28.861114896571962 0 0 0 0 2.7631574931493788 10.914629842840441 0 10.914629842840441 8.8954316393283079 0 0 0 0 1.5118380777567517 -6.3914054430422169 0 -6.3914054430422169 3.1785518680386389 0 0 0 0 12.28764101066082 -18.030593586092436 0 -18.030593586092436 23.226430381211685 0 0 0 0 30.42860178248111 1.1312243954525911 0 1.1312243954525911 -35.03378268079905 0 0 0 0 3.7999973030998717 28.326283254595182 0 28.326283254595182 68.07633417416946 0 0 0 0 7.3708492133246182 -25.321591446678212 0 -25.321591446678212 137.3377703831793 0 0 0 0 -0.44839737478605457 -1.5304584091500146 0 -1.5304584091500146 115.59351198717195 0 0 0 0 -19.300801549789867 -77.421615057712188 0 -77.421615057712188 64.150185752823745 0 0 0 0 17.965945518556964 -22.295952762895467 0 -22.295952762895467 44.642431802014471 0 0 0 0 -5.9208945377479267 -17.343097670218413 0 -17.343097670218413 6.7689613641850883 0 0 0 0 -1.9032798650132463 -5.8306379893983831 0 -5.8306379893983831 39.689767482530442 0 0 0 0 -20.169767288714866 -53.864671018673107 0 -53.864671018673107 272.59673416713485 0 0 0 0 -16.450859014656089 -29.5848451780912 0 -29.5848451780912 262.50451736700052 0 0 0 0 -32.911378550823883 9.4120099544670666 0 9.4120099544670666 450.16737222392112 0 0 0 0 -44.928439495781731 -4.7045083408811479 0 -4.7045083408811479 381.4720580149733 0 0 0 0 15.004771886016442 64.518167527523474 0 64.518167527523474 346.69221139440197 0 0 0 0 -0.54157401777229097 -9.8737347366986796 0 -9.8737347366986796 626.77491000237933 0 0 0 0 128.92328573312534 -77.69096997154702 0 -77.69096997154702 499.66781702244771 0 0 0 0 204.97903412265896 68.360714733891655 0 68.360714733891655 382.92045638393029 0 0 0 0 -16.512257439140285 31.147699259134242 0 31.147699259134242 183.81969800929073 0 0 0 0 1.3808275719370613 -59.63831683916942 0 -59.63831683916942 179.71353122912114 0 0 0 0 -28.308053852535522 9.666573278766009 0 9.666573278766009 275.90098468637734 0 0 0 0 -30.655354641942267 -2.6816516829712782 0 -2.6816516829712782 249.47444324436947 0 0 0 0 -33.742290971023522 57.232276922499295 0 57.232276922499295 314.18855987211282 0 0 0 0 -31.112284621454343 65.720133824789855 0 65.720133824789855 365.43159883537737 0 0 0 0 -30.95434525208384 59.427830625194474 0 59.427830625194474 310.34802246569598 0 0 0 0 -26.026384507674948 86.180683834478259 0 86.180683834478259 326.45704831747571 0 0 0 0 -34.302330545805717 78.532401874123025 0 78.532401874123025 313.55132850520022 0 0 0 0 -27.02165732762569 87.950484374436201 0 87.950484374436201 323.35488468619951 0 0 0 0 107.0390176460287 12.347354237834224 0 12.347354237834224 384.06205084333487 0 0 0 0 -3.3507657485442905 64.316224172762304 0 64.316224172762304 376.48053444204561 0 0 0 0 34.678749595135741 30.70881841488881 0 30.70881841488881 445.5016323559903 0 0 0 0 7.4828792516818794 61.732328874990344 0 61.732328874990344 433.63607656894601 0 0 0 0 -17.540557668480233 100.46231591532705 0 100.46231591532705 349.0902512950488 0 0 0 0 34.133236218609909 67.453103401381668 0 67.453103401381668 329.87519741228607 0 0 0 0 -17.855428118440159 89.04148576111038 0 89.04148576111038 301.82807058707112 0 0 0 0 -6.3913564100848816 88.042669472561101 0 88.042669472561101 303.89013556437567 0 0 0 0 -27.87190111735481 78.736589770633145 0 78.736589770633145 330.21499623725413 0 0 0 0 -24.072119706904687 65.39894889590505 0 65.39894889590505 279.5805295382379 0 0 0 0 -40.979250081202053 85.019065329157456 0 85.019065329157456 303.96975246293005 0 0 0 0 -59.136312132625903 83.328773887859825 0 83.328773887859825 270.4149046807288 0 0 0 0 -61.055736392488598 31.673293182066118 0 31.673293182066118 215.48601816702285 0 0 0 0 -53.98538876844259 87.818673801149998 0 87.818673801149998 258.97105001817545 0 0 0 0 -7.7030579810975723 66.998351681751956 0 66.998351681751956 265.03836668894655 0 0 0 0 -22.659368392629403 102.35961607319769 0 102.35961607319769 293.79851520637021 0 0 0 0 -21.349367165969397 100.47599143059051 0 100.47599143059051 322.47192124000139 0 0 0 0 -10.643253201058087 82.017034710501321 0 82.017034710501321 313.37698832211663 0 0 0 0 -17.315075414663625 92.720606679766206 0 92.720606679766206 300.91150805918733 0 0 0 0 -21.169262409923817 76.911244734506909 0 76.911244734506909 324.84634953791101 0 0 0 0 34.416657148785816 47.709656645689392 0 47.709656645689392 309.50892775772445 0 0 0 0 81.30867291699019 -29.395814747742406 0 -29.395814747742406 368.40033697534818 0 0 0 0 9.7250488574551355 55.681612513839355 0 55.681612513839355 334.97753804600507 0 0 0 0 42.547373411461194 49.090306326304926 0 49.090306326304926 290.99808642848802 0 0 0 0 48.990385134600956 5.4068109206709778 0 5.4068109206709778 331.28297353817834 0 0 0 0 62.016202732575493 23.718423326063203 0 23.718423326063203 241.9143833430935 0 0 0 0 -5.0728358323410703 76.116398076568657 0 76.116398076568657 293.33027204484097 0 0 0 0 177.39581314652673 -24.402014321429306 0 -24.402014321429306 233.75180585087946 0 0 0 0 243.50242221545489 -158.02512858931505 0 -158.02512858931505 291.40899595667724 0 0 0 0 151.68727447165293 -125.13013303529806 0 -125.13013303529806 365.03211167336121 0 0 0 0 290.24356830405554 -240.15578779886346 0 -240.15578779886346 364.83921712013034 0 0 0 0 357.8449884206052 -102.06504555008723 0 -102.06504555008723 178.13168829746428 0 0 0 0 103.79278325622795 47.938750642784726 0 47.938750642784726 149.97914566507097 0 0 0 0 192.61814840626425 -31.21825254279247 0 -31.21825254279247 250.27298334729858 0 0 0 0 151.19430169123098 -74.664272609894397 0 -74.664272609894397 278.97218053047982 0 0 0 0 122.28110242278308 -116.92695021511463 0 -116.92695021511463 150.34199661729158 0 0 0 0 -36.341114785840091 23.737929842012818 0 23.737929842012818 -7.6566647616054979 0 0 0 0 -211.07901017325207 -310.67719716807551 0 -310.67719716807551 -72.762685084865552 0 0 0 0 -158.53124414620152 -1.1541786287416471 0 -1.1541786287416471 135.93123743182559 0 0 0 0 -43.282914291414727 53.931080647897033 0 53.931080647897033 130.35940153650154 0 0 0 0 -59.744794323787232 -15.221307033541962 0 -15.221307033541962 216.87871538326726 0 0 0 0 28.580242326912071 68.660419570882368 0 68.660419570882368 185.17205579177244 0 0 0 0 -36.226606135734073 44.755730131219025 0 44.755730131219025 48.097219177830993 0 0 0 0 -107.91702384727819 -114.18792086851317 0 -114.18792086851317 -28.934909681041972 0 0 0 0 -4.624136135664056 0.55669940840220988 0 0.55669940840220988 1.3546240905913294 0 0 0 0 -38.882634568327717 30.061971380771865 0 30.061971380771865 169.99634152447834 0 0 0 0 -0.53652527424945617 3.9238854021295992 0 3.9238854021295992 34.330309501208831 0 0 0 0 -31.440386828314232 -20.299008596681233 0 -20.299008596681233 31.412949591242068 0 0 0 0 -21.516200429154651 -24.042038537596454 0 -24.042038537596454 30.786615917830204 0 0 0 0 -3.8712064458994764 -11.800005512057663 0 -11.800005512057663 29.940076930164651 0 0 0 0 -33.939181125225332 3.1066318495904852 0 3.1066318495904852 34.437233063642452 0 0 0 0 0.44745305192456858 -13.366349201453783 0 -13.366349201453783 21.638441282397935 0 0 0 0 -44.489696656353402 -18.116022560500369 0 -18.116022560500369 40.911209662823239 0 0 0 0 -33.070600716305876 5.6033247906780161 0 5.6033247906780161 53.325693772385421 0 0 0 0 -8.7053068984095834 1.5148508104287686 0 1.5148508104287686 3.6097615203919418 0 0 0 0 18.814650155564323 -17.397408997894672 0 -17.397408997894672 56.091896736383205 0 0 0 0 -58.506158978181247 3.1410911298007704 0 3.1410911298007704 176.58680632436881 0 0 0 0 84.419281596517976 194.4840093532257 0 194.4840093532257 142.73867035752482 0 0 0 0 -26.626391282610541 80.207780195472424 0 80.207780195472424 212.62759646066115 0 0 0 0 7.1863692763391676 -9.58619225041204 0 -9.58619225041204 9.1682265514615437 0 0 0 0 6.3880365574977276 23.447594557550474 0 23.447594557550474 381.38832977737184 0 0 0 0 -42.98193194104897 -58.319964638594683 0 -58.319964638594683 1.1176616225347971 0 0 0 0 0.055873016632528583 -2.7137764325661813 0 -2.7137764325661813 0.6828609221147417 0 0 0 0 64.748857319691069 96.921141305298079 0 96.921141305298079 365.60932357465208 0 0 0 0 48.867718482727014 84.575596765153023 0 84.575596765153023 412.410144643276 0 0 0 0 2.379751490552735 72.036839435313595 0 72.036839435313595 409.27921271347805 0 0 0 0 -66.138140366331754 15.470324785841512 0 15.470324785841512 351.73147303955921 0 0 0 0 -25.372152384418769 59.551536404869694 0 59.551536404869694 391.07994678428804 0 0 0 0 25.427527500280803 25.495845065657704 0 25.495845065657704 362.05773381046311 0 0 0 0 -48.071910452664724 21.264668669413368 0 21.264668669413368 414.97418965198449 0 0 0 0 -48.123005843612191 17.21165477384784 0 17.21165477384784 350.62622799506062 0 0 0 0 -69.207161396795613 -3.1091032183617244 0 -3.1091032183617244 394.06711396831088 0 0 0 0 -70.092208478329638 9.7620236515049328 0 9.7620236515049328 372.35267977853073 0 0 0 0 -65.722280990938543 33.049940042830713 0 33.049940042830713 330.43618093259283 0 0 0 0 -60.134092112017697 -3.1043119749010657 0 -3.1043119749010657 345.35083716773079 0 0 0 0 -65.587339782620347 44.615536061530292 0 44.615536061530292 290.38800191419432 0 0 0 0 -69.168878542868526 51.559449109794514 0 51.559449109794514 150.97505752858706 0 0 0 0 -71.967788660704173 -0.41210830138879828 0 -0.41210830138879828 232.16432012151927 0 0 0 0 -95.212380292543912 58.46847077932398 0 58.46847077932398 223.19889335350308 0 0 0 0 -83.862563775931676 -4.9012554820947116 0 -4.9012554820947116 152.25670085445745 0 0 0 0 -77.644564182143569 45.414001741454285 0 45.414001741454285 258.75933011053712 0 0 0 0 -50.745027688140624 27.082576050627267 0 27.082576050627267 244.63757648572209 0 0 0 0 -56.397434385911311 63.587256737453572 0 63.587256737453572 288.41809036462655 0 0 0 0 -53.062971780508633 9.6911128284045844 0 9.6911128284045844 286.08296408467868 0 0 0 0 -21.386708334915014 27.604545972732467 0 27.604545972732467 318.2924780168396 0 0 0 0 28.055100049339671 5.5177926193427993 0 5.5177926193427993 369.45267421934841 0 0 0 0 -35.57954699523043 49.158667515839625 0 49.158667515839625 346.2125196903944 0 0 0 0 -29.034277016974613 -5.1337436591743426 0 -5.1337436591743426 359.09256283372815 0 0 0 0 -29.115100207112391 0.1611097985150991 0 0.1611097985150991 418.65134800932719 0 0 0 0 -23.804019481448449 6.5825315092879464 0 6.5825315092879464 383.84827182890149 0 0 0 0 -13.084661052533193 29.905298015437438 0 29.905298015437438 417.28998465271707 0 0 0 0 7.8921864878166161 24.385506712787901 0 24.385506712787901 419.19321818815661 0 0 0 0 -17.029435426227451 30.888896971773647 0 30.888896971773647 417.75982657028362 0 0 0 0 10.748034078743331 -10.474581773345562 0 -10.474581773345562 494.66838919569273 0 0 0 0 -56.226361248051944 -7.4756211064232048 0 -7.4756211064232048 378.26193954252813 0 0 0 0 -65.214780309228445 -11.921195022623579 0 -11.921195022623579 393.40573494316777 0 0 0 0 -61.619952805899629 -8.0446006488709827 0 -8.0446006488709827 393.77249563412624 0 0 0 0 -44.216076170398992 13.442027017648797 0 13.442027017648797 381.62567294026667 0 0 0 0 -40.699740177410149 -1.2436172574452939 0 -1.2436172574452939 390.4933245771681 0 0 0 0 -45.942443056480442 -1.0901091609266587 0 -1.0901091609266587 413.85324834933272 0 0 0 0 -56.84342706109237 -9.3957994590018643 0 -9.3957994590018643 391.94357721610868 0 0 0 0 -55.094338948988025 -11.792432187310624 0 -11.792432187310624 393.39612699387362 0 0 0 0 -42.660960417364549 1.0313892253034282 0 1.0313892253034282 357.54749312002969 0 0 0 0 -35.589154999031962 15.087544902329682 0 15.087544902329682 373.82969680569659 0 0 0 0 -6.6170351957116509 55.562941174342996 0 55.562941174342996 386.00760464785708 0 0 0 0 -37.692117989402959 10.814742649658001 0 10.814742649658001 405.30022283393191 0 0 0 0 -20.27633000710648 20.273122507060179 0 20.273122507060179 399.30081590178452 0 0 0 0 -0.66304656393549521 82.151266076492902 0 82.151266076492902 451.58276042586658 0 0 0 0 -4.4664136521055298 58.308916655945723 0 58.308916655945723 374.80708419892471 0 0 0 0 63.866183178263782 174.52883244366967 0 174.52883244366967 382.73511370096821 0 0 0 0 85.800269925468456 153.5954613526701 0 153.5954613526701 266.81560926155362 0 0 0 0 7.5900455534228968 88.270042347809067 0 88.270042347809067 392.47905328086927 0 0 0 0 51.793597090076219 110.50896053470206 0 110.50896053470206 236.82635110769479 0 0 0 0 13.270425572011845 85.026982540555764 0 85.026982540555764 310.8154593409854 0 0 0 0 -15.475703606352909 41.929729041308747 0 41.929729041308747 368.82623804640025 0 0 0 0 -15.161200131789428 35.508903508156436 0 35.508903508156436 298.40221892352565 0 0 0 0 -0.46890435376553796 53.795712889157585 0 53.795712889157585 301.80808652908308 0 0 0 0 5.8172899529135975 58.873151906678686 0 58.873151906678686 266.5525595715153 0 0 0 0 5.708224246324562 14.021427517140182 0 14.021427517140182 199.76053602725733 0 0 0 0 7.7296470893879814 24.906188543129247 0 24.906188543129247 234.47886496997671 0 0 0 0 -23.652974281963452 129.21068175372056 0 129.21068175372056 592.28063425579967 0 0 0 0 -29.436902515653742 -94.005998916609315 0 -94.005998916609315 168.84253023861675 0 0 0 0 77.628325013020003 26.125102224061266 0 26.125102224061266 -46.899143510439899 0 0 0 0 0.86699690695842513 -1.3858350606190442 0 -1.3858350606190442 1.6067542872881546 0 0 0 0 -23.68810441785854 43.836662653622625 0 43.836662653622625 528.6166733657592 0 0 0 0 -8.5002241097827209 50.993501484772423 0 50.993501484772423 495.03359218352125 0 0 0 0 -19.594190008410351 19.213057945758919 0 19.213057945758919 478.96958850816009 0 0 0 0 -11.46829540059116 65.554041773488279 0 65.554041773488279 470.88895843438877 0 0 0 0 -28.955155998274222 24.356217565451516 0 24.356217565451516 442.63236413625418 0 0 0 0 -14.62519819388217 82.326266913820291 0 82.326266913820291 489.06663967965869 0 0 0 0 -10.918294183632497 51.5663184842997 0 51.5663184842997 450.98334722605068 0 0 0 0 4.7669720520934789 52.865677492605755 0 52.865677492605755 416.06043392411084 0 0 0 0 12.527618559005077 173.45082569248189 0 173.45082569248189 501.57171872457548 0 0 0 0 -0.19271873573059572 -0.0069207873198422476 0 -0.0069207873198422476 -0.23296106333668831 0 0 0 0 0.4802445703533067 -47.693521513676387 0 -47.693521513676387 -15.684999427510775 0 0 0 0 1.5519221294625822 -1.15551168845559 0 -1.15551168845559 -25.580798805254744 0 0 0 0 -1.2660349070301891 -7.0619167851255042 0 -7.0619167851255042 -19.786206791701261 0 0 0 0 -11.446046557205136 7.8558608976236428 0 7.8558608976236428 15.491951224608783 0 0 0 0 -6.7951758490817156 6.6567243897443404 0 6.6567243897443404 -0.7321448190123192 0 0 0 0 -9.000584139730563 11.498804529248446 0 11.498804529248446 -16.97582260123454 0 0 0 0 -7.1763768521504971 0.19049785975948907 0 0.19049785975948907 1.0029014573665336 0 0 0 0 -0.55141914758659016 -0.30631490377095361 0 -0.30631490377095361 2.2844135810878612 0 0 0 0 -53.547628778751346 -22.82075029229236 0 -22.82075029229236 91.971798805308936 0 0 0 0 -8.5329615386109481 -2.6510762385223643 0 -2.6510762385223643 8.7249565403617453 0 0 0 0 93.12392054598422 98.405968149076216 0 98.405968149076216 118.96726669732016 0 0 0 0 74.575547136006207 116.89414356469933 0 116.89414356469933 152.44285855360795 0 0 0 0 80.994964903164146 47.23524436110165 0 47.23524436110165 97.212610555216088 0 0 0 0 33.267034322339896 11.125181457086001 0 11.125181457086001 155.54362770197622 0 0 0 0 24.60520619404997 10.05328412707604 0 10.05328412707604 196.70573516000877 0 0 0 0 46.485306419372137 55.874227558640996 0 55.874227558640996 163.85884891351452 0 0 0 0 46.117686834450069 53.931805633852491 0 53.931805633852491 170.80374162821681 0 0 0 0 -18.045760737524461 8.801007267771638 0 8.801007267771638 2.3454427486867644 0 0 0 0 -2.2064893831568497 -5.8933088539724849 0 -5.8933088539724849 8.5801583215870778 0 0 0 0 -8.1884455786862418 3.4286714130194014 0 3.4286714130194014 10.82826462185767 0 0 0 0 0.73982852679455391 -2.5008611162957095 0 -2.5008611162957095 14.334258242997748 0 0 0 0 -1.551160309914394 7.7703853875937057 0 7.7703853875937057 6.8474606710879016 0 0 0 0 -13.658595651095311 0.39656943501904607 0 0.39656943501904607 9.4468946969282115 0 0 0 0 59.15039095150405 22.220566680438424 0 22.220566680438424 -14.023955824384757 0 0 0 0 -4.1113894627235368 1.5228751991726313 0 1.5228751991726313 13.728763864026405 0 0 0 0 -6.9395405434743225 8.7941103872435633 0 8.7941103872435633 41.93521116343527 0 0 0 0 -33.759049582178704 -44.505864837658009 0 -44.505864837658009 -23.539027245758916 0 0 0 0 -1.4335467859571089 3.6896610434791342 0 3.6896610434791342 4.8586411919047805 0 0 0 0 -0.83875922954938265 0.17612575597875946 0 0.17612575597875946 15.574863323447858 0 0 0 0 -0.10503734868700576 -1.0584585132328357 0 -1.0584585132328357 13.557114187926345 0 0 0 0 39.611632255199765 -4.009382102995005 0 -4.009382102995005 112.37922343335595 0 0 0 0 1.6466752937802864 -0.62613448143521566 0 -0.62613448143521566 -0.0697273252281434 0 0 0 0 -41.473062528157243 -0.059719438224419719 0 -0.059719438224419719 14.936788629362127 0 0 0 0 2.7770855684201505 -3.0473542886154519 0 -3.0473542886154519 3.4833574389050028 0 0 0 0 -17.794998823746937 31.560711885478668 0 31.560711885478668 37.936482258490287 0 0 0 0 -5.7303665758372517 -4.4725940663265646 0 -4.4725940663265646 145.52672523344518 0 0 0 0 25.964027102209457 -4.2645040096394951 0 -4.2645040096394951 145.11367120881914 0 0 0 0 -95.356272376958259 -23.172757073545654 0 -23.172757073545654 195.63797001684725 0 0 0 0 -10.430173008571728 -24.27924976120994 0 -24.27924976120994 193.27516706734605 0 0 0 0 16.839628890879339 18.869195016584854 0 18.869195016584854 41.706293605166138 0 0 0 0 -55.313770636957088 -5.1471333204463008 0 -5.1471333204463008 63.511307135166135 0 0 0 0 -41.153062443051112 -42.756720113429765 0 -42.756720113429765 36.510745338659035 0 0 0 0 22.923064001269722 -22.287483830084966 0 -22.287483830084966 153.71956159947149 0 0 0 0 66.009111603662632 48.273878166781287 0 48.273878166781287 41.675822350545786 0 0 0 0 57.859494211230867 -56.637834616740292 0 -56.637834616740292 278.17039139331609 0 0 0 0 -22.013230430617114 -49.573087505228614 0 -49.573087505228614 265.23417955840705 0 0 0 0 26.932791427007942 6.3217380952628446 0 6.3217380952628446 165.6198681740716 0 0 0 0 -4.5373224964087058 -44.056949012185214 0 -44.056949012185214 315.11489096315199 0 0 0 0 -27.598973261277024 -15.914111080477596 0 -15.914111080477596 298.04975982428004 0 0 0 0 5.1703213684363618 -75.956167510936211 0 -75.956167510936211 402.78573083193623 0 0 0 0 43.501685052537141 -26.464503890627384 0 -26.464503890627384 302.17971046737512 0 0 0 0 -14.655327908632898 5.9222538757749135 0 5.9222538757749135 279.14412520072074 0 0 0 0 -37.009866899856206 -22.552418757419218 0 -22.552418757419218 289.08781367118718 0 0 0 0 -18.79726935686449 -40.692854278400773 0 -40.692854278400773 191.68311778677162 0 0 0 0 -19.881372379088134 -38.256932675096323 0 -38.256932675096323 260.62296133732525 0 0 0 0 -34.338315773264185 -23.759287111508456 0 -23.759287111508456 259.04690341031528 0 0 0 0 -47.291041776144084 -30.392054517084034 0 -30.392054517084034 349.22815741006707 0 0 0 0 -40.644115507798233 -18.3364088720773 0 -18.3364088720773 343.27477772856946 0 0 0 0 -43.024843355667713 2.6206506103426364 0 2.6206506103426364 355.69465595585643 0 0 0 0 -56.996888329642388 -22.589795689797029 0 -22.589795689797029 360.39300101574918 0 0 0 0 -58.695299883104781 -27.704633555636974 0 -27.704633555636974 400.16440199431963 0 0 0 0 -50.307472521288219 -32.857773039708263 0 -32.857773039708263 409.54580967299989 0 0 0 0 -30.478249873428467 -32.604005674773362 0 -32.604005674773362 402.78460481848742 0 0 0 0 -62.027178760239622 -9.4417734499293147 0 -9.4417734499293147 432.74902952997945 0 0 0 0 -26.521212447343714 11.246170954378613 0 11.246170954378613 401.55016201477702 0 0 0 0 -60.028561104953951 -7.4152559706708416 0 -7.4152559706708416 401.10195007477478 0 0 0 0 -62.876784695842161 -13.083381663665932 0 -13.083381663665932 389.93455227515369 0 0 0 0 101.48484289315456 -124.13012357611296 0 -124.13012357611296 451.47115704847965 0 0 0 0 -33.194638673460759 -14.322092320173397 0 -14.322092320173397 434.05872677174921 0 0 0 0 -17.356552040462702 -26.277626327282633 0 -26.277626327282633 442.99302542634541 0 0 0 0 -29.215229629130647 37.823887080013264 0 37.823887080013264 492.35542444992461 0 0 0 0 -16.898791532667019 -42.541919683044398 0 -42.541919683044398 625.67190395481884 0 0 0 0 7.6740361363156353 102.67335795805047 0 102.67335795805047 581.12807651748881 0 0 0 0 230.61638876851066 -296.00158633715182 0 -296.00158633715182 738.28817359692766 0 0 0 0 139.93540383857771 -52.377772771469608 0 -52.377772771469608 324.3306198950886 0 0 0 0 -66.600799222155274 -10.285257693216408 0 -10.285257693216408 896.31812010119756 0 0 0 0 511.68271292250665 -79.435946321644224 0 -79.435946321644224 136.55997329972161 0 0 0 0 144.35180158969706 114.33327630645363 0 114.33327630645363 185.38728504340361 0 0 0 0 74.744543756045005 50.298254906389047 0 50.298254906389047 134.42164134790801 0 0 0 0 157.02844658100457 -83.942478669814591 0 -83.942478669814591 303.45418574322321 0 0 0 0 288.42450982936134 3.7841017861719592 0 3.7841017861719592 102.44676215217623 0 0 0 0 111.83341348881504 2.7481478413428704 0 2.7481478413428704 159.08734502751031 0 0 0 0 106.0196276558554 -18.713652040685702 0 -18.713652040685702 148.27826073626056 0 0 0 0 153.52839947960501 50.673451471975568 0 50.673451471975568 47.510545629658736 0 0 0 0 126.38235808493891 45.63102340621117 0 45.63102340621117 111.22205227729228 0 0 0 0 41.693091757496859 126.46888120291624 0 126.46888120291624 39.794556815679243 0 0 0 0 150.16615723785162 106.43469536451175 0 106.43469536451175 13.677791585520026 0 0 0 0 41.472095510667714 117.6896353956181 0 117.6896353956181 76.879851173569477 0 0 0 0 75.715781039560397 100.24227002450971 0 100.24227002450971 59.926069896348054 0 0 0 0 -6.5507758520174821 -0.053896149119722736 0 -0.053896149119722736 3.6264617616797494 0 0 0 0 3.0375764141804273 4.5587020926150217 0 4.5587020926150217 -3.9739752362321639 0 0 0 0 9.9618021954556752 77.779670724936295 0 77.779670724936295 90.545877017779276 0 0 0 0 39.867487542295294 46.769556202616513 0 46.769556202616513 48.516804841438443 0 0 0 0 84.553083563190285 -7.4082708606692904 0 -7.4082708606692904 19.570296918311215 0 0 0 0 -162.43045414911921 38.7377256401669 0 38.7377256401669 90.343109675106462 0 0 0 0 -36.03779421357649 93.376974400773179 0 93.376974400773179 58.179592749671428 0 0 0 0 -18.659670349082717 56.334832737236866 0 56.334832737236866 84.765506537252804 0 0 0 0 -47.178132060854296 93.518380971989245 0 93.518380971989245 78.304333775199666 0 0 0 0 52.457200377709796 85.044586238487682 0 85.044586238487682 77.821177028890816 0 0 0 0 -43.795317153628275 64.566311144961219 0 64.566311144961219 169.77515027930349 0 0 0 0 38.148744016327782 111.45565553068445 0 111.45565553068445 40.106877547776094 0 0 0 0 -40.279623947717027 130.68304785562214 0 130.68304785562214 68.072477905909182 0 0 0 0 -166.68611732403224 48.428771709543071 0 48.428771709543071 62.806658514839455 0 0 0 0 -311.28315437544643 -20.384872681446723 0 -20.384872681446723 44.655711396688275 0 0 0 0 -147.48090778074766 42.200054052387713 0 42.200054052387713 22.411911643226631 0 0 0 0 -184.5711396322904 52.722810016130097 0 52.722810016130097 64.480697683553444 0 0 0 0 -171.54117541159644 -70.14348276617693 0 -70.14348276617693 -58.558390586360474 0 0 0 0 -115.85031169807689 13.749115270537004 0 13.749115270537004 10.022779109305702 0 0 0 0 -251.67383571520168 -119.80672176473672 0 -119.80672176473672 -25.061124802217819 0 0 0 0 -458.89776067118123 -91.070478721945619 0 -91.070478721945619 81.373266208087443 0 0 0 0 -434.43399162158039 109.04919576042448 0 109.04919576042448 73.627948542358354 0 0 0 0 -1.4948769422298747 -4.5648992811860865 0 -4.5648992811860865 26.326889443323722 0 0 0 0 -39.305589265815115 299.4322386310123 0 299.4322386310123 149.05177488519985 0 0 0 0 -167.27000879860316 56.958248194147018 0 56.958248194147018 17.018969816534081 0 0 0 0 -218.33965584643084 106.2623234679013 0 106.2623234679013 -151.69615344129852 0 0 0 0 55.283875729356396 160.29175055789892 0 160.29175055789892 14.147195734840352 0 0 0 0 -228.09856547288746 110.52306128182681 0 110.52306128182681 237.66594789811643 0 0 0 0 -530.60896776674645 -406.27858747645951 0 -406.27858747645951 228.09162135433144 0 0 0 0 -84.811195662140562 -189.81847002040377 0 -189.81847002040377 148.97176267615578 0 0 0 0 -220.9764892154426 -219.24869951899746 0 -219.24869951899746 221.66942450406123 0 0 0 0 -210.55494307943832 -220.44291851654725 0 -220.44291851654725 -179.79345970755094 0 0 0 0 350.94506866997131 -477.22238296661544 0 -477.22238296661544 -151.21744939290511 0 0 0 0 -0.62424639766773637 -0.57444099318850306 0 -0.57444099318850306 8.8832153281082356 0 0 0 0 557.89515623086493 586.49433779239826 0 586.49433779239826 87.73915618150204 0 0 0 0 -739.20514507736948 17.258483653373332 0 17.258483653373332 574.7536129134387 0 0 0 0 -331.05406292975772 781.16070968656277 0 781.16070968656277 636.2247648507182 0 0 0 0 -0.30159905479652394 -13.269745547011054 0 -13.269745547011054 140.06124293176987 0 0 0 0 -412.11176454563736 -320.29122215588723 0 -320.29122215588723 164.30469902847108 0 0 0 0 492.0995774923199 -485.20256051420438 0 -485.20256051420438 140.24882875044568 0 0 0 0 3.3681220220476007 -42.406256304297131 0 -42.406256304297131 598.29398213095556 0 0 0 0 -457.88180220290383 -161.90794810698935 0 -161.90794810698935 611.3998825581948 0 0 0 0 231.21454645283893 -373.90152249400489 0 -373.90152249400489 345.57073307599057 0 0 0 0 48.672910412119109 145.2252100833357 0 145.2252100833357 439.3880555677315 0 0 0 0 4.2234733826673363 -2.6321477296250038 0 -2.6321477296250038 2.4530128239157705 0 0 0 0 214.2307391238005 -100.28072767346021 0 -100.28072767346021 -83.655932272988139 0 0 0 0 48.086158318124035 220.42403205442679 0 220.42403205442679 1067.6388895712844 0 0 0 0 -38.532791240784718 -10.380158142816072 0 -10.380158142816072 58.80711524957951 0 0 0 0 6.1378081560822011 -129.6812336842795 0 -129.6812336842795 83.768464378314093 0 0 0 0 63.370706815644212 -36.194627694610062 0 -36.194627694610062 28.077045958198141 0 0 0 0 48.112383758726082 -75.835669839034381 0 -75.835669839034381 116.73643817678021 0 0 0 0 -28.490339995059003 -23.920169661723776 0 -23.920169661723776 46.032245725789835 0 0 0 0 -27.493428140522155 -21.58767073105264 0 -21.58767073105264 31.037347069359384 0 0 0 0 -54.513123528869983 -49.463233031812706 0 -49.463233031812706 29.784936745632876 0 0 0 0 35.392843370896344 -38.211976237322233 0 -38.211976237322233 28.610496777640947 0 0 0 0 40.215462916441084 -117.93908119806292 0 -117.93908119806292 2.3659608196903719 0 0 0 0 -75.911757993103492 -110.75776271694849 0 -110.75776271694849 34.10732631692008 0 0 0 0 -122.43191366272791 76.522493511202356 0 76.522493511202356 167.09568317682715 0 0 0 0 -2.0755374232118418 -16.165777088251112 0 -16.165777088251112 131.05270275663423 0 0 0 0 77.311076927666363 -36.553600334649673 0 -36.553600334649673 43.54907160034054 0 0 0 0 86.410873938095847 -99.997436742138234 0 -99.997436742138234 7.0480461758852471 0 0 0 0 6.7534710319939677 -63.394831655819871 0 -63.394831655819871 34.207728064182447 0 0 0 0 -20.652590659329491 -2.9514361197839207 0 -2.9514361197839207 77.131345114212309 0 0 0 0 -3.4825558902196008 -12.251732981167152 0 -12.251732981167152 58.378720092499861 0 0 0 0 -68.855243103613418 -20.62167030071555 0 -20.62167030071555 96.330331839792052 0 0 0 0 0.28092226946012405 -11.29113390351935 0 -11.29113390351935 60.90710961966866 0 0 0 0 -3.5810049656095675 4.9506883387078169 0 4.9506883387078169 21.686497905950183 0 0 0 0 -2.3362303521364538 -32.72345870749632 0 -32.72345870749632 114.95693627043147 0 0 0 0 -10.242060476103919 -19.532109506588768 0 -19.532109506588768 50.315185177206743 0 0 0 0 0.25586922864385997 -35.847266013039189 0 -35.847266013039189 -3.9261315768453642 0 0 0 0 -23.664772419788278 -60.981821429417323 0 -60.981821429417323 -20.242645704420283 0 0 0 0 -2.2386623371664207 -2.8161683507676258 0 -2.8161683507676258 8.602199739806089 0 0 0 0 -28.50415882397715 -7.3620711760304403 0 -7.3620711760304403 52.29337065762229 0 0 0 0 -42.932436569162292 -61.601866106957459 0 -61.601866106957459 2.1499196071381448 0 0 0 0 -36.394916400796319 -39.479451128005167 0 -39.479451128005167 56.605651974867214 0 0 0 0 -16.110115437104277 -21.050637105587555 0 -21.050637105587555 24.365853348283352 0 0 0 0 -59.996875696815096 -8.0760380207611888 0 -8.0760380207611888 92.881259501446038 0 0 0 0 -23.20242008154105 35.797561952797878 0 35.797561952797878 52.953533744992455 0 0 0 0 -96.610495033025927 59.104596999677597 0 59.104596999677597 96.880605259262666 0 0 0 0 -26.18806244413377 -16.134770441443123 0 -16.134770441443123 35.689210233304266 0 0 0 0 -94.102377102644596 -58.35562265588112 0 -58.35562265588112 253.72364564639429 0 0 0 0 36.46608869878969 5.4302530917339027 0 5.4302530917339027 28.639817600189417 0 0 0 0 192.30891484991662 -172.22833803406866 0 -172.22833803406866 137.86842901011551 0 0 0 0 -19.502082829253141 15.613396650034701 0 15.613396650034701 84.314173273294728 0 0 0 0 -50.151554545031388 -38.813831379552539 0 -38.813831379552539 37.877049826580333 0 0 0 0 -0.839154495625138 1.8799529021226249 0 1.8799529021226249 13.800348397643056 0 0 0 0 -80.315457877982453 -34.586621573347657 0 -34.586621573347657 164.08358121670972 0 0 0 0 -2.5148627651960425 -4.8395390781254068 0 -4.8395390781254068 63.125886152492029 0 0 0 0 -20.194625683472395 -11.972062801702123 0 -11.972062801702123 61.291339436385897 0 0 0 0 -39.998400547068783 19.589181899850473 0 19.589181899850473 103.49555674441399 0 0 0 0 -20.841495507865375 6.9360876907376223 0 6.9360876907376223 77.356709183563908 0 0 0 0 22.988648866157178 -3.1576574464688747 0 -3.1576574464688747 16.642516953010272 0 0 0 0 -12.776594462442166 5.754837562375684 0 5.754837562375684 11.580711693392107 0 0 0 0 46.595773943885433 12.385738120093265 0 12.385738120093265 33.79569803274353 0 0 0 0 37.906280062498354 34.781725172491406 0 34.781725172491406 32.191886794753373 0 0 0 0 -62.388347790220905 -11.129202239695587 0 -11.129202239695587 110.80361666667159 0 0 0 0 -6.8625307305012484 17.553096331505913 0 17.553096331505913 68.889399114399566 0 0 0 0 -5.1964390195220798 3.8677884327927536 0 3.8677884327927536 49.46540940544611 0 0 0 0 -14.078343517765461 27.442175094816776 0 27.442175094816776 47.932113030350592 0 0 0 0 -2.5403610682576989 5.8258087100905644 0 5.8258087100905644 39.127869883092401 0 0 0 0 -11.335246954401555 -0.24408606358610996 0 -0.24408606358610996 39.220487597289321 0 0 0 0 11.354675770088761 40.871583139869472 0 40.871583139869472 36.476347351450386 0 0 0 0 -1.6504176951001668 5.4047400576717237 0 5.4047400576717237 9.6335621687229036 0 0 0 0 -3.0345535320447894 -0.86864569909107558 0 -0.86864569909107558 2.0481305961121024 0 0 0 0 23.65955192439128 17.531014622891234 0 17.531014622891234 39.65765869434108 0 0 0 0 -81.075055659788632 -26.502263528767799 0 -26.502263528767799 93.778874960858957 0 0 0 0 347.06777885690963 89.061749103075272 0 89.061749103075272 124.93222264386168 0 0 0 0 246.78919832037235 1010.3823989554821 0 1010.3823989554821 2033.890388396765 0 0 0 0 355.68069517413323 -82.812003086772165 0 -82.812003086772165 -51.758527097954357 0 0 0 0 7.4990545202787233 -0.26640235397647416 0 -0.26640235397647416 1.090913036682319 0 0 0 0 -214.26232562190637 299.74692871460502 0 299.74692871460502 1255.4951422425074 0 0 0 0 819.86798379622894 262.25020280600438 0 262.25020280600438 45.770843922904533 0 0 0 0 27.23945053954958 11.624750306102214 0 11.624750306102214 20.485042324329697 0 0 0 0 -37.842926163488301 89.297175957124182 0 89.297175957124182 27.92589622658852 0 0 0 0 97.032277575494049 15.171033473205171 0 15.171033473205171 25.893555546838115 0 0 0 0 18.204347430399554 2.6793585209727908 0 2.6793585209727908 7.309578716873375 0 0 0 0 12.080088040358575 13.249046437561805 0 13.249046437561805 19.252550660914451 0 0 0 0 9.5133341410188379 12.83393784591162 0 12.83393784591162 18.048326488180706 0 0 0 0 3.9087384699973882 7.5293899487005547 0 7.5293899487005547 11.595311710610986 0 0 0 0 2.2219472222132088 6.3511425591240709 0 6.3511425591240709 23.981495487802647 0 0 0 0 721.48081594239272 637.5870913574181 0 637.5870913574181 482.68332480274694 0 0 0 0 3.569722161240017 2.1821010977700066 0 2.1821010977700066 13.566277017552011 0 0 0 0 1196.6204199368119 1361.8823304727794 0 1361.8823304727794 1576.6644375135074 0 0 0 0 250.4925849789293 1159.5750543918057 0 1159.5750543918057 2495.9820318645179 0 0 0 0 273.53889625885824 1101.8299566531853 0 1101.8299566531853 2137.58179440003 0 0 0 0 246.14900502404248 947.81509931948312 0 947.81509931948312 2169.0186685890221 0 0 0 0 401.75211520965598 1223.5438236194996 0 1223.5438236194996 1969.5432262505565 0 0 0 0 8.6857076793381509 -5.3771975219861048 0 -5.3771975219861048 6.684990626921234 0 0 0 0 541.74676143675106 -273.5324089636124 0 -273.5324089636124 139.29958115919726 0 0 0 0 195.53876359528289 -588.9709164901833 0 -588.9709164901833 2902.2200912219341 0 0 0 0 303.13328491963875 -593.68011717071204 0 -593.68011717071204 2640.6364781253615 0 0 0 0 -32.445948442779411 -399.41671137466619 0 -399.41671137466619 2800.7605102768212 0 0 0 0 780.80427269058885 -941.42230460967403 0 -941.42230460967403 2888.2009827777752 0 0 0 0 -186.07531319053581 -66.824574755701178 0 -66.824574755701178 2496.6167910863005 0 0 0 0 189.24063931626588 -642.42187633729918 0 -642.42187633729918 2073.3601168457972 0 0 0 0 45.443248993998012 10.240372120744723 0 10.240372120744723 15.659040289872792 0 0 0 0 2.8854746001683313 -3.3000061220241541 0 -3.3000061220241541 3.1847145945046975 0 0 0 0 -0.46322620851003204 2.0880251361966202 0 2.0880251361966202 12.679391137863714 0 0 0 0 -2.3697890831986115 0.65965719603264006 0 0.65965719603264006 31.902867267331203 0 0 0 0 1.1249486521610379 5.6824861786881229 0 5.6824861786881229 32.084331541678694 0 0 0 0 6.0447459577520215 1.4113897291030071 0 1.4113897291030071 10.477586557690088 0 0 0 0 -2.1887822987559957 0.36643700219792663 0 0.36643700219792663 30.369002337723941 0 0 0 0 57.746891859161678 110.50156784261344 0 110.50156784261344 17.915071423132758 0 0 0 0 285.0387290720833 28.470535819818906 0 28.470535819818906 -162.37610623121145 0 0 0 0 -18.696806113223374 3.2808903677359922 0 3.2808903677359922 32.487574376944394 0 0 0 0 -2.4408393387475282 1.2666028287044213 0 1.2666028287044213 8.1777649582860121 0 0 0 0 -50.761857416252496 -3.0946019859256921 0 -3.0946019859256921 -104.49049875998753 0 0 0 0 -420.87597885749528 84.014721840712809 0 84.014721840712809 33.564612525107805 0 0 0 0 -2.0281078711635288 -3.1688607783029727 0 -3.1688607783029727 23.684390041808825 0 0 0 0 519.26761984002633 92.239247215133219 0 92.239247215133219 -104.24873003324319 0 0 0 0 -19.842956969913985 -1.2488612731103785 0 -1.2488612731103785 26.77727070957917 0 0 0 0 0.69225023944198338 6.3033162673456999 0 6.3033162673456999 18.371582232800108 0 0 0 0 -15.394301133701447 -2.4291640894552984 0 -2.4291640894552984 14.169313350386801 0 0 0 0 7.8348482392608503 -5.4561620611884791 0 -5.4561620611884791 32.131327462317131 0 0 0 0 -8.3027924675034228 -10.499732832802692 0 -10.499732832802692 30.797223534362274 0 0 0 0 -6.8758433059304025 -5.7907133725748281 0 -5.7907133725748281 45.573430876633211 0 0 0 0 -8.627763310710634 10.721393237567099 0 10.721393237567099 51.592506058314029 0 0 0 0 -24.439574995158523 3.0926645438958076 0 3.0926645438958076 74.386020888683561 0 0 0 0 55.795934915866383 -41.81685310847115 0 -41.81685310847115 43.192315789390705 0 0 0 0 -44.061990461916139 -60.207479409931693 0 -60.207479409931693 57.762747036053042 0 0 0 0 -56.265640964242721 -7.7918842521721672 0 -7.7918842521721672 11.975000574311707 0 0 0 0 1.5314346772073519 3.8759361366887291 0 3.8759361366887291 10.467973376174967 0 0 0 0 208.92415802404139 -147.87488783847948 0 -147.87488783847948 98.195638397359289 0 0 0 0 246.62972504671097 -0.9834402716223849 0 -0.9834402716223849 -51.588522391335573 0 0 0 0 40.895052411538927 167.49842498151702 0 167.49842498151702 -84.601167859727866 0 0 0 0 342.34437620885365 -168.65895044187346 0 -168.65895044187346 -166.37483463272292 0 0 0 0 632.30864065465857 -219.17434303541449 0 -219.17434303541449 -38.645622146919777 0 0 0 0 320.7065659298421 -221.44794015429397 0 -221.44794015429397 288.94472213722474 0 0 0 0 1419.287712610462 -463.79359303693855 0 -463.79359303693855 -68.909559271472972 0 0 0 0 -9.0324751067914804 1.0300528821026091 0 1.0300528821026091 8.2491570720085292 0 0 0 0 3.2016195150711475 -8.2348036615728919 0 -8.2348036615728919 32.447425736469683 0 0 0 0 -157.08580585333038 -87.23777779214106 0 -87.23777779214106 364.34213649226149 0 0 0 0 -8.8022411042597923 3.0897294442584098 0 3.0897294442584098 15.508044396978221 0 0 0 0 -12.265365901632777 4.2583461022441043 0 4.2583461022441043 26.786130667307589 0 0 0 0 179.00183079828253 58.602506763447309 0 58.602506763447309 -140.73234458443039 0 0 0 0 -915.03722036452496 -180.1506209793879 0 -180.1506209793879 463.1547353862552 0 0 0 0 148.40674715829027 -626.15591503556061 0 -626.15591503556061 644.80180010252661 0 0 0 0 822.48575527445018 -173.17217188536597 0 -173.17217188536597 -61.815381542801333 0 0 0 0 505.82752002590155 -1797.5510795996379 0 -1797.5510795996379 1820.2765645569125 0 0 0 0 45.123755927961739 -181.38018005122353 0 -181.38018005122353 1537.1170578809542 0 0 0 0 5.0921823515498765 -3.8676815749328428 0 -3.8676815749328428 -1.7628626065326785 0 0 0 0 13.331999792531853 -2.5039352962966746 0 -2.5039352962966746 1.9131586128033504 0 0 0 0 540.6726211252635 -1161.0748613494652 0 -1161.0748613494652 2842.1037501263982 0 0 0 0 637.36555611092922 268.31422924371873 0 268.31422924371873 -145.07910723704845 0 0 0 0 1013.4722317907207 -1618.3430960589467 0 -1618.3430960589467 2297.9242358127085 0 0 0 0 1429.2104658525641 -1316.4154868978821 0 -1316.4154868978821 2353.8862714858697 0 0 0 0 833.95377224835795 -1239.2774709938603 0 -1239.2774709938603 2501.7155162766576 0 0 0 0 1069.4642082817727 -631.35232051552885 0 -631.35232051552885 2982.372958824194 0 0 0 0 -290.47966211366702 -374.93911134586961 0 -374.93911134586961 976.23778932025016 0 0 0 0 1473.9243408960835 -1767.6426807428907 0 -1767.6426807428907 1448.182049939438 0 0 0 0 951.50503466180237 -1392.4476525623613 0 -1392.4476525623613 2151.7758638708183 0 0 0 0 35.450156842205388 -1699.2467525862885 0 -1699.2467525862885 2912.8393023138378 0 0 0 0 -242.23973150053615 -18.931712638168392 0 -18.931712638168392 1918.4318627853063 0 0 0 0 1414.6639426550985 -760.17908502652051 0 -760.17908502652051 1826.2482119242268 0 0 0 0 431.43406049598298 -661.14993737030454 0 -661.14993737030454 2497.5804385006109 0 0 0 0 559.57378582042156 -1155.1668324035636 0 -1155.1668324035636 1600.2093517895864 0 0 0 0 709.89920993818896 -430.36850882318322 0 -430.36850882318322 1761.7347403289205 0 0 0 0 253.91565867302356 -844.13495839629286 0 -844.13495839629286 1581.6251400974361 0 0 0 0 376.51414816487664 -968.28070718285676 0 -968.28070718285676 950.49544826439524 0 0 0 0 371.91688986291047 -761.9674201503185 0 -761.9674201503185 992.25543582169485 0 0 0 0 1210.4567365554537 -1268.0070067664856 0 -1268.0070067664856 807.58285754956887 0 0 0 0 934.20416832118008 -785.40206237311941 0 -785.40206237311941 274.76497672212281 0 0 0 0 346.25615967174463 -440.45758482444216 0 -440.45758482444216 192.17108219971851 0 0 0 0 544.65813948632353 -616.47352871479825 0 -616.47352871479825 330.45962551952834 0 0 0 0 472.3591774365467 -623.17174715682449 0 -623.17174715682449 376.43624101734895 0 0 0 0 249.63603111587349 -508.21750932818759 0 -508.21750932818759 487.71784242105787 0 0 0 0 155.9562991779851 -371.75121068759836 0 -371.75121068759836 309.67952513282944 0 0 0 0 12.627935418490665 -257.71968654502416 0 -257.71968654502416 345.60847244459728 0 0 0 0 121.27383739740799 -181.52168116146277 0 -181.52168116146277 240.23888528667158 0 0 0 0 40.229025844700118 -24.122520562828868 0 -24.122520562828868 138.24410995408107 0 0 0 0 211.34146537048673 -244.16642117333686 0 -244.16642117333686 142.76657795423671 0 0 0 0 313.19784748200726 -376.72755431845241 0 -376.72755431845241 275.63626059371745 0 0 0 0 312.05486368941456 -139.28263472138119 0 -139.28263472138119 19.708235925791087 0 0 0 0 -75.35360536765802 -68.392619784208364 0 -68.392619784208364 122.56161776233057 0 0 0 0 24.779625277740706 -20.881528345111292 0 -20.881528345111292 63.143312186424737 0 0 0 0 -98.035729542828562 -87.605345561467402 0 -87.605345561467402 74.916075637534959 0 0 0 0 51.519202162590773 -137.08834994758217 0 -137.08834994758217 153.5067078672364 0 0 0 0 -8.2696357563220833 -9.6924303674556676 0 -9.6924303674556676 66.18713790035639 0 0 0 0 256.53485655682971 153.66505087903352 0 153.66505087903352 -60.756673151277937 0 0 0 0 -213.2253874544042 200.99866000310794 0 200.99866000310794 133.13083646769519 0 0 0 0 -290.41261318021407 -11.435495692392578 0 -11.435495692392578 155.19570919511898 0 0 0 0 -169.97329939392876 145.69810046563362 0 145.69810046563362 81.403452923390432 0 0 0 0 1.0524379482069159 1.7918961609805173 0 1.7918961609805173 2.973326962671706 0 0 0 0 -136.27190261762325 -6.3906832605680393 0 -6.3906832605680393 68.474656723192311 0 0 0 0 -41.120455974159995 -32.446216077238205 0 -32.446216077238205 54.572253915219335 0 0 0 0 564.05424666096042 -203.59210920627811 0 -203.59210920627811 134.69015558765386 0 0 0 0 58.678876205827692 513.62693130887055 0 513.62693130887055 -107.90977038406709 0 0 0 0 -48.575945342478008 -16.602754410138004 0 -16.602754410138004 -52.785283579862153 0 0 0 0 -100.94401824406668 -114.07247732584801 0 -114.07247732584801 -20.820590535295196 0 0 0 0 55.812273121429826 -25.755995611216349 0 -25.755995611216349 65.906010396538477 0 0 0 0 -33.736136722232914 16.501124749542214 0 16.501124749542214 18.62473183349357 0 0 0 0 -81.399945678509539 50.472852338229131 0 50.472852338229131 31.236226418455772 0 0 0 0 -77.180037986639945 8.5092026555721532 0 8.5092026555721532 100.65550029472797 0 0 0 0 20.98567568280987 -50.898314344947721 0 -50.898314344947721 64.246742997129331 0 0 0 0 -71.110437853508756 -17.738985715564922 0 -17.738985715564922 23.954953843029216 0 0 0 0 7.5181721593307884 28.482913359668601 0 28.482913359668601 48.359826467385574 0 0 0 0 -126.11185003673472 26.570381041226938 0 26.570381041226938 78.848037828691304 0 0 0 0 -22.187140617368641 -32.985172504188085 0 -32.985172504188085 32.938386031106347 0 0 0 0 -27.928548521617813 -47.986610047631984 0 -47.986610047631984 -5.4874668547563488 0 0 0 0 -3.9294806270985196 -27.65607381410079 0 -27.65607381410079 31.864457574703778 0 0 0 0 -20.362549608141698 -1.3971210768158215 0 -1.3971210768158215 7.2714107414526126 0 0 0 0 -32.743194300163211 -36.183525860651571 0 -36.183525860651571 8.5269038168553379 0 0 0 0 -52.994614036237891 -10.503613177788793 0 -10.503613177788793 49.002065807868348 0 0 0 0 11.602889232851389 -82.258738868262299 0 -82.258738868262299 -104.66638823034009 0 0 0 0 118.56421858095422 7.5579099701790255 0 7.5579099701790255 23.956992037536111 0 0 0 0 -123.35731571862863 -4.7828198127499491 0 -4.7828198127499491 57.622671796591021 0 0 0 0 11.242785959633892 -160.28151871953924 0 -160.28151871953924 475.47921768242668 0 0 0 0 77.471195555884037 -46.517137014347099 0 -46.517137014347099 110.98932476699702 0 0 0 0 36.467435624621885 -58.062456141225994 0 -58.062456141225994 112.02796278244932 0 0 0 0 -8.8654081406693876 -38.523935751902172 0 -38.523935751902172 137.47372045848169 0 0 0 0 -8.9737735403588292 1.9052278326559389 0 1.9052278326559389 -0.85382153779833203 0 0 0 0 179.5837023133372 -68.111205559274822 0 -68.111205559274822 412.8242817494247 0 0 0 0 129.21094000791163 -513.8061326295865 0 -513.8061326295865 571.00004841797272 0 0 0 0 -145.18672801389903 -203.07573919418064 0 -203.07573919418064 358.11321045149816 0 0 0 0 17.757447786191619 -195.09656372886093 0 -195.09656372886093 556.72385462636521 0 0 0 0 -2.4661071332091553 0.38298360227469175 0 0.38298360227469175 0.02798722362714301 0 0 0 0 67.927517224252369 -148.36774515269644 0 -148.36774515269644 -329.98624354614731 0 0 0 0 -228.05488068458175 -238.21223050468325 0 -238.21223050468325 590.39455676013313 0 0 0 0 -1.6628223966727385 0.14050934141478422 0 0.14050934141478422 0.69134882599948355 0 0 0 0 -207.52054455284201 -271.14423605674892 0 -271.14423605674892 337.8574089549511 0 0 0 0 -64.732066969556513 238.85825533450043 0 238.85825533450043 351.53239747515181 0 0 0 0 -145.97619804336813 -4.8034914346389996 0 -4.8034914346389996 274.22556667104072 0 0 0 0 201.94073436947474 55.571061336842831 0 55.571061336842831 140.40742572628369 0 0 0 0 268.48983799436286 -207.83377472572647 0 -207.83377472572647 265.89841685994179 0 0 0 0 418.76222903803341 -90.312517926020519 0 -90.312517926020519 357.11618562007061 0 0 0 0 352.58707223583997 -258.61260898391993 0 -258.61260898391993 325.69932453176443 0 0 0 0 581.79640110757498 -470.98977205933897 0 -470.98977205933897 489.03689508211392 0 0 0 0 738.03234923270406 -40.838884137363493 0 -40.838884137363493 843.93041231786628 0 0 0 0 366.92500357483141 -411.51717459272913 0 -411.51717459272913 569.81212728506944 0 0 0 0 216.95378997078927 -430.88825257355643 0 -430.88825257355643 1594.9507334803202 0 0 0 0 223.76318224082368 -357.83611916360792 0 -357.83611916360792 727.34569537262723 0 0 0 0 1098.9702758770345 -775.92868294082837 0 -775.92868294082837 804.62808472455072 0 0 0 0 0.72553893828650151 -3.7520815783791228 0 -3.7520815783791228 14.670855147135057 0 0 0 0 1576.398578596185 -912.83348847530215 0 -912.83348847530215 397.27833585314511 0 0 0 0 513.1409535981802 -1109.7200607122577 0 -1109.7200607122577 1394.0899686797165 0 0 0 0 387.08682325770394 -787.43337949769557 0 -787.43337949769557 724.72962628403911 0 0 0 0 194.70275322085445 -693.18113775845268 0 -693.18113775845268 679.41648549845922 0 0 0 0 201.34156647474879 -716.47613189770345 0 -716.47613189770345 638.39236258256278 0 0 0 0 63.009948533468787 -674.47860318500898 0 -674.47860318500898 1081.6849894261904 0 0 0 0 25.373844004350101 -508.52863023756709 0 -508.52863023756709 643.48724559522816 0 0 0 0 116.13296929646103 -450.96704861814214 0 -450.96704861814214 679.78377718960837 0 0 0 0 122.40967933749528 -588.96046223802841 0 -588.96046223802841 475.30464034816396 0 0 0 0 145.19340599263933 -675.01355594278721 0 -675.01355594278721 748.88133697540252 0 0 0 0 371.29493802112466 -787.31879979912628 0 -787.31879979912628 594.6602299898077 0 0 0 0 166.85217893791128 -787.45968165125305 0 -787.45968165125305 682.02098604394632 0 0 0 0 112.71480312767972 -688.21526421320232 0 -688.21526421320232 629.84564512361612 0 0 0 0 245.41450483381254 -656.92072300092696 0 -656.92072300092696 474.80470049569703 0 0 0 0 -115.48427826627892 -372.80558350714091 0 -372.80558350714091 511.87870810410823 0 0 0 0 -111.19477738839259 -372.36190617473403 0 -372.36190617473403 508.01082195244089 0 0 0 0 147.93633113838644 -701.22741175582632 0 -701.22741175582632 640.49811899611086 0 0 0 0 -20.008551784761949 -704.92944080906818 0 -704.92944080906818 990.67074471348315 0 0 0 0 -123.66636255724791 -487.89860112316092 0 -487.89860112316092 1246.308895979837 0 0 0 0 -414.52008135375405 -300.03810089075023 0 -300.03810089075023 1012.4121171966835 0 0 0 0 -96.71918518018731 -412.98254696984077 0 -412.98254696984077 714.48151900616722 0 0 0 0 -182.70120994261288 -267.33320145129255 0 -267.33320145129255 676.63618703898828 0 0 0 0 -512.42081540713298 187.8607957076747 0 187.8607957076747 282.39913988334592 0 0 0 0 -174.6175858948277 659.35984062391435 0 659.35984062391435 -679.48936744892853 0 0 0 0 -164.63304986858515 -275.24971116238157 0 -275.24971116238157 2755.2313702174415 0 0 0 0 -5.1481234923575485 4.4177081214869389 0 4.4177081214869389 2.434943709747202 0 0 0 0 -158.46998249656053 15.110204430515296 0 15.110204430515296 -32.17352712777938 0 0 0 0 -861.85931008628847 1382.7690263282275 0 1382.7690263282275 2501.4108191787727 0 0 0 0 -462.56656391185311 -178.04724068542782 0 -178.04724068542782 2211.0917526251342 0 0 0 0 -906.34480905477199 644.7773215337329 0 644.7773215337329 734.41348295457283 0 0 0 0 107.19475194425797 490.09929400920379 0 490.09929400920379 2054.4212927588014 0 0 0 0 -4.4135704179630659 -2.4420418409442224 0 -2.4420418409442224 3.3163887586261467 0 0 0 0 -98.726584821196013 -404.10367110119842 0 -404.10367110119842 2497.5843893901624 0 0 0 0 -98.133927071937251 95.42514282168122 0 95.42514282168122 -36.893589523200717 0 0 0 0 -204.21215723097384 36.362846020669167 0 36.362846020669167 161.00910094831488 0 0 0 0 -14.803944268651264 6.5157124271663349 0 6.5157124271663349 13.686139285067355 0 0 0 0 -192.46363763870283 -11.365857567961029 0 -11.365857567961029 132.46101131592877 0 0 0 0 -115.41000331019404 3.3286093950810027 0 3.3286093950810027 131.08396534080384 0 0 0 0 -72.968585428532947 -95.569091155542424 0 -95.569091155542424 -31.893104439383023 0 0 0 0 -4.2638067459688438 -8.4113538209143872 0 -8.4113538209143872 52.999836485859561 0 0 0 0 0.59683070696516516 -7.3740241010860341 0 -7.3740241010860341 37.779818287030849 0 0 0 0 85.280366579466317 -251.38604990688691 0 -251.38604990688691 279.6505162611611 0 0 0 0 -372.06579954706024 -88.434062290968541 0 -88.434062290968541 111.79959757906909 0 0 0 0 -14.475216714957696 -2.303932246799377 0 -2.303932246799377 48.527906861643714 0 0 0 0 85.846312340952409 -282.38750140546108 0 -282.38750140546108 368.43457552116888 0 0 0 0 406.37723325070385 -246.07151466560936 0 -246.07151466560936 72.941740628062689 0 0 0 0 320.92673858748549 -745.35694768927715 0 -745.35694768927715 575.84017786888217 0 0 0 0 -47.581449298961395 -554.47582607728327 0 -554.47582607728327 2496.9382011641828 0 0 0 0 -159.3024854532639 -218.67320313009259 0 -218.67320313009259 120.41521724923496 0 0 0 0 24.73069435171459 -91.283622585677222 0 -91.283622585677222 175.53188368173141 0 0 0 0 38.547092359084786 -98.332895017592818 0 -98.332895017592818 57.719144245304051 0 0 0 0 -45.361177576510045 -226.71106237731146 0 -226.71106237731146 64.448898008363813 0 0 0 0 -76.35543532683414 -149.03870957932668 0 -149.03870957932668 46.960868270354695 0 0 0 0 -71.513205467469675 -87.152918572697672 0 -87.152918572697672 -14.785538587624615 0 0 0 0 -76.402180230643637 -159.5584173620573 0 -159.5584173620573 -77.514440336279222 0 0 0 0 -0.37780507414959397 -1.4365246797553652 0 -1.4365246797553652 -0.64061080260482584 0 0 0 0 11.089132599390766 -83.859029458308214 0 -83.859029458308214 -548.41193793582352 0 0 0 0 7.6549793798162113 -151.63313898868364 0 -151.63313898868364 168.37876597006107 0 0 0 0 -72.24006342004941 -41.96330730135378 0 -41.96330730135378 -78.106132625187684 0 0 0 0 -6.1233843114816144 -13.670671522481953 0 -13.670671522481953 4.0249470606154887 0 0 0 0 554.56481766520858 -1010.779182481318 0 -1010.779182481318 1795.971181468085 0 0 0 0 -125.10001093364177 -451.06964707938459 0 -451.06964707938459 2431.4241385772766 0 0 0 0 0.79087646558587932 -76.956729357640143 0 -76.956729357640143 1087.0939989096441 0 0 0 0 255.54311284263548 -86.989429165463662 0 -86.989429165463662 -689.23993802737095 0 0 0 0 -1.9147486490426595 -4.9944413516990664 0 -4.9944413516990664 -1.1687458260960781 0 0 0 0 -0.44059463120128206 -1.3410547658913572 0 -1.3410547658913572 -0.0075418388861834273 0 0 0 0 -114.18052078884065 -434.58733769237369 0 -434.58733769237369 509.92020209515613 0 0 0 0 58.709144312488888 -97.294444449635193 0 -97.294444449635193 -106.95175856922106 0 0 0 0 44.817115973901082 -131.90809195421389 0 -131.90809195421389 117.42003474119701 0 0 0 0 12.135972855789703 -153.13719727975331 0 -153.13719727975331 221.02878680822323 0 0 0 0 0.040659789422024306 -226.89606480732255 0 -226.89606480732255 142.03186223578814 0 0 0 0 -7.0875375308107778 -83.35331889587178 0 -83.35331889587178 316.23481593279575 0 0 0 0 -0.087948319445538811 -231.79263560152467 0 -231.79263560152467 517.53591091056296 0 0 0 0 -41.648917788906431 -172.94423976992039 0 -172.94423976992039 587.79387891088845 0 0 0 0 -89.984159557824086 -240.13740970427898 0 -240.13740970427898 756.44185394395754 0 0 0 0 -66.09079261993827 -10.680630108377954 0 -10.680630108377954 639.30409625675384 0 0 0 0 14.500064603854753 -59.904530209769291 0 -59.904530209769291 88.530539557164047 0 0 0 0 -516.77707705772639 244.27670523851771 0 244.27670523851771 976.78609735247301 0 0 0 0 61.681162127240441 -677.42777893668244 0 -677.42777893668244 1439.0101241816883 0 0 0 0 -68.707459481892442 -228.04063941915956 0 -228.04063941915956 664.8940295270736 0 0 0 0 -210.31758692376866 -319.45264647925978 0 -319.45264647925978 1069.2125948902831 0 0 0 0 404.77677428378479 -610.16568917929908 0 -610.16568917929908 776.02828999635676 0 0 0 0 330.39514574322175 -396.63056148840406 0 -396.63056148840406 620.43350492305035 0 0 0 0 357.74155346861903 -419.09270753183307 0 -419.09270753183307 510.38764132031065 0 0 0 0 116.69247316597415 -356.58203303863411 0 -356.58203303863411 613.32526513710764 0 0 0 0 135.49253127597967 -418.41725614405368 0 -418.41725614405368 644.5426089042594 0 0 0 0 -7.0324066712411195 -277.19709913383849 0 -277.19709913383849 661.78723996319604 0 0 0 0 -0.063692459124593537 -257.87742223000311 0 -257.87742223000311 691.33452065115853 0 0 0 0 26.931885028699753 -359.42681795043973 0 -359.42681795043973 755.71584691197495 0 0 0 0 -4.7523336501346538 0.37143993773982587 0 0.37143993773982587 2.2076974921888475 0 0 0 0 -60.453101702009008 53.609540477173141 0 53.609540477173141 171.57105204035724 0 0 0 0 -34.737460498689359 -15.345309267686844 0 -15.345309267686844 -3.6154176871395975 0 0 0 0 -11.434261512572903 12.854010370676633 0 12.854010370676633 19.01209842618573 0 0 0 0 -19.852145447500561 -7.534740785291433 0 -7.534740785291433 56.50903575659936 0 0 0 0 -44.900739309309415 30.78238985961093 0 30.78238985961093 42.829418240496921 0 0 0 0 4.2532679502155588 -64.914473108325183 0 -64.914473108325183 35.071292348522547 0 0 0 0 -73.21097598279016 16.638719448787015 0 16.638719448787015 54.938638511302997 0 0 0 0 23.060034756729124 41.044180905261783 0 41.044180905261783 29.851399407114513 0 0 0 0 19.885346148249937 21.71909706003953 0 21.71909706003953 -10.216592526643581 0 0 0 0 -2.7427352511221295 0.35436780337523555 0 0.35436780337523555 39.619517156227644 0 0 0 0 -105.31755588565215 -79.330358410136796 0 -79.330358410136796 73.727220550347738 0 0 0 0 -37.398845204737313 13.664875381459751 0 13.664875381459751 31.015261425513017 0 0 0 0 18.035482767990459 184.12707991750858 0 184.12707991750858 137.12229321286736 0 0 0 0 -30.398018737732315 -79.971300527239237 0 -79.971300527239237 -58.456160132656805 0 0 0 0 -2.5341861244577353 -0.093274431402029734 0 -0.093274431402029734 1.6334449460687246 0 0 0 0 57.482080633458054 70.458546047699656 0 70.458546047699656 -87.611698727616385 0 0 0 0 -2.3689219280625129 4.3375585399487022 0 4.3375585399487022 30.239430031645377 0 0 0 0 -75.887706785450519 -48.473453462042016 0 -48.473453462042016 142.33020356306133 0 0 0 0 -15.97485009275772 -47.599537174480247 0 -47.599537174480247 2.3689884599807556 0 0 0 0 35.604057217213494 6.092770823380306 0 6.092770823380306 72.243951601756635 0 0 0 0 112.43333314021356 -7.0277500340853294 0 -7.0277500340853294 74.222961454797314 0 0 0 0 -1.7379283405861581 5.2541555237554576 0 5.2541555237554576 2.1508158067036618 0 0 0 0 -681.8968327389598 -113.67840994001017 0 -113.67840994001017 -23.670936895156046 0 0 0 0 77.512470314058504 187.70997969454493 0 187.70997969454493 -48.148999042348805 0 0 0 0 53.320014803980669 89.38977327676082 0 89.38977327676082 84.849298360650209 0 0 0 0 135.10835042648569 103.31824067839079 0 103.31824067839079 56.16371927680666 0 0 0 0 100.72695292503522 53.513362530895392 0 53.513362530895392 4.0867937057864765 0 0 0 0 -142.14879825212154 179.8147921081445 0 179.8147921081445 109.67020297440104 0 0 0 0 71.037601891830491 100.40587171589482 0 100.40587171589482 138.05721898861339 0 0 0 0 -77.851070469372416 88.57269571565871 0 88.57269571565871 162.39704572745904 0 0 0 0 -46.111658897798861 41.207396583215996 0 41.207396583215996 220.948397584958 0 0 0 0 13.190271971286393 70.020690033409664 0 70.020690033409664 165.9740645134857 0 0 0 0 33.534788778138136 33.274796991562653 0 33.274796991562653 44.314293904646547 0 0 0 0 26.650242700965009 14.283144551232908 0 14.283144551232908 -0.055794649877498159 0 0 0 0 -18.942825696403361 -20.135616502469929 0 -20.135616502469929 44.397177806668878 0 0 0 0 113.86920196123265 132.51438311004222 0 132.51438311004222 58.849754404387113 0 0 0 0 152.20334555752368 -169.5115094476605 0 -169.5115094476605 220.69734710770626 0 0 0 0 2.0151609876994252 2.5499560447274838 0 2.5499560447274838 4.9762028902536777 0 0 0 0 -5.2753950390093678 -30.452331485762102 0 -30.452331485762102 30.26179637063251 0 0 0 0 -27.905416837157475 0.68679661341437281 0 0.68679661341437281 27.53401052711888 0 0 0 0 -0.31231331724600242 6.3921923787002832 0 6.3921923787002832 16.199096948297054 0 0 0 0 -22.53242723524454 -39.575802278136962 0 -39.575802278136962 62.851421452924569 0 0 0 0 34.412643917756668 -52.318549689049178 0 -52.318549689049178 39.344542630803517 0 0 0 0 84.08626489096423 -44.630024213831348 0 -44.630024213831348 44.623351104744415 0 0 0 0 -173.17290998390354 -8.3570353825971324 0 -8.3570353825971324 122.44244301892195 0 0 0 0 -164.88889762133613 99.00552826395392 0 99.00552826395392 138.17542879276698 0 0 0 0 -77.888383865372504 42.752574330600652 0 42.752574330600652 -13.362839722420176 0 0 0 0 -17.614420813139077 77.096129814994129 0 77.096129814994129 77.073181160378226 0 0 0 0 -77.075577179818751 10.033347301960902 0 10.033347301960902 249.01769744811281 0 0 0 0 -79.123384864973559 88.860275767978237 0 88.860275767978237 108.57322495869448 0 0 0 0 -90.236351916001695 52.639409044329341 0 52.639409044329341 49.063167294738378 0 0 0 0 -1.6446081880109751 3.2445953812272039 0 3.2445953812272039 51.826007184228786 0 0 0 0 0.9000156230757892 13.888764897155859 0 13.888764897155859 49.642579032457689 0 0 0 0 -20.542158640217565 -26.038119900256788 0 -26.038119900256788 1.9349200564756757 0 0 0 0 -23.872554951713937 172.84469089820982 0 172.84469089820982 274.13091828959568 0 0 0 0 -31.615935234901258 77.067989181633493 0 77.067989181633493 461.99782925212276 0 0 0 0 226.91694479497983 238.10200881454512 0 238.10200881454512 12.261765739606744 0 0 0 0 -6.0168874893057573 1.493770848774628 0 1.493770848774628 -0.21595136158158468 0 0 0 0 24.438521276886604 -278.29076885486757 0 -278.29076885486757 95.296141946584385 0 0 0 0 -1.9324273811212151 -6.5725785947090571 0 -6.5725785947090571 1.0333412189197588 0 0 0 0 -16.469694789219488 1.4464628074932762 0 1.4464628074932762 19.700242455304306 0 0 0 0 -10.045491832306404 6.9646425495829085 0 6.9646425495829085 3.7085074216462992 0 0 0 0 -22.053578557452511 10.113576259593856 0 10.113576259593856 23.447487958522288 0 0 0 0 48.874976079202042 8.651705994725944 0 8.651705994725944 -139.36155391267653 0 0 0 0 -21.667379441942103 -25.900505350299909 0 -25.900505350299909 112.80207995713999 0 0 0 0 -6.6090879675748511 -62.092460377082261 0 -62.092460377082261 123.44729000055544 0 0 0 0 -4.1696238305042783 -1.1422654158456442 0 -1.1422654158456442 5.8305127116838555 0 0 0 0 1.04330571825761 -2.3654289203519614 0 -2.3654289203519614 -1.973751395602334 0 0 0 0 -56.429838459386701 23.886758652131221 0 23.886758652131221 7.2780068187489633 0 0 0 0 -6.3523974447302258 17.302971060632665 0 17.302971060632665 42.887944666375404 0 0 0 0 42.073988648723116 -24.512293042258989 0 -24.512293042258989 90.232763484105817 0 0 0 0 -3.5540381072972913 38.730287628295628 0 38.730287628295628 83.340250041008204 0 0 0 0 -29.619786761307296 102.4501920601524 0 102.4501920601524 52.912395964739517 0 0 0 0 -5.547702592558398 31.078855497983731 0 31.078855497983731 56.075942015359033 0 0 0 0 -54.642456932142522 114.31368465008563 0 114.31368465008563 48.172277613535954 0 0 0 0 -13.917531399669087 17.767087388288473 0 17.767087388288473 38.764972761833633 0 0 0 0 -10.277688011135355 12.602594039571771 0 12.602594039571771 49.827198217461287 0 0 0 0 -23.661042876942361 87.655968278168416 0 87.655968278168416 -11.846906606600896 0 0 0 0 25.756041257129255 137.64462271792718 0 137.64462271792718 33.782242974904875 0 0 0 0 -7.4837792611699072 22.035687615381445 0 22.035687615381445 46.517519444705485 0 0 0 0 -10.500447591460215 10.465433078225942 0 10.465433078225942 78.871628506168236 0 0 0 0 -20.371172295854421 -15.387291339913702 0 -15.387291339913702 123.77631344400925 0 0 0 0 -14.936104111340732 -11.341545912246055 0 -11.341545912246055 60.440506290572813 0 0 0 0 -7.9915362173487665 -22.902486134978972 0 -22.902486134978972 79.0864656130356 0 0 0 0 -10.752570072601884 12.059735594129961 0 12.059735594129961 69.316600920436031 0 0 0 0 -58.210046581254574 43.766717039616196 0 43.766717039616196 95.888613388058729 0 0 0 0 -4.2978300558393023 11.368180430967616 0 11.368180430967616 59.536987025269525 0 0 0 0 72.786814911876718 52.154523465440434 0 52.154523465440434 78.49931001936784 0 0 0 0 3.8208999293892703 91.390394875976199 0 91.390394875976199 78.521285163856788 0 0 0 0 3.2953533817345644 11.687836309108839 0 11.687836309108839 -4.4481991007707506 0 0 0 0 -44.525435769332944 78.482265647702661 0 78.482265647702661 126.65781817111565 0 0 0 0 -4.7496731873300444 13.723755228159574 0 13.723755228159574 114.1593050471652 0 0 0 0 -68.29353890899165 108.54835834334881 0 108.54835834334881 112.2482200630111 0 0 0 0 -16.280037043048331 13.948749696776034 0 13.948749696776034 16.337922774278155 0 0 0 0 -46.040362538888985 -35.364614199776909 0 -35.364614199776909 160.6516776931802 0 0 0 0 -75.106595060224208 -3.8716354825188546 0 -3.8716354825188546 137.08106851735766 0 0 0 0 -0.84663243578503078 13.327741670882833 0 13.327741670882833 99.288619753905252 0 0 0 0 -156.80788717681935 56.245986991076279 0 56.245986991076279 142.38866628046344 0 0 0 0 -115.90344543981018 41.352684729816588 0 41.352684729816588 140.27715882326174 0 0 0 0 -97.585904620314977 1.6816362834870233 0 1.6816362834870233 126.34098125025776 0 0 0 0 -32.751153873155999 60.536326361649117 0 60.536326361649117 74.19243949531301 0 0 0 0 -42.883409641230173 47.944793091985048 0 47.944793091985048 140.45460758626723 0 0 0 0 -33.908965857248859 67.997756328459673 0 67.997756328459673 154.85562233410019 0 0 0 0 -55.584046614281455 -100.45445598777196 0 -100.45445598777196 256.85685804629429 0 0 0 0 -57.794762150876579 37.533304207336535 0 37.533304207336535 473.69053421699323 0 0 0 0 -9.533571787756955 -36.158978056137528 0 -36.158978056137528 121.4205753419904 0 0 0 0 -1.1724563769776069 27.254995233765328 0 27.254995233765328 145.97940286084167 0 0 0 0 -10.599292583161514 55.510457079556318 0 55.510457079556318 119.65937293849629 0 0 0 0 96.67841055588724 116.40420482751483 0 116.40420482751483 227.07082835449305 0 0 0 0 122.12420913450114 261.2037875779065 0 261.2037875779065 428.99734297976909 0 0 0 0 -0.75783419132223706 -1.2954243967388099 0 -1.2954243967388099 5.6249327744305537 0 0 0 0 12.792798855409046 -230.40825039128077 0 -230.40825039128077 176.31016878026219 0 0 0 0 67.3550114839245 -35.584566768941897 0 -35.584566768941897 -44.731611693531832 0 0 0 0 -276.63813573866867 -150.97311611089918 0 -150.97311611089918 191.23390132724603 0 0 0 0 -86.690433688923122 -66.394294941487033 0 -66.394294941487033 -77.258432488217593 0 0 0 0 -105.93124391517878 -45.828171740545294 0 -45.828171740545294 9.7061253560905243 0 0 0 0 -118.98561264384807 66.651954525602605 0 66.651954525602605 445.30572486128102 0 0 0 0 239.93032213386206 179.76803894660571 0 179.76803894660571 96.248411961309102 0 0 0 0 110.57751183368873 47.457618626011936 0 47.457618626011936 14.205372598541089 0 0 0 0 6.7096822983985476 -55.143442919438712 0 -55.143442919438712 29.907292706298676 0 0 0 0 247.65377589207401 -49.820707891467009 0 -49.820707891467009 26.674490333735321 0 0 0 0 -28.628847532949521 82.294093798020185 0 82.294093798020185 60.936533332955605 0 0 0 0 -46.454615539518812 33.679630257190524 0 33.679630257190524 45.654584427756618 0 0 0 0 -3.387817003297414 19.347698318743369 0 19.347698318743369 7.8254057938820551 0 0 0 0 -23.340168531830955 44.840692835672883 0 44.840692835672883 43.556209710733128 0 0 0 0 -53.202520434629832 -44.372812437755783 0 -44.372812437755783 20.759341946086806 0 0 0 0 -139.05552666199628 -24.844066220380682 0 -24.844066220380682 29.492287139124528 0 0 0 0 -2.5243654870682906 -1.2536514928371822 0 -1.2536514928371822 50.166251907752738 0 0 0 0 -2.0404927990603912 -3.4652532738719279 0 -3.4652532738719279 59.443284240262145 0 0 0 0 -152.9102347610787 -65.453117811624907 0 -65.453117811624907 94.488572009566269 0 0 0 0 -220.02356176808871 53.420658407837436 0 53.420658407837436 139.44574161097114 0 0 0 0 -46.133943101496698 -25.748972900095396 0 -25.748972900095396 19.828600228512073 0 0 0 0 -81.10263665955199 38.020349512484245 0 38.020349512484245 128.6997228261298 0 0 0 0 -54.39874831272391 -3.6010632724605784 0 -3.6010632724605784 85.853554931032704 0 0 0 0 -3.3388005973251955 0.59485895267277655 0 0.59485895267277655 -0.59505579547003151 0 0 0 0 -59.766404945809199 19.741864634803278 0 19.741864634803278 143.27808586342871 0 0 0 0 21.141323145947183 144.48979788959866 0 144.48979788959866 180.25139851507265 0 0 0 0 -60.090731972379217 -41.110514236524978 0 -41.110514236524978 -7.4129539837849734 0 0 0 0 37.43963605208387 36.165239428535642 0 36.165239428535642 38.93781520930952 0 0 0 0 -5.3210951761668923 5.9542465013347758 0 5.9542465013347758 16.338257371210197 0 0 0 0 -25.109563863467883 -2.0564371847631264 0 -2.0564371847631264 54.591166454074937 0 0 0 0 -76.023098230370181 38.210565136545029 0 38.210565136545029 144.45153877300618 0 0 0 0 -2.7521636996017538 -5.46817852327694 0 -5.46817852327694 65.907926410038726 0 0 0 0 -70.297620815440951 -23.838811690768125 0 -23.838811690768125 47.884843234091022 0 0 0 0 -32.932836279190496 -22.921456193754238 0 -22.921456193754238 -0.99403861077735201 0 0 0 0 -102.89794967669854 -6.5217929643240495 0 -6.5217929643240495 58.847930654097581 0 0 0 0 -75.039208309597825 -39.066961817362426 0 -39.066961817362426 11.458318182543735 0 0 0 0 -1.7603398017682466 0.13970701887541281 0 0.13970701887541281 0.85489196980783788 0 0 0 0 -187.82510603282526 -161.17480614617853 0 -161.17480614617853 -80.271656396695562 0 0 0 0 -70.806909472176812 -23.349304999841479 0 -23.349304999841479 6.5207129326195172 0 0 0 0 -96.825988351729166 -67.869540758245421 0 -67.869540758245421 -67.416267954231444 0 0 0 0 -257.47268869501954 -38.78202124470954 0 -38.78202124470954 48.530471379713163 0 0 0 0 -164.52820416722807 -22.88833215550585 0 -22.88833215550585 41.693749043100979 0 0 0 0 -108.98796651747762 18.947889282927463 0 18.947889282927463 17.626036647128785 0 0 0 0 -99.047871196781841 21.140982722325759 0 21.140982722325759 55.978377968473069 0 0 0 0 -96.799564739876132 -16.9222680189323 0 -16.9222680189323 34.132872678757849 0 0 0 0 -55.139361164224056 11.543370965617214 0 11.543370965617214 55.425286405283259 0 0 0 0 -45.284470753670064 35.493629162855086 0 35.493629162855086 52.544668048005406 0 0 0 0 -35.937866523954654 15.737717702295413 0 15.737717702295413 41.745889228423948 0 0 0 0 13.824611025621721 18.792283657732696 0 18.792283657732696 43.938718995636009 0 0 0 0 -16.682160277013509 40.555957124530323 0 40.555957124530323 40.383920004078391 0 0 0 0 -22.108886999644255 21.102917131092909 0 21.102917131092909 37.507836355172913 0 0 0 0 13.19103181225023 39.78017073162664 0 39.78017073162664 34.309949748661893 0 0 0 0 -77.630761314558868 37.138747537458585 0 37.138747537458585 47.659378584830847 0 0 0 0 -85.942319855571895 0.63320074013245176 0 0.63320074013245176 26.162924510448647 0 0 0 0 -34.669357350795849 40.49543273519248 0 40.49543273519248 23.860711773879302 0 0 0 0 -111.76061362983296 20.635705692646297 0 20.635705692646297 75.592829232231452 0 0 0 0 -62.768721382010426 6.2020846457526204 0 6.2020846457526204 32.564336873171669 0 0 0 0 -66.681160838810911 41.637793248699381 0 41.637793248699381 77.127019374180236 0 0 0 0 24.130380135124028 50.011006590588295 0 50.011006590588295 59.030395895999391 0 0 0 0 -11.488610514654511 21.731654264927784 0 21.731654264927784 44.015608226949553 0 0 0 0 -27.47201769182152 40.623188807359838 0 40.623188807359838 57.694491633359576 0 0 0 0 -58.115539822130813 20.112127918455371 0 20.112127918455371 67.344924083618935 0 0 0 0 -15.943291520654498 43.75634585603575 0 43.75634585603575 73.206612408721412 0 0 0 0 -9.9527044769845929 25.935614673940108 0 25.935614673940108 78.410727795428102 0 0 0 0 27.240565286341507 35.368280538546969 0 35.368280538546969 75.162118534448382 0 0 0 0 -30.860140055025568 18.459302069886689 0 18.459302069886689 82.192721197196079 0 0 0 0 -16.79288706576142 36.81134612562164 0 36.81134612562164 104.03957854084001 0 0 0 0 -106.20914009762532 46.771589437119474 0 46.771589437119474 107.59683804790257 0 0 0 0 -91.452778245447917 27.947042745090585 0 27.947042745090585 85.131940644641872 0 0 0 0 -52.037587684586242 45.752980807183121 0 45.752980807183121 74.977155474130996 0 0 0 0 -100.98282386089772 69.035338262132427 0 69.035338262132427 85.388224825046564 0 0 0 0 -37.547556891935074 123.8309008699398 0 123.8309008699398 113.94712695989074 0 0 0 0 -101.54355710168761 54.813698973581268 0 54.813698973581268 39.515052099435707 0 0 0 0 -7.7861500893037601 66.207682369755275 0 66.207682369755275 4.5008662027175887 0 0 0 0 -27.573786925896002 39.955290371097362 0 39.955290371097362 -24.231071372789302 0 0 0 0 -0.16659177275672588 0.11771920568379768 0 0.11771920568379768 1.6377850351456971 0 0 0 0 -130.74946000256159 -56.673186626358074 0 -56.673186626358074 76.392096504780056 0 0 0 0 45.558539874214489 156.01907159084294 0 156.01907159084294 90.570696043654607 0 0 0 0 -56.140815998035919 -33.962545140796465 0 -33.962545140796465 -13.101790342749155 0 0 0 0 -62.765313649309064 -55.157786983727419 0 -55.157786983727419 -68.620525866067965 0 0 0 0 -91.997460097411476 -68.426817621751979 0 -68.426817621751979 -18.842105100673507 0 0 0 0 -91.440244069915934 -60.436711571335763 0 -60.436711571335763 50.911738165727002 0 0 0 0 107.59727158051533 127.20409236419255 0 127.20409236419255 326.89349162682629 0 0 0 0 -121.02765157360409 -19.921925853655921 0 -19.921925853655921 201.4618482244332 0 0 0 0 90.181891331804081 163.14082236474496 0 163.14082236474496 252.75382527002512 0 0 0 0 -111.53536942459988 30.771061144031819 0 30.771061144031819 55.749885676359554 0 0 0 0 -160.13933863175748 24.393917516385045 0 24.393917516385045 99.552645194624347 0 0 0 0 -178.08575506525244 81.012650764430873 0 81.012650764430873 167.08303271337718 0 0 0 0 -97.108854904578493 204.92279907439479 0 204.92279907439479 306.64296144574473 0 0 0 0 -1.6526111271668713 -6.9018263981825809 0 -6.9018263981825809 70.176675737748184 0 0 0 0 -7.3924345408283898 39.116000004376474 0 39.116000004376474 113.29012153262738 0 0 0 0 1.2524382980840851 -3.0873618915450365 0 -3.0873618915450365 49.111150810104192 0 0 0 0 -146.03898367785996 -7.0582061456807423 0 -7.0582061456807423 95.960948080784874 0 0 0 0 -114.77021550013342 -25.939042100617371 0 -25.939042100617371 106.14098890433252 0 0 0 0 -68.34212049075245 -55.775719421202666 0 -55.775719421202666 78.078638058325396 0 0 0 0 -36.218348849102455 -49.050539263454084 0 -49.050539263454084 22.005380356891692 0 0 0 0 1.9645336727542553 -7.764503428305332 0 -7.764503428305332 41.111217895284341 0 0 0 0 46.012724567036685 -50.659927724023873 0 -50.659927724023873 18.924364222635631 0 0 0 0 66.218330579353619 7.378248385126426 0 7.378248385126426 37.741969005497594 0 0 0 0 52.110078024347445 3.5749167006797506 0 3.5749167006797506 49.984762643330214 0 0 0 0 71.105577520977562 13.768053271595818 0 13.768053271595818 32.967339336839359 0 0 0 0 23.610425473357282 30.071939395442314 0 30.071939395442314 38.113096848355326 0 0 0 0 49.131215149439441 16.088184129989031 0 16.088184129989031 42.405086484279309 0 0 0 0 47.385131993966525 19.794091083338571 0 19.794091083338571 34.455871759163529 0 0 0 0 67.060394330005465 27.055838539172328 0 27.055838539172328 27.389065757684875 0 0 0 0 44.719150292365612 32.769034797573113 0 32.769034797573113 38.440459261324577 0 0 0 0 14.926547242988974 23.566928460432905 0 23.566928460432905 42.320102058663906 0 0 0 0 45.553224632972274 24.127610943830859 0 24.127610943830859 39.235172788467025 0 0 0 0 94.525152517237871 55.403082343120332 0 55.403082343120332 57.387128706837757 0 0 0 0 25.738030107930172 30.09959392807059 0 30.09959392807059 108.56344871156034 0 0 0 0 48.67875224199679 28.994649791293341 0 28.994649791293341 102.94222647278366 0 0 0 0 151.35092511570974 76.646385039570305 0 76.646385039570305 61.461405760137495 0 0 0 0 45.317144007537081 41.336389327601864 0 41.336389327601864 248.83362046662296 0 0 0 0 87.161454686199136 9.2504368461648028 0 9.2504368461648028 30.846758971560121 0 0 0 0 84.829221854129742 9.8452811918896259 0 9.8452811918896259 30.975305893753102 0 0 0 0 1.3840446837116049 -5.8224079716309181 0 -5.8224079716309181 23.866973564132081 0 0 0 0 147.84957850170969 133.48805315213485 0 133.48805315213485 246.50160695096201 0 0 0 0 0.99256670151017123 -2.3632909435008376 0 -2.3632909435008376 7.614055113744314 0 0 0 0 387.09507505664862 -34.34226709298855 0 -34.34226709298855 -101.30686554097338 0 0 0 0 -197.6845442878614 -208.17076456546602 0 -208.17076456546602 46.56756514447261 0 0 0 0 -1.5960991859624425 -5.929664816867092 0 -5.929664816867092 108.64116537377956 0 0 0 0 -44.995582571803652 -50.761163289436809 0 -50.761163289436809 81.366435747750074 0 0 0 0 51.446950407752638 290.15646950731025 0 290.15646950731025 73.85504983015835 0 0 0 0 -568.41248849492263 -330.8681580546338 0 -330.8681580546338 593.0075878655407 0 0 0 0 -1.1463400890831767 -12.768382274553169 0 -12.768382274553169 134.19569561319901 0 0 0 0 105.12512141020738 -167.01114914421669 0 -167.01114914421669 556.89759475940627 0 0 0 0 386.05893685392977 -181.34723831206884 0 -181.34723831206884 114.98446821692414 0 0 0 0 91.588393986993424 -130.40627759825838 0 -130.40627759825838 261.9466812844621 0 0 0 0 80.182940757448137 -73.037636434802153 0 -73.037636434802153 202.98385110490199 0 0 0 0 82.853302149338106 -69.825125274271159 0 -69.825125274271159 205.04278872989744 0 0 0 0 50.107221837336283 -38.684133713613846 0 -38.684133713613846 179.31176213876461 0 0 0 0 8.791377762488537 13.426953063521069 0 13.426953063521069 157.62214385295738 0 0 0 0 53.50275620058818 -43.465517014622492 0 -43.465517014622492 120.67514518427197 0 0 0 0 70.039152072008733 -69.297139085090748 0 -69.297139085090748 117.90049993439607 0 0 0 0 44.243500007217108 -67.558882148994599 0 -67.558882148994599 157.95747098825996 0 0 0 0 99.429813069550619 -107.7112883662121 0 -107.7112883662121 167.45707243575816 0 0 0 0 106.01162194190215 -111.64007679793576 0 -111.64007679793576 135.54071766199922 0 0 0 0 187.68714468886913 -88.778893729317133 0 -88.778893729317133 121.03073162229703 0 0 0 0 44.255515721855318 -43.200342177337006 0 -43.200342177337006 180.05070858525374 0 0 0 0 106.55238604872204 -56.454505872839036 0 -56.454505872839036 180.58577000665537 0 0 0 0 93.490648192213939 -99.142184726833875 0 -99.142184726833875 120.39593167537532 0 0 0 0 295.43900872539143 -160.25735401122984 0 -160.25735401122984 138.78651271596755 0 0 0 0 183.07463338343175 -119.76689837812205 0 -119.76689837812205 50.601567174613592 0 0 0 0 215.26663918974214 -192.7786026806134 0 -192.7786026806134 126.27945546555384 0 0 0 0 -148.61817449726561 -36.162332993648306 0 -36.162332993648306 124.82270872336812 0 0 0 0 178.94730958949037 -43.632245844030876 0 -43.632245844030876 25.249027284760814 0 0 0 0 81.714597976442406 -148.27159362804355 0 -148.27159362804355 97.479725723456795 0 0 0 0 -467.32766834425627 36.572354806707608 0 36.572354806707608 239.10160270093183 0 0 0 0 -150.71235464112976 32.613187361809651 0 32.613187361809651 111.52346423400923 0 0 0 0 -137.70172294797612 59.055477077024989 0 59.055477077024989 -32.949500084574538 0 0 0 0 -95.110216040661157 -15.013431774644232 0 -15.013431774644232 52.75612565359188 0 0 0 0 -63.623578604004706 -54.019229876546888 0 -54.019229876546888 -61.266924348137763 0 0 0 0 -0.32621891776353673 0.050862345631292882 0 0.050862345631292882 1.611072795574799 0 0 0 0 115.16550560676444 -117.11849959102983 0 -117.11849959102983 24.76586321083596 0 0 0 0 -415.9854876934769 159.81260666802518 0 159.81260666802518 79.963644022027438 0 0 0 0 -0.65887556119953461 0.49107341054723275 0 0.49107341054723275 2.4499315269358704 0 0 0 0 -292.71734010023056 -75.226534194171109 0 -75.226534194171109 111.8264134797937 0 0 0 0 -25.802103816265742 -122.18791497563961 0 -122.18791497563961 144.24880082080927 0 0 0 0 -57.951777128658932 -58.599667887548321 0 -58.599667887548321 176.24189831055992 0 0 0 0 -118.90533293547969 167.23957442910614 0 167.23957442910614 -94.55074486402782 0 0 0 0 -252.51460372330527 -6.1040079399517708 0 -6.1040079399517708 55.894654591815197 0 0 0 0 -118.39228457493346 -35.575080076174345 0 -35.575080076174345 -15.133321445842739 0 0 0 0 -132.17605083653206 32.100079714413368 0 32.100079714413368 59.487776641428354 0 0 0 0 -81.462488909653075 29.552431926967984 0 29.552431926967984 47.960156374138023 0 0 0 0 -66.828648957405562 48.899927821292295 0 48.899927821292295 48.121230446609843 0 0 0 0 -44.473409794504732 15.497853894563377 0 15.497853894563377 89.900548691487529 0 0 0 0 -29.513540090601737 13.528639115455007 0 13.528639115455007 45.205167820786301 0 0 0 0 -76.794272667044197 32.90949370205999 0 32.90949370205999 14.856612285206211 0 0 0 0 -62.432316693609209 1.9017264700196392 0 1.9017264700196392 76.066405910172762 0 0 0 0 13.644437439354078 7.2411009759871376 0 7.2411009759871376 92.714238153490442 0 0 0 0 -28.57040453722891 30.885807116095748 0 30.885807116095748 94.446142050306662 0 0 0 0 2.109747758545609 -31.411584339810361 0 -31.411584339810361 97.882669696885159 0 0 0 0 -1.1596356915088109 -37.918719535458877 0 -37.918719535458877 111.69127871992168 0 0 0 0 35.32822500162024 -24.970696663387571 0 -24.970696663387571 75.79439877349796 0 0 0 0 -1.6772480359936708 -48.985541821957668 0 -48.985541821957668 67.07079621344019 0 0 0 0 -35.138438286661653 2.7019587367230997 0 2.7019587367230997 8.6675393237201206 0 0 0 0 1.1380691757876775 -57.654286094112194 0 -57.654286094112194 72.185777800485084 0 0 0 0 -63.287961469063248 -75.961063860848299 0 -75.961063860848299 73.891357017175324 0 0 0 0 -10.301894144241714 -75.431980135927461 0 -75.431980135927461 141.29942573383232 0 0 0 0 31.759689946601839 -108.84251103905626 0 -108.84251103905626 132.93228840813799 0 0 0 0 -78.709888376609115 -117.84256627700415 0 -117.84256627700415 140.66236133008351 0 0 0 0 48.979351676744045 -87.091720196756796 0 -87.091720196756796 91.482507441589405 0 0 0 0 53.949071635751807 -66.684392230607955 0 -66.684392230607955 149.25382068883482 0 0 0 0 66.353893787565994 -102.88155139807714 0 -102.88155139807714 148.38374270023411 0 0 0 0 34.042259235156507 -110.35769161187454 0 -110.35769161187454 197.33873509804107 0 0 0 0 28.998351443764477 -87.351128428968877 0 -87.351128428968877 193.3957781793797 0 0 0 0 32.65548197439648 -125.28757706371835 0 -125.28757706371835 234.79860533561759 0 0 0 0 -4.602712406249168 -103.33353852693472 0 -103.33353852693472 360.68368779624507 0 0 0 0 -16.047410661923323 -51.363854671619265 0 -51.363854671619265 210.50422660864569 0 0 0 0 47.728981480336188 -14.638700713492653 0 -14.638700713492653 194.44045933265079 0 0 0 0 -109.43033937471932 -7.2472566743508651 0 -7.2472566743508651 211.44402186359275 0 0 0 0 -0.19687010051846016 -0.019091296891730725 0 -0.019091296891730725 0.70071194736446785 0 0 0 0 -204.89977117101898 -110.29894270446016 0 -110.29894270446016 121.66010526118043 0 0 0 0 -2.6509526853642291 -3.1053672138580364 0 -3.1053672138580364 5.1822560415426437 0 0 0 0 -183.15005119916214 -116.65037778116857 0 -116.65037778116857 -166.97969103837113 0 0 0 0 -342.49184484668308 175.91642191976189 0 175.91642191976189 188.23881988802896 0 0 0 0 14.515431201887367 161.08623374797889 0 161.08623374797889 75.179422736880952 0 0 0 0 -7.3302840781154899 -291.32641587435137 0 -291.32641587435137 145.20019908592258 0 0 0 0 -210.26918096682431 -4.4625290839176159 0 -4.4625290839176159 327.37317007226738 0 0 0 0 -226.67824399288361 111.65247084844395 0 111.65247084844395 70.458169930781878 0 0 0 0 57.752632605905603 -213.60348970592895 0 -213.60348970592895 -132.42883243167489 0 0 0 0 -227.68826148987611 73.888029355352046 0 73.888029355352046 -124.89624441068008 0 0 0 0 -12.367850288989331 20.917123448855818 0 20.917123448855818 -146.52707985441521 0 0 0 0 -48.189475467746774 -484.64275930913209 0 -484.64275930913209 551.26769820244226 0 0 0 0 -214.21374401345747 -258.58835683676989 0 -258.58835683676989 669.22925051567563 0 0 0 0 -193.85543438722266 -300.02145171288703 0 -300.02145171288703 703.50378773405464 0 0 0 0 -131.65232264000406 -60.3374673594044 0 -60.3374673594044 582.2496116115617 0 0 0 0 -153.22213455106294 -299.76007056650269 0 -299.76007056650269 692.46111994040439 0 0 0 0 -229.24534311585222 -275.36157252181238 0 -275.36157252181238 712.00908016310495 0 0 0 0 -0.4300468678800371 -260.51188664012079 0 -260.51188664012079 127.28162664133197 0 0 0 0 -65.840076508862921 -76.692669956330974 0 -76.692669956330974 658.28459364807895 0 0 0 0 1.5746418413559975 0.18243100823887914 0 0.18243100823887914 0.63130939235483208 0 0 0 0 5.2194635054871563 -0.65360165041167306 0 -0.65360165041167306 0.99134391405100342 0 0 0 0 -28.773584170692629 -60.519294084197099 0 -60.519294084197099 407.70232936196589 0 0 0 0 65.329389605361939 49.858855026061065 0 49.858855026061065 567.6977270149622 0 0 0 0 40.401260693253789 -36.309565616698819 0 -36.309565616698819 284.39204177857573 0 0 0 0 -471.8491526944631 32.882744162628114 0 32.882744162628114 1774.2108796338907 0 0 0 0 -294.45323465696447 898.47234612314605 0 898.47234612314605 -355.901677614449 0 0 0 0 0.74304264423449506 4.2361479224360963 0 4.2361479224360963 8.3550755401909313 0 0 0 0 168.76767498289132 -853.75925911796503 0 -853.75925911796503 1509.0797487504897 0 0 0 0 -134.85135078475423 -82.994986734178383 0 -82.994986734178383 868.78874234397881 0 0 0 0 275.51734908083108 -428.70964211154751 0 -428.70964211154751 763.1917052759577 0 0 0 0 -48.212753331665681 -134.06981401806752 0 -134.06981401806752 503.45754446276442 0 0 0 0 -0.42692168466626867 10.150872757628751 0 10.150872757628751 20.213878275918873 0 0 0 0 -196.18495925360389 -78.967436605797047 0 -78.967436605797047 511.41319534797731 0 0 0 0 234.13812468003698 314.89543508062343 0 314.89543508062343 -527.65990482656707 0 0 0 0 234.39288922849755 1057.9451233308773 0 1057.9451233308773 1020.2337491554772 0 0 0 0 -829.12694949831894 233.07639125816058 0 233.07639125816058 688.66557380881204 0 0 0 0 -3.0978778390714288 -0.38960637263896558 0 -0.38960637263896558 4.0025290148811123 0 0 0 0 -644.7403065391843 616.19573304383766 0 616.19573304383766 18.105706930680753 0 0 0 0 -418.56327759395845 152.88605809383444 0 152.88605809383444 -58.197650116305795 0 0 0 0 -427.68594323092009 408.0599225644155 0 408.0599225644155 -30.677005409695994 0 0 0 0 -205.23562991632548 -197.63833141639407 0 -197.63833141639407 464.62387590876187 0 0 0 0 80.638308337786555 -1.3567936168146844 0 -1.3567936168146844 429.43330424331634 0 0 0 0 -518.58431671333574 -11.449094689355661 0 -11.449094689355661 555.97079305830812 0 0 0 0 -73.696505547355287 -362.84675145262736 0 -362.84675145262736 743.47013469352896 0 0 0 0 -280.50405451561926 -224.96550226938052 0 -224.96550226938052 896.50945437877999 0 0 0 0 -185.63651782869738 -276.38428257489977 0 -276.38428257489977 702.39471932756169 0 0 0 0 -287.34952697652449 -112.35233460668786 0 -112.35233460668786 610.57203357599428 0 0 0 0 -184.26104868599657 -91.410530697000468 0 -91.410530697000468 53.89593290634366 0 0 0 0 -215.64266699217563 59.808392409895077 0 59.808392409895077 232.47267365804146 0 0 0 0 -51.908339594718882 76.871334392593781 0 76.871334392593781 94.395539983369787 0 0 0 0 -38.531534011909571 155.75258275336728 0 155.75258275336728 109.37160922376461 0 0 0 0 129.0702695771954 240.28299803461232 0 240.28299803461232 236.1285411889985 0 0 0 0 -68.655661785728967 65.32212283928493 0 65.32212283928493 102.30063166260152 0 0 0 0 -18.099565558268978 -79.836852801057603 0 -79.836852801057603 539.46967422752277 0 0 0 0 192.43883780461692 32.876907602059873 0 32.876907602059873 210.7456558483027 0 0 0 0 3.6421845126449766 -0.92152181791665555 0 -0.92152181791665555 0.67871479189105655 0 0 0 0 498.09644696328724 -212.22949807900659 0 -212.22949807900659 591.20765627177286 0 0 0 0 33.895507787345252 -187.75635147873913 0 -187.75635147873913 752.1376441477405 0 0 0 0 -161.30939383128907 534.52632900605568 0 534.52632900605568 292.39341139545832 0 0 0 0 120.99372721211421 422.73818788374047 0 422.73818788374047 351.42915868073396 0 0 0 0 426.39097866857401 272.02699695947376 0 272.02699695947376 419.2428410180346 0 0 0 0 34.291127457056007 241.24793792622677 0 241.24793792622677 503.50292150385576 0 0 0 0 -0.91693005668074612 0.34940742048506479 0 0.34940742048506479 0.12687875129322279 0 0 0 0 259.45893647571427 279.59575933277847 0 279.59575933277847 330.71879302743037 0 0 0 0 274.19297570183369 105.48274385256718 0 105.48274385256718 -529.93954339723132 0 0 0 0 -4.9697882315037329 2.2465073077263469 0 2.2465073077263469 -2.200422499444727 0 0 0 0 151.18376507791118 79.058495743491221 0 79.058495743491221 77.438364235258632 0 0 0 0 46.996984232960898 154.35408145891097 0 154.35408145891097 295.90878088578756 0 0 0 0 4.8430606406826655 -24.145677135244114 0 -24.145677135244114 118.47229788737604 0 0 0 0 -36.827517987618307 95.561091141789802 0 95.561091141789802 29.095867309013556 0 0 0 0 515.76698978048887 -34.655218536054235 0 -34.655218536054235 -52.689789725089213 0 0 0 0 815.97637076804688 707.9363058786148 0 707.9363058786148 206.33698043066818 0 0 0 0 174.26569887646104 184.55569607200323 0 184.55569607200323 186.89911846700852 0 0 0 0 191.83404117426221 172.25140614089105 0 172.25140614089105 160.45869777701591 0 0 0 0 195.40529100597308 377.03452336388 0 377.03452336388 646.64054810483867 0 0 0 0 315.04396283399467 294.47643817781318 0 294.47643817781318 205.59179627998037 0 0 0 0 244.55905635193005 738.3071490178454 0 738.3071490178454 921.89675146775335 0 0 0 0 179.38352362085357 610.24458484784918 0 610.24458484784918 677.55549012453412 0 0 0 0 -6.8102730664765527 -1.7559677531014728 0 -1.7559677531014728 11.760113191654227 0 0 0 0 352.75655565464922 347.46775725018597 0 347.46775725018597 399.79459746655266 0 0 0 0 312.03397367731674 546.03442612303888 0 546.03442612303888 916.01236729001175 0 0 0 0 -7.2652723789705451 -1.3428881552586134 0 -1.3428881552586134 9.6899889497439773 0 0 0 0 -384.29105386259613 59.997955648176685 0 59.997955648176685 909.22371284195469 0 0 0 0 22.906689631709405 737.69457379345818 0 737.69457379345818 1689.3687585702683 0 0 0 0 -314.39016558566624 483.27748148871842 0 483.27748148871842 1836.3852935146606 0 0 0 0 -256.98461893261253 672.24990554794385 0 672.24990554794385 2337.7736407567645 0 0 0 0 147.65657915494853 928.9105169989889 0 928.9105169989889 2499.7771086718894 0 0 0 0 10.377018320253612 633.78543948605591 0 633.78543948605591 1537.2575874547656 0 0 0 0 424.36509343409006 960.28768927869169 0 960.28768927869169 1689.5918608134361 0 0 0 0 659.39335871127014 1428.1861393208428 0 1428.1861393208428 2618.8731413948226 0 0 0 0 -2.9583216341376728 -0.5247046624532814 0 -0.5247046624532814 7.2482818470667212 0 0 0 0 327.50006371656121 752.4827962880845 0 752.4827962880845 2667.1893391823032 0 0 0 0 619.85200961607484 742.73420167872973 0 742.73420167872973 2500.7924301390203 0 0 0 0 596.85649759626153 866.08991803375829 0 866.08991803375829 1968.3211099025993 0 0 0 0 368.51903564000816 -191.52969530827613 0 -191.52969530827613 811.83772149389188 0 0 0 0 -185.2677583287736 -202.47146326186612 0 -202.47146326186612 1291.2324649082557 0 0 0 0 -127.1676636478237 -564.54628670481679 0 -564.54628670481679 2994.4516804757423 0 0 0 0 0.8431421496545064 4.7743144293881628 0 4.7743144293881628 10.05207414822042 0 0 0 0 -56.99843103332681 -286.03243756082338 0 -286.03243756082338 233.21408245820385 0 0 0 0 -237.79786373037814 -200.02655449310623 0 -200.02655449310623 610.26251536681229 0 0 0 0 0.29983462244307946 10.69855308865829 0 10.69855308865829 21.299593967707445 0 0 0 0 -401.54068329879669 310.3085915015854 0 310.3085915015854 854.17112077937418 0 0 0 0 -334.0621616929775 -306.03317636763131 0 -306.03317636763131 291.60567962030859 0 0 0 0 -1165.8885283353734 -522.28158695672801 0 -522.28158695672801 324.48598224305169 0 0 0 0 -331.26368222086194 383.3001082463943 0 383.3001082463943 1225.0228169341317 0 0 0 0 -726.16253255802974 297.74708375450018 0 297.74708375450018 2299.1706479177665 0 0 0 0 -720.48740052208984 46.953207049286533 0 46.953207049286533 1848.626249776029 0 0 0 0 -654.71880554162863 551.2129358880884 0 551.2129358880884 2499.5364548095276 0 0 0 0 -672.63612581522239 436.37309897150953 0 436.37309897150953 2095.9125475098126 0 0 0 0 -692.09674492996999 353.47435619551243 0 353.47435619551243 2500.1695488852329 0 0 0 0 -391.09398308618705 345.66447416816573 0 345.66447416816573 2185.8494500819288 0 0 0 0 23.336195978357409 447.25055181348307 0 447.25055181348307 2400.2124711084089 0 0 0 0 -21.564797558707209 183.31176646686072 0 183.31176646686072 2499.6336518071548 0 0 0 0 -390.53684016490422 378.38275823266895 0 378.38275823266895 2472.8445526148789 0 0 0 0 -72.825776419575604 61.350306321673088 0 61.350306321673088 2252.6715048022943 0 0 0 0 -136.01776446466889 -6.7352585912090035 0 -6.7352585912090035 2499.7360696021306 0 0 0 0 402.10158167325153 105.78954240611711 0 105.78954240611711 2226.6758286738104 0 0 0 0 -403.19233046672662 -198.89601208313798 0 -198.89601208313798 2499.8669162650112 0 0 0 0 -223.04847484416879 -160.73870084740156 0 -160.73870084740156 2236.7224899463695 0 0 0 0 -305.12279222830318 -236.37438403639135 0 -236.37438403639135 2200.1750360734873 0 0 0 0 -329.22953822461363 -164.88614506205408 0 -164.88614506205408 2133.0122709364005 0 0 0 0 -78.079040730752325 63.449172781249217 0 63.449172781249217 1862.3639219510055 0 0 0 0 -136.11670565400127 -243.09644982271681 0 -243.09644982271681 1637.2142147161576 0 0 0 0 373.29780229300184 -136.80904900982023 0 -136.80904900982023 1387.7144504033195 0 0 0 0 13.603440793212201 636.7453240591858 0 636.7453240591858 1693.709112776437 0 0 0 0 -60.943886837939033 -28.748364788432809 0 -28.748364788432809 2247.3858997889138 0 0 0 0 362.85782260775278 54.351144962789476 0 54.351144962789476 721.44698098131903 0 0 0 0 -45.073721447849039 986.99464666320182 0 986.99464666320182 -164.58473572365074 0 0 0 0 258.11554755572996 -20.344394021026346 0 -20.344394021026346 407.00625800618946 0 0 0 0 92.862517709744125 -294.25072127146109 0 -294.25072127146109 631.21377684309664 0 0 0 0 799.3337637751813 34.353882024034647 0 34.353882024034647 750.50927874643276 0 0 0 0 -72.190101466679408 -314.24722729611472 0 -314.24722729611472 1325.1210180821108 0 0 0 0 14.706320818792676 -65.420069347920617 0 -65.420069347920617 1017.938112910354 0 0 0 0 672.46643410352806 -557.65520521327812 0 -557.65520521327812 466.38250170211904 0 0 0 0 281.95525039955334 -565.11178905072029 0 -565.11178905072029 584.87850099123716 0 0 0 0 325.46173602232017 -261.63053673736249 0 -261.63053673736249 1035.7695709843465 0 0 0 0 285.26900272141455 -545.21887667668307 0 -545.21887667668307 -55.316035794710842 0 0 0 0 0.92909969590570518 -2.8559853057801696 0 -2.8559853057801696 4.1334437543709512 0 0 0 0 -107.48533559574594 -30.646901247596361 0 -30.646901247596361 1496.010110005624 0 0 0 0 -44.590781037990354 151.20371342371902 0 151.20371342371902 520.34969591265599 0 0 0 0 -208.54405037898152 -6.2547507520893646 0 -6.2547507520893646 278.20601240822907 0 0 0 0 1.4370145103952021 -4.8985738231973457 0 -4.8985738231973457 6.4550794277959085 0 0 0 0 -230.35613850782846 129.38402952168508 0 129.38402952168508 261.64820917533189 0 0 0 0 11.08486894835967 21.280054093599787 0 21.280054093599787 278.76554112547819 0 0 0 0 -1.8475656953074757 -0.8796339914704383 0 -0.8796339914704383 -0.27547893909169119 0 0 0 0 -102.97070459889085 58.191343918198982 0 58.191343918198982 227.02425845541438 0 0 0 0 -114.84318599723986 159.22931675277232 0 159.22931675277232 -138.78198363946285 0 0 0 0 41.819893697733846 30.959748789369769 0 30.959748789369769 121.94768852509515 0 0 0 0 -154.09512195986889 229.43159571033175 0 229.43159571033175 303.81303192655105 0 0 0 0 186.06733919937892 100.03198550703473 0 100.03198550703473 -43.048465519538354 0 0 0 0 213.04581968604589 3.455160714906242 0 3.455160714906242 26.156186679178063 0 0 0 0 -0.94968484193532632 4.2707701801847247 0 4.2707701801847247 24.044306648048618 0 0 0 0 -116.44156525543076 50.699271252890412 0 50.699271252890412 12.037050409591757 0 0 0 0 111.29714835147342 -13.636387639877285 0 -13.636387639877285 65.399628533828945 0 0 0 0 -286.391472075504 -54.856915005179872 0 -54.856915005179872 390.24228671182209 0 0 0 0 37.612533727671831 -218.23164095253696 0 -218.23164095253696 173.73903314582276 0 0 0 0 134.58952792901937 -35.909340772351243 0 -35.909340772351243 71.56723152352788 0 0 0 0 1.0828668046360364 1.6774874370829047 0 1.6774874370829047 8.6246633269239652 0 0 0 0 502.24338425019698 -708.66121421159369 0 -708.66121421159369 677.84176886780006 0 0 0 0 527.81083687624323 141.87701876691153 0 141.87701876691153 51.963680410703091 0 0 0 0 275.28131511327638 349.57099314241987 0 349.57099314241987 475.44406472357059 0 0 0 0 -177.46250039171446 -94.461326675460896 0 -94.461326675460896 58.387589785569617 0 0 0 0 -19.049594956059309 -275.79619463729887 0 -275.79619463729887 245.97229548759424 0 0 0 0 -37.766669280501333 -24.053150788271296 0 -24.053150788271296 84.018724596587163 0 0 0 0 -2.9492439340672076 6.3269529326476786 0 6.3269529326476786 24.940189670926653 0 0 0 0 -58.845982155172806 18.056115197637382 0 18.056115197637382 56.928899980786809 0 0 0 0 -32.091176279875754 -34.144530904428393 0 -34.144530904428393 51.746305137230593 0 0 0 0 5.3473726866875495 -10.349309219202496 0 -10.349309219202496 46.59413303618021 0 0 0 0 -15.97061618119551 -15.426192123518604 0 -15.426192123518604 65.281687633361798 0 0 0 0 -15.689241409730755 -5.7947197797160666 0 -5.7947197797160666 6.0036379850235821 0 0 0 0 640.68582006028009 -146.44096806185553 0 -146.44096806185553 266.93308583165708 0 0 0 0 -14.212307616761118 -2.9374901748159346 0 -2.9374901748159346 5.9073282451869762 0 0 0 0 -49.124323796313774 16.669568159433311 0 16.669568159433311 48.81133886158932 0 0 0 0 37.775522382291911 172.65077975557142 0 172.65077975557142 80.828511877908568 0 0 0 0 -6.624954142569603 -1.7325826939771467 0 -1.7325826939771467 -0.73016442457159059 0 0 0 0 -9.3755380304705795 4.8380958283332802 0 4.8380958283332802 107.03812855825709 0 0 0 0 147.86771457093755 113.05776466422685 0 113.05776466422685 112.62887195805524 0 0 0 0 19.009201401757764 -6.0947461956784537 0 -6.0947461956784537 260.33733228864185 0 0 0 0 0.89633070319131258 -1.7687847557518932 0 -1.7687847557518932 2.3400025784353886 0 0 0 0 64.105306125077959 -207.78248950887064 0 -207.78248950887064 -233.79414715239454 0 0 0 0 -24.359888834318269 -327.55425991390075 0 -327.55425991390075 -185.00963782509552 0 0 0 0 -223.73325080963855 347.27388323690866 0 347.27388323690866 662.18029963059826 0 0 0 0 97.877360394515449 0.8872593022433648 0 0.8872593022433648 -139.28405460547037 0 0 0 0 84.434775939528777 -239.48927290679603 0 -239.48927290679603 254.04160108879296 0 0 0 0 -111.94218232909827 54.571426366489504 0 54.571426366489504 262.15244226421237 0 0 0 0 -127.96087257282375 -266.50376734008751 0 -266.50376734008751 245.12567803414549 0 0 0 0 -147.23281887301459 -142.57803176413108 0 -142.57803176413108 647.81037296058366 0 0 0 0 -59.727050614940254 -153.12268453141633 0 -153.12268453141633 645.81181571031993 0 0 0 0 125.30743479519018 -36.080120172816578 0 -36.080120172816578 56.701386216223909 0 0 0 0 -4.6665676607997071 -22.60440047586826 0 -22.60440047586826 66.535661398005686 0 0 0 0 -37.072295144731697 45.072947057893089 0 45.072947057893089 0.17328524825143177 0 0 0 0 65.953407978525661 -165.1724752322782 0 -165.1724752322782 370.15084554352552 0 0 0 0 0.8129842547616779 4.0035999554784265 0 4.0035999554784265 18.354889441036342 0 0 0 0 563.63650545392477 -890.79112585905477 0 -890.79112585905477 1195.5410010922483 0 0 0 0 254.02996372993198 -247.42322914033252 0 -247.42322914033252 315.05279807427269 0 0 0 0 -97.817975482275358 -339.49035616795345 0 -339.49035616795345 1303.3104159339114 0 0 0 0 41.996751468941625 -598.18278666394758 0 -598.18278666394758 1365.7433363695129 0 0 0 0 25.829210567480754 -481.92781031193692 0 -481.92781031193692 1559.6248544045843 0 0 0 0 -332.85550929593217 -341.90359378787923 0 -341.90359378787923 1960.3009703019138 0 0 0 0 -209.9361001192633 -306.53036703993121 0 -306.53036703993121 1371.60666391428 0 0 0 0 -147.02436565394143 -121.99961688754171 0 -121.99961688754171 1503.1243803780935 0 0 0 0 -278.78497404557572 -415.54561456964302 0 -415.54561456964302 1786.015941363813 0 0 0 0 -344.48887295717054 -515.4670239443235 0 -515.4670239443235 2035.6382962370385 0 0 0 0 -448.31489047385753 -352.30365520055602 0 -352.30365520055602 2234.8888678456392 0 0 0 0 -472.9311774089096 -400.44157661280815 0 -400.44157661280815 2499.9225241365784 0 0 0 0 -255.2205608605326 -726.80160897664803 0 -726.80160897664803 2499.3583257795453 0 0 0 0 -112.64752530515342 -692.13553387075194 0 -692.13553387075194 1905.3866911624668 0 0 0 0 158.8450927540282 -1102.0133557339987 0 -1102.0133557339987 2500.0765995133775 0 0 0 0 382.25279476248846 -786.09869856598164 0 -786.09869856598164 1762.6115005475649 0 0 0 0 392.00038357390156 -836.62720649350706 0 -836.62720649350706 1605.0932397439562 0 0 0 0 947.03596964697078 -1016.451412317994 0 -1016.451412317994 438.30275248606108 0 0 0 0 472.22570742375939 -1261.2357066940676 0 -1261.2357066940676 1558.4103985048189 0 0 0 0 3508.7818617991961 -1884.5986284931423 0 -1884.5986284931423 -424.55967351326763 0 0 0 0 2136.4679706468378 -2756.2436675801546 0 -2756.2436675801546 2496.8755943299889 0 0 0 0 515.64071986789349 -1434.441890561061 0 -1434.441890561061 2031.322839686331 0 0 0 0 117.37492081926666 -10.138352963826037 0 -10.138352963826037 -23.0701630185049 0 0 0 0 288.58318566161273 794.75977591689889 0 794.75977591689889 2203.9830120124816 0 0 0 0 12.630242080333767 11.058652665672131 0 11.058652665672131 -3.6777297448878379 0 0 0 0 3093.0133435752332 -2378.4214812554492 0 -2378.4214812554492 1886.4781628289566 0 0 0 0 0.67931127671995029 1.1897341460104656 0 1.1897341460104656 4.6519763941142287 0 0 0 0 -99.780721341631534 78.371443677257957 0 78.371443677257957 186.71327841084531 0 0 0 0 1.7960416629777889 10.967039533887952 0 10.967039533887952 64.636743873803255 0 0 0 0 976.31155363013579 -1307.9480888452324 0 -1307.9480888452324 1372.8006494301769 0 0 0 0 0.79423375681989361 11.733963054096789 0 11.733963054096789 77.246518377357617 0 0 0 0 -66.224613048674655 -36.0872328430587 0 -36.0872328430587 83.012780304888111 0 0 0 0 -26.374827453438229 -29.864882960923751 0 -29.864882960923751 32.751416060777046 0 0 0 0 -15.918811220468342 27.032630651545333 0 27.032630651545333 71.301092771167532 0 0 0 0 184.96897826336806 227.21852249294489 0 227.21852249294489 62.949115585002744 0 0 0 0 0.065362913208391493 0.48685581636691966 0 0.48685581636691966 8.1709725847777737 0 0 0 0 257.42757402776977 40.460003340997048 0 40.460003340997048 -0.99557788666652414 0 0 0 0 -246.98496261772121 -116.98260667701317 0 -116.98260667701317 994.10552038221431 0 0 0 0 117.26591401806866 37.807874350704878 0 37.807874350704878 -287.31851593580541 0 0 0 0 -35.902664037323348 58.93661452172455 0 58.93661452172455 -25.4591993808599 0 0 0 0 3.1962700562331561 3.761034735954027 0 3.761034735954027 0.98212130986309276 0 0 0 0 6.1139850381779581 -4.212952816843881 0 -4.212952816843881 13.893638543275301 0 0 0 0 16.121438730064256 21.932497994321238 0 21.932497994321238 -72.432509545631092 0 0 0 0 -62.93898645946183 -23.45688161473845 0 -23.45688161473845 -79.872529039165329 0 0 0 0 113.71937611493473 468.51519692576767 0 468.51519692576767 2639.5049653409242 0 0 0 0 162.03703594618113 598.55978692581266 0 598.55978692581266 2701.4629659164402 0 0 0 0 195.72122785940982 473.89578477629948 0 473.89578477629948 2500.0165514001892 0 0 0 0 235.92039135244005 525.47577469396128 0 525.47577469396128 2534.3803205057138 0 0 0 0 79.817421240789372 420.22750498523783 0 420.22750498523783 2584.0550942527389 0 0 0 0 84.373810731058754 407.00641658208536 0 407.00641658208536 2481.6934699629919 0 0 0 0 -46.902946232809427 58.903458152604799 0 58.903458152604799 -21.450542805770965 0 0 0 0 -105.17826569620024 20.984193139624949 0 20.984193139624949 -17.754483151147724 0 0 0 0 51.428524795743215 151.82297404436395 0 151.82297404436395 179.21035125582057 0 0 0 0 35.427403888714252 62.243061256162036 0 62.243061256162036 -35.821275591049925 0 0 0 0 -23.882448252452377 -63.598115304097519 0 -63.598115304097519 47.349992455267966 0 0 0 0 8.6919885351262742 11.724745634835578 0 11.724745634835578 -1.9150565461882785 0 0 0 0 28.36372263849676 423.60598164066687 0 423.60598164066687 2500.5340281417102 0 0 0 0 46.727069731721713 -14.106442739996055 0 -14.106442739996055 -97.437784978217678 0 0 0 0 28.374809688553992 423.13110984208834 0 423.13110984208834 2497.9586361252659 0 0 0 0 10.541020284806017 18.99574357553324 0 18.99574357553324 0.061848357875167181 0 0 0 0 -60.640626501242423 143.01678086541506 0 143.01678086541506 346.88387749208664 0 0 0 0 168.83703318208154 354.04898956204124 0 354.04898956204124 312.31983722656287 0 0 0 0 -74.91971942318122 -99.804770314938082 0 -99.804770314938082 -54.644891682764865 0 0 0 0 0.18630513497507373 -0.97313758844735077 0 -0.97313758844735077 2.2811858959212543 0 0 0 0 -26.34972942508648 -13.009017044856591 0 -13.009017044856591 8.4085942203491868 0 0 0 0 -77.131655836373739 -20.260200164329945 0 -20.260200164329945 22.871318029923714 0 0 0 0 0.95970150358226736 -3.5406599922282389 0 -3.5406599922282389 6.4028811537959243 0 0 0 0 -71.790815720350082 -74.764986693780656 0 -74.764986693780656 -18.689064829988638 0 0 0 0 157.99355413580207 116.82965518729935 0 116.82965518729935 175.38144162273966 0 0 0 0 41.211568208143035 140.12319429019135 0 140.12319429019135 279.79532631501752 0 0 0 0 -0.10598960413965663 -0.12200923991158419 0 -0.12200923991158419 0.3966181405077549 0 0 0 0 37.774189613055853 138.87932962761101 0 138.87932962761101 334.13325202618216 0 0 0 0 -35.456801821897216 50.340052081466638 0 50.340052081466638 -12.605809962973581 0 0 0 0 64.078328713409718 106.60347077414394 0 106.60347077414394 209.16070809937446 0 0 0 0 50.809026509728255 45.228625216333967 0 45.228625216333967 164.80893184481641 0 0 0 0 5.3758351892979892 -6.130409305179203 0 -6.130409305179203 14.05087419143328 0 0 0 0 -8.8597034693582373 -14.029983117873144 0 -14.029983117873144 34.118733628416521 0 0 0 0 -15.618449527732764 4.7622241256908637 0 4.7622241256908637 44.954106758290436 0 0 0 0 -19.264111083659373 -2.8995311827966361 0 -2.8995311827966361 60.108373537441366 0 0 0 0 28.110811062681961 75.488417952546115 0 75.488417952546115 110.45336876999863 0 0 0 0 2.7676605893942359 -6.299454616192147 0 -6.299454616192147 8.9630522207046965 0 0 0 0 16.849750016842563 32.258352481430848 0 32.258352481430848 165.43685573380787 0 0 0 0 -38.184996774665706 -36.950280937641764 0 -36.950280937641764 10.236812454453684 0 0 0 0 -9.9039588840191755 1.3777253956268396 0 1.3777253956268396 15.924552742690139 0 0 0 0 -25.524586617332261 -13.977566594643577 0 -13.977566594643577 38.815765615741839 0 0 0 0 -21.339581904819966 6.244591764641882 0 6.244591764641882 63.70841082847619 0 0 0 0 -36.042645273619883 -10.080360226781067 0 -10.080360226781067 71.904772114641673 0 0 0 0 -8.541628868443695 11.370727014579643 0 11.370727014579643 46.892756746511168 0 0 0 0 -61.233735818758987 -16.231245707619564 0 -16.231245707619564 56.796971212870631 0 0 0 0 -28.27981095226869 -11.829361059943039 0 -11.829361059943039 -11.932535199826589 0 0 0 0 -37.65078291067698 19.629582353396017 0 19.629582353396017 111.54820298323284 0 0 0 0 -15.098861759184858 7.2624605592295026 0 7.2624605592295026 -4.5969540554651651 0 0 0 0 19.622236963541695 31.313976317093875 0 31.313976317093875 81.807830219171592 0 0 0 0 -25.088886587427851 21.760742025700893 0 21.760742025700893 122.69150412942099 0 0 0 0 -23.234752302337085 18.336093753850491 0 18.336093753850491 86.726442166756897 0 0 0 0 -5.9970633634716251 38.662699791373598 0 38.662699791373598 55.852951982695231 0 0 0 0 -34.211169933303609 7.8609958191918849 0 7.8609958191918849 85.786639963215748 0 0 0 0 -17.275502707891999 7.2520456768929122 0 7.2520456768929122 0.064509148742347477 0 0 0 0 -12.737094747502852 7.2314548486974672 0 7.2314548486974672 62.836298454934877 0 0 0 0 -2.8220832675505112 2.6341631943557786 0 2.6341631943557786 0.13937550723662184 0 0 0 0 -16.911898550179558 20.948379599181862 0 20.948379599181862 108.24324524227268 0 0 0 0 -12.667318555437305 34.43135642535708 0 34.43135642535708 101.98214003339308 0 0 0 0 -13.046519563494186 40.51384326758307 0 40.51384326758307 73.352195905528788 0 0 0 0 -13.696343390114748 17.859608380716054 0 17.859608380716054 51.094141830686567 0 0 0 0 -2.9784653012070521 30.950504166250539 0 30.950504166250539 66.092717092053135 0 0 0 0 -10.446716750915868 1.8228778398246064 0 1.8228778398246064 16.294216894553188 0 0 0 0 -12.024615886191006 1.6125636849683502 0 1.6125636849683502 8.0240056629394907 0 0 0 0 -6.7780075017390118 7.7913827284282888 0 7.7913827284282888 19.70478463318068 0 0 0 0 -2.6999592206193483 -2.0724279128262424 0 -2.0724279128262424 35.046695248485776 0 0 0 0 -9.9656609977658359 9.4031664658649348 0 9.4031664658649348 10.585547453251365 0 0 0 0 -9.291234279922719 -0.68073735029975069 0 -0.68073735029975069 60.269855889565406 0 0 0 0 -3.9738442872019153 3.4000836810257553 0 3.4000836810257553 8.4805938417281013 0 0 0 0 -0.74959739909672862 19.049167698307429 0 19.049167698307429 37.565966787624347 0 0 0 0 -65.945961114260854 48.75222991204555 0 48.75222991204555 -9.6444650916928367 0 0 0 0 -1.8168660637921921 1.379662783277027 0 1.379662783277027 27.122027179951491 0 0 0 0 -41.404797273298072 44.739690411476204 0 44.739690411476204 -23.88375382292179 0 0 0 0 -17.129657183957988 44.398500940642407 0 44.398500940642407 94.6113727009797 0 0 0 0 -81.069987921894153 124.89425317206155 0 124.89425317206155 162.38710799937269 0 0 0 0 269.2828687657202 -184.02083787624633 0 -184.02083787624633 -9.9851633714788477 0 0 0 0 -194.83420185080161 44.187331857771142 0 44.187331857771142 364.69091636085068 0 0 0 0 -39.35444018550038 69.799146435489092 0 69.799146435489092 -5.2906431518063073 0 0 0 0 0.8274044794557085 51.575159029528095 0 51.575159029528095 -13.654385000456273 0 0 0 0 -1.7500812147495708 61.010023385598288 0 61.010023385598288 -29.167854131273998 0 0 0 0 -40.667162753952425 69.106042950826577 0 69.106042950826577 -18.009248923644918 0 0 0 0 27.154004913314793 13.896002593741287 0 13.896002593741287 -3.0957663849139863 0 0 0 0 113.43425503890467 95.922671605164624 0 95.922671605164624 -13.343168904738377 0 0 0 0 -36.769138473722251 190.20637185308715 0 190.20637185308715 57.576635136182063 0 0 0 0 -126.40603791991322 150.76079029865809 0 150.76079029865809 61.164529927232252 0 0 0 0 -0.3220710734829253 14.863063342432534 0 14.863063342432534 77.75567699147328 0 0 0 0 8.1652922439783424 14.02425807746431 0 14.02425807746431 76.016151015042851 0 0 0 0 -45.768969042618437 -3.2773465012642191 0 -3.2773465012642191 67.665155791404686 0 0 0 0 -3.7667390597284793 24.56147623473953 0 24.56147623473953 66.426410485443853 0 0 0 0 -11.72689540353349 31.974838228254157 0 31.974838228254157 106.40603320279115 0 0 0 0 -30.492837860615282 39.876069311634637 0 39.876069311634637 112.53858229029902 0 0 0 0 -12.978873226979447 8.4438932708753605 0 8.4438932708753605 13.870455500532024 0 0 0 0 -22.493010054528895 37.620868037374748 0 37.620868037374748 95.782355786330299 0 0 0 0 -21.364111485075227 27.638281228590131 0 27.638281228590131 74.249675417464459 0 0 0 0 -25.360163199304225 22.995725930957633 0 22.995725930957633 100.27333039956193 0 0 0 0 -26.778115137365603 27.522461905482487 0 27.522461905482487 87.026225959329167 0 0 0 0 -8.9832558074673443 48.515368089256299 0 48.515368089256299 106.88978071559541 0 0 0 0 -55.203066358403021 13.086960248583637 0 13.086960248583637 118.3222017471403 0 0 0 0 -26.659109494769496 -8.6259772195589903 0 -8.6259772195589903 39.95234621444979 0 0 0 0 -19.234330454164251 9.6349364566685836 0 9.6349364566685836 78.38233513247269 0 0 0 0 -19.731884577177311 19.996602626248205 0 19.996602626248205 23.298536532267462 0 0 0 0 -38.016258398815239 27.049970476731687 0 27.049970476731687 63.553735610563308 0 0 0 0 0.79009437262212834 12.57195626774821 0 12.57195626774821 50.998295024007902 0 0 0 0 -26.283881522905759 16.42332492930052 0 16.42332492930052 73.15713023646822 0 0 0 0 -4.8134110984125478 12.408591423761905 0 12.408591423761905 85.698263890797293 0 0 0 0 -10.886040978446999 36.830673849714003 0 36.830673849714003 83.357013991648273 0 0 0 0 -18.285171782196812 27.38696194691147 0 27.38696194691147 74.05793758584332 0 0 0 0 -14.549826934561306 -6.2560956457401327 0 -6.2560956457401327 7.5653332291742199 0 0 0 0 -19.815875152753165 -16.806930264113362 0 -16.806930264113362 64.906959085332346 0 0 0 0 44.556028805542837 35.32258593019651 0 35.32258593019651 -8.2925618048971046 0 0 0 0 -2.4654608234608073 4.6961059707189365 0 4.6961059707189365 0.70390949004758774 0 0 0 0 83.166457037601049 -106.52250203207313 0 -106.52250203207313 117.15679792990341 0 0 0 0 -8.455275631042948 9.2965505003308628 0 9.2965505003308628 47.955388631516804 0 0 0 0 -29.392201215077108 42.188683643039838 0 42.188683643039838 56.637430016737198 0 0 0 0 -1.8532613688813662 7.8683037370967401 0 7.8683037370967401 46.952168265583367 0 0 0 0 -63.786480354673586 -1.7948917175244787 0 -1.7948917175244787 62.545505773904097 0 0 0 0 -27.252851736916 13.368380566742417 0 13.368380566742417 38.358504221403336 0 0 0 0 -78.543061530151135 1.0663985614442026 0 1.0663985614442026 40.342532957907224 0 0 0 0 18.147713747032469 4.3690280460523354 0 4.3690280460523354 22.112749746869667 0 0 0 0 -98.06740578640148 104.36317487312954 0 104.36317487312954 6.8687930375526776 0 0 0 0 1.1850417606252759 9.7297283797870939 0 9.7297283797870939 52.120735041617756 0 0 0 0 0.94702421227927358 6.1399238584987046 0 6.1399238584987046 50.980824703609322 0 0 0 0 -69.991015755064154 57.086212945421039 0 57.086212945421039 55.123609405367461 0 0 0 0 195.54180627717665 85.830506918504398 0 85.830506918504398 -103.84033747498688 0 0 0 0 -145.42981442141308 13.200821932269719 0 13.200821932269719 38.945977223316731 0 0 0 0 -142.75975355357559 -241.75251618858056 0 -241.75251618858056 419.15885185025036 0 0 0 0 455.59959460661685 -198.76854625507985 0 -198.76854625507985 -24.230958619744342 0 0 0 0 23.213956850968202 -68.846110462201977 0 -68.846110462201977 165.83135588441655 0 0 0 0 151.28269982456754 194.77782869753719 0 194.77782869753719 231.87714887997572 0 0 0 0 62.480985970986694 31.951328441871738 0 31.951328441871738 148.74585485208127 0 0 0 0 4.0963567973184922 26.632160951516198 0 26.632160951516198 191.58687580721016 0 0 0 0 33.006719965037519 33.40463453645134 0 33.40463453645134 478.94884943258148 0 0 0 0 169.2953061983269 136.45701738161006 0 136.45701738161006 122.9270352434105 0 0 0 0 -3.062405957810324 -0.93110005332868084 0 -0.93110005332868084 4.7339357492142682 0 0 0 0 154.76871370881327 139.75375436610921 0 139.75375436610921 141.71612869363526 0 0 0 0 68.44900350443163 36.551094658963848 0 36.551094658963848 72.567065256545902 0 0 0 0 152.36131952458254 134.71166052683839 0 134.71166052683839 135.88670911015652 0 0 0 0 160.96632858600992 119.36837127580475 0 119.36837127580475 90.60852260584943 0 0 0 0 157.57876699870258 89.060464765869256 0 89.060464765869256 18.724926255235914 0 0 0 0 -1.9442488788679304 2.2326069838563285 0 2.2326069838563285 0.54793727809537529 0 0 0 0 23.908026099957397 -4.6891470339578518 0 -4.6891470339578518 15.030538914608769 0 0 0 0 -26.811858677237751 -20.110025784579193 0 -20.110025784579193 21.461077362855576 0 0 0 0 -229.92503490824544 13.273306801940635 0 13.273306801940635 154.41977429660619 0 0 0 0 -16.488569205175196 4.3881048270999798 0 4.3881048270999798 16.512232021701994 0 0 0 0 14.244074235140658 35.431403148603977 0 35.431403148603977 10.035225868283305 0 0 0 0 -0.095019287907248007 0.37185164304598217 0 0.37185164304598217 -0.70890813020710652 0 0 0 0 37.781089725375068 134.51509639708274 0 134.51509639708274 108.98599104326058 0 0 0 0 -252.85659307953665 -38.593627936406847 0 -38.593627936406847 44.373831752847764 0 0 0 0 -51.966121874021155 46.513518607855076 0 46.513518607855076 86.390700164578448 0 0 0 0 -49.864640680514412 109.04142952756411 0 109.04142952756411 75.221448459647945 0 0 0 0 -107.15199001497501 113.31996700802847 0 113.31996700802847 105.95076765576232 0 0 0 0 -78.743638412893688 -7.7810321140259475 0 -7.7810321140259475 114.38802370165104 0 0 0 0 1.9024414047410829 1.0612550890074317 0 1.0612550890074317 62.39423719885599 0 0 0 0 -66.063286552010027 42.025080393033932 0 42.025080393033932 31.672770577222764 0 0 0 0 -42.46622767285055 34.478889623851501 0 34.478889623851501 23.639656487228422 0 0 0 0 -10.109857684041003 -13.057319273300891 0 -13.057319273300891 30.449222559512634 0 0 0 0 10.60945267475563 -22.753786112764828 0 -22.753786112764828 30.83092147395655 0 0 0 0 -23.797718523181516 -2.2204372490614332 0 -2.2204372490614332 39.758775192327448 0 0 0 0 -27.949459989770389 -15.886214492310955 0 -15.886214492310955 -2.1100351518907701 0 0 0 0 29.277770435501793 90.243186001111098 0 90.243186001111098 104.43582929300737 0 0 0 0 -93.484853763991396 -36.015100964563317 0 -36.015100964563317 58.72101533255227 0 0 0 0 -0.15329202117607221 0.33181144152806574 0 0.33181144152806574 0.94527916265791134 0 0 0 0 7.7582209367296855 52.205996156383208 0 52.205996156383208 37.532858721335288 0 0 0 0 -9.1408607491221119 57.811003833870927 0 57.811003833870927 87.160138912868206 0 0 0 0 -60.214612129685975 27.596574014793077 0 27.596574014793077 27.421474091639539 0 0 0 0 -5.3959876726312359 21.704235292796511 0 21.704235292796511 17.99947866007733 0 0 0 0 -0.27654932277188471 0.49570900146795793 0 0.49570900146795793 1.8555115805790336 0 0 0 0 -7.547606363035186 40.287059294641494 0 40.287059294641494 55.484363674338965 0 0 0 0 4.6748249311049221 39.89985980266465 0 39.89985980266465 50.608676181604096 0 0 0 0 -7.3025651511272827 42.412598131295454 0 42.412598131295454 73.917512454190728 0 0 0 0 -3.3295813314844054 48.374430324473906 0 48.374430324473906 49.718775438141165 0 0 0 0 2.1963116856127272 41.095248281568274 0 41.095248281568274 31.60072165130623 0 0 0 0 -10.48113766392953 44.556545897374235 0 44.556545897374235 51.556283689444172 0 0 0 0 3.3636324516261311 35.293099287604491 0 35.293099287604491 54.132126544671337 0 0 0 0 3.6526936895614313 29.756370742067475 0 29.756370742067475 57.098778086769016 0 0 0 0 2.9435806792071162 25.786485309745331 0 25.786485309745331 41.34604387316358 0 0 0 0 -5.3812549009189752 21.247369364516999 0 21.247369364516999 39.354976381798224 0 0 0 0 -10.667227992888911 28.368992455658372 0 28.368992455658372 29.833193991373264 0 0 0 0 -14.211340742434572 -2.9591773138090502 0 -2.9591773138090502 21.669880539058795 0 0 0 0 -14.862036357512352 6.2105561073221907 0 6.2105561073221907 64.37633913645459 0 0 0 0 -9.1263091817374971 12.835521676182907 0 12.835521676182907 63.165491434541764 0 0 0 0 -5.5567752885065147 11.86435969843842 0 11.86435969843842 50.544529153878102 0 0 0 0 -10.66596263064821 20.013715620261792 0 20.013715620261792 67.400575787958587 0 0 0 0 -3.7802837769977486 19.430440863405238 0 19.430440863405238 67.314390385328807 0 0 0 0 -76.89522468850646 17.809716280615248 0 17.809716280615248 47.167576142572216 0 0 0 0 -14.706644609175555 16.560173546802616 0 16.560173546802616 -4.0606386654581001 0 0 0 0 -57.2412234286071 14.455473489930228 0 14.455473489930228 93.84984457698738 0 0 0 0 -100.26300895485406 -38.879194582928903 0 -38.879194582928903 39.849001226970358 0 0 0 0 -53.640209232810776 -11.912851523886275 0 -11.912851523886275 71.365384819557221 0 0 0 0 41.267616283523921 88.060931032698136 0 88.060931032698136 85.854684625490336 0 0 0 0 -0.16355729245473505 0.37668469699497109 0 0.37668469699497109 0.96822203551673169 0 0 0 0 -46.536530213791366 48.043102349609399 0 48.043102349609399 120.36928140074087 0 0 0 0 65.530104147708698 43.742014092822501 0 43.742014092822501 45.071229121425858 0 0 0 0 -8.8414758728929215 3.1712204736321183 0 3.1712204736321183 -4.4267523627096494 0 0 0 0 -44.566648585819792 6.1030030611450456 0 6.1030030611450456 101.33640110206034 0 0 0 0 -40.217729069615416 23.41308999722969 0 23.41308999722969 98.56132889919536 0 0 0 0 -20.281551759000877 2.9549516470051458 0 2.9549516470051458 100.74116387801769 0 0 0 0 -32.702147376132416 19.849880429042969 0 19.849880429042969 98.703860560090334 0 0 0 0 -2.9371953681056766 18.07528176627784 0 18.07528176627784 -5.3435054692999984 0 0 0 0 -57.83234644875904 124.55484748795743 0 124.55484748795743 -108.56808763076697 0 0 0 0 -9.3541342273747432 16.855566804555565 0 16.855566804555565 -0.31517463992645389 0 0 0 0 -6.670908151164042 18.88700378028522 0 18.88700378028522 -4.131095297034264 0 0 0 0 -1.7123070494199055 17.826546057578526 0 17.826546057578526 -144.3211368044249 0 0 0 0 -11.519007190203411 16.852246860162268 0 16.852246860162268 -16.854794038103137 0 0 0 0 -9.2808652884001255 12.271179347012001 0 12.271179347012001 -6.0038548932038083 0 0 0 0 30.833447017112121 0.34720483640921884 0 0.34720483640921884 -51.779426109002088 0 0 0 0 -31.302784390747203 34.031264490118893 0 34.031264490118893 -5.7300536222200122 0 0 0 0 106.97939778307773 195.445760399336 0 195.445760399336 -343.05558795924389 0 0 0 0 -207.79827800454564 -265.64483288927477 0 -265.64483288927477 -119.88345979605219 0 0 0 0 -9.1724655883863306 48.829334673522681 0 48.829334673522681 49.946124182468338 0 0 0 0 -0.16317740254635282 39.784256204049598 0 39.784256204049598 -3.3770731652402901 0 0 0 0 -11.337305906645383 22.599740363753881 0 22.599740363753881 73.207377439175616 0 0 0 0 -10.88463146740969 47.464988411761624 0 47.464988411761624 89.099485832382925 0 0 0 0 -14.219534488501722 14.929319539278367 0 14.929319539278367 91.278075028116291 0 0 0 0 -32.425044508990595 34.317523002697271 0 34.317523002697271 127.20161148588522 0 0 0 0 -41.668192169680879 2.2514037512264622 0 2.2514037512264622 150.69780272205207 0 0 0 0 -2.4756762008827451 0.49254590655403518 0 0.49254590655403518 0.50623546766209682 0 0 0 0 -31.552452574635026 -0.815001367844161 0 -0.815001367844161 103.91117999239214 0 0 0 0 -28.376660632280618 8.2293432274054794 0 8.2293432274054794 86.075778247435665 0 0 0 0 -3.5073074764865382 17.791330546774724 0 17.791330546774724 1.5940604627808224 0 0 0 0 -6.1247187319836485 17.299200228602786 0 17.299200228602786 -0.23710142882191576 0 0 0 0 18.469363979434803 -90.897971921621547 0 -90.897971921621547 -290.88185076091395 0 0 0 0 -1.7749151039279241 18.981740686755074 0 18.981740686755074 -0.35214641601851326 0 0 0 0 -0.2600424005223303 15.448382515461283 0 15.448382515461283 6.6663638473663269 0 0 0 0 -15.577462202875637 -83.033179962119902 0 -83.033179962119902 357.97881583897106 0 0 0 0 -51.130467418930067 -88.956329586303582 0 -88.956329586303582 403.04371033702773 0 0 0 0 -34.740476271979333 -131.09770814085732 0 -131.09770814085732 508.00261256285739 0 0 0 0 -23.875576407793687 -1.4977991101586667 0 -1.4977991101586667 303.80485206057347 0 0 0 0 -44.308729867590046 67.540411634290649 0 67.540411634290649 517.2076389878348 0 0 0 0 -27.220323343802193 30.023042216776958 0 30.023042216776958 254.04160786256034 0 0 0 0 76.716744028941321 10.702233115152922 0 10.702233115152922 -14.29495435282297 0 0 0 0 2.9431905206356817 3.3377180090119083 0 3.3377180090119083 -0.0089731350813764266 0 0 0 0 -48.269728025730728 -37.257292117190445 0 -37.257292117190445 228.61168224616267 0 0 0 0 46.852566788482363 -1.5582619691995205 0 -1.5582619691995205 -11.681137478881283 0 0 0 0 27.128397510324248 166.13776570101436 0 166.13776570101436 667.0871397627925 0 0 0 0 173.50898451737703 -165.32812116378045 0 -165.32812116378045 174.98179225567219 0 0 0 0 -7.4180162382842152 14.115091196835834 0 14.115091196835834 4.5203749778681086 0 0 0 0 1.3196695751160838 -0.54638439816654483 0 -0.54638439816654483 2.8877852108340534 0 0 0 0 -62.991472456431438 85.948905943809223 0 85.948905943809223 360.78780045403801 0 0 0 0 301.80609538405315 -80.04224896308915 0 -80.04224896308915 417.71024693443906 0 0 0 0 -196.68383594126317 -170.08108304013149 0 -170.08108304013149 692.16972979515867 0 0 0 0 -216.20622499171805 -182.83991578351197 0 -182.83991578351197 637.53645772182972 0 0 0 0 -171.62709809463922 -213.74969027405496 0 -213.74969027405496 469.00287694330473 0 0 0 0 -166.21377143316295 -169.04343767187129 0 -169.04343767187129 641.32666881541809 0 0 0 0 -2.0747585729695857 -278.54038023557951 0 -278.54038023557951 876.57126669881654 0 0 0 0 476.67202221880143 611.48644062409221 0 611.48644062409221 380.11094023603437 0 0 0 0 -132.03756403657462 342.17700675620654 0 342.17700675620654 976.68987356873004 0 0 0 0 2.1440029957085684 -2.7972026427544563 0 -2.7972026427544563 5.440626230694761 0 0 0 0 -54.598199506907804 249.39738246078559 0 249.39738246078559 250.06485129396606 0 0 0 0 -459.42920260563915 80.66203298682376 0 80.66203298682376 414.26833103552235 0 0 0 0 16.317033717066806 239.02267157901224 0 239.02267157901224 343.91114429925801 0 0 0 0 102.89301961638557 -504.68111426696851 0 -504.68111426696851 -71.133283662900794 0 0 0 0 473.55740791304441 68.37081357253237 0 68.37081357253237 62.139368389805895 0 0 0 0 -107.23040372438845 509.7249746257512 0 509.7249746257512 -7.2528178286802358 0 0 0 0 213.43761900066784 77.883146341082465 0 77.883146341082465 -51.074516581444186 0 0 0 0 -5.6504304754489567 149.89259548767768 0 149.89259548767768 26.424427313948399 0 0 0 0 -108.94353404301182 46.763251440695967 0 46.763251440695967 118.93276504861569 0 0 0 0 -22.817761376736598 101.18270102550741 0 101.18270102550741 294.45958625661297 0 0 0 0 130.55609626798832 -97.340618697329774 0 -97.340618697329774 219.99800404477719 0 0 0 0 -106.02419039205415 -99.060980427049799 0 -99.060980427049799 114.16568616641234 0 0 0 0 -24.847146851629077 29.226592721708585 0 29.226592721708585 151.25066562327265 0 0 0 0 -11.722545570864895 -32.393084287316015 0 -32.393084287316015 -261.54189862982457 0 0 0 0 53.095777187209023 440.87875119191085 0 440.87875119191085 -131.37711563933408 0 0 0 0 -362.85312579126548 -455.27717100268637 0 -455.27717100268637 360.62876867477098 0 0 0 0 -2.4552962882116631 0.44862717734061164 0 0.44862717734061164 1.3141120169582337 0 0 0 0 -267.59862459975466 -452.4753004121194 0 -452.4753004121194 -108.28575589835236 0 0 0 0 -2.9657405632098168 0.19005360784683489 0 0.19005360784683489 1.703142604403638 0 0 0 0 -510.91398717811535 -208.13608237978769 0 -208.13608237978769 366.91665416906471 0 0 0 0 -74.438850239646854 -189.96315371805395 0 -189.96315371805395 75.633619294218079 0 0 0 0 162.18537310254032 182.48206471475532 0 182.48206471475532 312.61384543133317 0 0 0 0 -7.5073370880979944 2.2838745155079252 0 2.2838745155079252 -1.6891160126541251 0 0 0 0 64.789591084088897 122.98639340699083 0 122.98639340699083 212.33009114999231 0 0 0 0 143.19418004450563 140.38030273385812 0 140.38030273385812 251.21579514947371 0 0 0 0 79.079754680176848 91.582205656635779 0 91.582205656635779 214.15071346774494 0 0 0 0 -1.7265491253274377 50.340761253064557 0 50.340761253064557 216.6905870438859 0 0 0 0 -20.822173701508291 18.900388376288902 0 18.900388376288902 170.86140701430122 0 0 0 0 24.687939533829194 54.193327671408042 0 54.193327671408042 185.21386371965491 0 0 0 0 31.046592146896728 85.090604796881962 0 85.090604796881962 270.23657132880544 0 0 0 0 80.761078609040851 115.58880074751505 0 115.58880074751505 145.29675835924718 0 0 0 0 14.023855401443143 71.36254579690285 0 71.36254579690285 200.4963832999274 0 0 0 0 21.36073074059459 67.499626300101227 0 67.499626300101227 135.85148024918453 0 0 0 0 90.177677663601571 254.541707377688 0 254.541707377688 39.257517603984525 0 0 0 0 44.315584667718213 64.587361240453902 0 64.587361240453902 112.15586833906855 0 0 0 0 -56.271374510070018 -40.757576764906844 0 -40.757576764906844 240.05130643065786 0 0 0 0 -6.1163833609112217 0.41971449643261138 0 0.41971449643261138 2.5983585914870986 0 0 0 0 46.007997563232493 -201.25252479578194 0 -201.25252479578194 230.56348157826869 0 0 0 0 -155.51667966965556 -109.01831022355634 0 -109.01831022355634 35.547447964872845 0 0 0 0 -142.99273747540792 117.6210242871166 0 117.6210242871166 -4.1916101813985733 0 0 0 0 -60.682267866795883 22.694009437658679 0 22.694009437658679 223.84528575569857 0 0 0 0 67.210334284579403 2.6751989709246118 0 2.6751989709246118 25.898471682077798 0 0 0 0 0.43044072599493077 1.3534429363940248 0 1.3534429363940248 1.5668690232414715 0 0 0 0 -31.502155264090106 62.048074109232402 0 62.048074109232402 24.174376917537302 0 0 0 0 9.7100869989881176 100.78377740838005 0 100.78377740838005 146.85942377506581 0 0 0 0 -107.87318239015303 -5.8058465955655265 0 -5.8058465955655265 288.260364539492 0 0 0 0 -6.810741572392093 4.9166212763945438 0 4.9166212763945438 13.053777627954773 0 0 0 0 0.12656933773993728 -2.3592000837726275 0 -2.3592000837726275 -0.044969117031560479 0 0 0 0 -43.877466814605214 96.574919812057487 0 96.574919812057487 -53.97442818349009 0 0 0 0 -24.437790604720249 19.846096772917008 0 19.846096772917008 19.712604914584517 0 0 0 0 -21.259923528248009 33.07469860146125 0 33.07469860146125 -3.9844877500690927 0 0 0 0 -19.670515527618871 16.669369267959748 0 16.669369267959748 -6.5967834074980374 0 0 0 0 -22.610175276803375 92.586636703652403 0 92.586636703652403 25.645734517532219 0 0 0 0 -13.416253308182036 27.24513378815027 0 27.24513378815027 9.0153746505575327 0 0 0 0 -7.0601001584218919 2.7810430917149098 0 2.7810430917149098 3.6068079078247877 0 0 0 0 -60.832545085103391 12.699451337321079 0 12.699451337321079 29.25167942337248 0 0 0 0 -90.227705233071902 61.323867367907951 0 61.323867367907951 -7.8777683995831467 0 0 0 0 -356.63290767118224 47.782923891286373 0 47.782923891286373 85.184927353504463 0 0 0 0 -128.19231852059465 18.693677431630931 0 18.693677431630931 4.776154828905419 0 0 0 0 -31.43832596411043 22.75174048516719 0 22.75174048516719 -1.7305379270085348 0 0 0 0 -0.18493211138817855 5.398770648873132 0 5.398770648873132 -9.0463064818607002 0 0 0 0 14.559260985914079 52.963768158469975 0 52.963768158469975 32.788110542758659 0 0 0 0 -113.59515928242035 144.04682682469866 0 144.04682682469866 -27.60628874701797 0 0 0 0 85.392318960592092 102.47050312043939 0 102.47050312043939 -49.561509598206612 0 0 0 0 -3.1465559263833676 -5.3287469906894813 0 -5.3287469906894813 20.88326374777472 0 0 0 0 80.986517102068319 209.58754214451983 0 209.58754214451983 152.24321584832796 0 0 0 0 92.499709504761995 80.683657135356043 0 80.683657135356043 101.43373732887358 0 0 0 0 5.7420429587294066 8.5539242489686984 0 8.5539242489686984 7.0305373705251526 0 0 0 0 -35.392861099138827 78.219763834720652 0 78.219763834720652 160.5628363910655 0 0 0 0 167.28908255021452 -83.781833897373872 0 -83.781833897373872 -233.81475588530157 0 0 0 0 -37.931743521480712 71.637935115810251 0 71.637935115810251 401.35124439548963 0 0 0 0 42.529702142268206 39.313848982548734 0 39.313848982548734 77.177056349381928 0 0 0 0 37.699835696730574 36.536839304374624 0 36.536839304374624 15.535116788309736 0 0 0 0 -17.198140928261637 55.6094365717654 0 55.6094365717654 31.423246510020363 0 0 0 0 37.460850571148171 16.396013226802438 0 16.396013226802438 10.037764356060116 0 0 0 0 46.87405674136653 9.1922858865000308 0 9.1922858865000308 -17.022094748333984 0 0 0 0 52.159404151270337 -1.9498473419225775 0 -1.9498473419225775 -74.88834951982426 0 0 0 0 112.09293614605667 71.841340516970376 0 71.841340516970376 -84.896623534838 0 0 0 0 39.640242448197142 15.858258999025537 0 15.858258999025537 3.8782560132288175 0 0 0 0 267.54754314386082 -1.6141438851573184 0 -1.6141438851573184 -148.89722232537315 0 0 0 0 192.29799274810739 215.66644476889996 0 215.66644476889996 37.633788537794317 0 0 0 0 -0.82561516808073065 103.40535194276526 0 103.40535194276526 -27.597484341997188 0 0 0 0 127.75232258236611 139.6906830371463 0 139.6906830371463 103.82863342553173 0 0 0 0 -109.93579857461737 237.2126546784657 0 237.2126546784657 449.82481631494011 0 0 0 0 394.49120744185529 451.12378165677728 0 451.12378165677728 385.57360928841808 0 0 0 0 380.42738973469284 164.14419584266648 0 164.14419584266648 129.4478956226958 0 0 0 0 1081.7009350020235 958.61852645003819 0 958.61852645003819 638.07288355282799 0 0 0 0 84.957699887798299 262.85693071841524 0 262.85693071841524 847.61868738329213 0 0 0 0 182.85297933393394 -32.214737234397035 0 -32.214737234397035 1290.82437626092 0 0 0 0 106.22992523586436 139.65221990399004 0 139.65221990399004 1548.9076235357352 0 0 0 0 -9.0244413418270142 181.86889262493969 0 181.86889262493969 424.48748124663689 0 0 0 0 -13.665643102023751 170.98529988407608 0 170.98529988407608 767.86928854130747 0 0 0 0 -107.47671434933181 127.41028090697728 0 127.41028090697728 572.08964472406296 0 0 0 0 -81.01109958973575 109.58411652162613 0 109.58411652162613 350.12635409278482 0 0 0 0 -76.409098478771739 208.87410028603699 0 208.87410028603699 394.57767838911241 0 0 0 0 -57.551764114096841 266.31073828839362 0 266.31073828839362 239.86820630663715 0 0 0 0 -75.782283363648276 198.34647776344354 0 198.34647776344354 276.49496672065288 0 0 0 0 -95.92777601231046 185.09601373901387 0 185.09601373901387 268.20071682040725 0 0 0 0 7.9156910042502204 164.01510910520847 0 164.01510910520847 278.27213141454195 0 0 0 0 -25.545377043908957 24.483583156117675 0 24.483583156117675 -37.952168343708763 0 0 0 0 0.6349075035214593 3.2517739552933946 0 3.2517739552933946 11.051892839816503 0 0 0 0 105.39495920736726 -322.09120626496224 0 -322.09120626496224 609.36074601465953 0 0 0 0 81.214639888846364 -240.51057818605204 0 -240.51057818605204 334.42863497069629 0 0 0 0 69.506578470082786 331.6514771487964 0 331.6514771487964 202.86721951619984 0 0 0 0 -89.390947919941027 270.74138051279897 0 270.74138051279897 909.29365931235952 0 0 0 0 -14.074499759315586 -15.920199772284832 0 -15.920199772284832 94.927681685503558 0 0 0 0 -73.050017404668779 43.233413449865111 0 43.233413449865111 146.06452633020854 0 0 0 0 -5.3722366622964728 -98.203517752484913 0 -98.203517752484913 209.73626590552885 0 0 0 0 -132.29409346291595 10.834799285708868 0 10.834799285708868 562.56226149005306 0 0 0 0 -23.115830393356589 -18.785572561948356 0 -18.785572561948356 364.47605816204305 0 0 0 0 3.0610452023767944 17.691723573337612 0 17.691723573337612 0.33214530332187087 0 0 0 0 4.5410561566744292 18.197180304210633 0 18.197180304210633 -2.1165326870250283 0 0 0 0 11.812387008206315 16.874185852269875 0 16.874185852269875 -3.7013559666811489 0 0 0 0 5.8052438705421991 17.254594538033416 0 17.254594538033416 -3.4485894941462902 0 0 0 0 6.6304332110293611 18.576721317183797 0 18.576721317183797 7.09105074851308 0 0 0 0 -117.25235642712641 8.2894235973126342 0 8.2894235973126342 387.83333509856311 0 0 0 0 12.030099026924104 19.410830276356734 0 19.410830276356734 7.4860162976919344 0 0 0 0 25.378442908294346 29.265119385216167 0 29.265119385216167 55.298207035142696 0 0 0 0 23.817237732098874 23.173730438569692 0 23.173730438569692 64.95232283848236 0 0 0 0 28.404332086393993 27.117416230127446 0 27.117416230127446 57.520452942386328 0 0 0 0 -45.817570717696981 -23.384417703869985 0 -23.384417703869985 95.399727987854476 0 0 0 0 7.7547640226898693 36.534448566180799 0 36.534448566180799 60.618235729809385 0 0 0 0 -14.735834770037059 34.062353510872526 0 34.062353510872526 61.876479269987612 0 0 0 0 -6.6932202236703233 24.067786406369123 0 24.067786406369123 56.077218035545229 0 0 0 0 485.96454531214113 455.82165093734147 0 455.82165093734147 -621.43895225114829 0 0 0 0 258.80854498761437 -513.77425294736531 0 -513.77425294736531 599.32996317139805 0 0 0 0 -94.574691508626529 -90.872115315658448 0 -90.872115315658448 825.21163097179669 0 0 0 0 -65.145958912920833 514.50663089826412 0 514.50663089826412 350.38401084713405 0 0 0 0 14.29796555054328 17.340930612748828 0 17.340930612748828 -3.6475922221441266 0 0 0 0 29.703480680870143 27.196981375807809 0 27.196981375807809 64.428264869322447 0 0 0 0 25.224486695209634 26.260657725848432 0 26.260657725848432 68.840178668529575 0 0 0 0 28.401582003586554 27.399090472536045 0 27.399090472536045 64.89356237177708 0 0 0 0 39.267315184331437 30.466407938631164 0 30.466407938631164 62.87929797815741 0 0 0 0 29.515702380782656 34.823056214066753 0 34.823056214066753 68.558122706032009 0 0 0 0 33.953106307751078 37.951145298371216 0 37.951145298371216 12.54810341594392 0 0 0 0 34.135954453168779 31.228343786249752 0 31.228343786249752 68.000646341388347 0 0 0 0 34.395999728949164 31.387086974890735 0 31.387086974890735 59.858658058736182 0 0 0 0 28.223251372586219 27.306638215875864 0 27.306638215875864 60.056015990037849 0 0 0 0 38.236073460458556 35.942036914169876 0 35.942036914169876 57.306826760838703 0 0 0 0 38.596113563137806 41.412329299126213 0 41.412329299126213 65.976417923997133 0 0 0 0 -8.5734530699865719 -6.3474346569170521 0 -6.3474346569170521 24.101714137429695 0 0 0 0 -24.971632041259568 -41.701375904794986 0 -41.701375904794986 37.047437299825106 0 0 0 0 6.0768579803358875 32.189903544903927 0 32.189903544903927 61.267694779940939 0 0 0 0 -4.4674125465812722 21.938666662879768 0 21.938666662879768 58.598438825178164 0 0 0 0 5.2528182906817165 27.996852817834224 0 27.996852817834224 61.967980341276416 0 0 0 0 21.491519091638565 28.92908996598635 0 28.92908996598635 54.274177785249776 0 0 0 0 22.587200760611267 31.891022008820073 0 31.891022008820073 60.642974766245061 0 0 0 0 17.778305856156294 36.224513919763922 0 36.224513919763922 60.427230321298339 0 0 0 0 25.848142358433506 27.841140609482864 0 27.841140609482864 54.731436857025983 0 0 0 0 12.547868041628135 27.788795171983111 0 27.788795171983111 49.431628484269822 0 0 0 0 6.7393998325314897 37.968896683652019 0 37.968896683652019 53.838776895434421 0 0 0 0 22.575710396337627 34.645102625073378 0 34.645102625073378 49.396426046916531 0 0 0 0 23.532079371638702 38.378989593384631 0 38.378989593384631 57.765053347498906 0 0 0 0 7.680576502112217 30.179970412478724 0 30.179970412478724 52.692355081140704 0 0 0 0 -2.4246524483813232 -0.80521977894659358 0 -0.80521977894659358 29.19748305185567 0 0 0 0 -37.912174591072002 -14.334545637446354 0 -14.334545637446354 61.864365221241314 0 0 0 0 -43.28546678787211 7.5434411695223389 0 7.5434411695223389 31.115140651781985 0 0 0 0 -10.519396496234208 -2.269640849770834 0 -2.269640849770834 21.827904300071395 0 0 0 0 -66.177033461622159 6.571483049170638 0 6.571483049170638 54.94347416169785 0 0 0 0 28.19435302898853 -29.52254337919112 0 -29.52254337919112 51.715679167414237 0 0 0 0 37.845535436688351 28.501587244430993 0 28.501587244430993 59.823827525660818 0 0 0 0 96.22283668211594 14.55267308299517 0 14.55267308299517 66.665661695275048 0 0 0 0 90.29893295690772 -13.095791346395345 0 -13.095791346395345 29.237926820656867 0 0 0 0 37.691683728156022 14.171202127499782 0 14.171202127499782 87.408315904227493 0 0 0 0 34.620073189195637 -3.5598671846082652 0 -3.5598671846082652 0.080013133509055478 0 0 0 0 39.45358078631898 -18.89338417063118 0 -18.89338417063118 37.420087716645867 0 0 0 0 19.955426689932438 -19.23799248377145 0 -19.23799248377145 5.1887523131881608 0 0 0 0 0.13540584448432336 -3.0454963034657965 0 -3.0454963034657965 33.244273510365673 0 0 0 0 30.648426186223787 36.307930385206419 0 36.307930385206419 26.544730862704455 0 0 0 0 66.11824671665272 32.402158661809153 0 32.402158661809153 -24.760399034008515 0 0 0 0 40.709294129556838 5.9669184055710502 0 5.9669184055710502 -4.1215150211683067 0 0 0 0 107.92214355431452 -4.0773597287370649 0 -4.0773597287370649 20.786829889049841 0 0 0 0 78.929899873726981 20.441792715970223 0 20.441792715970223 1.1381812697727582 0 0 0 0 27.130246179464848 46.520325346979007 0 46.520325346979007 27.280073459620326 0 0 0 0 81.392817056840613 85.882007039692326 0 85.882007039692326 41.227636368021194 0 0 0 0 -73.199052404650502 100.94803854359816 0 100.94803854359816 518.90240566894499 0 0 0 0 212.46985185907761 87.436188932992081 0 87.436188932992081 40.048467063133558 0 0 0 0 85.251936435600726 23.871917292837452 0 23.871917292837452 64.520700835804746 0 0 0 0 160.45899979103569 -29.824059865661184 0 -29.824059865661184 102.05152061947956 0 0 0 0 119.47351092874032 63.591388121389173 0 63.591388121389173 149.92001278215321 0 0 0 0 90.510778171353422 25.152771447772466 0 25.152771447772466 100.66504355530924 0 0 0 0 207.12447253061964 67.351375878366525 0 67.351375878366525 60.87866628937627 0 0 0 0 139.48478720238018 12.026543687021331 0 12.026543687021331 -287.19730640030684 0 0 0 0 1.0098781992917072 0.18026805657324019 0 0.18026805657324019 0.14486638647934669 0 0 0 0 242.13670378705592 216.56985415946838 0 216.56985415946838 -133.02700569406261 0 0 0 0 122.1810473937411 152.61735953004268 0 152.61735953004268 53.057268606240541 0 0 0 0 404.36038072718839 -103.70022772587254 0 -103.70022772587254 196.38785850960994 0 0 0 0 34.819594242543417 67.948606588604889 0 67.948606588604889 629.88921302705421 0 0 0 0 40.059838958878117 93.344942203511891 0 93.344942203511891 349.53599518122064 0 0 0 0 61.067790850125675 57.036114579914283 0 57.036114579914283 274.70682671918985 0 0 0 0 67.025567910183781 34.93890569620271 0 34.93890569620271 291.24617147122444 0 0 0 0 69.155159026898673 19.212860835436913 0 19.212860835436913 169.07304496889265 0 0 0 0 63.523559690278489 -77.863489586078686 0 -77.863489586078686 156.74732429620781 0 0 0 0 148.40699394975582 3.921937552124291 0 3.921937552124291 10.280100144875178 0 0 0 0 146.97652173490843 26.881832087283215 0 26.881832087283215 90.940183176338905 0 0 0 0 90.454748570934044 37.37658069670033 0 37.37658069670033 137.03126055914254 0 0 0 0 69.948392018022105 41.602340910289058 0 41.602340910289058 103.45693606206623 0 0 0 0 90.294971291591537 40.186006386249574 0 40.186006386249574 90.67639340873211 0 0 0 0 56.165511750430255 7.4935976365377428 0 7.4935976365377428 80.296645493952383 0 0 0 0 82.466113594657372 76.643706317227043 0 76.643706317227043 79.588158050730698 0 0 0 0 49.642046812813533 56.43180064859007 0 56.43180064859007 94.211121285661648 0 0 0 0 119.89214531989677 146.34501766437279 0 146.34501766437279 133.39704759359302 0 0 0 0 56.537221108622361 93.809479762639967 0 93.809479762639967 180.21410287926483 0 0 0 0 77.714371248890188 88.24938055162238 0 88.24938055162238 174.2354592372285 0 0 0 0 54.984782234574595 103.15341272788646 0 103.15341272788646 250.87880454511287 0 0 0 0 77.714750293255292 183.63231453354456 0 183.63231453354456 248.61286738939634 0 0 0 0 38.031222840395003 187.5742394511999 0 187.5742394511999 262.57233188405371 0 0 0 0 74.212993198217418 156.14296040011868 0 156.14296040011868 161.2395074608612 0 0 0 0 75.254116846883164 184.39907885467801 0 184.39907885467801 210.9018982863272 0 0 0 0 145.3629444405754 249.80524522598353 0 249.80524522598353 207.81748410185901 0 0 0 0 39.111636875527893 229.33599082430737 0 229.33599082430737 404.66903114577508 0 0 0 0 42.357090771024104 175.36162528903878 0 175.36162528903878 281.36346790212701 0 0 0 0 30.508151195437677 192.2282763474318 0 192.2282763474318 266.20218671694602 0 0 0 0 -14.341920803613499 -7.5059919119873939 0 -7.5059919119873939 10.846541286201806 0 0 0 0 37.877750640308022 77.992041604557016 0 77.992041604557016 134.33051499835074 0 0 0 0 187.52551199182744 205.82083784209681 0 205.82083784209681 159.35766676412277 0 0 0 0 -25.2549705307568 -17.786777640136279 0 -17.786777640136279 29.866662955988431 0 0 0 0 -13.101609770352297 -10.952794179625926 0 -10.952794179625926 14.67810123104573 0 0 0 0 -14.807771202497083 -13.446270514850319 0 -13.446270514850319 20.826798304146209 0 0 0 0 12.50444868842078 -115.97621595516284 0 -115.97621595516284 -116.819427564129 0 0 0 0 -9.1850833069903342 -9.5577562336641293 0 -9.5577562336641293 14.485102415607614 0 0 0 0 -1.8880047405668172 -0.50325236770502357 0 -0.50325236770502357 5.3637958559461509 0 0 0 0 145.68914645491327 235.74831898330285 0 235.74831898330285 260.3211826039842 0 0 0 0 115.80313323517566 199.3358154065445 0 199.3358154065445 279.19446235644136 0 0 0 0 180.84167788025616 310.87907915914002 0 310.87907915914002 459.91482365737465 0 0 0 0 308.4778986682627 222.56602446587203 0 222.56602446587203 237.83455427776062 0 0 0 0 116.59605107726293 193.79710788591183 0 193.79710788591183 308.07852299612114 0 0 0 0 23.167712413288655 144.05391162240267 0 144.05391162240267 283.98119361216959 0 0 0 0 -1.4735675431907929 2.117824351946048 0 2.117824351946048 4.7146095711694258 0 0 0 0 -31.497262548674826 27.939800547394043 0 27.939800547394043 66.479190714468132 0 0 0 0 5.0392459266081371 13.124518978457473 0 13.124518978457473 15.72064745821654 0 0 0 0 13.126515368983746 16.85609398447923 0 16.85609398447923 28.226886325639498 0 0 0 0 11.773089682270438 20.048909888166236 0 20.048909888166236 27.359604894010772 0 0 0 0 10.825433535759657 18.157349800560041 0 18.157349800560041 32.067980425100359 0 0 0 0 -0.10818470393768109 3.2475046158436598 0 3.2475046158436598 6.7436308818747577 0 0 0 0 12.110861190596552 15.011670715437504 0 15.011670715437504 32.489558965044125 0 0 0 0 -3.4905792672150255 26.323046575036642 0 26.323046575036642 52.835991689139121 0 0 0 0 -14.31771623973686 -0.0308725191556114 0 -0.0308725191556114 17.818835215909672 0 0 0 0 -0.17850337649451831 2.5512809732499591 0 2.5512809732499591 31.085848184936779 0 0 0 0 1.4685678668197397 19.915579543299827 0 19.915579543299827 25.019948332123022 0 0 0 0 14.743677187929279 11.582290486981947 0 11.582290486981947 33.284415156518662 0 0 0 0 -46.264136517560473 -17.989204652803892 0 -17.989204652803892 56.842392280843342 0 0 0 0 -53.389891365945289 -12.263071235897769 0 -12.263071235897769 55.276178304917266 0 0 0 0 -39.091098680958567 39.448777495679678 0 39.448777495679678 0.0036132898057985585 0 0 0 0 -1.4162523884815075 -1.5343205424040036 0 -1.5343205424040036 0.44088300768443744 0 0 0 0 51.640221712523214 55.676241072007542 0 55.676241072007542 22.938152385543845 0 0 0 0 -9.0021609129604485 -26.451937981291849 0 -26.451937981291849 24.043349296851375 0 0 0 0 -11.131729240089157 66.30624650628306 0 66.30624650628306 74.846638118957344 0 0 0 0 200.08471429718048 166.54131124182823 0 166.54131124182823 87.994923666557952 0 0 0 0 70.228725681608751 64.616330749127883 0 64.616330749127883 43.852125865665585 0 0 0 0 205.58749978928384 206.49550980286926 0 206.49550980286926 -25.638999937506014 0 0 0 0 161.93742320327067 371.01097824540739 0 371.01097824540739 498.72283396589046 0 0 0 0 3.9720586967975695 1.932124511905414 0 1.932124511905414 0.76564586741717733 0 0 0 0 -13.236791236808472 7.7090354123920406 0 7.7090354123920406 560.01323225728447 0 0 0 0 55.567730753224623 13.460712080044686 0 13.460712080044686 -34.887086542170437 0 0 0 0 -61.416978692700241 -3.7214388023112406 0 -3.7214388023112406 63.797017948370922 0 0 0 0 -63.486330187859267 30.454924985602702 0 30.454924985602702 34.933983081517681 0 0 0 0 9.3461632115074025 4.9683955446675085 0 4.9683955446675085 5.3874301817461614 0 0 0 0 -24.956105480678161 37.40383317875785 0 37.40383317875785 -8.4855180242084316 0 0 0 0 21.76079911551949 -2.9628289199372375 0 -2.9628289199372375 114.77395315998365 0 0 0 0 -15.514746738884867 -19.709894110641471 0 -19.709894110641471 267.29386477631851 0 0 0 0 21.705790822263907 -19.059426149638966 0 -19.059426149638966 50.335009307194014 0 0 0 0 22.440897762946861 31.566844236926045 0 31.566844236926045 89.162062750187033 0 0 0 0 62.742545698504728 92.345173164620064 0 92.345173164620064 147.05038873594458 0 0 0 0 1.0709196425304661 0.46510707448734934 0 0.46510707448734934 0.29490155364486981 0 0 0 0 97.771527975358225 49.080879422961516 0 49.080879422961516 120.60385092755405 0 0 0 0 -1.8872100894347454 106.52042591262398 0 106.52042591262398 297.91633202713274 0 0 0 0 13.224970999156994 34.075568160200419 0 34.075568160200419 173.75509247252558 0 0 0 0 9.2733506312453144 72.614555127764788 0 72.614555127764788 231.47972286048753 0 0 0 0 -8.4392483289129814 56.375452226429843 0 56.375452226429843 246.34978966140079 0 0 0 0 0.27769295780588266 88.602251338238602 0 88.602251338238602 260.99650463635044 0 0 0 0 -58.748933468304983 83.034905120037365 0 83.034905120037365 276.56381985673579 0 0 0 0 -11.43762378669382 235.7764265413748 0 235.7764265413748 551.05494023788924 0 0 0 0 144.78963355608062 414.41385097937746 0 414.41385097937746 661.45311335781298 0 0 0 0 418.62854694747034 349.93399954444612 0 349.93399954444612 262.99126643290515 0 0 0 0 17.042624345082231 2.2978289496350044 0 2.2978289496350044 23.152661440108204 0 0 0 0 320.55660823883227 380.09465665565585 0 380.09465665565585 590.42231461874326 0 0 0 0 1.3224452966291682 0.021135846740875763 0 0.021135846740875763 0.36931160976501332 0 0 0 0 90.63012408948012 82.281991534570807 0 82.281991534570807 149.3793549831862 0 0 0 0 1.0096830033821511 0.29865529429110893 0 0.29865529429110893 0.56681032145703014 0 0 0 0 108.80247679224766 47.887389321134833 0 47.887389321134833 279.54898765733742 0 0 0 0 249.37748834652484 387.48701918043298 0 387.48701918043298 389.71610755095389 0 0 0 0 233.73216014626291 5.4049653749243589 0 5.4049653749243589 602.70267223580686 0 0 0 0 385.76551996403623 247.62441525244867 0 247.62441525244867 363.37684430967784 0 0 0 0 215.21574859027783 100.82411949133314 0 100.82411949133314 239.65827652081498 0 0 0 0 222.30845652958214 226.96484644144948 0 226.96484644144948 414.09153881205202 0 0 0 0 0.30355032700572337 9.821313730421025 0 9.821313730421025 30.117114591928839 0 0 0 0 2.7429505187092524 0.48893936725668397 0 0.48893936725668397 2.8447648629924132 0 0 0 0 0.16268359875474836 0.83029837052711741 0 0.83029837052711741 2.9142094372807854 0 0 0 0 0.1572301553392208 26.152116116940306 0 26.152116116940306 114.11604645167813 0 0 0 0 228.0824750187237 80.835259503781344 0 80.835259503781344 95.219633822911419 0 0 0 0 -82.967160717056885 144.94194633222014 0 144.94194633222014 923.89254361756321 0 0 0 0 34.524343647140434 259.8355406581486 0 259.8355406581486 658.33558992789767 0 0 0 0 -431.97050719533161 -147.93943224291434 0 -147.93943224291434 2500.5795008591431 0 0 0 0 -202.36802174140158 -308.76999242665261 0 -308.76999242665261 1912.5948873924208 0 0 0 0 -152.85629799723421 103.59828873817241 0 103.59828873817241 1808.6181383324729 0 0 0 0 -170.49005466268846 127.4813426055116 0 127.4813426055116 2126.3506706092885 0 0 0 0 -0.28039289258526834 -0.25472651860545881 0 -0.25472651860545881 0.42288984957725262 0 0 0 0 -5.0013676661944189 -48.115933116907399 0 -48.115933116907399 1140.038843962695 0 0 0 0 69.670693244458789 88.792985653897631 0 88.792985653897631 120.25762164936259 0 0 0 0 -80.709674067949891 404.82007327467363 0 404.82007327467363 1761.731151027127 0 0 0 0 -3.0393821169863258 -3.9680657934437917 0 -3.9680657934437917 4.5257967708895563 0 0 0 0 -54.532398184903812 492.77059032327361 0 492.77059032327361 2054.2699665907348 0 0 0 0 -7.5380180004678152 67.05562580728656 0 67.05562580728656 218.4117205710063 0 0 0 0 -1.2435446190507036 -1.776430011564635 0 -1.776430011564635 3.5768939256962931 0 0 0 0 -13.265440071255341 406.45607356342225 0 406.45607356342225 2231.6160735637859 0 0 0 0 189.53092039896694 265.42915214003369 0 265.42915214003369 265.52399079369661 0 0 0 0 165.29453184113675 128.1753116186519 0 128.1753116186519 180.99736770813251 0 0 0 0 208.55124403358155 278.53633527180864 0 278.53633527180864 326.29342917306076 0 0 0 0 163.46773990403148 282.77301559896659 0 282.77301559896659 339.31173364816641 0 0 0 0 122.83741916238927 359.5257558771591 0 359.5257558771591 548.68776128207674 0 0 0 0 56.027943431462063 -45.170863769679272 0 -45.170863769679272 597.97388738248264 0 0 0 0 -70.791568266276926 325.45959675848462 0 325.45959675848462 2499.4083237698796 0 0 0 0 219.69599605695893 463.56800988016766 0 463.56800988016766 2244.6209510281915 0 0 0 0 448.90261462719513 649.90922800426051 0 649.90922800426051 2048.8492427739548 0 0 0 0 206.41784060859703 440.75900547785636 0 440.75900547785636 2415.0870996746089 0 0 0 0 214.81017853415059 508.62083954310583 0 508.62083954310583 2523.793205920796 0 0 0 0 315.90868663097234 679.73350400086565 0 679.73350400086565 2492.9705473849108 0 0 0 0 202.03057692810899 256.51992518391853 0 256.51992518391853 -138.45568200076377 0 0 0 0 52.96203123017267 -64.965924945594452 0 -64.965924945594452 1065.513525950475 0 0 0 0 124.41954527537615 387.06065162436062 0 387.06065162436062 868.16722752510213 0 0 0 0 262.29098836523917 427.24712262920366 0 427.24712262920366 214.8128126925003 0 0 0 0 123.63886877572094 98.728406854255809 0 98.728406854255809 93.79802345475764 0 0 0 0 71.6975311494528 16.244901366721024 0 16.244901366721024 -114.70987683328531 0 0 0 0 -20.928049104694537 -37.492118548834696 0 -37.492118548834696 -80.363083148047735 0 0 0 0 157.76235600043236 -97.566600351714442 0 -97.566600351714442 -60.217691559584637 0 0 0 0 50.301699103034537 -179.64518908868922 0 -179.64518908868922 -1.980079323730024 0 0 0 0 151.53877501629819 -8.3718116225245467 0 -8.3718116225245467 -109.10662749320454 0 0 0 0 28.323750643121144 67.483646364675224 0 67.483646364675224 -46.838093155580282 0 0 0 0 -176.32855252507835 60.078134251149095 0 60.078134251149095 95.715487075161946 0 0 0 0 0.128119188035939 0.13458211124914143 0 0.13458211124914143 21.464509462422697 0 0 0 0 -51.497434610306257 15.203082448546866 0 15.203082448546866 -15.890181672148174 0 0 0 0 -49.078217204591553 4.0539202120762639 0 4.0539202120762639 -52.573175876561436 0 0 0 0 -5.3458931378697487 -2.3231932208733781 0 -2.3231932208733781 24.549655973099092 0 0 0 0 -27.359471617654449 -0.50778107675853335 0 -0.50778107675853335 63.639243118672312 0 0 0 0 -41.345174015815715 10.338704812249489 0 10.338704812249489 -10.144538737607945 0 0 0 0 -63.406185217612631 -34.05039976439366 0 -34.05039976439366 -43.623372720639964 0 0 0 0 -69.867287404225578 -25.775271942209656 0 -25.775271942209656 -22.158306787703623 0 0 0 0 -2.7502884074555141 36.778921917750267 0 36.778921917750267 74.142343198638628 0 0 0 0 -0.37115447201573271 -0.24739710938176529 0 -0.24739710938176529 -0.83760334655035606 0 0 0 0 18.176185286820285 -25.449387973620105 0 -25.449387973620105 -140.34167556417378 0 0 0 0 28.341867107462804 37.55286184142642 0 37.55286184142642 200.07075992621867 0 0 0 0 -1.0156639200111073 1.4263482913608669 0 1.4263482913608669 8.0614773852502566 0 0 0 0 -0.63616945639860845 5.4425444834114387 0 5.4425444834114387 92.483015844118199 0 0 0 0 -5.9359873089507307 -9.7796745626676795 0 -9.7796745626676795 13.843970206572109 0 0 0 0 -25.998566695023555 60.675340855168542 0 60.675340855168542 428.6550466640947 0 0 0 0 90.708925336316042 145.269191263229 0 145.269191263229 480.43050614413369 0 0 0 0 84.075780482690789 107.55326086788409 0 107.55326086788409 337.73415309608208 0 0 0 0 -0.76877485853474803 -4.1464770642042339 0 -4.1464770642042339 4.025930950187842 0 0 0 0 96.399763615860138 187.47167118399375 0 187.47167118399375 211.48039633036024 0 0 0 0 24.423512763920371 172.45023592870166 0 172.45023592870166 213.24715890653169 0 0 0 0 12.295993397257007 134.80335282025044 0 134.80335282025044 480.65017414829344 0 0 0 0 102.38078562330702 -172.39486723372102 0 -172.39486723372102 270.21622862408913 0 0 0 0 -5.95367824476787 -1.3087714389146754 0 -1.3087714389146754 11.205787362876887 0 0 0 0 17.244142739683411 35.961489613167942 0 35.961489613167942 84.417001528760011 0 0 0 0 -150.45869182085789 -87.064110171486391 0 -87.064110171486391 -61.878837265758193 0 0 0 0 -3.6284000365187921 9.6197152424178007 0 9.6197152424178007 33.903340996452798 0 0 0 0 3.3243092384089632 4.1739411788860821 0 4.1739411788860821 25.970708739963655 0 0 0 0 4.6207229005995032 6.1910756027864409 0 6.1910756027864409 43.737207075468177 0 0 0 0 -243.51137585621149 -32.976044280076167 0 -32.976044280076167 44.256657411873675 0 0 0 0 -39.969024942981179 -66.821471524395747 0 -66.821471524395747 18.591646221531846 0 0 0 0 -9.9253299581684953 -80.5180982181937 0 -80.5180982181937 24.708187183176051 0 0 0 0 -95.140584571461517 -120.69928151560453 0 -120.69928151560453 8.1492083239936619 0 0 0 0 -0.20139833572041577 1.4714855295961442 0 1.4714855295961442 9.1291406992711401 0 0 0 0 0.29597163744405108 20.907906815701608 0 20.907906815701608 16.805089943794883 0 0 0 0 -97.839550876234682 -54.056387037289824 0 -54.056387037289824 -2.9826339382707374 0 0 0 0 -1.1448161830293502 3.2664031111195193 0 3.2664031111195193 22.777134713572778 0 0 0 0 -157.20105532567641 -162.60157028322374 0 -162.60157028322374 29.933528965630103 0 0 0 0 65.67496368040571 -244.82337261285647 0 -244.82337261285647 827.94431325627374 0 0 0 0 -136.81366356559107 -256.95565779952631 0 -256.95565779952631 1133.2951244190517 0 0 0 0 -129.39551330470289 -246.39208816913742 0 -246.39208816913742 859.18106854576308 0 0 0 0 343.85913986105226 -1289.1942978410152 0 -1289.1942978410152 2495.1679214982396 0 0 0 0 0.28123740303131811 0.9813318894321057 0 0.9813318894321057 10.356380501219761 0 0 0 0 -25.400752727586521 668.06968287175005 0 668.06968287175005 630.57194733690994 0 0 0 0 -338.00521985261145 401.51590094860512 0 401.51590094860512 2494.6813547944512 0 0 0 0 -310.7771340309713 -41.720738452899241 0 -41.720738452899241 875.80462816799263 0 0 0 0 90.238583861774103 48.837482487884245 0 48.837482487884245 887.20032182569412 0 0 0 0 145.07434510872309 -182.38515912773073 0 -182.38515912773073 -43.313115942479271 0 0 0 0 234.70908336706029 -155.66647428898978 0 -155.66647428898978 41.589443893225507 0 0 0 0 141.01800727109855 176.45041012746879 0 176.45041012746879 -305.7374541406316 0 0 0 0 284.9110591082935 -633.57197331933583 0 -633.57197331933583 1044.6902473241353 0 0 0 0 -291.73118965943041 -451.79132414916967 0 -451.79132414916967 2495.5907205435637 0 0 0 0 0.50212737420948506 0.061658174399744858 0 0.061658174399744858 9.7935300949587258 0 0 0 0 -429.14162263545109 423.35540140999183 0 423.35540140999183 2496.7188905008989 0 0 0 0 373.56285287300631 782.88012113469188 0 782.88012113469188 929.77755346000777 0 0 0 0 -617.87963349474455 -332.76271945595818 0 -332.76271945595818 2494.8530030631955 0 0 0 0 -533.42900358671125 -103.83468598453874 0 -103.83468598453874 887.00325172897283 0 0 0 0 0.53748493466656 7.3712797791965485 0 7.3712797791965485 1.563037104645332 0 0 0 0 38.038735195794231 -35.771181538944802 0 -35.771181538944802 52.925585025070177 0 0 0 0 48.734718782104267 195.61915729241809 0 195.61915729241809 647.40341846033334 0 0 0 0 163.91291050225942 -26.525867451015074 0 -26.525867451015074 -97.173410234605399 0 0 0 0 -237.91707990187052 -66.483405104977464 0 -66.483405104977464 111.85057527715253 0 0 0 0 33.97468725025044 -46.912359911078966 0 -46.912359911078966 -20.43042698642239 0 0 0 0 17.643379519356216 9.9177750299436411 0 9.9177750299436411 23.967222804050834 0 0 0 0 -24.272494461604328 -10.261574985173674 0 -10.261574985173674 4.0838666268796686 0 0 0 0 -70.034896618380202 -64.161620751085138 0 -64.161620751085138 18.681076625924106 0 0 0 0 -21.785596483032354 -17.695170567885839 0 -17.695170567885839 -4.8644601449567801 0 0 0 0 19.890679855487178 38.751869843559689 0 38.751869843559689 81.359173537020979 0 0 0 0 10.480221434861051 71.897108043674962 0 71.897108043674962 112.82334877668472 0 0 0 0 -11.555003470078191 31.362556679587215 0 31.362556679587215 82.805351604947646 0 0 0 0 -19.820695628767567 9.6580456812993845 0 9.6580456812993845 70.749772224642044 0 0 0 0 -69.777058109491009 -51.386844621585624 0 -51.386844621585624 40.019808118824585 0 0 0 0 16.622338771020321 34.553712489980242 0 34.553712489980242 42.946507685469058 0 0 0 0 35.360912223171908 66.186417422632076 0 66.186417422632076 76.772502913417156 0 0 0 0 54.587896929717317 55.486100450005324 0 55.486100450005324 85.180559191181146 0 0 0 0 14.458366827980939 6.8443499339562166 0 6.8443499339562166 -15.593809572000566 0 0 0 0 39.989180632908756 77.408504884108879 0 77.408504884108879 87.631702295824653 0 0 0 0 6.5138499026366699 -2.0382232182710709 0 -2.0382232182710709 0.12148283902848789 0 0 0 0 20.990998415416016 76.128412622552787 0 76.128412622552787 124.91167425548701 0 0 0 0 457.90957110767852 -390.15270558564953 0 -390.15270558564953 281.72204510330448 0 0 0 0 76.048898994580725 693.53333119153103 0 693.53333119153103 2496.1844204606218 0 0 0 0 5.0414198422058387 -1.4124363890079508 0 -1.4124363890079508 14.892287566723112 0 0 0 0 615.09024549920809 1066.9564159924812 0 1066.9564159924812 1906.1135136906305 0 0 0 0 77.489550415809987 388.65832932325623 0 388.65832932325623 1432.8488683621908 0 0 0 0 -401.95513824495373 278.00433986660391 0 278.00433986660391 2500.9661090454574 0 0 0 0 220.79881736805717 149.85825577899232 0 149.85825577899232 256.84212496933833 0 0 0 0 -41.233650377903231 -265.07695976888135 0 -265.07695976888135 95.226036031075637 0 0 0 0 174.54237953284007 826.6479201821785 0 826.6479201821785 1162.3911190571162 0 0 0 0 -33.250542301658271 148.84551835844468 0 148.84551835844468 743.45182058873252 0 0 0 0 349.46119970136175 476.98449434637587 0 476.98449434637587 -64.672883135055599 0 0 0 0 286.3767554451598 -665.80795462885362 0 -665.80795462885362 1677.4712251191522 0 0 0 0 -383.04929905224395 49.129480372692342 0 49.129480372692342 1657.4339477737376 0 0 0 0 -352.58052178845304 -399.26217310951688 0 -399.26217310951688 2495.4716939053433 0 0 0 0 -238.310681767353 -247.27344535338125 0 -247.27344535338125 1437.7832610820114 0 0 0 0 114.83706589575968 -128.721216285634 0 -128.721216285634 910.65894673532239 0 0 0 0 16.92861428178319 13.267006030092745 0 13.267006030092745 7.8274410793284162 0 0 0 0 -58.203265872949942 256.65471322294354 0 256.65471322294354 -225.59648564707459 0 0 0 0 7.1250363487151844 64.301903478070017 0 64.301903478070017 -38.492747520791454 0 0 0 0 45.067635717130543 236.3096777358769 0 236.3096777358769 75.382784577699567 0 0 0 0 -47.477442272928556 25.956315078045009 0 25.956315078045009 325.16013967254548 0 0 0 0 23.778997723078668 17.311488748371843 0 17.311488748371843 4.834178116224642 0 0 0 0 -111.43306430291886 129.68267690579523 0 129.68267690579523 -58.266087098319986 0 0 0 0 -68.248855621408893 187.78872955967927 0 187.78872955967927 10.682923726169975 0 0 0 0 -36.033086737473241 153.08446950101643 0 153.08446950101643 105.79523325290211 0 0 0 0 -168.35703757234842 128.90203211829794 0 128.90203211829794 103.07453605950286 0 0 0 0 -202.32994316618624 59.959545110861654 0 59.959545110861654 -3.6102406618483656 0 0 0 0 -38.926110016698658 135.45045598487195 0 135.45045598487195 156.40417032393816 0 0 0 0 2.591883546744036 3.6276257302367583 0 3.6276257302367583 2.7377106604069184 0 0 0 0 137.07590481659827 178.23587746741759 0 178.23587746741759 125.76283402787521 0 0 0 0 -113.96638274131419 98.808115187912335 0 98.808115187912335 143.44219314894144 0 0 0 0 -126.17448428637056 35.515559687235054 0 35.515559687235054 387.22693126340164 0 0 0 0 49.824247396026294 -70.498316150529718 0 -70.498316150529718 165.61780768496101 0 0 0 0 -118.8302061450222 -83.611759978090049 0 -83.611759978090049 136.94087318679522 0 0 0 0 -61.013500271720659 65.130561532798311 0 65.130561532798311 156.13390949473251 0 0 0 0 -76.344401211127661 102.75203460253033 0 102.75203460253033 568.72148488809762 0 0 0 0 0.20795394786949473 1.3138614256876764 0 1.3138614256876764 3.3329006379960049 0 0 0 0 175.37538162036162 -336.25289410561163 0 -336.25289410561163 585.8872214278897 0 0 0 0 -320.11684000882212 405.52300093163103 0 405.52300093163103 236.1488698094181 0 0 0 0 -334.84611134429906 478.52181145549184 0 478.52181145549184 2.6783122019114671 0 0 0 0 -316.05607205649358 -7.6519746577032492 0 -7.6519746577032492 127.70773729051143 0 0 0 0 -301.67358408476866 181.92367312515125 0 181.92367312515125 192.6164602185454 0 0 0 0 -372.84310369367472 170.76510656904156 0 170.76510656904156 44.43016819076729 0 0 0 0 2.3050380059555557 4.4925441660361685 0 4.4925441660361685 5.8147284745619459 0 0 0 0 -320.58431633757937 56.915110943977197 0 56.915110943977197 -134.83300693996171 0 0 0 0 -326.88828876569983 -41.162224485316983 0 -41.162224485316983 192.00355422926077 0 0 0 0 -214.99316881751793 45.386964818895649 0 45.386964818895649 -14.083575581113109 0 0 0 0 -351.60351615057152 -89.470256129323388 0 -89.470256129323388 170.94892937024997 0 0 0 0 45.708885624057984 -109.87261086162471 0 -109.87261086162471 195.24140679441552 0 0 0 0 -7.794360906849306 -9.219796272505846 0 -9.219796272505846 67.138346253734198 0 0 0 0 -127.88107683332328 -40.072983824902622 0 -40.072983824902622 68.495501814773888 0 0 0 0 -6.6564518127704861 -2.8853207330023167 0 -2.8853207330023167 25.812314437580596 0 0 0 0 -124.34877069443337 30.092938537018199 0 30.092938537018199 100.66781208447355 0 0 0 0 -235.46217271689147 64.25404598078967 0 64.25404598078967 194.78624888337072 0 0 0 0 -15.14968309135751 0.5092974709831779 0 0.5092974709831779 98.171972074509426 0 0 0 0 -51.695551631810304 -97.988896659131569 0 -97.988896659131569 93.834162290776476 0 0 0 0 18.482269480554351 121.21013929842593 0 121.21013929842593 122.95689134254644 0 0 0 0 -114.5268565112583 158.07900660116138 0 158.07900660116138 175.08765697495619 0 0 0 0 38.889176408563799 72.153357496426906 0 72.153357496426906 161.58014142046159 0 0 0 0 31.60168389965952 84.87631640955351 0 84.87631640955351 156.23224768653745 0 0 0 0 45.073532108450308 95.892651398498856 0 95.892651398498856 164.55861089319205 0 0 0 0 -155.35964532622461 232.24073779264472 0 232.24073779264472 69.024632189735712 0 0 0 0 -287.77872401044897 -364.19708325690954 0 -364.19708325690954 486.29005014753056 0 0 0 0 -39.328421528824947 187.06795748699733 0 187.06795748699733 730.88953042940557 0 0 0 0 1.8454688124125802 -1.3910416855545904 0 -1.3910416855545904 1.300900009402973 0 0 0 0 -17.268118382753929 -1.830636575643446 0 -1.830636575643446 89.543285832957963 0 0 0 0 98.368509336785792 -214.85492554620214 0 -214.85492554620214 -301.01639308618905 0 0 0 0 92.4638149632965 35.425149630227679 0 35.425149630227679 157.38683155796753 0 0 0 0 2.6903502508243946 -136.00370408025628 0 -136.00370408025628 578.50771207092475 0 0 0 0 98.685227459203816 143.22134437938439 0 143.22134437938439 388.66080225435508 0 0 0 0 8.376817784503146 18.785695778700756 0 18.785695778700756 437.3387422154683 0 0 0 0 -5.3513670557586011 100.95462801117537 0 100.95462801117537 249.97746642633138 0 0 0 0 18.666609219380007 85.620498181815492 0 85.620498181815492 251.08409197011497 0 0 0 0 32.66313073155743 39.333941501350637 0 39.333941501350637 123.44085346728752 0 0 0 0 88.781533696657789 70.408627779204835 0 70.408627779204835 128.2639540713426 0 0 0 0 -25.445484543421117 178.92775154537958 0 178.92775154537958 91.90135083066707 0 0 0 0 33.320147710335732 90.235489855025662 0 90.235489855025662 142.10528907570915 0 0 0 0 -56.677247550371249 177.71982833080983 0 177.71982833080983 274.62997167323192 0 0 0 0 -0.39000994999376104 0.008114261194513972 0 0.008114261194513972 0.018922467468044601 0 0 0 0 237.52424753596006 -64.918932699372817 0 -64.918932699372817 -195.77073240446953 0 0 0 0 -6.3170438205324899 71.906504967209912 0 71.906504967209912 195.62813045309485 0 0 0 0 -164.69945616591212 77.294025595674611 0 77.294025595674611 202.20536972693299 0 0 0 0 172.86779636221286 268.96571194915214 0 268.96571194915214 372.04449486828526 0 0 0 0 -81.18740561166851 57.018921794140624 0 57.018921794140624 566.90341312623423 0 0 0 0 -81.558806415698655 49.006737995649019 0 49.006737995649019 394.46420813690474 0 0 0 0 -31.04442565173008 67.109076569061472 0 67.109076569061472 400.53158256779716 0 0 0 0 6.6946976346955864 -4.5418597255411797 0 -4.5418597255411797 3.0505915917644444 0 0 0 0 -48.573771856493295 -50.274532385839848 0 -50.274532385839848 -45.239946151006734 0 0 0 0 -18.421664708465869 28.412172174104853 0 28.412172174104853 312.04356359424128 0 0 0 0 103.17758754093165 -112.1814866915829 0 -112.1814866915829 115.80666279538127 0 0 0 0 -0.014923500668918677 -1.423015264936371 0 -1.423015264936371 6.020655653808106 0 0 0 0 -4.4399993229853862 -56.62926552252793 0 -56.62926552252793 19.76951642066706 0 0 0 0 9.7466333760297488 -9.1332997369446005 0 -9.1332997369446005 7.1207871761761226 0 0 0 0 2.7731184923832188 -36.80458974953217 0 -36.80458974953217 -1.1225986167009978 0 0 0 0 9.6287066194381623 -17.147749896263122 0 -17.147749896263122 7.1807590432617872 0 0 0 0 -15.370057526352245 -20.263338893711882 0 -20.263338893711882 11.907283713939776 0 0 0 0 -3.210478461065577 -23.679433307755971 0 -23.679433307755971 -29.819192760907754 0 0 0 0 -2.3559521705790303 -56.417395970966027 0 -56.417395970966027 -12.904692451353185 0 0 0 0 -168.80998724168921 -122.44861579918506 0 -122.44861579918506 -32.306316737116504 0 0 0 0 -50.310191277485501 -36.542148359592829 0 -36.542148359592829 28.242547107593055 0 0 0 0 -105.87861220300147 19.053780405956786 0 19.053780405956786 111.82707947997915 0 0 0 0 -18.418957797174606 2.2231056445025033 0 2.2231056445025033 79.601211079407491 0 0 0 0 -363.5682729093628 -133.57245245831382 0 -133.57245245831382 -110.01574668756803 0 0 0 0 -15.474914387126773 -73.126033218726661 0 -73.126033218726661 -114.77125976912794 0 0 0 0 169.35124197979803 -26.158129057541373 0 -26.158129057541373 -105.14835525061062 0 0 0 0 -0.3979117070003797 0.41198751244790799 0 0.41198751244790799 -0.52758083209685935 0 0 0 0 49.847096258726879 31.711250555475999 0 31.711250555475999 -71.574703021862661 0 0 0 0 -25.237377905031281 35.599623554306163 0 35.599623554306163 -54.420098983347998 0 0 0 0 23.15529318671247 42.05578781884833 0 42.05578781884833 -60.882737124113191 0 0 0 0 -6.0881920155071612 -86.112320835869468 0 -86.112320835869468 -67.645197899706545 0 0 0 0 -1.7893645878386786 2.2676170292638034 0 2.2676170292638034 3.5435689413274218 0 0 0 0 -45.166217678856128 -169.02144350939489 0 -169.02144350939489 -99.284641232166905 0 0 0 0 100.96178259833761 -149.68719959225564 0 -149.68719959225564 -131.97017385537038 0 0 0 0 52.76355851355936 -18.007033452391624 0 -18.007033452391624 -175.22296707887654 0 0 0 0 -3.1544743519022047 -3.6548087309446302 0 -3.6548087309446302 2.0767101990993808 0 0 0 0 -243.68438469322155 -102.78567090052093 0 -102.78567090052093 -53.538985434395727 0 0 0 0 0.61553266264624673 126.86321791862065 0 126.86321791862065 699.37123027582129 0 0 0 0 -159.50911518168724 564.23283150006318 0 564.23283150006318 2490.9172682679346 0 0 0 0 532.45875209237158 480.87880290920475 0 480.87880290920475 -48.075331432628445 0 0 0 0 345.63448831587135 869.86071510888723 0 869.86071510888723 1026.7285717383056 0 0 0 0 -129.53884480662924 -318.82195644407875 0 -318.82195644407875 473.07666989673453 0 0 0 0 77.629846026993334 -169.10600132946274 0 -169.10600132946274 375.38479571930657 0 0 0 0 -2.8531650835059423 4.7311852505679468 0 4.7311852505679468 28.615011782632337 0 0 0 0 -19.021835963577757 -114.6309525751858 0 -114.6309525751858 764.77101160461848 0 0 0 0 225.08350988075603 -1206.5479436216046 0 -1206.5479436216046 2494.6204763290662 0 0 0 0 1.9223968317402134 3.0846043799171028 0 3.0846043799171028 11.287236465809457 0 0 0 0 -145.93990922154683 -330.2319293510327 0 -330.2319293510327 1464.933746378425 0 0 0 0 -164.92519701340356 -193.66029881185386 0 -193.66029881185386 763.35358623098728 0 0 0 0 43.445202238488974 -50.541037517763471 0 -50.541037517763471 290.83106103008322 0 0 0 0 -13.978233445616773 -3.3216662344839705 0 -3.3216662344839705 15.250701949008985 0 0 0 0 55.256673003379092 23.319332100370957 0 23.319332100370957 44.249261385251884 0 0 0 0 -250.05827038051791 -83.953881190071115 0 -83.953881190071115 18.592495961638633 0 0 0 0 -6.5393546832651737 -25.025297440079157 0 -25.025297440079157 31.196562222565262 0 0 0 0 -10.67344860353591 -3.3790346093995396 0 -3.3790346093995396 22.872927596181881 0 0 0 0 -56.394269885671292 8.1199790325335925 0 8.1199790325335925 41.660920672133216 0 0 0 0 -47.76508670085866 72.240863009870736 0 72.240863009870736 -38.410406903843977 0 0 0 0 -45.538323261092955 -27.99318751877945 0 -27.99318751877945 49.842742641863879 0 0 0 0 -5.3398797006257155 9.2543971644026897 0 9.2543971644026897 18.257944544689963 0 0 0 0 0.42496696011298818 7.2155317926808138 0 7.2155317926808138 23.023037495816908 0 0 0 0 4.2541094081469737 -23.586622596078087 0 -23.586622596078087 22.413309445953928 0 0 0 0 -1.3906716526628315 13.3826048846513 0 13.3826048846513 48.188794039160712 0 0 0 0 122.27710621695633 4.507214322402433 0 4.507214322402433 -10.905287133602542 0 0 0 0 -0.17006098944640868 7.1550817421006272 0 7.1550817421006272 20.881137594402389 0 0 0 0 119.9838030137239 62.384997699755331 0 62.384997699755331 43.352703712967923 0 0 0 0 144.93517497667131 68.523905939557153 0 68.523905939557153 23.579329255291668 0 0 0 0 101.20669028066982 132.94589313732649 0 132.94589313732649 84.963862203003373 0 0 0 0 77.236919678672621 86.703785709431031 0 86.703785709431031 92.413339195700246 0 0 0 0 58.212346310579051 125.4926605661185 0 125.4926605661185 18.517689345186227 0 0 0 0 56.259667873662238 51.736914045170124 0 51.736914045170124 48.861549519784603 0 0 0 0 -381.47255460721112 124.36154879859532 0 124.36154879859532 2499.9830777714196 0 0 0 0 104.24581439098816 23.821710207934302 0 23.821710207934302 1171.0227567365218 0 0 0 0 -84.608531575345012 285.42986375124747 0 285.42986375124747 993.58877664566535 0 0 0 0 -6.7240423531823099 -8.4823723287256598 0 -8.4823723287256598 10.518083098132436 0 0 0 0 87.556575757729675 683.59610173705369 0 683.59610173705369 1728.8194349307523 0 0 0 0 24.051535665268602 132.85120856688445 0 132.85120856688445 103.23955665590984 0 0 0 0 29.677525005657621 172.19296644828228 0 172.19296644828228 97.828831784063368 0 0 0 0 -58.297742967591375 365.47703590949823 0 365.47703590949823 288.44895071495921 0 0 0 0 58.467867516394563 207.82249802962906 0 207.82249802962906 16.423142427811399 0 0 0 0 48.500707869808821 193.92802418534848 0 193.92802418534848 7.6196181642171723 0 0 0 0 13.279989128314128 307.70273924019421 0 307.70273924019421 -281.71037926299687 0 0 0 0 -54.555645659104414 495.32973719397523 0 495.32973719397523 -186.38152844550496 0 0 0 0 -57.473361088218553 482.98286119002296 0 482.98286119002296 -36.118520055259069 0 0 0 0 0.1041492621025778 -8.2930885630700857 0 -8.2930885630700857 11.045886755753784 0 0 0 0 103.15949035046086 615.65840995808685 0 615.65840995808685 1920.6488168297801 0 0 0 0 793.25520158961081 -365.12794624234084 0 -365.12794624234084 660.02913832786726 0 0 0 0 375.85839025490912 1032.5879113143674 0 1032.5879113143674 2499.2623121983729 0 0 0 0 319.99749407068146 -404.29743935696638 0 -404.29743935696638 795.67704860954109 0 0 0 0 2.4051921096933544 -2.8658112803982192 0 -2.8658112803982192 6.1689958370003524 0 0 0 0 119.14576363435299 418.40124971564364 0 418.40124971564364 -582.45422381348908 0 0 0 0 -1072.9414781968821 375.5317364664952 0 375.5317364664952 2158.337447925398 0 0 0 0 6.4318347833135716 4.6107220900157557 0 4.6107220900157557 2.9655692882825093 0 0 0 0 -59.95335189925629 158.00985168771876 0 158.00985168771876 33.748875001030683 0 0 0 0 -33.023222531158297 19.59129351496108 0 19.59129351496108 -386.64581101271324 0 0 0 0 14.404701983296945 121.77392511105791 0 121.77392511105791 45.094831539252482 0 0 0 0 16.305827841991913 97.112466508726357 0 97.112466508726357 -106.01160759308914 0 0 0 0 98.206185102985955 117.71934071968644 0 117.71934071968644 42.259678718649411 0 0 0 0 -20.713506248751372 153.66184527041696 0 153.66184527041696 207.32155328527733 0 0 0 0 -24.472826914831103 117.62456591734735 0 117.62456591734735 41.575933067651022 0 0 0 0 -150.28218846173081 224.57183836083277 0 224.57183836083277 414.98955009899328 0 0 0 0 61.411063326797375 247.9012240554257 0 247.9012240554257 230.28449444390026 0 0 0 0 -131.74680970825716 302.64184942562133 0 302.64184942562133 271.5488375474597 0 0 0 0 67.727483381773368 276.10011434878106 0 276.10011434878106 248.93926721904427 0 0 0 0 -222.20476517308362 117.3929862454097 0 117.3929862454097 178.78417815572175 0 0 0 0 -125.95327202808687 229.58728102816531 0 229.58728102816531 257.72220753560396 0 0 0 0 -232.58448501030307 99.377703997799472 0 99.377703997799472 254.89828274676984 0 0 0 0 -166.42358760494744 28.717111354075314 0 28.717111354075314 328.83599122402666 0 0 0 0 -320.97042675444982 -34.043938344031631 0 -34.043938344031631 297.49519985850566 0 0 0 0 -138.33061975276809 157.84746883144453 0 157.84746883144453 417.35871273858356 0 0 0 0 -75.741845535096672 -63.520223444065778 0 -63.520223444065778 431.66831933992353 0 0 0 0 8.9807410393824796 40.005206586429267 0 40.005206586429267 508.79077107160083 0 0 0 0 -122.3480594953279 202.12245030489794 0 202.12245030489794 375.83469966259145 0 0 0 0 21.253680868187786 314.85379319204003 0 314.85379319204003 463.22741336008039 0 0 0 0 181.63313086237804 279.69780993789027 0 279.69780993789027 347.23470258989255 0 0 0 0 110.96904175541152 158.3992453686169 0 158.3992453686169 427.64034456398804 0 0 0 0 445.39679951794756 126.1253944614873 0 126.1253944614873 677.25366207719344 0 0 0 0 143.49847591344485 13.357482456191065 0 13.357482456191065 875.37669303102302 0 0 0 0 515.07468874010738 417.21122632256629 0 417.21122632256629 1105.5242642990343 0 0 0 0 2.2571835062083849 2.9647616855511956 0 2.9647616855511956 3.1861933101799025 0 0 0 0 268.32930723706011 475.69662674042775 0 475.69662674042775 790.33999756712001 0 0 0 0 320.07471260738589 56.875746373376387 0 56.875746373376387 1.5496133507986087 0 0 0 0 897.70402640563248 294.36002203651879 0 294.36002203651879 94.040610755568196 0 0 0 0 68.295878092040908 285.80117878945748 0 285.80117878945748 368.01222510624939 0 0 0 0 278.78725122860396 378.16986980401998 0 378.16986980401998 251.54530132607033 0 0 0 0 445.95990118222335 227.36687243488268 0 227.36687243488268 34.088294747052714 0 0 0 0 61.245253981888588 235.99818837235711 0 235.99818837235711 158.63987533240288 0 0 0 0 227.54533475229573 193.04641261171855 0 193.04641261171855 88.070370093606471 0 0 0 0 138.80764830511725 39.58814068346328 0 39.58814068346328 59.509535188903101 0 0 0 0 241.43595377837391 82.920861358863476 0 82.920861358863476 22.183429679393157 0 0 0 0 192.3507595781889 157.57492721428571 0 157.57492721428571 60.786513651983114 0 0 0 0 3.967468529229115 6.857675461367446 0 6.857675461367446 10.773305588491837 0 0 0 0 58.531422382950495 -14.62737133317205 0 -14.62737133317205 -12.050795467108401 0 0 0 0 124.36086453969756 62.574728443298227 0 62.574728443298227 36.717930033279117 0 0 0 0 -53.591944242021867 9.6503148119736579 0 9.6503148119736579 -37.942377496874542 0 0 0 0 2.0535307897398116 6.4479278632333461 0 6.4479278632333461 18.933650157605769 0 0 0 0 -209.70137279586584 174.94103090399767 0 174.94103090399767 78.257184251022409 0 0 0 0 43.342663623188059 120.48630430005142 0 120.48630430005142 -103.08178436801245 0 0 0 0 -132.95633735389038 -10.659071543237587 0 -10.659071543237587 85.601032904422027 0 0 0 0 7.1217990037670234 -329.50343754336063 0 -329.50343754336063 917.11224274248525 0 0 0 0 160.21803470051236 -54.786907527384756 0 -54.786907527384756 -46.526500484571443 0 0 0 0 409.02444887238448 651.52733483736301 0 651.52733483736301 732.55166461291083 0 0 0 0 0.82083486905951686 2.4184325655348218 0 2.4184325655348218 8.5940948813155842 0 0 0 0 -64.820262720278834 157.01189581460494 0 157.01189581460494 1581.8277460182071 0 0 0 0 489.0738254456146 -196.20860606105271 0 -196.20860606105271 1025.0823186206708 0 0 0 0 -107.36928190265871 -49.855449465569109 0 -49.855449465569109 943.40060186111077 0 0 0 0 -168.64019724789341 -21.303730312538391 0 -21.303730312538391 1020.6313625164912 0 0 0 0 -87.92075426999952 -52.609429907359299 0 -52.609429907359299 940.40493973866251 0 0 0 0 76.999830134330608 -337.66856435665795 0 -337.66856435665795 224.7090895743313 0 0 0 0 107.13628797408794 -82.112090850267123 0 -82.112090850267123 293.77133881636837 0 0 0 0 -65.865029823461413 -142.39673928935554 0 -142.39673928935554 599.18677304888843 0 0 0 0 28.799993295273794 16.030285969121906 0 16.030285969121906 425.74012369383126 0 0 0 0 97.411315315685243 144.23473949730032 0 144.23473949730032 912.06593290739693 0 0 0 0 -166.36015984347375 24.384614210539439 0 24.384614210539439 1148.7699982052363 0 0 0 0 186.90049320621759 -141.77501261989892 0 -141.77501261989892 653.8971938212635 0 0 0 0 -0.7270140256534533 -65.326012950579752 0 -65.326012950579752 1043.8173211631001 0 0 0 0 -24.831664178781821 -64.666130320903903 0 -64.666130320903903 642.98610707897933 0 0 0 0 0.35027195558304663 31.099141628634243 0 31.099141628634243 375.93349502178899 0 0 0 0 43.269136313761571 63.274955355151178 0 63.274955355151178 181.6112070677882 0 0 0 0 38.755142808633956 -47.064828503152967 0 -47.064828503152967 205.98448374425061 0 0 0 0 63.328724345113812 99.658977830273216 0 99.658977830273216 8.2401212253425911 0 0 0 0 54.47874457326116 -15.987163917440512 0 -15.987163917440512 8.1360525993222836 0 0 0 0 59.234411750443627 -85.658470572976057 0 -85.658470572976057 175.7185497215396 0 0 0 0 24.756254023764669 51.774799021852232 0 51.774799021852232 -25.517935941999895 0 0 0 0 -10.065467863610934 80.467076318331237 0 80.467076318331237 -48.363565774954623 0 0 0 0 60.001369230405658 10.473308104679745 0 10.473308104679745 -201.27296706285415 0 0 0 0 -0.082649066549845815 66.573503515732384 0 66.573503515732384 22.832133667296148 0 0 0 0 0.018236680124743269 0.75189989266800694 0 0.75189989266800694 9.2634995683547459 0 0 0 0 15.302691913788863 -1.203900777058152 0 -1.203900777058152 -5.6099766775951139 0 0 0 0 -0.58277433640595144 -0.304521897634487 0 -0.304521897634487 2.3129808142923878 0 0 0 0 -11.758041089479036 -15.238038069163963 0 -15.238038069163963 9.7667288203665521 0 0 0 0 -0.24688827587670442 0.75158707353569909 0 0.75158707353569909 9.4339925650668874 0 0 0 0 0.20359387110213112 0.68889068859061808 0 0.68889068859061808 8.8985626017747563 0 0 0 0 -0.0063585651741929171 0.9596290749614127 0 0.9596290749614127 8.6073762447049376 0 0 0 0 -0.35473014265906733 -0.90699951436288018 0 -0.90699951436288018 1.4781136001734865 0 0 0 0 -0.3669650559492213 -0.23190223836278712 0 -0.23190223836278712 5.1180446172364782 0 0 0 0 85.662690914194016 262.48995898266276 0 262.48995898266276 806.56733366225671 0 0 0 0 -92.158297781674889 -330.66401109882213 0 -330.66401109882213 443.79641251909197 0 0 0 0 -154.43534516778277 -120.72993349062745 0 -120.72993349062745 1081.4654437810241 0 0 0 0 -39.842815112956032 274.74335216845793 0 274.74335216845793 -33.657160964264222 0 0 0 0 173.89732912019997 -44.867795311220107 0 -44.867795311220107 -113.42566160352726 0 0 0 0 -19.257182562490357 -39.938224136618373 0 -39.938224136618373 98.446564775200386 0 0 0 0 330.73629854475337 -24.204579226399801 0 -24.204579226399801 93.421996755612781 0 0 0 0 12.754203455644756 -0.16740127802040661 0 -0.16740127802040661 408.40317474624317 0 0 0 0 28.221796467131753 -123.85167191961955 0 -123.85167191961955 379.83572440757234 0 0 0 0 183.96100426978848 187.32303536193649 0 187.32303536193649 907.71370293454675 0 0 0 0 870.56037900177478 330.05362979357596 0 330.05362979357596 698.99740853028197 0 0 0 0 319.80024416098712 -61.436036815087391 0 -61.436036815087391 432.7323926171739 0 0 0 0 495.07738093130791 -24.047453547547775 0 -24.047453547547775 65.894239612229285 0 0 0 0 286.72583113316023 45.783936594663828 0 45.783936594663828 370.87754074197801 0 0 0 0 290.70977177498355 -69.7752331457541 0 -69.7752331457541 57.897680090973154 0 0 0 0 311.39327407769588 -61.160921524158766 0 -61.160921524158766 -114.09970676958619 0 0 0 0 247.26206984261805 56.149513873740943 0 56.149513873740943 -112.69446022317732 0 0 0 0 0.82075973601029006 0.64310197861361473 0 0.64310197861361473 0.02474407842794335 0 0 0 0 12.265120179121254 7.2709532158150978 0 7.2709532158150978 56.70636631907837 0 0 0 0 276.87692965769821 -25.881393140317414 0 -25.881393140317414 -14.529525660822401 0 0 0 0 215.68856082795716 -48.264989569310274 0 -48.264989569310274 28.789157404451544 0 0 0 0 214.3522035146035 -103.3015362042479 0 -103.3015362042479 3.600695934946998 0 0 0 0 158.06700655929299 -129.75473265425535 0 -129.75473265425535 -6.7920538259022578 0 0 0 0 97.824095870144561 -176.06593975135911 0 -176.06593975135911 29.986092375537737 0 0 0 0 281.16384617324763 -157.19616934564692 0 -157.19616934564692 3.8451575692306506 0 0 0 0 333.24357266463795 -45.006299564938672 0 -45.006299564938672 -48.285870855790563 0 0 0 0 235.03683054185149 -88.858461340158101 0 -88.858461340158101 112.11674633195798 0 0 0 0 374.59398440747572 -219.46720269580237 0 -219.46720269580237 226.880605999213 0 0 0 0 285.30657977180164 -0.76300509335487732 0 -0.76300509335487732 389.4701697456112 0 0 0 0 519.63659675524354 -118.34322825861454 0 -118.34322825861454 446.67719709969242 0 0 0 0 149.99844682138735 -155.69751030327097 0 -155.69751030327097 563.2630254980304 0 0 0 0 115.11244717476535 -45.176562072520028 0 -45.176562072520028 217.22017326833156 0 0 0 0 243.44474175924017 -101.17262815858248 0 -101.17262815858248 9.9243842454161495 0 0 0 0 100.49579015274151 -198.41895171464421 0 -198.41895171464421 81.095336264053913 0 0 0 0 -22.992107918308307 6.2467341380688595 0 6.2467341380688595 207.30708114391746 0 0 0 0 -149.60880129101474 63.222249308117171 0 63.222249308117171 235.97608885478985 0 0 0 0 -134.81345718815692 -101.792059381125 0 -101.792059381125 217.32937880615646 0 0 0 0 -426.35930226925166 -90.705822283911402 0 -90.705822283911402 222.71673461642058 0 0 0 0 -462.26632119253054 42.214585712768894 0 42.214585712768894 60.794267921693972 0 0 0 0 -227.39883781194976 26.801143302225682 0 26.801143302225682 52.838996475475142 0 0 0 0 -93.379261149157514 -124.40591093379953 0 -124.40591093379953 -232.40022517628677 0 0 0 0 -534.91642428972659 -212.94587200719252 0 -212.94587200719252 27.187819017795846 0 0 0 0 96.733302627638011 -164.23458654496426 0 -164.23458654496426 -65.074187314676237 0 0 0 0 -93.727212172962382 -100.84142906947272 0 -100.84142906947272 58.944005637255032 0 0 0 0 -134.33042693952723 -184.89201129723733 0 -184.89201129723733 67.200993226764695 0 0 0 0 -103.75979041908693 -120.72927798320234 0 -120.72927798320234 43.867230102405301 0 0 0 0 -51.378744644992935 -164.79069705093934 0 -164.79069705093934 119.80502109306326 0 0 0 0 37.595059054723038 -134.14701059929939 0 -134.14701059929939 79.474737725009618 0 0 0 0 -8.3934319696534772 -115.92696390396304 0 -115.92696390396304 173.9018103333583 0 0 0 0 -92.795895348211275 -62.17464369888603 0 -62.17464369888603 161.9755188553172 0 0 0 0 -38.949675006245315 -59.8942303847316 0 -59.8942303847316 265.94001103820483 0 0 0 0 -16.811511251626598 -23.43487141233345 0 -23.43487141233345 309.40339953577313 0 0 0 0 -52.706204267641908 -98.59277072653731 0 -98.59277072653731 276.1545670494088 0 0 0 0 27.276700406603936 -77.149626494043332 0 -77.149626494043332 184.74303005790716 0 0 0 0 32.131517100533756 -64.865551192604471 0 -64.865551192604471 197.07856621732935 0 0 0 0 -19.451311506177603 -29.46522654713408 0 -29.46522654713408 318.49472294763109 0 0 0 0 27.437317956843373 -2.2956746654344897 0 -2.2956746654344897 235.36845185357743 0 0 0 0 28.32671882543741 12.882104254254955 0 12.882104254254955 200.43472280663264 0 0 0 0 102.76847053712801 -41.926974676716782 0 -41.926974676716782 116.59785774888587 0 0 0 0 114.68276919215572 -76.381362788328261 0 -76.381362788328261 99.366457561889547 0 0 0 0 34.557820616919884 -139.67550413545359 0 -139.67550413545359 71.561601873851032 0 0 0 0 85.703671559898652 -111.47204879053606 0 -111.47204879053606 82.711602466355544 0 0 0 0 144.27919600322008 -56.454509820101521 0 -56.454509820101521 28.438834260989097 0 0 0 0 186.99304808232168 -15.89775498378367 0 -15.89775498378367 62.954403949646803 0 0 0 0 141.67210565636441 70.381038467519829 0 70.381038467519829 21.443684148180182 0 0 0 0 97.878859533354046 67.493086851121916 0 67.493086851121916 54.1087936940894 0 0 0 0 55.683230000406382 7.7905121932708425 0 7.7905121932708425 50.02859866184258 0 0 0 0 111.14065855561925 -18.080395482292715 0 -18.080395482292715 74.687301249687152 0 0 0 0 107.06183541701247 60.982740730898513 0 60.982740730898513 145.39244199011591 0 0 0 0 38.604164191412565 72.644753707573273 0 72.644753707573273 309.44584027483506 0 0 0 0 39.803832584081391 184.06651538793813 0 184.06651538793813 364.46364065520174 0 0 0 0 39.756258053349896 70.537360155299211 0 70.537360155299211 256.1002862292662 0 0 0 0 111.2735153423432 129.83566949365195 0 129.83566949365195 162.06939421164134 0 0 0 0 102.38647209668525 46.24041410630889 0 46.24041410630889 100.80433435960731 0 0 0 0 103.92841220499319 59.26989263239966 0 59.26989263239966 51.347453969421622 0 0 0 0 22.889838901031908 8.585392694309121 0 8.585392694309121 67.604006620755172 0 0 0 0 210.73449277464715 309.39050386742667 0 309.39050386742667 447.08180507327779 0 0 0 0 132.40204562578887 161.53454453751328 0 161.53454453751328 168.18143835597584 0 0 0 0 -137.15190768336691 -34.786832371322816 0 -34.786832371322816 277.89121359775891 0 0 0 0 0.022824462372197825 0.67747238894164052 0 0.67747238894164052 3.1889254890991481 0 0 0 0 0.085420154428230338 40.443184296578693 0 40.443184296578693 -64.414025643280183 0 0 0 0 -39.088975693919963 38.116667210924788 0 38.116667210924788 -27.250745826910133 0 0 0 0 -0.095690858575167057 1.0704294467471067 0 1.0704294467471067 7.3719345644972805 0 0 0 0 -22.419141631284162 36.500565770336834 0 36.500565770336834 70.51865726745018 0 0 0 0 53.945285081407235 20.52923165732318 0 20.52923165732318 -35.105965602619108 0 0 0 0 -49.348427324441786 -14.911690159617137 0 -14.911690159617137 48.257159156644775 0 0 0 0 -0.06849887696728188 1.0456994313012193 0 1.0456994313012193 7.8950686127209337 0 0 0 0 -0.066624927516878263 0.85781743941458544 0 0.85781743941458544 8.8048359312008984 0 0 0 0 -0.22366064114241635 1.267215939671587 0 1.267215939671587 8.5475336823365069 0 0 0 0 21.832049887394305 20.646304701680492 0 20.646304701680492 41.778080306765332 0 0 0 0 13.456726465147085 14.83639247017345 0 14.83639247017345 38.247757311393798 0 0 0 0 9.3560041532925879 20.99008377312839 0 20.99008377312839 29.158252124332648 0 0 0 0 6.0703638995860274 23.339402146517386 0 23.339402146517386 38.434996648388733 0 0 0 0 9.0603953355762314 18.663818916458695 0 18.663818916458695 36.787075245920278 0 0 0 0 11.84165245501913 21.970143851161993 0 21.970143851161993 38.468104890122049 0 0 0 0 12.705854932671627 22.111825611103995 0 22.111825611103995 37.915707701414249 0 0 0 0 19.561508172784215 19.451815857508336 0 19.451815857508336 37.346630507214286 0 0 0 0 33.584091873058924 19.178173135944235 0 19.178173135944235 39.095112881569548 0 0 0 0 -1.4107907055817357 3.1345979684950862 0 3.1345979684950862 5.0867106989466215 0 0 0 0 21.006205509411529 13.704813393394943 0 13.704813393394943 40.581304970837664 0 0 0 0 40.115132406504699 16.596395152812391 0 16.596395152812391 9.2945264173851569 0 0 0 0 32.776778503170135 37.991524885208491 0 37.991524885208491 18.381186436981807 0 0 0 0 21.254838168794322 48.186861556347139 0 48.186861556347139 72.147960127891565 0 0 0 0 20.328410537714262 31.630066619802164 0 31.630066619802164 38.555603448461625 0 0 0 0 3.0804845887771597 17.798214361419646 0 17.798214361419646 35.42669354026512 0 0 0 0 33.750116807214226 18.679083442695628 0 18.679083442695628 35.785771177223069 0 0 0 0 -77.644556431935598 96.333380117299384 0 96.333380117299384 360.8306345921701 0 0 0 0 -5.6558612171554614 51.881216205131523 0 51.881216205131523 290.54240493771067 0 0 0 0 5.0846984566157909 6.8198656035013627 0 6.8198656035013627 0.25057205452776543 0 0 0 0 110.79362180382395 118.01389313759864 0 118.01389313759864 138.17899218461753 0 0 0 0 -1.1008213868734629 3.1056722455506147 0 3.1056722455506147 6.2323433187465582 0 0 0 0 17.598321568157189 -5.1562907051120419 0 -5.1562907051120419 55.470470433336232 0 0 0 0 -96.164484538833676 103.47780707986385 0 103.47780707986385 193.70307623498957 0 0 0 0 -228.7304875171294 -139.06570116916555 0 -139.06570116916555 90.471399414163898 0 0 0 0 2.1644056318532172 2.4966449229747951 0 2.4966449229747951 0.19691394877058332 0 0 0 0 197.60083509632886 78.075880412941842 0 78.075880412941842 -204.14588330852348 0 0 0 0 -0.56594080050246021 1.3595965135032486 0 1.3595965135032486 -0.39777978283522941 0 0 0 0 -121.19837137932882 36.184270834281051 0 36.184270834281051 -6.681332079537242 0 0 0 0 1.8215154191165794 3.0893994312332964 0 3.0893994312332964 -1.9573541316018113 0 0 0 0 126.74342610998883 -25.888118545113684 0 -25.888118545113684 -129.99463471013951 0 0 0 0 81.576613614986854 72.281426841978828 0 72.281426841978828 -1.0781477299369726 0 0 0 0 6.1495858508610581 35.781836658725297 0 35.781836658725297 226.11543578841156 0 0 0 0 20.875796443612657 15.165096166032299 0 15.165096166032299 -0.15180649060909346 0 0 0 0 48.837038176206079 32.814141303621 0 32.814141303621 173.98337172322954 0 0 0 0 -4.6099869910785856 13.867676449286591 0 13.867676449286591 181.48315096446458 0 0 0 0 -26.652207208382606 83.937638070776302 0 83.937638070776302 237.63381880154338 0 0 0 0 -101.75357163573608 126.94447639142527 0 126.94447639142527 274.0221374237517 0 0 0 0 -0.35302959521023425 0.85341434191872878 0 0.85341434191872878 -0.13286506472741166 0 0 0 0 -36.576580780587392 7.2648315833757806 0 7.2648315833757806 -109.41616103284832 0 0 0 0 0.98573451203068529 7.9677059498606937 0 7.9677059498606937 19.380985552654209 0 0 0 0 126.68455922755675 136.33439613282098 0 136.33439613282098 106.9957978067614 0 0 0 0 12.806547905332991 57.874377983738668 0 57.874377983738668 285.31266237141972 0 0 0 0 11.855246722381708 102.17975602096703 0 102.17975602096703 -89.090807461259828 0 0 0 0 -133.70404464628825 44.197629275899999 0 44.197629275899999 160.52158596014488 0 0 0 0 -55.517554119066062 -6.8909105350467144 0 -6.8909105350467144 24.564537436104729 0 0 0 0 -24.931844326911666 -16.659515337764191 0 -16.659515337764191 105.68323304582808 0 0 0 0 -71.026823318388779 -8.5968886969312734 0 -8.5968886969312734 547.71709738844947 0 0 0 0 -32.96300173925313 -18.132061511700321 0 -18.132061511700321 42.253728549173104 0 0 0 0 -13.961286724803513 -14.177000511607005 0 -14.177000511607005 38.326329714658215 0 0 0 0 -15.155608141452831 3.3858748164275312 0 3.3858748164275312 90.978303649402733 0 0 0 0 -54.099027061403831 -31.203036838633125 0 -31.203036838633125 162.08000385926425 0 0 0 0 -51.457126129684184 -29.738274383060343 0 -29.738274383060343 117.16966820758535 0 0 0 0 -86.361181364909044 -17.295318543914618 0 -17.295318543914618 181.10406613173836 0 0 0 0 -8.9855678940766666 15.222163829039346 0 15.222163829039346 66.121019636129176 0 0 0 0 -10.148386545361063 8.9100010131078307 0 8.9100010131078307 46.705012815800728 0 0 0 0 -10.12754761125275 -0.010433198889039375 0 -0.010433198889039375 70.942830468060095 0 0 0 0 -12.173918514679777 -38.735862027791484 0 -38.735862027791484 193.49400709716429 0 0 0 0 -11.254498563782249 64.299752220739435 0 64.299752220739435 175.03033739692182 0 0 0 0 68.218190724436681 78.560897115792613 0 78.560897115792613 -21.320943387523585 0 0 0 0 10.72406815846565 15.018549500030682 0 15.018549500030682 -14.17313657614234 0 0 0 0 12.196665854900857 26.906937276369717 0 26.906937276369717 187.55478629391837 0 0 0 0 23.983379072769822 -20.216561158122204 0 -20.216561158122204 329.89249271374138 0 0 0 0 -5.7427815640648987 32.267567065704498 0 32.267567065704498 200.96210378729302 0 0 0 0 19.546976727056972 45.166151500263368 0 45.166151500263368 136.91763552741486 0 0 0 0 5.0199982599915529 77.836222330202872 0 77.836222330202872 173.48901864743675 0 0 0 0 -387.76425718323344 31.600512855977286 0 31.600512855977286 233.29906384009519 0 0 0 0 -378.76519628720843 -94.50166392886058 0 -94.50166392886058 207.3320867374423 0 0 0 0 -411.00314296819806 -46.210172919654724 0 -46.210172919654724 37.178077762102475 0 0 0 0 -399.63856964966544 -88.848168507007358 0 -88.848168507007358 212.88639591407264 0 0 0 0 -638.39175346767843 -79.33907910643029 0 -79.33907910643029 219.26332854722932 0 0 0 0 -267.33177064025767 -248.70584597701964 0 -248.70584597701964 -97.912419366839458 0 0 0 0 -53.710468262903305 11.763019302597968 0 11.763019302597968 145.97901423166877 0 0 0 0 -161.80682999706187 -280.97652730970003 0 -280.97652730970003 108.08460498900968 0 0 0 0 -228.14348858503763 -131.77573838045646 0 -131.77573838045646 184.29976048506796 0 0 0 0 -454.09113064180474 -147.66568338792422 0 -147.66568338792422 198.99424541878398 0 0 0 0 -119.52626263288403 -2.3204874763760017 0 -2.3204874763760017 108.5611179122061 0 0 0 0 -210.8118509555743 -136.22912518849625 0 -136.22912518849625 114.06534816749627 0 0 0 0 42.899553492134146 -91.868112707146793 0 -91.868112707146793 112.54981843910764 0 0 0 0 -78.016979413836452 -4.2964775578002445 0 -4.2964775578002445 212.82003001068369 0 0 0 0 -2.0211855540754531 -5.6888118348631309 0 -5.6888118348631309 4.4025251375624919 0 0 0 0 57.523714509041383 -125.75774025611463 0 -125.75774025611463 236.10483654070049 0 0 0 0 -207.3670332658985 -146.99699266211974 0 -146.99699266211974 -68.922088989769691 0 0 0 0 95.097316168663838 -49.295616661594977 0 -49.295616661594977 -66.455204221376334 0 0 0 0 -4.1867310468230805 9.4855312294439713 0 9.4855312294439713 45.156214395447165 0 0 0 0 -1.7079987567938577 -2.1816343298578005 0 -2.1816343298578005 7.8123317723944838 0 0 0 0 -262.92120085829993 65.296745958577958 0 65.296745958577958 183.70519170486659 0 0 0 0 -526.73677644461702 -176.66797791720455 0 -176.66797791720455 92.199246231088182 0 0 0 0 -563.07782967667345 -144.52273881487781 0 -144.52273881487781 97.404260961426189 0 0 0 0 -402.29820729244489 167.42348831047275 0 167.42348831047275 3.9713006064193905 0 0 0 0 -107.77945861900889 122.27484593563713 0 122.27484593563713 -105.60234743602632 0 0 0 0 -5.813894787851968 1.6497200349911623 0 1.6497200349911623 12.954596985545304 0 0 0 0 -130.22345398065318 150.02959245890088 0 150.02959245890088 -33.806512373077567 0 0 0 0 17.967317146067671 28.48726329638157 0 28.48726329638157 -36.470772319837124 0 0 0 0 -31.250959949524258 123.02104968903586 0 123.02104968903586 -77.187589359986305 0 0 0 0 11.701372378825454 77.391689640586264 0 77.391689640586264 -48.536088213557377 0 0 0 0 -18.722899947691076 109.67789682651346 0 109.67789682651346 -62.682435160269961 0 0 0 0 -48.858875480203437 89.088441046758817 0 89.088441046758817 -8.2416360306087881 0 0 0 0 -68.625558847355933 101.86152529643732 0 101.86152529643732 -13.84677048776939 0 0 0 0 -49.983657429358459 83.709203201484343 0 83.709203201484343 -18.040391526301391 0 0 0 0 -84.488974101935128 91.488707099568273 0 91.488707099568273 -0.95115448767319322 0 0 0 0 -53.879054110914694 67.47169055944687 0 67.47169055944687 15.188182294965372 0 0 0 0 -119.72723157558517 56.467126352450578 0 56.467126352450578 39.433517470009974 0 0 0 0 -165.30745783809874 74.454700075521032 0 74.454700075521032 30.697261504057678 0 0 0 0 -306.65963564460571 -34.750709993255441 0 -34.750709993255441 112.134147086741 0 0 0 0 -136.77692619976267 71.983802645219839 0 71.983802645219839 30.108665928710252 0 0 0 0 7.1929151198771244 15.465050618183348 0 15.465050618183348 5.1697400928228827 0 0 0 0 -1.2964488067691491 23.387573070445796 0 23.387573070445796 35.207331966630591 0 0 0 0 -29.304298192459107 99.529588351538223 0 99.529588351538223 6.479165664917673 0 0 0 0 6.3196814782017903 20.579217129047457 0 20.579217129047457 37.010558539370521 0 0 0 0 6.3918204990750382 38.187919153395342 0 38.187919153395342 19.514278671898865 0 0 0 0 8.170839884488899 40.75484362471704 0 40.75484362471704 23.231680830242645 0 0 0 0 -17.420692211358983 30.11169049765158 0 30.11169049765158 45.716952406612108 0 0 0 0 -2.1548201935347606 25.05410837920499 0 25.05410837920499 34.764348922399222 0 0 0 0 -14.231490998852678 21.158426349866204 0 21.158426349866204 32.87666894405811 0 0 0 0 -12.014044844169641 17.027844271648945 0 17.027844271648945 79.961643018295348 0 0 0 0 -13.348675256364913 38.873124057070527 0 38.873124057070527 64.103293172258418 0 0 0 0 2.977519775406785 29.807725913869547 0 29.807725913869547 23.592422445149111 0 0 0 0 2.8604780153546017 8.2861590055690613 0 8.2861590055690613 80.587057851065765 0 0 0 0 102.45837443265691 -89.501553701440571 0 -89.501553701440571 114.06740909692599 0 0 0 0 -9.1786796930038186 16.097730569387888 0 16.097730569387888 39.142972227618884 0 0 0 0 -6.9702203197853123 79.106282418186311 0 79.106282418186311 -25.689262950589182 0 0 0 0 23.77014543952464 -6.8764775233430555 0 -6.8764775233430555 61.679850607004482 0 0 0 0 -7.3663256795186953 64.696957589992962 0 64.696957589992962 20.552132041106233 0 0 0 0 14.372230043763921 53.459064357452007 0 53.459064357452007 1.8936740211502183 0 0 0 0 30.21494605202497 4.5645917801884934 0 4.5645917801884934 51.372996388319734 0 0 0 0 0.11432103884385469 29.918028233207224 0 29.918028233207224 43.225106862431858 0 0 0 0 -20.149031804267175 53.193193700818028 0 53.193193700818028 -18.173685222805943 0 0 0 0 100.49461303014141 42.062839649704983 0 42.062839649704983 -27.031294805576181 0 0 0 0 91.540023829248184 12.123036097305885 0 12.123036097305885 -12.140332157563535 0 0 0 0 -8.4034129230030317 63.602481619133869 0 63.602481619133869 -27.409489925805246 0 0 0 0 83.451379986492839 89.982236307580024 0 89.982236307580024 0.39427629223791882 0 0 0 0 5.0722416297456139 14.733524942141837 0 14.733524942141837 29.348001428153651 0 0 0 0 -18.856652593033687 76.539407963275153 0 76.539407963275153 -28.682188357866835 0 0 0 0 -6.2759041190721518 76.805461544296122 0 76.805461544296122 -29.744733180763433 0 0 0 0 -27.783782612937102 86.34279495436931 0 86.34279495436931 -33.743576168097206 0 0 0 0 -34.441048597320787 69.758005134804989 0 69.758005134804989 -8.8008482988807373 0 0 0 0 -39.42982949882844 48.306527619448389 0 48.306527619448389 -5.5838339372276096 0 0 0 0 -47.948614549286958 67.991280386122526 0 67.991280386122526 -8.7045135110238334 0 0 0 0 79.593372257269237 76.286491177315838 0 76.286491177315838 -44.388681810480193 0 0 0 0 -88.661554382730969 -16.740075285266357 0 -16.740075285266357 171.98912090549493 0 0 0 0 -133.3716410834719 171.373017881142 0 171.373017881142 61.238934747307212 0 0 0 0 212.58621604221909 38.088890911958515 0 38.088890911958515 -140.49573497492383 0 0 0 0 5.1912597711603121 16.765940637987022 0 16.765940637987022 41.550965167355145 0 0 0 0 -0.89343901499802514 -1.8854804169608315 0 -1.8854804169608315 5.5677937811896641 0 0 0 0 -58.309567930785477 48.772807965464381 0 48.772807965464381 27.714417824143311 0 0 0 0 -63.05103430006784 33.570503348557395 0 33.570503348557395 -12.418554178271734 0 0 0 0 -84.340768364611677 13.247667259616719 0 13.247667259616719 18.459938012463681 0 0 0 0 -80.330476324552706 22.898812523351808 0 22.898812523351808 38.267445503297495 0 0 0 0 -133.18013834035222 84.473424109864936 0 84.473424109864936 50.950087742356118 0 0 0 0 -9.6630370049915655 -50.327283415943384 0 -50.327283415943384 124.92017786223005 0 0 0 0 -17.893692303437547 81.788121084733575 0 81.788121084733575 -50.22336288781662 0 0 0 0 3.1803787195552569 7.314794866486551 0 7.314794866486551 17.432116116959151 0 0 0 0 -90.028024367418766 -86.607772148483491 0 -86.607772148483491 123.99996768543497 0 0 0 0 -151.35720067313196 27.596303955429903 0 27.596303955429903 81.943116425733024 0 0 0 0 -72.098184450856934 32.028107219877711 0 32.028107219877711 46.330605275383277 0 0 0 0 -66.099731386891335 59.76182855648949 0 59.76182855648949 12.531823303375859 0 0 0 0 -51.37272913893306 -53.476691186603603 0 -53.476691186603603 135.86759174847975 0 0 0 0 -59.671056396535505 34.889175292017171 0 34.889175292017171 44.978367293035262 0 0 0 0 -56.615592046677875 -34.633300118977786 0 -34.633300118977786 154.68180933394979 0 0 0 0 -62.291995224922857 -125.79138295490702 0 -125.79138295490702 216.61530415587185 0 0 0 0 -35.5106137137426 -43.359370761263563 0 -43.359370761263563 337.37892202385774 0 0 0 0 -34.418371115591185 -125.89298875939494 0 -125.89298875939494 279.62531067332748 0 0 0 0 -6.0938325963790589 -57.127079648651488 0 -57.127079648651488 115.31603653947241 0 0 0 0 -57.562863061075063 -119.45262790951892 0 -119.45262790951892 503.32399080612959 0 0 0 0 -67.532439002539377 -108.26715063947995 0 -108.26715063947995 359.98740029602777 0 0 0 0 -43.196308755385189 -2.123086777421122 0 -2.123086777421122 411.5918622725676 0 0 0 0 1.4043427028600144 2.3141647915159567 0 2.3141647915159567 5.6037469196536733 0 0 0 0 535.01682706490067 31.263695959425604 0 31.263695959425604 -101.60395514662378 0 0 0 0 54.0508368131228 -202.31523175512666 0 -202.31523175512666 482.32105501076876 0 0 0 0 -29.322625672534969 -163.9398932309341 0 -163.9398932309341 397.53677166105626 0 0 0 0 81.244020166012376 -153.76114830303413 0 -153.76114830303413 36.227613658746122 0 0 0 0 29.682864797293973 -41.895422130066436 0 -41.895422130066436 443.15548007823236 0 0 0 0 -67.719340026324772 -29.679046538161856 0 -29.679046538161856 765.12243041276088 0 0 0 0 -36.761848015910914 -81.454638512950623 0 -81.454638512950623 -111.80197448526815 0 0 0 0 -78.528075115855302 -199.18568190120277 0 -199.18568190120277 1171.0989707530389 0 0 0 0 325.52181727884113 -42.223359211424395 0 -42.223359211424395 -156.78204804327834 0 0 0 0 -437.91439275884125 164.54488756734645 0 164.54488756734645 554.18999026554229 0 0 0 0 0.8067214980819124 2.4203574696757642 0 2.4203574696757642 6.4627272779549401 0 0 0 0 0.17105771513860191 11.256247657705444 0 11.256247657705444 -164.89442274145404 0 0 0 0 -2.6971532327806074 6.9535639293899294 0 6.9535639293899294 8.6852837813639781 0 0 0 0 -408.8274753425992 388.15942301401083 0 388.15942301401083 496.84458140140487 0 0 0 0 1.7112261002754043 5.6643667776163653 0 5.6643667776163653 14.679440307538272 0 0 0 0 -11.876026854880365 -211.37084038007015 0 -211.37084038007015 -82.41945010094787 0 0 0 0 4.6400391463739918 9.9826227936355423 0 9.9826227936355423 12.125357581312215 0 0 0 0 2.15483112756118 10.787248303690632 0 10.787248303690632 23.167674305531264 0 0 0 0 -6.0638297058881108 17.746701049636613 0 17.746701049636613 6.1701434967826572 0 0 0 0 -216.87401652046424 220.98139076479856 0 220.98139076479856 54.402649140376525 0 0 0 0 8.1592832303049363 13.218921441537532 0 13.218921441537532 41.824603359345929 0 0 0 0 11.456626998972752 19.940940499222052 0 19.940940499222052 39.729416848913388 0 0 0 0 16.624314191540606 20.11194042013085 0 20.11194042013085 38.633359275831026 0 0 0 0 9.4740694629210793 20.016904953803532 0 20.016904953803532 40.373269546958909 0 0 0 0 59.823363090141356 -15.089109671098413 0 -15.089109671098413 -52.375894447077371 0 0 0 0 -1.5910872829322216 -55.660074953908406 0 -55.660074953908406 -49.397421572219173 0 0 0 0 5.5472772832737665 -1.9958639493527581 0 -1.9958639493527581 16.190907873683869 0 0 0 0 23.593564398935769 14.173049938974145 0 14.173049938974145 31.846220840747264 0 0 0 0 15.447517679491057 17.331136080953002 0 17.331136080953002 40.128257066560764 0 0 0 0 41.210559902254772 12.137152533072367 0 12.137152533072367 23.38589877319464 0 0 0 0 15.244977353547483 4.1664615144791242 0 4.1664615144791242 20.158524529200804 0 0 0 0 131.97705478878743 5.5123896587865602 0 5.5123896587865602 -77.912949060482788 0 0 0 0 133.35070737141996 -92.418074188062747 0 -92.418074188062747 -49.753075563054153 0 0 0 0 349.06922369208314 -493.02668450348574 0 -493.02668450348574 -394.54089222586481 0 0 0 0 -424.74087130301723 -226.14623235265935 0 -226.14623235265935 11.196128130210127 0 0 0 0 403.29856690923771 219.52874101521957 0 219.52874101521957 41.065153739109519 0 0 0 0 -1.3196836900365287 -1.7035518393055655 0 -1.7035518393055655 23.718254614216988 0 0 0 0 6.9971920011760176 0.44083592792594573 0 0.44083592792594573 24.33416006445259 0 0 0 0 2.3178319669777405 7.0720563112195123 0 7.0720563112195123 22.558611409948654 0 0 0 0 184.51302284579856 46.221558674573316 0 46.221558674573316 61.865295453797444 0 0 0 0 -6.5379490364088895 -7.0175218762261409 0 -7.0175218762261409 10.438796617650041 0 0 0 0 746.37528865355671 74.132656094108825 0 74.132656094108825 -419.12862514333392 0 0 0 0 -3464.7847556827692 -2335.8965124439273 0 -2335.8965124439273 -1705.4452893577691 0 0 0 0 972.13807670652386 12.381227356454474 0 12.381227356454474 -550.20432731639085 0 0 0 0 2932.7878797092999 1323.9388226700612 0 1323.9388226700612 -1570.7348054672848 0 0 0 0 195.84903455539279 165.79321431721473 0 165.79321431721473 4300.2809022074143 0 0 0 0 3020.2443766901406 2794.0391482157538 0 2794.0391482157538 1526.3564351039095 0 0 0 0 97.534843613363364 1840.411532351347 0 1840.411532351347 262.56001352969906 0 0 0 0 874.55689890761096 -1149.6259627123763 0 -1149.6259627123763 1855.6286344286127 0 0 0 0 1.9755915163111268 7.057370097825995 0 7.057370097825995 21.832950464979604 0 0 0 0 879.88763847254268 -733.07167065316571 0 -733.07167065316571 247.78973274756572 0 0 0 0 -1.7154531955130767 4.7482799316524318 0 4.7482799316524318 31.70859801373993 0 0 0 0 -124.789475283809 -572.51346081754673 0 -572.51346081754673 2262.5922953656845 0 0 0 0 -494.80159831268725 1560.4041870336514 0 1560.4041870336514 3067.6236451296863 0 0 0 0 439.87564560394185 -457.2833793014579 0 -457.2833793014579 697.29314232860634 0 0 0 0 -804.06538459031526 -827.20781678675121 0 -827.20781678675121 2179.708268910872 0 0 0 0 2150.4700171361696 -314.71336649101431 0 -314.71336649101431 -730.52806694490573 0 0 0 0 -6.4793896676615077 1.6352976283160388 0 1.6352976283160388 87.652001950977137 0 0 0 0 -5.8013037997090233 -1.7022256356095085 0 -1.7022256356095085 14.570567242924401 0 0 0 0 -1936.3568572273216 27.56537368059071 0 27.56537368059071 1404.9812719833972 0 0 0 0 98.523026335582927 -77.272482585879516 0 -77.272482585879516 230.33916777261038 0 0 0 0 -2.1141806022646676 12.385265470433609 0 12.385265470433609 58.423912322569748 0 0 0 0 -22.616832293970901 11.246429530316163 0 11.246429530316163 81.058352170468424 0 0 0 0 -6.091184879574131 -0.85863347176869098 0 -0.85863347176869098 79.143048861117961 0 0 0 0 -20.281186293731935 6.7762219293726957 0 6.7762219293726957 87.680634738484514 0 0 0 0 -16.173791147517477 5.5152571497674217 0 5.5152571497674217 86.115970943974389 0 0 0 0 -4.0151429141906192 12.160499710269505 0 12.160499710269505 78.412814510476892 0 0 0 0 -7.9199765751768609 5.619154357817024 0 5.619154357817024 83.80107026391488 0 0 0 0 -13.4426662785595 10.391278787574265 0 10.391278787574265 83.782961243094178 0 0 0 0 -17.97381792077249 3.3120310314043309 0 3.3120310314043309 85.406446074099222 0 0 0 0 -17.356173975457182 1.5922825924208155 0 1.5922825924208155 81.723312878486468 0 0 0 0 -28.415048864537766 -0.32919896252133185 0 -0.32919896252133185 91.224779675529135 0 0 0 0 -2.8830073394005922 12.117807660637482 0 12.117807660637482 90.25502408326247 0 0 0 0 -13.51734682053538 13.346405986691479 0 13.346405986691479 104.39552726819238 0 0 0 0 -13.347842669396869 14.446635897311353 0 14.446635897311353 85.907290197865223 0 0 0 0 -0.60689767829398988 10.271588980394881 0 10.271588980394881 79.258627761504613 0 0 0 0 -0.023885120474915311 11.457590632842766 0 11.457590632842766 65.809418463624752 0 0 0 0 -27.345425876177615 24.450123474329303 0 24.450123474329303 86.617551426988939 0 0 0 0 7.4333634085617977 3.8211636486018392 0 3.8211636486018392 -1.2276955245179622 0 0 0 0 -3.8869676919364338 29.499266800663463 0 29.499266800663463 46.902547908146516 0 0 0 0 -275.96454028181307 660.2917206760394 0 660.2917206760394 514.96435981347622 0 0 0 0 -113.26182026632699 -481.05106362389961 0 -481.05106362389961 1186.7390093789145 0 0 0 0 -194.25082739585605 -152.85163219704555 0 -152.85163219704555 1397.4915844706775 0 0 0 0 -205.10325417292916 -37.145794262143681 0 -37.145794262143681 889.2815811051114 0 0 0 0 118.00251269752596 109.32414916502603 0 109.32414916502603 689.7539534322168 0 0 0 0 315.64110812022318 -161.49180969690497 0 -161.49180969690497 918.81562643963116 0 0 0 0 62.793902851561029 209.91660325709381 0 209.91660325709381 829.86230001743388 0 0 0 0 -0.49430172700255071 143.91164369992839 0 143.91164369992839 958.31109374004154 0 0 0 0 76.009238562613973 38.278047915562638 0 38.278047915562638 -58.427944376040614 0 0 0 0 2.9121275991667854 1.5049368868738782 0 1.5049368868738782 1.2197509570632175 0 0 0 0 -81.84934590143888 -24.725566249002441 0 -24.725566249002441 504.55649422543502 0 0 0 0 111.153610569996 28.962901874941963 0 28.962901874941963 523.25363446339907 0 0 0 0 -39.09938063604136 45.145739666309964 0 45.145739666309964 575.57028138848909 0 0 0 0 -62.88957946993412 18.16202786183203 0 18.16202786183203 629.19677854623296 0 0 0 0 100.13168380777802 278.81289440245018 0 278.81289440245018 408.29689197439438 0 0 0 0 -83.427570164086021 98.574559553220752 0 98.574559553220752 490.61156036764442 0 0 0 0 -0.88509067363731386 -0.12135761251852273 0 -0.12135761251852273 0.75533159810449035 0 0 0 0 -34.687959732199488 95.864218883561989 0 95.864218883561989 455.33798779974313 0 0 0 0 -22.048836377769135 72.201079962731455 0 72.201079962731455 274.45252250081103 0 0 0 0 -16.613476350011297 31.123675573915534 0 31.123675573915534 343.51919859780537 0 0 0 0 -1.1788906102731289 98.180376791176968 0 98.180376791176968 252.74090308074665 0 0 0 0 -16.036741813674894 72.050054423738402 0 72.050054423738402 214.61639475560514 0 0 0 0 9.6144313685873151 28.13010146087538 0 28.13010146087538 131.87660749544739 0 0 0 0 -0.85162873985564147 14.455032334088173 0 14.455032334088173 167.62755264603766 0 0 0 0 -0.14068966550485129 36.807782236719504 0 36.807782236719504 147.18233985734696 0 0 0 0 8.9889941155262321 65.856410846734718 0 65.856410846734718 214.49343527061865 0 0 0 0 4.3487672684402696 32.969481168787752 0 32.969481168787752 179.56304561720754 0 0 0 0 -4.3775684759503974 1.2569990618721931 0 1.2569990618721931 230.89271738394746 0 0 0 0 2.2513225419568244 9.257263662188052 0 9.257263662188052 79.697543417809356 0 0 0 0 -40.887497449621378 14.586508934524318 0 14.586508934524318 79.823706509181648 0 0 0 0 122.2775221594884 141.54050873609958 0 141.54050873609958 100.34820197899535 0 0 0 0 62.033089238891762 7.0760885850468185 0 7.0760885850468185 86.416743300395865 0 0 0 0 94.213883013784425 93.851325919982628 0 93.851325919982628 169.67069604748394 0 0 0 0 28.041974343305128 20.13529198179458 0 20.13529198179458 132.90673190056259 0 0 0 0 20.032835972576322 -7.0499428414623253 0 -7.0499428414623253 103.45093603696296 0 0 0 0 5.3215079047563449 10.589375015930273 0 10.589375015930273 127.30017869520088 0 0 0 0 5.5766866888995992 17.608825392795552 0 17.608825392795552 91.58296409137256 0 0 0 0 -12.869909600282199 8.1445477608358487 0 8.1445477608358487 108.74785523687751 0 0 0 0 10.957194941261321 1.7965800873917033 0 1.7965800873917033 94.912942407201626 0 0 0 0 15.018898434825473 12.661938911044672 0 12.661938911044672 108.59808586809231 0 0 0 0 24.304397056671178 -10.325386271993921 0 -10.325386271993921 75.931960382666148 0 0 0 0 -11.341983541221907 -0.75546307198237628 0 -0.75546307198237628 179.66108482456912 0 0 0 0 0.40035404572688194 -0.22860838068839939 0 -0.22860838068839939 0.19512130000273409 0 0 0 0 10.822368569387436 -9.403175418239698 0 -9.403175418239698 114.64374061300623 0 0 0 0 2.6158463142605797 14.075833494018298 0 14.075833494018298 161.40816885881941 0 0 0 0 26.475048437014379 -13.0588381969701 0 -13.0588381969701 113.90130097593646 0 0 0 0 9.6540693136046229 -24.280722044110007 0 -24.280722044110007 136.1732493546333 0 0 0 0 18.268114035033094 -30.942191759028901 0 -30.942191759028901 218.21186530605337 0 0 0 0 0.55836962111535016 0.13544925952437836 0 0.13544925952437836 0.33816191317627364 0 0 0 0 20.438873855479585 12.543878453383513 0 12.543878453383513 101.4172239881882 0 0 0 0 -22.551560149681791 16.86303853316349 0 16.86303853316349 140.57028027067281 0 0 0 0 -31.046843239590999 -14.944200049329083 0 -14.944200049329083 119.90937867506818 0 0 0 0 0.40666459169233349 -14.132242844396387 0 -14.132242844396387 103.72337226493983 0 0 0 0 -13.441196770910665 -29.02988233268843 0 -29.02988233268843 103.08676980717792 0 0 0 0 15.326578314203516 8.6325568966058199 0 8.6325568966058199 122.16266322505544 0 0 0 0 2.7078883662361477 -23.125003051194653 0 -23.125003051194653 163.13178691195208 0 0 0 0 14.809363329577081 -14.914297122624703 0 -14.914297122624703 96.581277658071485 0 0 0 0 0.05202100343467464 0.72217849853768712 0 0.72217849853768712 173.52641961543122 0 0 0 0 11.126432301096486 -3.8798393414108432 0 -3.8798393414108432 76.284075928640959 0 0 0 0 -2.4584845424120658 -10.178280442676623 0 -10.178280442676623 233.69473942228069 0 0 0 0 0.16236455468263333 -0.52998081319177004 0 -0.52998081319177004 0.36503901769956926 0 0 0 0 2.4848164233983425 -1.7951270216290141 0 -1.7951270216290141 100.56068450233215 0 0 0 0 3.8471017177982958 -4.6131659539987595 0 -4.6131659539987595 101.27746553094767 0 0 0 0 11.642861951613895 5.2643897226225818 0 5.2643897226225818 86.163378902856493 0 0 0 0 -30.801274996294524 -55.991138736695575 0 -55.991138736695575 237.60745853925619 0 0 0 0 6.0986647833856802 -4.8724248474563723 0 -4.8724248474563723 0.077908101808452201 0 0 0 0 -41.411100625482504 -25.451804520125734 0 -25.451804520125734 197.02212424712798 0 0 0 0 -49.896362928286635 7.1108737860522524 0 7.1108737860522524 329.75076700199861 0 0 0 0 -6.8495563216723667 -13.554622545210805 0 -13.554622545210805 117.84211917220819 0 0 0 0 -3.5778499564607955 -8.2281339357941761 0 -8.2281339357941761 114.56700585352337 0 0 0 0 19.668107512742154 -6.0783683333975205 0 -6.0783683333975205 77.638971659253002 0 0 0 0 2.5348916986283756 -5.0018073571684738 0 -5.0018073571684738 -0.085769115356770342 0 0 0 0 36.849455716233933 -9.7718675556097878 0 -9.7718675556097878 138.40110836617532 0 0 0 0 -31.611277183084894 -50.224883811595646 0 -50.224883811595646 199.69708489523327 0 0 0 0 -24.859157061903034 -57.083517336101067 0 -57.083517336101067 218.58030024151958 0 0 0 0 77.379157956322615 -66.525300019908173 0 -66.525300019908173 57.271684443830964 0 0 0 0 19.657286244732632 31.311097818645067 0 31.311097818645067 68.485495456699255 0 0 0 0 -2.6437030284752785 -5.04043649353342 0 -5.04043649353342 0.19401480658150838 0 0 0 0 -3.0654376383151885 -10.70979437767528 0 -10.70979437767528 99.41017290357081 0 0 0 0 -5.006380399954196 -13.040573406447947 0 -13.040573406447947 103.60293853496114 0 0 0 0 -9.277552275231713 -4.3145126387408652 0 -4.3145126387408652 -1.9720289987486836 0 0 0 0 -9.1192508300696318 -40.181217531477159 0 -40.181217531477159 36.118119353027851 0 0 0 0 -12.850883418492572 -0.48020578356226906 0 -0.48020578356226906 81.226520752701617 0 0 0 0 -8.7536396827117642 -11.666936886493204 0 -11.666936886493204 94.207078810752137 0 0 0 0 -11.72495010180819 -10.265656783751183 0 -10.265656783751183 110.61628471777453 0 0 0 0 -14.610244332920956 1.9954599999909988 0 1.9954599999909988 94.711295456232619 0 0 0 0 -20.642817000240939 4.3257355038367677 0 4.3257355038367677 97.104893782241561 0 0 0 0 -22.347756453666989 2.5831167920587177 0 2.5831167920587177 97.031566225705319 0 0 0 0 -28.695735327968578 5.088802244157705 0 5.088802244157705 96.602364014906925 0 0 0 0 -20.947648948029297 3.4900873456333557 0 3.4900873456333557 93.175377244944684 0 0 0 0 -15.118133355572894 5.589835324786236 0 5.589835324786236 101.41448410785233 0 0 0 0 -14.982654332233778 6.9678416352398926 0 6.9678416352398926 89.625549441479961 0 0 0 0 -20.974422771985303 2.9245594717619952 0 2.9245594717619952 98.850763090871624 0 0 0 0 -13.573715786515095 5.003004265621712 0 5.003004265621712 100.25379947107649 0 0 0 0 -10.611060726512733 1.1267239529879589 0 1.1267239529879589 104.4374537195725 0 0 0 0 -12.146506850654305 2.0320868340495508 0 2.0320868340495508 131.68888543597132 0 0 0 0 -14.734041424055448 -3.1566041989894416 0 -3.1566041989894416 109.08600606092659 0 0 0 0 13.904743071913316 -8.7854101422635722 0 -8.7854101422635722 338.06658159218932 0 0 0 0 -0.033044732897533097 -13.064582191404043 0 -13.064582191404043 354.34548131645715 0 0 0 0 3.1695299033987112 -9.651957196299918 0 -9.651957196299918 346.58291054830079 0 0 0 0 16.8274855883299 -4.1803573770957883 0 -4.1803573770957883 343.5998505051175 0 0 0 0 2.5600421901214503 -5.0519793467647105 0 -5.0519793467647105 358.19663130077242 0 0 0 0 8.1121420248360465 26.147164099023939 0 26.147164099023939 358.24132820937666 0 0 0 0 10.589072579109688 8.1030322562492074 0 8.1030322562492074 375.41301409376319 0 0 0 0 0.080330928063062634 -8.0920836055411201 0 -8.0920836055411201 386.94449916060694 0 0 0 0 -4.452520174098197 34.724703479889286 0 34.724703479889286 462.88886330813693 0 0 0 0 222.96986893080452 122.0612674291915 0 122.0612674291915 383.89966957701108 0 0 0 0 0.35136433809117007 0.0013112160932138295 0 0.0013112160932138295 0.89982819282383275 0 0 0 0 -0.37518885332788005 185.5844277206883 0 185.5844277206883 581.17718935786979 0 0 0 0 -34.455946579937773 30.780732411643839 0 30.780732411643839 505.40514086141957 0 0 0 0 0.29621921988992395 -0.19230037255769616 0 -0.19230037255769616 0.68924161406044249 0 0 0 0 -6.7512442196489104 23.945880502251384 0 23.945880502251384 376.90084755883254 0 0 0 0 -28.944722675230917 27.674293594422124 0 27.674293594422124 422.81807528577338 0 0 0 0 5.4352585630542194 52.4448958024077 0 52.4448958024077 438.92491437767967 0 0 0 0 5.6672969365511143 57.198027130564242 0 57.198027130564242 306.63520085305936 0 0 0 0 -63.310760350754208 -12.050970186577615 0 -12.050970186577615 354.12951612027246 0 0 0 0 -6.0335409214774032 32.734991845152763 0 32.734991845152763 325.1048447404246 0 0 0 0 -3.512513539041791 -14.097570089474175 0 -14.097570089474175 304.52847655594087 0 0 0 0 2.8002601336943655 -19.982166313362541 0 -19.982166313362541 327.71262610796475 0 0 0 0 3.951086902865427 1.9278269837595872 0 1.9278269837595872 338.0670910011977 0 0 0 0 -28.567488140466551 -26.608367813318182 0 -26.608367813318182 327.83055904378125 0 0 0 0 -38.857378382520025 15.910382388414291 0 15.910382388414291 317.27669922995847 0 0 0 0 31.339553302823987 61.812511846037523 0 61.812511846037523 296.17132613874128 0 0 0 0 -13.934077378904647 39.022945180950046 0 39.022945180950046 310.15845570562306 0 0 0 0 -23.390938540468483 60.165812554543663 0 60.165812554543663 398.8722449076522 0 0 0 0 -29.054599601568555 -14.28811013912491 0 -14.28811013912491 270.47633403155123 0 0 0 0 -0.77732628578914875 -0.11746449382320634 0 -0.11746449382320634 0.63527975477437337 0 0 0 0 -34.027798674715143 22.478440880826383 0 22.478440880826383 367.53830918065978 0 0 0 0 -41.93457045972113 2.9168191383751036 0 2.9168191383751036 321.39639171723684 0 0 0 0 -37.131846072554367 -15.488677654560888 0 -15.488677654560888 353.12024022912067 0 0 0 0 -2.2748914923765824 35.61541521118852 0 35.61541521118852 353.70316658335651 0 0 0 0 -21.473629035718659 21.749678647692235 0 21.749678647692235 398.06505166208808 0 0 0 0 -60.639147264465691 -43.323319607879966 0 -43.323319607879966 358.27494299814498 0 0 0 0 8.0835069448012291 31.568403902754653 0 31.568403902754653 383.24982942727365 0 0 0 0 29.879171879455726 73.413579907399253 0 73.413579907399253 259.96293223652174 0 0 0 0 -20.942365122208798 34.517108957959863 0 34.517108957959863 402.39180748869694 0 0 0 0 -1.6191753472419994 -0.16690513070003021 0 -0.16690513070003021 0.96082756907901512 0 0 0 0 -12.21645875271588 61.391817725263536 0 61.391817725263536 370.62861006655476 0 0 0 0 32.122422291163872 25.900070953435602 0 25.900070953435602 272.42428440382355 0 0 0 0 -14.002677792265047 3.0619983377473545 0 3.0619983377473545 286.44795899894598 0 0 0 0 27.930742410585168 7.823193512915168 0 7.823193512915168 194.94282585692417 0 0 0 0 -12.265616184090277 26.856678433123307 0 26.856678433123307 279.87567238693009 0 0 0 0 20.12289363634568 35.112306441507826 0 35.112306441507826 208.10750526571337 0 0 0 0 -33.044644194326679 -2.6548641786139342 0 -2.6548641786139342 212.90116080942335 0 0 0 0 -0.064459834719940323 0.46601558521858522 0 0.46601558521858522 0.42421837349881386 0 0 0 0 18.400125932491733 28.713390149954648 0 28.713390149954648 177.69033845094236 0 0 0 0 -22.33557128904647 -8.4246732807150693 0 -8.4246732807150693 202.86881596298917 0 0 0 0 -5.2487894946129927 -2.8669846660268377 0 -2.8669846660268377 126.87180996100506 0 0 0 0 16.328779479866512 -13.115448095210013 0 -13.115448095210013 116.79202543474821 0 0 0 0 -14.008268811845817 -42.156385152866278 0 -42.156385152866278 166.81296480519086 0 0 0 0 0.38458568703583951 -0.72268310241749134 0 -0.72268310241749134 0.44193600987091841 0 0 0 0 -1.631551802529998 2.0618624739681763 0 2.0618624739681763 113.53038756598835 0 0 0 0 7.6695523567856299 29.396203524716839 0 29.396203524716839 145.86562979115115 0 0 0 0 -1.934639468471687 4.7691477235784987 0 4.7691477235784987 95.654273105108587 0 0 0 0 2.0968218144304274 -11.45949499879498 0 -11.45949499879498 103.77128892191104 0 0 0 0 2.6985820444201636 -7.043504437966476 0 -7.043504437966476 97.251502130231529 0 0 0 0 228.08993036935544 -123.99333806405048 0 -123.99333806405048 305.4117006716333 0 0 0 0 8.2892022006596058 -4.5357034473409357 0 -4.5357034473409357 0.21618868345633935 0 0 0 0 -168.04265268213953 32.047486843144725 0 32.047486843144725 871.76873379122844 0 0 0 0 12.988960443179558 10.458244922792801 0 10.458244922792801 131.5834270655032 0 0 0 0 -0.012823021641338528 -11.083674045839871 0 -11.083674045839871 115.48969692032551 0 0 0 0 22.027922015306039 -33.142050007692887 0 -33.142050007692887 68.329950157043641 0 0 0 0 7.6452878321373605 -4.0338199066477642 0 -4.0338199066477642 0.36405346829828389 0 0 0 0 66.764645630625182 -12.850529342715163 0 -12.850529342715163 467.50513853953225 0 0 0 0 13.764228450097221 -30.065169794228495 0 -30.065169794228495 501.90751686853764 0 0 0 0 -22.606187516395153 -47.89979237584339 0 -47.89979237584339 533.58472645647998 0 0 0 0 12.601381579012013 -23.705321537294367 0 -23.705321537294367 472.3209112042714 0 0 0 0 -8.0111957367018647 -45.319279531424399 0 -45.319279531424399 172.14262387892813 0 0 0 0 31.838931063588802 -7.5957134458421933 0 -7.5957134458421933 45.413753828972403 0 0 0 0 30.82951708249194 6.8284605034277774 0 6.8284605034277774 63.042958761054251 0 0 0 0 0.1718015939480802 -0.37659066353202775 0 -0.37659066353202775 0.30333716425776558 0 0 0 0 -28.989390675307448 -10.342865111037099 0 -10.342865111037099 211.6287648963189 0 0 0 0 -9.6844121545276067 -30.251170219078631 0 -30.251170219078631 176.73273823440832 0 0 0 0 -0.78655435283457042 0.48372344596110395 0 0.48372344596110395 0.5076506997764838 0 0 0 0 3.2314225121847926 28.290833197672328 0 28.290833197672328 279.07938717428624 0 0 0 0 -20.139655748981426 -22.402332774412571 0 -22.402332774412571 231.54080141221493 0 0 0 0 -0.97028656222098708 0.22217930317899004 0 0.22217930317899004 0.58728191415828235 0 0 0 0 -12.139976761665075 -16.057300934164232 0 -16.057300934164232 332.30896096282959 0 0 0 0 5.6272846824301439 -53.055944599822396 0 -53.055944599822396 145.46346808225098 0 0 0 0 15.938286658852718 -11.440408980462962 0 -11.440408980462962 138.19080675722944 0 0 0 0 -10.84921850939034 -33.321184914788319 0 -33.321184914788319 129.36502320472755 0 0 0 0 4.4641378358951638 -2.8307266700782208 0 -2.8307266700782208 0.41856815153210913 0 0 0 0 65.920170717418785 -24.785022711601414 0 -24.785022711601414 356.39465314235713 0 0 0 0 27.29090131537464 -81.235557346371934 0 -81.235557346371934 457.57255119622278 0 0 0 0 -75.497402993237102 -10.376411562800058 0 -10.376411562800058 588.84493497096992 0 0 0 0 -68.192802391924744 -74.42577629169682 0 -74.42577629169682 635.76944663221184 0 0 0 0 -31.606978089811605 -81.980994737590663 0 -81.980994737590663 378.34068366905558 0 0 0 0 -16.076231357481447 -23.209377900435356 0 -23.209377900435356 324.55265608537593 0 0 0 0 -3.4142551521806581 35.671932339893829 0 35.671932339893829 461.96473391258041 0 0 0 0 -5.9307036756684841 7.6928763538028306 0 7.6928763538028306 115.96722070957185 0 0 0 0 1.4228913990778043 -1.1543406998909376 0 -1.1543406998909376 0.98134486863110482 0 0 0 0 29.935522072450709 -21.946090257886681 0 -21.946090257886681 17.174005906317689 0 0 0 0 -4.7461138721973697 9.7525539825182932 0 9.7525539825182932 66.711703412889619 0 0 0 0 -0.0060322788294807084 0.42036212735422396 0 0.42036212735422396 2.045124353459812 0 0 0 0 91.012557914967033 -33.659986683240277 0 -33.659986683240277 513.41107124614064 0 0 0 0 63.195825602896392 43.998497335713182 0 43.998497335713182 569.69880577697768 0 0 0 0 7.8218900431207175 -104.08570085455722 0 -104.08570085455722 484.32930247335025 0 0 0 0 -5.8973358090251642 -5.764785251963076 0 -5.764785251963076 603.93397899006959 0 0 0 0 -36.508292875851396 -53.8102023571264 0 -53.8102023571264 385.4524861282116 0 0 0 0 24.698801371116893 -72.115463663518312 0 -72.115463663518312 388.80010775962728 0 0 0 0 -18.197429344732399 -34.119238199637039 0 -34.119238199637039 409.62182106380351 0 0 0 0 3.9186370796569747 -86.417267402517609 0 -86.417267402517609 395.94274706315264 0 0 0 0 -24.04772396559504 0.98656896955799311 0 0.98656896955799311 739.08425287928549 0 0 0 0 -0.0037224860212458719 0.26229769318459262 0 0.26229769318459262 1.3085293017108199 0 0 0 0 30.499039594059425 -144.6688823149816 0 -144.6688823149816 631.40972223366225 0 0 0 0 32.175070602949802 -163.39573877464136 0 -163.39573877464136 362.81707973675657 0 0 0 0 -14.228492030835174 -52.794875754581881 0 -52.794875754581881 623.55355513212817 0 0 0 0 0.24586617540651057 12.5093931446645 0 12.5093931446645 307.95308026281418 0 0 0 0 -18.804991278520177 1.3331217237573583 0 1.3331217237573583 9.4345405958738411 0 0 0 0 0.061863705991573356 -0.52210729266165856 0 -0.52210729266165856 0.5982056058701648 0 0 0 0 -1.7746639128969974 -6.1851563177915523 0 -6.1851563177915523 -7.1001733890170726 0 0 0 0 12.637520897139739 -22.765166703851719 0 -22.765166703851719 8.7961688108480303 0 0 0 0 -14.336831296937362 -14.419640590960626 0 -14.419640590960626 28.318265159017756 0 0 0 0 44.157826366516289 -123.92624682364294 0 -123.92624682364294 312.19643050761078 0 0 0 0 -0.057340383809853658 0.090420434373569947 0 0.090420434373569947 1.0938166380341272 0 0 0 0 -0.079299292131547724 20.063632722522016 0 20.063632722522016 -2.029373301556916 0 0 0 0 40.095380957799904 -80.184182866949413 0 -80.184182866949413 77.1944934472358 0 0 0 0 5.5733135225502792 -10.084412412412348 0 -10.084412412412348 254.49906674175145 0 0 0 0 -0.43037985677050727 0.083445079551879076 0 0.083445079551879076 0.62876791567745371 0 0 0 0 -9.7800861262593966 -29.701450504813693 0 -29.701450504813693 281.12309388676658 0 0 0 0 0.61942615826591874 53.381227359001059 0 53.381227359001059 374.8103943587339 0 0 0 0 -6.1752270622882452 -13.529228353030703 0 -13.529228353030703 40.448820540565066 0 0 0 0 0.023304839036063865 -17.246912545335363 0 -17.246912545335363 10.268981801913469 0 0 0 0 -3.0486023103220958 -12.432997007526865 0 -12.432997007526865 4.3962291841962724 0 0 0 0 -4.9503022639945726 -16.14273911039345 0 -16.14273911039345 5.7185625847159827 0 0 0 0 -15.712794306394002 -2.5558194274271955 0 -2.5558194274271955 30.042439158656634 0 0 0 0 -18.62101437824461 -9.7603840702977323 0 -9.7603840702977323 22.719550484209321 0 0 0 0 -3.9868238237519193 -0.90212154682376422 0 -0.90212154682376422 18.070323636478861 0 0 0 0 1.0275807889366817 18.251847085310146 0 18.251847085310146 56.230507866483094 0 0 0 0 0.011001613643290709 -14.72681422660038 0 -14.72681422660038 2.3496325275191339 0 0 0 0 0.17355095859280015 0.0013031848157822878 0 0.0013031848157822878 -0.019781428955383262 0 0 0 0 -0.016284487242398497 -0.13111268596220782 0 -0.13111268596220782 1.354997152856356 0 0 0 0 -9.1398247008032314 3.0802172152107232 0 3.0802172152107232 20.275407739914954 0 0 0 0 1.0608648353561885 -2.1865271047608985 0 -2.1865271047608985 6.7006687855173368 0 0 0 0 0.00083907342896951786 -0.96004060299252258 0 -0.96004060299252258 5.3427538738906151 0 0 0 0 0.0026336221914894514 -0.9553482368231071 0 -0.9553482368231071 5.3407080493925605 0 0 0 0 -7.6122830617042325 -46.775470083128312 0 -46.775470083128312 230.20619119110052 0 0 0 0 12.466334839002229 -58.526366281381343 0 -58.526366281381343 176.38096786569804 0 0 0 0 3.929206574952417 -29.405809533311185 0 -29.405809533311185 241.76548834214918 0 0 0 0 -2.5387335938934541 -57.747923060203902 0 -57.747923060203902 289.30975725298049 0 0 0 0 15.174804224929517 -85.499603610791382 0 -85.499603610791382 283.35023275073036 0 0 0 0 100.36699104717287 -111.60230679097731 0 -111.60230679097731 145.00917185796425 0 0 0 0 79.302424063008289 2.5584876243083272 0 2.5584876243083272 81.816365151535138 0 0 0 0 0.47638938896218941 0.11266681603275686 0 0.11266681603275686 2.7551470176915132 0 0 0 0 12.591941531526558 5.8341910099989036 0 5.8341910099989036 86.457955756013689 0 0 0 0 34.551019324527786 -49.890934239530907 0 -49.890934239530907 -10.709014642256079 0 0 0 0 -3.6357899796871607 -3.1208483332011383 0 -3.1208483332011383 9.2521728587744292 0 0 0 0 0.20645886598549623 -18.06415898661362 0 -18.06415898661362 -39.622952542165876 0 0 0 0 -5.6759770081110901 3.9533292873966275 0 3.9533292873966275 23.629797133326065 0 0 0 0 1.0947741730672296 -5.792531805697422 0 -5.792531805697422 8.9897941327008297 0 0 0 0 -4.3485081753954589 0.61867217331018765 0 0.61867217331018765 8.0343881464796141 0 0 0 0 -1.5868530773978256 -6.8896833707903227 0 -6.8896833707903227 11.132605246992682 0 0 0 0 1.2318731836326322 -2.5072707049584722 0 -2.5072707049584722 7.6657685514237528 0 0 0 0 4.7153435771924705 1.1473763944231905 0 1.1473763944231905 11.254617390222847 0 0 0 0 -0.83505385806831733 0.10952441531702561 0 0.10952441531702561 2.6971631558771776 0 0 0 0 -3.3242311625438687 -1.0020243300440654 0 -1.0020243300440654 11.400243503672556 0 0 0 0 -5.8473847499153635 -71.667385290478705 0 -71.667385290478705 -30.83384342825957 0 0 0 0 -34.049027869202291 16.035170456874766 0 16.035170456874766 -9.0589604201450129 0 0 0 0 -2.1415633254286544 2.2857732551388601 0 2.2857732551388601 1.5979608414054383 0 0 0 0 -26.720309035310265 -8.6827378571833833 0 -8.6827378571833833 13.972893702506553 0 0 0 0 -59.401063313871418 -21.483124063975993 0 -21.483124063975993 9.3514406527101528 0 0 0 0 9.5622665089849761 1.4187021332181757 0 1.4187021332181757 -15.410676355997566 0 0 0 0 -22.302269343987973 3.3575586389924865 0 3.3575586389924865 14.648005494091194 0 0 0 0 -6.0565221644908434 17.666219953993277 0 17.666219953993277 1.8845712757320143 0 0 0 0 -13.965118170589449 7.338311698709731 0 7.338311698709731 29.814879383935477 0 0 0 0 10.129243533811385 -7.3185987755447712 0 -7.3185987755447712 3.9912394541693743 0 0 0 0 4.1529934700721185 -33.236246996624686 0 -33.236246996624686 8.5759541485458612 0 0 0 0 -1.0142947490449039 -1.6510286098551603 0 -1.6510286098551603 2.9898880815227642 0 0 0 0 -1.0064647006841252 -2.3245294819613633 0 -2.3245294819613633 2.140211560518182 0 0 0 0 30.166186601670347 -46.428082771613845 0 -46.428082771613845 -26.46279045654228 0 0 0 0 -1.8766191253630495 6.2188769715430681 0 6.2188769715430681 115.13447193495813 0 0 0 0 -33.151844162576992 -38.656283304517274 0 -38.656283304517274 99.319433228607522 0 0 0 0 -6.9219755305164199 6.325625765035511 0 6.325625765035511 72.452534227370052 0 0 0 0 -6.9645157113525329 -33.288060246923123 0 -33.288060246923123 168.0519967485161 0 0 0 0 2.3583772678414694 0.7871120905631841 0 0.7871120905631841 -2.7789191141199581 0 0 0 0 -14.376137819907512 7.9551209349192504 0 7.9551209349192504 204.51711953443009 0 0 0 0 -27.971642434339969 -42.614199040006497 0 -42.614199040006497 356.82220765983948 0 0 0 0 -39.954544016708041 -18.823471716634231 0 -18.823471716634231 338.99946582266421 0 0 0 0 -30.989373045022489 -28.046502311161021 0 -28.046502311161021 298.17634847873524 0 0 0 0 3.1336079980920317 -46.523774820627295 0 -46.523774820627295 299.33858681336278 0 0 0 0 -6.802828548897196 -12.099156914831838 0 -12.099156914831838 211.71872075082501 0 0 0 0 -22.389684711030043 -43.686967460154847 0 -43.686967460154847 196.30872145231115 0 0 0 0 -11.495853565919788 -18.4029571077117 0 -18.4029571077117 202.91744503867812 0 0 0 0 8.6557304366746539 -6.5098601207997575 0 -6.5098601207997575 3.0745136143372918 0 0 0 0 77.625620656419414 -22.07434795377776 0 -22.07434795377776 30.624308996157652 0 0 0 0 11.741811328796302 -0.93663537842803635 0 -0.93663537842803635 230.02664809120324 0 0 0 0 60.880867465183655 -16.922754964190972 0 -16.922754964190972 231.14434179376258 0 0 0 0 -1.796018247321399 42.313727731590916 0 42.313727731590916 349.29002975869662 0 0 0 0 0.86868236924004272 0.93051845840125225 0 0.93051845840125225 1.4322386565000329 0 0 0 0 -60.32701457469102 21.871511818991166 0 21.871511818991166 14.273248884041095 0 0 0 0 -2.8298779111429155 147.89854444152843 0 147.89854444152843 -2.6718941872532014 0 0 0 0 -62.64242954157271 -17.349448012420908 0 -17.349448012420908 104.51536562802653 0 0 0 0 -23.78741871089187 -161.31154537564726 0 -161.31154537564726 101.94743095195736 0 0 0 0 -60.670148792471082 20.799497594292916 0 20.799497594292916 50.536086988155148 0 0 0 0 0.8972741937779567 -1.0517083508282496 0 -1.0517083508282496 0.43285860371898366 0 0 0 0 -56.321553308037892 31.114565646152187 0 31.114565646152187 -1.55782780683694 0 0 0 0 -65.395742649736803 14.505248328141533 0 14.505248328141533 8.2071237591153476 0 0 0 0 0.84213997205978885 -4.6723222755244898 0 -4.6723222755244898 10.962742497735093 0 0 0 0 -0.2302525874551975 -14.672856371977105 0 -14.672856371977105 11.737146003855742 0 0 0 0 4.6601375630691564 -6.9426295798293722 0 -6.9426295798293722 8.3568948637112044 0 0 0 0 -4.636792790857271 -5.0033788979999372 0 -5.0033788979999372 8.8351461303827818 0 0 0 0 -46.611571842390276 -2.2619272936935886 0 -2.2619272936935886 13.959550716441299 0 0 0 0 -13.781847020233272 -15.956124875392561 0 -15.956124875392561 11.631568997152499 0 0 0 0 -16.110593071399762 2.8024788029033516 0 2.8024788029033516 4.8838717104372336 0 0 0 0 -17.708738965395696 10.426053074275842 0 10.426053074275842 -23.612870462107821 0 0 0 0 0.35523917457301746 3.0595997528197785 0 3.0595997528197785 4.9811484526966296 0 0 0 0 110.11558521147299 64.560289791734249 0 64.560289791734249 11.631532477011206 0 0 0 0 -0.21877631459790159 -0.14222783520147431 0 -0.14222783520147431 2.097526024586557 0 0 0 0 -1.4602838938458262 11.404783459569444 0 11.404783459569444 94.887928455424117 0 0 0 0 -1.5765480250897781 6.2846704644871352 0 6.2846704644871352 40.295091768774 0 0 0 0 18.901197702238278 -37.792522674935753 0 -37.792522674935753 77.954207415052224 0 0 0 0 41.918189659637392 -103.62219558884317 0 -103.62219558884317 60.929203350766329 0 0 0 0 -31.111667351578944 -77.042227472178638 0 -77.042227472178638 88.475566562075983 0 0 0 0 10.751205399857554 -31.590200014641596 0 -31.590200014641596 -3.8643175847973907 0 0 0 0 -136.49154450312199 53.63565366412513 0 53.63565366412513 7.890448085629032 0 0 0 0 5.1606889405527632 -4.5482642275305523 0 -4.5482642275305523 1.8930230805009245 0 0 0 0 0.99693326041730579 -0.55671685779813629 0 -0.55671685779813629 -0.16943754975385872 0 0 0 0 40.549914407808501 -54.54383491781482 0 -54.54383491781482 -124.76708533761848 0 0 0 0 -2.405222643196339 -9.4162412465630041 0 -9.4162412465630041 516.34900792572444 0 0 0 0 -69.407643348969941 -68.626384751092701 0 -68.626384751092701 -17.323049817641731 0 0 0 0 -9.8482475741102462 6.8487529258345603 0 6.8487529258345603 490.40776144314805 0 0 0 0 -311.49172186888245 166.94718743296107 0 166.94718743296107 -105.56081590639951 0 0 0 0 83.297088617309782 -39.917797763439012 0 -39.917797763439012 -147.18456080780743 0 0 0 0 187.18624119138258 -93.486513485724572 0 -93.486513485724572 17.365748800468282 0 0 0 0 0.5196220270129519 -0.16230408895842174 0 -0.16230408895842174 -0.081587402540463927 0 0 0 0 -49.349309035922829 5.2786331579027319 0 5.2786331579027319 -3.3234330035193125 0 0 0 0 43.871322075528951 -68.68421291768027 0 -68.68421291768027 67.517536208993988 0 0 0 0 0.11428903302993376 -13.694084191801267 0 -13.694084191801267 -1.2905622217222117 0 0 0 0 -8.3846448362473893 -67.852072424597281 0 -67.852072424597281 45.323916402907344 0 0 0 0 15.786972067175611 -58.821924998810573 0 -58.821924998810573 -0.6597138138495211 0 0 0 0 69.022157429246818 32.307097988021269 0 32.307097988021269 72.753188010534359 0 0 0 0 1.4980301419570949 -1.7130972441420482 0 -1.7130972441420482 1.1532392409813852 0 0 0 0 90.119591696734005 -90.841828719239857 0 -90.841828719239857 12.801609406888019 0 0 0 0 325.49088921466318 -245.12139093386941 0 -245.12139093386941 -57.421822449134197 0 0 0 0 -10.638716691636319 -151.60921550947205 0 -151.60921550947205 81.542863473281614 0 0 0 0 33.597394056586381 -163.47418403569463 0 -163.47418403569463 -80.258240308223321 0 0 0 0 17.23666200406501 -43.13868338339671 0 -43.13868338339671 135.4093644337263 0 0 0 0 -12.055144745794713 -38.982882638586261 0 -38.982882638586261 76.94836366212985 0 0 0 0 -11.770262719877845 -18.574689033789525 0 -18.574689033789525 148.21364189039741 0 0 0 0 40.683795367444418 -75.560786705042119 0 -75.560786705042119 73.877501522067178 0 0 0 0 -11.505596424548457 -23.722641926018696 0 -23.722641926018696 29.834005568984139 0 0 0 0 -58.631929641905515 66.533961018231366 0 66.533961018231366 45.017813473066781 0 0 0 0 -19.508726870790269 -99.917530379396339 0 -99.917530379396339 -57.878534993411449 0 0 0 0 7.7908189103224004 -56.69505121102884 0 -56.69505121102884 -28.341968325257767 0 0 0 0 -8.1392046633866357 -30.681868832522014 0 -30.681868832522014 70.440061330729804 0 0 0 0 2.6210835941351434 -17.436559311870951 0 -17.436559311870951 -30.176944405298855 0 0 0 0 -2.6507020384202704 -2.9175455682858598 0 -2.9175455682858598 3.6301065269219919 0 0 0 0 3.2165507114923457 -17.124362481292337 0 -17.124362481292337 -32.029486898427422 0 0 0 0 17.716655842202726 -5.5129186248923361 0 -5.5129186248923361 -161.33315509610111 0 0 0 0 -1.3396537804940625 -0.22983374014879132 0 -0.22983374014879132 0.1264789386109868 0 0 0 0 3.2081026752548496 -3.2249624183750711 0 -3.2249624183750711 3.7010371607975685 0 0 0 0 -2.6053790430589743 9.8235267175359695 0 9.8235267175359695 66.891926650510868 0 0 0 0 10.270649848555649 -35.838607965291885 0 -35.838607965291885 37.472260687572998 0 0 0 0 -2.9623332275859866 3.9668596516130492 0 3.9668596516130492 18.606166458645021 0 0 0 0 -2.3249313110762237 0.51650566638114981 0 0.51650566638114981 2.0135227334594958 0 0 0 0 -5.3299740702900635 -22.835083511039556 0 -22.835083511039556 4.1668140439142007 0 0 0 0 -32.083480603182579 -24.476331348028907 0 -24.476331348028907 94.572129488529754 0 0 0 0 -2.1847580151118109 6.1066820696469222 0 6.1066820696469222 190.52022394850792 0 0 0 0 -44.764876914805086 -2.0363087836485647 0 -2.0363087836485647 34.107181198696708 0 0 0 0 -4.271910812393088 6.2673846588831168 0 6.2673846588831168 21.718804627889085 0 0 0 0 -13.129603401962584 67.121512840974447 0 67.121512840974447 34.298876490734983 0 0 0 0 52.394772878553113 67.767235607134353 0 67.767235607134353 -192.48844296434982 0 0 0 0 -90.636868876595145 61.027833145588374 0 61.027833145588374 3.9863365277560661 0 0 0 0 -31.742350198231634 -17.515032694824185 0 -17.515032694824185 69.673912958676283 0 0 0 0 -42.636389680767024 28.556216033986857 0 28.556216033986857 5.1841577022423735 0 0 0 0 -18.467017764183538 39.243706128305348 0 39.243706128305348 9.8856943637947552 0 0 0 0 -4.0924094091944214 1.9566690479489779 0 1.9566690479489779 18.775231225618825 0 0 0 0 -17.895287020861986 33.124357918872192 0 33.124357918872192 -29.254861251145485 0 0 0 0 16.283051795899382 9.3782813630459714 0 9.3782813630459714 -12.88677022261254 0 0 0 0 59.962365748937714 15.043310095868947 0 15.043310095868947 -50.072390641165839 0 0 0 0 86.854160329734952 -43.281183337239781 0 -43.281183337239781 21.373397026996827 0 0 0 0 17.894239383463855 -23.161988996682339 0 -23.161988996682339 44.075625364337611 0 0 0 0 21.295914365139879 -10.083948107527249 0 -10.083948107527249 -24.724702966326731 0 0 0 0 7.2249986553205758 -30.037286324743036 0 -30.037286324743036 -3.5891544253245229 0 0 0 0 -1.0871156371191155 0.97915505615254972 0 0.97915505615254972 0.21005660555584882 0 0 0 0 1.1056576066976049 3.7219931710205856 0 3.7219931710205856 -31.894304744033434 0 0 0 0 14.482204024438417 -1.7558590114913386 0 -1.7558590114913386 3.050118146580644 0 0 0 0 7.4567007894645485 18.242540601837391 0 18.242540601837391 -11.554777876133812 0 0 0 0 -5.7976529977882567 3.7649814334937091 0 3.7649814334937091 0.98569226048519454 0 0 0 0 5.1539995215541126 8.8507296879706701 0 8.8507296879706701 -2.9046622098976513 0 0 0 0 -13.381374892501299 -1.8804652820617775 0 -1.8804652820617775 5.0960927853884641 0 0 0 0 -13.251863809200472 12.536944536081137 0 12.536944536081137 0.46147664289310342 0 0 0 0 -19.347223666064792 19.906274999251764 0 19.906274999251764 3.1445083667695144 0 0 0 0 -6.2004617141117624 -0.054166555621307566 0 -0.054166555621307566 13.838959866923489 0 0 0 0 36.247638190611951 -126.96952918174429 0 -126.96952918174429 -36.98735068248061 0 0 0 0 -11.920900284028448 14.540105455675075 0 14.540105455675075 4.0153046154882759 0 0 0 0 -6.5637421592562823 6.9643297429384958 0 6.9643297429384958 0.71141551607485098 0 0 0 0 -21.70924673858508 1.5123328072386357 0 1.5123328072386357 9.6497755914315348 0 0 0 0 -16.160110095167511 -2.8197847776682465 0 -2.8197847776682465 12.932675068786921 0 0 0 0 -6.7574096106709476 -9.7243991988143534 0 -9.7243991988143534 6.4303335771146521 0 0 0 0 -16.669264614098893 -4.5596294179886172 0 -4.5596294179886172 7.6819086289906409 0 0 0 0 -4.8641618792785266 -6.8775338481573272 0 -6.8775338481573272 -1.6931811549220583 0 0 0 0 -7.3651974776212228 -6.3580197421397315 0 -6.3580197421397315 7.7050258332178032 0 0 0 0 -7.595658225564307 -6.7648355712990451 0 -6.7648355712990451 8.2486748181836447 0 0 0 0 -4.7239493778794825 -3.3045762812719062 0 -3.3045762812719062 -0.062579497833652908 0 0 0 0 -12.836720713248724 -1.2094473687102436 0 -1.2094473687102436 4.6357633289153455 0 0 0 0 -13.264270421150286 -1.5677618789995904 0 -1.5677618789995904 5.8643786260072375 0 0 0 0 -12.698873247188203 -0.88249225159233902 0 -0.88249225159233902 5.3816072290937882 0 0 0 0 -16.227282859895013 -1.0722577590713627 0 -1.0722577590713627 0.92163511988474056 0 0 0 0 -7.5242203845587721 -3.0351457290654196 0 -3.0351457290654196 -1.1630266728939489 0 0 0 0 -1.739472945757484 1.626957686865353 0 1.626957686865353 -2.5096747587813297 0 0 0 0 -1.9633700201810242 -0.24725005026123625 0 -0.24725005026123625 0.03895354832448561 0 0 0 0 -14.389510807788326 -16.347909553456702 0 -16.347909553456702 -9.4476637381449109 0 0 0 0 -12.581804222500853 -24.518188522096466 0 -24.518188522096466 45.210095791815547 0 0 0 0 -14.049722925456194 13.344472860331734 0 13.344472860331734 54.759561975683027 0 0 0 0 5.8613703676945761 4.244091599357489 0 4.244091599357489 -0.24618736447882839 0 0 0 0 0.036505430005263406 5.7807122646918288 0 5.7807122646918288 40.529948235955089 0 0 0 0 8.8759462617521194 -10.103328239580151 0 -10.103328239580151 11.249728157825302 0 0 0 0 6.1288813719764903 0.56327286148734856 0 0.56327286148734856 -2.0827689651268884 0 0 0 0 -3.555278660848316 -4.9814474317481654 0 -4.9814474317481654 -5.201219029375352 0 0 0 0 -10.312990941897226 -13.603063301976363 0 -13.603063301976363 -4.2579624571480963 0 0 0 0 1.8454943886961175 -10.309794348867399 0 -10.309794348867399 -8.1356895541248377 0 0 0 0 -21.316437968209243 1.4934861094516236 0 1.4934861094516236 9.6715311563202704 0 0 0 0 2.153621884373365 11.162032074018498 0 11.162032074018498 38.745577141344256 0 0 0 0 14.280355823567447 -6.3479621062760998 0 -6.3479621062760998 10.800806859580916 0 0 0 0 -4.9762502508263937 1.8915390082984231 0 1.8915390082984231 5.5845706667678314 0 0 0 0 0.063025388170006122 -0.6003593646544374 0 -0.6003593646544374 3.8519275471463459 0 0 0 0 -42.00386592003801 -33.573009794716199 0 -33.573009794716199 18.271997081392328 0 0 0 0 0.019138904573709738 -0.9471240050115739 0 -0.9471240050115739 3.5067147750887671 0 0 0 0 -1.6927022035521233 -1.4942715741199208 0 -1.4942715741199208 3.3759838413679972 0 0 0 0 -2.4587375692762055 -2.0668081622679892 0 -2.0668081622679892 6.0506114552190411 0 0 0 0 -0.022829174979950777 -9.3568684982070032 0 -9.3568684982070032 -9.4541988279670477 0 0 0 0 -2.3921662421632313 -2.1810405790783989 0 -2.1810405790783989 5.0337540091204573 0 0 0 0 -1.7141992088730973 -1.3165943767307908 0 -1.3165943767307908 4.7417947219801135 0 0 0 0 -0.37194677066375131 -1.3189719497183106 0 -1.3189719497183106 5.185493197576875 0 0 0 0 -3.1651355831406818 -6.0597511475007195 0 -6.0597511475007195 5.691247075679712 0 0 0 0 -5.1333082186085086 -12.499862426800973 0 -12.499862426800973 -0.58219892141642049 0 0 0 0 1.3073375068605393 -4.1635956094043323 0 -4.1635956094043323 6.7533170549751276 0 0 0 0 -1.2010506320973096 -9.2490273046478251 0 -9.2490273046478251 -10.783204910243512 0 0 0 0 1.3018611010164509 -15.311465249815228 0 -15.311465249815228 -6.1453044366644463 0 0 0 0 0.42004331033440689 -0.84633029571372731 0 -0.84633029571372731 1.2143369049339725 0 0 0 0 -8.4652131516892659 -8.1923477370146429 0 -8.1923477370146429 0.80152477056253701 0 0 0 0 -16.491668301947357 117.74644657809313 0 117.74644657809313 -46.155881079983374 0 0 0 0 -46.929938011213835 45.216064761734742 0 45.216064761734742 270.89702443551505 0 0 0 0 241.30356612737904 -64.874717329337727 0 -64.874717329337727 -86.464390295022895 0 0 0 0 -21.615494361702758 39.714985518450703 0 39.714985518450703 219.96653583102147 0 0 0 0 43.156485365581716 -221.44609705466792 0 -221.44609705466792 208.10460028402304 0 0 0 0 254.07737871278022 -244.89608550805133 0 -244.89608550805133 187.38618330261761 0 0 0 0 -56.331522285740448 -67.084364854097657 0 -67.084364854097657 176.33703143374441 0 0 0 0 -15.629331357693673 -57.602621298865415 0 -57.602621298865415 64.464666284089617 0 0 0 0 -16.991067025745487 -13.713246548266099 0 -13.713246548266099 12.568478249687317 0 0 0 0 -76.661416760925476 1.5499292962231266 0 1.5499292962231266 64.80254435257666 0 0 0 0 -0.66773106500465929 -15.435096337812865 0 -15.435096337812865 50.380953565290838 0 0 0 0 2.4082676387905195 -31.963471739017905 0 -31.963471739017905 86.690740446691052 0 0 0 0 -12.488751053571889 -3.298902197986294 0 -3.298902197986294 -1.3923377296852664 0 0 0 0 1.7565932261948518 -37.124264368998411 0 -37.124264368998411 133.65376534239476 0 0 0 0 -15.969477459727159 49.893604593635246 0 49.893604593635246 151.17794667157068 0 0 0 0 81.403353716171637 51.603654183152685 0 51.603654183152685 73.241341200307943 0 0 0 0 -48.331621049864253 0.37542274756560801 0 0.37542274756560801 221.54600281792227 0 0 0 0 -40.399084717920005 -68.705986080998628 0 -68.705986080998628 177.22349082343862 0 0 0 0 -53.947858974741223 -30.094582195538806 0 -30.094582195538806 177.33959597223293 0 0 0 0 -32.936191148324838 1.594158464922657 0 1.594158464922657 146.20181801155559 0 0 0 0 0.70065054597360188 -79.371663741802195 0 -79.371663741802195 218.21770612200635 0 0 0 0 3.9398709277120361 -46.417587189731421 0 -46.417587189731421 144.69178494289372 0 0 0 0 -6.5412175128890873 -1.2320737179220203 0 -1.2320737179220203 1.1818311577666236 0 0 0 0 -8.9436403870706727 61.024778811930446 0 61.024778811930446 -131.17793748995791 0 0 0 0 45.147493262094713 -53.915655486682226 0 -53.915655486682226 176.31402629598597 0 0 0 0 -26.929336861441385 -39.514605049547299 0 -39.514605049547299 193.62999798485544 0 0 0 0 760.58106420013428 362.15188420045888 0 362.15188420045888 336.20537505182438 0 0 0 0 8.3575952122995432 -142.36776168008782 0 -142.36776168008782 419.8448854561575 0 0 0 0 40.336023661892341 30.32781109433563 0 30.32781109433563 296.47378641572141 0 0 0 0 128.95799721315598 -46.834923859452829 0 -46.834923859452829 148.62661264406779 0 0 0 0 -673.49894376626708 -124.62802179019127 0 -124.62802179019127 551.73528016848286 0 0 0 0 44.690942599956088 -93.602428155376401 0 -93.602428155376401 224.06531759096833 0 0 0 0 -27.133291581435515 -86.760838857459021 0 -86.760838857459021 236.66836552951281 0 0 0 0 3.0916935355330679 190.45543525169705 0 190.45543525169705 416.67264761730803 0 0 0 0 2.4660995944793971 -2.6752949078699686 0 -2.6752949078699686 3.2597937944303226 0 0 0 0 195.12463832940637 -86.869173884341762 0 -86.869173884341762 -57.546414706455835 0 0 0 0 156.27328987264355 -238.78125445495243 0 -238.78125445495243 -109.56199507926067 0 0 0 0 -44.760939824919035 -208.18229519813895 0 -208.18229519813895 -4.7859965433017351 0 0 0 0 -2.1685993809926716 -0.11684271906015908 0 -0.11684271906015908 1.1015131905895004 0 0 0 0 -44.385392058336038 -76.202025712254908 0 -76.202025712254908 195.47930980414094 0 0 0 0 -42.983678875792975 -108.31063630562858 0 -108.31063630562858 305.1894811727343 0 0 0 0 -44.706947013190756 -68.734127499370516 0 -68.734127499370516 231.9566373299167 0 0 0 0 -17.969068327713103 -73.510166691070481 0 -73.510166691070481 222.85600518292995 0 0 0 0 -22.317563698045888 34.74816445532997 0 34.74816445532997 143.45384213198849 0 0 0 0 -45.483574312778273 -34.833983639837243 0 -34.833983639837243 249.65307957406549 0 0 0 0 -9.828033814527771 -13.207013674360496 0 -13.207013674360496 106.38464836704952 0 0 0 0 -41.472559454618079 -25.369865385429875 0 -25.369865385429875 169.97104814571503 0 0 0 0 -22.406345672587122 -42.536517625794659 0 -42.536517625794659 142.92751644241798 0 0 0 0 -34.661278935560858 -39.086210604589724 0 -39.086210604589724 60.026983823117916 0 0 0 0 10.480412541741771 -17.529187693682616 0 -17.529187693682616 55.442324329422263 0 0 0 0 5.6413712393962125 -7.3150903690814744 0 -7.3150903690814744 9.7313578261430678 0 0 0 0 3.2312546176235628 -25.282409148550869 0 -25.282409148550869 -10.556013779620116 0 0 0 0 -83.6963778143338 -67.836277573675034 0 -67.836277573675034 56.49631878555374 0 0 0 0 -20.68766622561634 0.13711880028131418 0 0.13711880028131418 23.099002388842564 0 0 0 0 39.833366414344709 -74.091655112821172 0 -74.091655112821172 -54.300490436160544 0 0 0 0 49.313262813528809 -136.83627721939047 0 -136.83627721939047 37.941248010531126 0 0 0 0 -23.821318549422585 -4.9096520033490378 0 -4.9096520033490378 63.758576394182455 0 0 0 0 16.387789523988658 26.664724474416289 0 26.664724474416289 33.151302404694434 0 0 0 0 -10.769331439958478 8.3907354980437958 0 8.3907354980437958 31.987627011938457 0 0 0 0 -11.068246898368017 6.4300979751742489 0 6.4300979751742489 19.263076906783681 0 0 0 0 -47.03804141980072 -24.003172921946771 0 -24.003172921946771 34.304545091683394 0 0 0 0 5.6110343586404827 -11.248956783160388 0 -11.248956783160388 15.977453833903581 0 0 0 0 -7.4035954167416094 -38.768054822823615 0 -38.768054822823615 -8.8573376412259677 0 0 0 0 -41.949572104912477 -0.2794911623459484 0 -0.2794911623459484 36.67356837533589 0 0 0 0 -15.617165199433657 7.7754920400620904 0 7.7754920400620904 36.780756876289161 0 0 0 0 -26.827198673478279 -19.112594033255846 0 -19.112594033255846 30.569616346838302 0 0 0 0 -0.10510530202873269 44.573267804858915 0 44.573267804858915 33.822954907259373 0 0 0 0 -15.720621027828773 5.0680218849988847 0 5.0680218849988847 11.968608454538213 0 0 0 0 -31.55451152861815 -38.894451173451671 0 -38.894451173451671 52.773650984810956 0 0 0 0 49.327594344862064 37.93907048618712 0 37.93907048618712 34.270733994638704 0 0 0 0 57.563115143866526 -54.896019144121965 0 -54.896019144121965 55.646175161276915 0 0 0 0 -32.729249006144641 -16.680408957479813 0 -16.680408957479813 128.48913930301205 0 0 0 0 -31.926990697740166 -11.124328980593418 0 -11.124328980593418 78.286633930962125 0 0 0 0 -19.464694895920445 -22.284565857678899 0 -22.284565857678899 72.188127737681498 0 0 0 0 -6.1021374411341185 -10.162660003174096 0 -10.162660003174096 12.706428986915853 0 0 0 0 16.098902377399327 -57.182260738220066 0 -57.182260738220066 69.413061235733039 0 0 0 0 -0.4103489608803238 -1.1704894825970911 0 -1.1704894825970911 1.3079881214098634 0 0 0 0 51.602719194185283 39.798954638295982 0 39.798954638295982 9.9337845847330755 0 0 0 0 -20.475020170766555 8.5948532097654606 0 8.5948532097654606 7.3396231739898212 0 0 0 0 -13.278640427445378 7.9576751111987107 0 7.9576751111987107 10.081933549108157 0 0 0 0 -1.5625784383850032 1.4531733281146444 0 1.4531733281146444 21.350414554788586 0 0 0 0 -28.493192011394569 -4.2456485007533047 0 -4.2456485007533047 91.940126537581818 0 0 0 0 -15.208316977620921 7.3130885566180268 0 7.3130885566180268 10.788201721919762 0 0 0 0 -13.770468634591566 -0.60384623166464735 0 -0.60384623166464735 60.98046903879731 0 0 0 0 -9.4353433697056062 -10.041034661491722 0 -10.041034661491722 39.993558037829644 0 0 0 0 -13.83643927985122 8.2056439686493832 0 8.2056439686493832 56.299894886084076 0 0 0 0 -17.00026157676804 -35.045399119731655 0 -35.045399119731655 114.34201005670911 0 0 0 0 -10.108325895675094 5.1977812183864671 0 5.1977812183864671 20.538956373759731 0 0 0 0 0.0089828994993983446 0.2868349098874674 0 0.2868349098874674 19.126301062327457 0 0 0 0 13.109338866329836 -4.3942141600819014 0 -4.3942141600819014 42.473411436654715 0 0 0 0 -11.915646063895792 -6.7259027126601723 0 -6.7259027126601723 28.268771415798255 0 0 0 0 41.991419871945027 -36.557683298449774 0 -36.557683298449774 24.330434590840014 0 0 0 0 29.116422779711684 -37.898565487750602 0 -37.898565487750602 113.25106660289748 0 0 0 0 1.6410594599066224 -11.481803292104104 0 -11.481803292104104 27.901793338986792 0 0 0 0 22.371954950301642 -35.795230337309476 0 -35.795230337309476 45.360277680039871 0 0 0 0 -2.2192018112307323 -1.3297757171749254 0 -1.3297757171749254 13.19662287767278 0 0 0 0 -24.026026766614777 -2.3780071330365899 0 -2.3780071330365899 18.136392049229471 0 0 0 0 131.48334305939977 -67.727345727723332 0 -67.727345727723332 30.171066352406342 0 0 0 0 -0.85101209895890562 -1.096423162882509 0 -1.096423162882509 12.099772354507678 0 0 0 0 16.469673230419176 -66.402354186902812 0 -66.402354186902812 92.763524000223697 0 0 0 0 99.557665391549335 -61.172225330878064 0 -61.172225330878064 72.333297849116207 0 0 0 0 -0.59921483871028614 -1.6377657649011788 0 -1.6377657649011788 4.6160255419156329 0 0 0 0 11.204185425695099 -8.7648116604227653 0 -8.7648116604227653 2.6334939258231316 0 0 0 0 33.437834533094005 58.113361688323494 0 58.113361688323494 52.796675835088536 0 0 0 0 -24.949223145384735 -68.582085693077715 0 -68.582085693077715 81.855464013948222 0 0 0 0 -72.802159726034915 -54.592744030363974 0 -54.592744030363974 106.25413481137002 0 0 0 0 4.0002188847220133 -30.265551166791948 0 -30.265551166791948 72.803772099672813 0 0 0 0 8.7354740564842359 -43.328972773294481 0 -43.328972773294481 38.15719839141093 0 0 0 0 -53.204865190497003 -71.409149530103605 0 -71.409149530103605 76.057753884433623 0 0 0 0 8.4390740416949956 -22.839008650374637 0 -22.839008650374637 66.879783802537588 0 0 0 0 -43.930711063372712 -35.320684554202671 0 -35.320684554202671 81.98047111377673 0 0 0 0 -17.358064789127639 -17.217840285842613 0 -17.217840285842613 67.758043328525673 0 0 0 0 -8.8640623316862275 -18.481874322960721 0 -18.481874322960721 59.165419917218969 0 0 0 0 21.622406406556593 -32.121230320892209 0 -32.121230320892209 28.941845242879936 0 0 0 0 -3.3427403064938517 -42.331592618987997 0 -42.331592618987997 42.165985575476952 0 0 0 0 4.8322286798272689 -18.932770398664925 0 -18.932770398664925 58.195363695881625 0 0 0 0 -10.431728892454771 -12.972645248146364 0 -12.972645248146364 74.452227563109773 0 0 0 0 -4.3974938918699991 -7.1760045050286863 0 -7.1760045050286863 67.205340801729108 0 0 0 0 -6.6620504614943457 -7.7739685158339853 0 -7.7739685158339853 72.281507928491919 0 0 0 0 5.5634893766859932 -0.4655282621315564 0 -0.4655282621315564 61.445894872995268 0 0 0 0 4.7012124879383919 -2.7285830450091453 0 -2.7285830450091453 72.296539316769667 0 0 0 0 -1.1441688242362034 0.99074788140478631 0 0.99074788140478631 75.275415293988772 0 0 0 0 12.72957129327915 -6.9870768545770261 0 -6.9870768545770261 67.375112139234261 0 0 0 0 11.87463303548418 -4.887273075707526 0 -4.887273075707526 81.798913131708105 0 0 0 0 -1.6632993098836337 -22.832136379004723 0 -22.832136379004723 44.838989149841531 0 0 0 0 9.241243257501992 13.099104597738915 0 13.099104597738915 16.656014702066386 0 0 0 0 -4.442062172342105 1.8472322156881518 0 1.8472322156881518 23.097348190360428 0 0 0 0 7.2656705148036735 14.266609999572665 0 14.266609999572665 75.981559148545784 0 0 0 0 1.8520855243186816 -15.040269635977893 0 -15.040269635977893 75.504595284903189 0 0 0 0 43.873078696343327 12.689777860810864 0 12.689777860810864 78.601222995792341 0 0 0 0 -6.1612267507098295 5.5716354570176918 0 5.5716354570176918 143.09252854597435 0 0 0 0 -4.4905242434642787 0.92933623338285543 0 0.92933623338285543 88.066233475583431 0 0 0 0 0.16112843433984381 -6.8548578730915324 0 -6.8548578730915324 95.048526506234339 0 0 0 0 -14.458152463814599 -9.6037818300947038 0 -9.6037818300947038 77.319758749086759 0 0 0 0 -1.7129945293609126 -16.00917415985532 0 -16.00917415985532 57.884760278338945 0 0 0 0 6.5364553514946238 -5.0648478696712118 0 -5.0648478696712118 61.747439287134057 0 0 0 0 -9.5916598139958786 -10.37156009456395 0 -10.37156009456395 16.685965321399291 0 0 0 0 -6.091845206415659 -23.713754578113704 0 -23.713754578113704 44.665961116681217 0 0 0 0 11.512414969664263 -84.080990441699214 0 -84.080990441699214 30.566065238876035 0 0 0 0 37.94638974442114 42.954474972022581 0 42.954474972022581 176.58289320179028 0 0 0 0 126.2497186373057 -97.449113490845775 0 -97.449113490845775 133.76640176013461 0 0 0 0 -27.055028617392963 5.6674503187641676 0 5.6674503187641676 65.304768852005509 0 0 0 0 -10.860091678984872 -4.7909567034853353 0 -4.7909567034853353 70.41562787697967 0 0 0 0 -37.713133040455432 -71.96843218552317 0 -71.96843218552317 163.09988414747932 0 0 0 0 -6.4253509386572194 -26.983026949888405 0 -26.983026949888405 70.69533422896049 0 0 0 0 68.219601518384479 -27.004887468710876 0 -27.004887468710876 16.900611228813432 0 0 0 0 2.5445160308258892 19.72929232440697 0 19.72929232440697 -8.7391694019679562 0 0 0 0 -25.642396533326508 8.3513285997437734 0 8.3513285997437734 57.123027321060974 0 0 0 0 -70.726298882866104 -19.499379183249403 0 -19.499379183249403 147.5367459911613 0 0 0 0 20.231533250734174 85.651519220606133 0 85.651519220606133 63.70061765770879 0 0 0 0 -23.752279811502994 10.520516317856107 0 10.520516317856107 34.962580867439726 0 0 0 0 -68.253863288174216 -35.914041442522375 0 -35.914041442522375 231.51177898501192 0 0 0 0 -3.6066590942174077 6.3092210684159751 0 6.3092210684159751 -1.2575550858768594 0 0 0 0 105.51790629207289 -122.02386677339837 0 -122.02386677339837 154.29684254157473 0 0 0 0 6.9080982454806872 41.64487169043241 0 41.64487169043241 -18.246675545144171 0 0 0 0 -115.96703612718102 12.487811451017478 0 12.487811451017478 158.03211229958106 0 0 0 0 -12.646231806131372 -3.0487731161140532 0 -3.0487731161140532 41.26060202582552 0 0 0 0 -29.100223964006091 28.457978935448409 0 28.457978935448409 191.50382612515023 0 0 0 0 83.326259364490397 -185.08304105595926 0 -185.08304105595926 207.09222270712087 0 0 0 0 0.20570371752695493 0.77591465378199587 0 0.77591465378199587 0.57620907400884391 0 0 0 0 -4.5941699175637041 -37.509145372918283 0 -37.509145372918283 97.521003140955145 0 0 0 0 -6.0515508433088598 -32.237518002040815 0 -32.237518002040815 128.91066342249178 0 0 0 0 14.570024041254328 -38.784550062366179 0 -38.784550062366179 127.33141574608999 0 0 0 0 -1.2632728288645012 -38.389396180427866 0 -38.389396180427866 256.13772005417559 0 0 0 0 -11.996429083459134 -7.8466300502514059 0 -7.8466300502514059 38.269130152784783 0 0 0 0 1.1320702382731724 -13.451273697897705 0 -13.451273697897705 37.439484279322642 0 0 0 0 33.941582677104861 -62.988808826570676 0 -62.988808826570676 92.867052058310946 0 0 0 0 39.686864057423918 -51.291088632360697 0 -51.291088632360697 82.68483160337928 0 0 0 0 -4.5030671214290052 0.74954086401939435 0 0.74954086401939435 13.253407979919274 0 0 0 0 -6.5633648810260308 -0.055246330774494368 0 -0.055246330774494368 16.164075625316116 0 0 0 0 -1.6677182850703502 -38.423020849091699 0 -38.423020849091699 83.750320304578054 0 0 0 0 -0.067198140017808328 -64.720502229698468 0 -64.720502229698468 106.46930997933305 0 0 0 0 1.6684452830693268 -21.225713524328071 0 -21.225713524328071 45.827459482093161 0 0 0 0 -13.747218869926328 -29.573007337625036 0 -29.573007337625036 22.633553773765755 0 0 0 0 -14.998742270157322 -19.12639575257117 0 -19.12639575257117 43.285518709657481 0 0 0 0 -16.669430515055865 -31.438583322546037 0 -31.438583322546037 39.226858971713227 0 0 0 0 -33.368649261727569 -31.300041737886204 0 -31.300041737886204 48.123721796568134 0 0 0 0 -4.8261012672506354 -46.132800888255588 0 -46.132800888255588 34.20419713038973 0 0 0 0 5.091163538592828 -15.998952567488523 0 -15.998952567488523 35.558074402379106 0 0 0 0 -29.544271752375892 -19.332439651421737 0 -19.332439651421737 52.280163278395776 0 0 0 0 -6.3308397117976227 -46.951132157959364 0 -46.951132157959364 57.144609258975834 0 0 0 0 -29.526946876557304 -30.354893226445711 0 -30.354893226445711 9.5717160091735423 0 0 0 0 5.2015341335999876 -20.929625961160049 0 -20.929625961160049 -3.285898587325903 0 0 0 0 27.085877922068903 -51.461363078284194 0 -51.461363078284194 53.745541884665727 0 0 0 0 -13.86411176035603 -35.630400484880234 0 -35.630400484880234 57.594960961544018 0 0 0 0 -33.06368856155575 -30.592639980037347 0 -30.592639980037347 49.864333065866958 0 0 0 0 -8.4760596920765217 -55.216176293531817 0 -55.216176293531817 70.544440630943086 0 0 0 0 -7.446663406736068 -25.822469608617638 0 -25.822469608617638 66.715558450177213 0 0 0 0 -0.56607153824456979 -18.17671902881434 0 -18.17671902881434 35.664505915055983 0 0 0 0 -10.662757970934081 -12.287231931604765 0 -12.287231931604765 37.366301503920113 0 0 0 0 -2.5833925042361146 -21.303504550441893 0 -21.303504550441893 47.758188107368582 0 0 0 0 -12.762490962643824 -24.158294052300334 0 -24.158294052300334 54.597959614868159 0 0 0 0 -30.858246452170079 -101.32579483841937 0 -101.32579483841937 139.67285728755087 0 0 0 0 78.08048167421839 4.5546481604960718 0 4.5546481604960718 28.703624172703712 0 0 0 0 2.7748987575123891 -7.6709131901503085 0 -7.6709131901503085 20.587553058533587 0 0 0 0 76.779386846218131 -103.08939349649154 0 -103.08939349649154 75.348828419586425 0 0 0 0 -7.3816230800198355 20.240341295668259 0 20.240341295668259 39.945040741560661 0 0 0 0 -6.0793418208359071 -21.56755790358693 0 -21.56755790358693 48.757442523251029 0 0 0 0 -5.8912992593420768 -14.096681633943263 0 -14.096681633943263 71.378933384516131 0 0 0 0 -7.8825311500572752 -21.85071726003298 0 -21.85071726003298 58.838271585980692 0 0 0 0 -13.288388464579384 -23.234782745874327 0 -23.234782745874327 70.334910881992982 0 0 0 0 -4.3893534836588515 -14.813918523230313 0 -14.813918523230313 72.125428156203796 0 0 0 0 -7.2552070244137212 -27.284915159938464 0 -27.284915159938464 72.219386487777228 0 0 0 0 -25.120762693658435 -50.89770725485505 0 -50.89770725485505 -37.427873942622682 0 0 0 0 -6.3986454143528793 -26.390805620235312 0 -26.390805620235312 51.117653301352561 0 0 0 0 131.42294043999937 -38.49755437121712 0 -38.49755437121712 -36.452657111047301 0 0 0 0 -17.888382285070293 -31.407004182907258 0 -31.407004182907258 56.935128875392365 0 0 0 0 -3.2084456442988856 -23.453017403605735 0 -23.453017403605735 45.404431581481795 0 0 0 0 -29.074294329404324 -70.446154435624976 0 -70.446154435624976 26.475658009185281 0 0 0 0 -41.134311169089415 -2.0340303969642264 0 -2.0340303969642264 140.43579768700874 0 0 0 0 36.779083490137964 70.324164455923892 0 70.324164455923892 118.99586259204443 0 0 0 0 -34.373164240092365 -65.57549157224139 0 -65.57549157224139 245.00562554071803 0 0 0 0 -153.73771590368597 -38.602635732417184 0 -38.602635732417184 155.60526013060735 0 0 0 0 -194.1780522127633 170.26410959981149 0 170.26410959981149 170.3261188766337 0 0 0 0 -9.8500867490101189 -9.005690748134775 0 -9.005690748134775 78.922486850310577 0 0 0 0 -54.720544974024961 -187.84297772212085 0 -187.84297772212085 278.48333699079012 0 0 0 0 422.78039727448595 245.30871037548059 0 245.30871037548059 -384.65920074170572 0 0 0 0 19.212331705260112 -160.32893753737153 0 -160.32893753737153 348.45613544502703 0 0 0 0 -7.7193882443196458 41.717520041383978 0 41.717520041383978 31.111584199221397 0 0 0 0 51.887119898169203 -135.00481389893685 0 -135.00481389893685 362.22529932305042 0 0 0 0 -41.576903706680469 -37.784677214272961 0 -37.784677214272961 52.948741278334637 0 0 0 0 3.9282299094209607 -3.914543189871182 0 -3.914543189871182 -1.725974711380502 0 0 0 0 0.3104888615289787 -1.4974133581040547 0 -1.4974133581040547 5.5852310742752707 0 0 0 0 -7.8114467073472929 -13.800956087297674 0 -13.800956087297674 72.752060548390432 0 0 0 0 73.342016060058995 178.04110451994347 0 178.04110451994347 51.868599858680682 0 0 0 0 -100.5701847581804 61.488645354651453 0 61.488645354651453 34.697711597618763 0 0 0 0 -123.53459289280698 -122.24867080383228 0 -122.24867080383228 174.65158214556868 0 0 0 0 412.57430308386392 -568.91521446619299 0 -568.91521446619299 438.20303196337773 0 0 0 0 4.8490585706598495 -46.165579037557109 0 -46.165579037557109 86.814810041205419 0 0 0 0 7.8201253622637523 -34.990268327191302 0 -34.990268327191302 102.89064112118103 0 0 0 0 -3.0848180322894905 -3.9984182649415061 0 -3.9984182649415061 102.37058904965482 0 0 0 0 2.3509508122842817 -16.461906991697106 0 -16.461906991697106 36.09313380539561 0 0 0 0 49.667586127377945 -57.810746657331038 0 -57.810746657331038 27.489114320158478 0 0 0 0 19.431789027609739 -34.971594262635335 0 -34.971594262635335 59.907997473934302 0 0 0 0 -3.3887988059677809 -31.679848484014656 0 -31.679848484014656 64.587912236172087 0 0 0 0 -22.606354181056293 -3.0104187054165479 0 -3.0104187054165479 35.907110350119481 0 0 0 0 -15.272191269978521 -19.240494788102296 0 -19.240494788102296 61.79902870620117 0 0 0 0 16.618940897129278 -52.968617604354336 0 -52.968617604354336 77.06115318193406 0 0 0 0 -14.117992889948482 -34.711552966011368 0 -34.711552966011368 37.979157594838398 0 0 0 0 -29.547597356313418 -17.109351692455675 0 -17.109351692455675 94.209370005475648 0 0 0 0 -10.471777762149888 -19.179355649792111 0 -19.179355649792111 52.776434636188071 0 0 0 0 -17.372116945496941 -19.654572899859375 0 -19.654572899859375 62.881077492846089 0 0 0 0 8.6284377794811462 -14.147663257432214 0 -14.147663257432214 59.268858122030906 0 0 0 0 -6.9900762452630261 -19.409322074201555 0 -19.409322074201555 61.533665064597699 0 0 0 0 -10.543682317978892 -18.500435761474364 0 -18.500435761474364 79.671331161807757 0 0 0 0 -0.92522256067877606 -7.8498172927374981 0 -7.8498172927374981 78.298796422063333 0 0 0 0 -8.7169393763274456 -16.027600139134847 0 -16.027600139134847 79.508408423134824 0 0 0 0 -7.884548864979763 18.086846183301532 0 18.086846183301532 96.466597119269863 0 0 0 0 1.0155521253197435 -15.162196212256276 0 -15.162196212256276 92.989095519955299 0 0 0 0 -0.075238947747966911 -30.746582021975357 0 -30.746582021975357 57.809024047058138 0 0 0 0 20.677550105122009 -0.2706884560702747 0 -0.2706884560702747 87.730550671751189 0 0 0 0 6.6005992528454556 -17.18137952853931 0 -17.18137952853931 86.872759667379796 0 0 0 0 -11.413789370008706 14.379133576679846 0 14.379133576679846 46.856500069956695 0 0 0 0 -2.247730810045482 4.3888218055869288 0 4.3888218055869288 185.83025951293075 0 0 0 0 -86.529710865696302 285.27356257867268 0 285.27356257867268 -1244.0562366075446 0 0 0 0 -44.581858914529221 -366.38624531422056 0 -366.38624531422056 -393.72837344195523 0 0 0 0 -10.041565915272962 -9.2756066985531955 0 -9.2756066985531955 13.663465303726174 0 0 0 0 158.74889882598563 -923.61991578631296 0 -923.61991578631296 -110.16484625946305 0 0 0 0 503.73637873597545 -398.9480027165755 0 -398.9480027165755 -1296.730076270348 0 0 0 0 -16.788211881857706 -3.4247578071099269 0 -3.4247578071099269 274.50473313548446 0 0 0 0 198.62619886236172 -69.571969103923436 0 -69.571969103923436 538.80948060033006 0 0 0 0 324.81479451521955 56.628732944402145 0 56.628732944402145 368.35080784032652 0 0 0 0 197.46791533857009 -88.531881110415213 0 -88.531881110415213 282.91505955063258 0 0 0 0 -430.2122787902756 -262.9329650715099 0 -262.9329650715099 260.05281684395322 0 0 0 0 -201.82195620068842 -16.98829075393428 0 -16.98829075393428 171.48364552315888 0 0 0 0 -608.29888714653521 -119.19290339979352 0 -119.19290339979352 165.04771657607307 0 0 0 0 1.5403721022903933 1.6701465250792538 0 1.6701465250792538 -3.0880255270454313 0 0 0 0 -78.891193742645328 431.23361460309116 0 431.23361460309116 467.70320290973177 0 0 0 0 209.43797966521379 426.29133044766968 0 426.29133044766968 107.42536563678732 0 0 0 0 37.531074885976523 213.41577946404141 0 213.41577946404141 408.83661240290235 0 0 0 0 196.03121281691301 151.24666577679272 0 151.24666577679272 413.91381400467071 0 0 0 0 -105.07904702309611 -243.19018176987129 0 -243.19018176987129 620.24034762653901 0 0 0 0 -16.154241761403682 -14.08454176255691 0 -14.08454176255691 137.58058795279794 0 0 0 0 20.213144695203994 -94.468466010104748 0 -94.468466010104748 85.848813132091891 0 0 0 0 -13.524978968861433 -16.539987849664612 0 -16.539987849664612 92.880007004462982 0 0 0 0 5.3571727757145124 -36.089983592869686 0 -36.089983592869686 59.215362322960104 0 0 0 0 28.848637833483735 185.02277459233846 0 185.02277459233846 277.75725421622883 0 0 0 0 -142.52356882345143 39.031470118799348 0 39.031470118799348 210.75934443492406 0 0 0 0 -22.419564923939362 -59.782626352523948 0 -59.782626352523948 72.360730925245662 0 0 0 0 1.4276537216425673 -36.441682366364333 0 -36.441682366364333 73.922764396419296 0 0 0 0 -125.84203778417714 -67.528408565994141 0 -67.528408565994141 159.01883960141458 0 0 0 0 -43.153900462794809 -14.678730752635602 0 -14.678730752635602 147.13647373943036 0 0 0 0 -15.379133186161983 23.157929896067223 0 23.157929896067223 56.494654213812396 0 0 0 0 -8.1881240599575449 1.1566727518402331 0 1.1566727518402331 81.167900863290924 0 0 0 0 -76.913028192428499 31.588147430632034 0 31.588147430632034 58.899513934984498 0 0 0 0 -5.4799472910411282 120.32375542227828 0 120.32375542227828 240.24987040029191 0 0 0 0 -6.7116013898024605 8.7326143638204954 0 8.7326143638204954 15.139366182917442 0 0 0 0 4.2917707983604032 -80.219649686917364 0 -80.219649686917364 -112.97408958855249 0 0 0 0 -6.668658448565127 25.393452183204278 0 25.393452183204278 33.365675462970557 0 0 0 0 -0.92649116648009056 39.294369530628472 0 39.294369530628472 -141.22926236336116 0 0 0 0 12.750476468457407 -35.251967648737718 0 -35.251967648737718 -13.986262608049401 0 0 0 0 -4.3819944166373617 -2.0169477070422843 0 -2.0169477070422843 34.097718591560188 0 0 0 0 -4.1450265424639667 -3.0502272164940223 0 -3.0502272164940223 -1.0213782187265679 0 0 0 0 1.9360874490042415 -18.411184318067193 0 -18.411184318067193 17.597892823840237 0 0 0 0 -168.46864982019815 84.876669846463301 0 84.876669846463301 331.82720023266302 0 0 0 0 359.13870984436073 62.277225035823449 0 62.277225035823449 -25.967701631851014 0 0 0 0 0.07262941058526895 0.68391899561119196 0 0.68391899561119196 6.8242299427284792 0 0 0 0 39.309217675392802 -7.7388091284208258 0 -7.7388091284208258 39.876046500103257 0 0 0 0 -55.295267064275777 50.771526154627281 0 50.771526154627281 53.826886547798495 0 0 0 0 -46.290501530683741 82.051484830165464 0 82.051484830165464 71.833917548394766 0 0 0 0 58.687080974382752 50.010028555104327 0 50.010028555104327 -14.819715107354568 0 0 0 0 171.80557940072867 464.60176399170132 0 464.60176399170132 164.12237358310819 0 0 0 0 -118.18788734196323 -156.04559177126839 0 -156.04559177126839 161.9903289541009 0 0 0 0 -7.5799898407246129 24.87663720683447 0 24.87663720683447 30.795107385930692 0 0 0 0 -24.594625647515727 32.978663486338519 0 32.978663486338519 24.248132406981313 0 0 0 0 12.408314179218905 83.646804954383697 0 83.646804954383697 -24.97009246504058 0 0 0 0 1.4609110392314335 8.7067611996551211 0 8.7067611996551211 12.558175385099176 0 0 0 0 1.6133265315165772 85.738756933102195 0 85.738756933102195 -108.11807469396535 0 0 0 0 -125.248057467546 126.47998679522971 0 126.47998679522971 -10.376145085989265 0 0 0 0 -82.807911890138712 -127.65888559784071 0 -127.65888559784071 66.248507013838207 0 0 0 0 -2.3462449506532721 54.698315236639246 0 54.698315236639246 283.52380630428161 0 0 0 0 40.742156256242197 -83.771086678794745 0 -83.771086678794745 183.87200530749033 0 0 0 0 22.742711680633874 20.524744699007897 0 20.524744699007897 102.02358080340855 0 0 0 0 -49.752742682089774 71.489992127321329 0 71.489992127321329 -4.8144448508828646 0 0 0 0 26.873110119427793 -18.564198387636907 0 -18.564198387636907 21.830093069103896 0 0 0 0 32.632878649359554 -11.462810772696685 0 -11.462810772696685 43.312791568354442 0 0 0 0 -20.993754430521221 -3.7316957098573766 0 -3.7316957098573766 45.353674242272973 0 0 0 0 21.476261958925534 -51.312333438277165 0 -51.312333438277165 54.85156125926369 0 0 0 0 -33.655111184022644 -63.388460812260291 0 -63.388460812260291 52.893308581657038 0 0 0 0 0.99448880047930288 -59.549758662413296 0 -59.549758662413296 126.26106964613427 0 0 0 0 5.7719486234391297 -24.193229356016673 0 -24.193229356016673 209.1652877498309 0 0 0 0 46.387861893263107 -30.642295131651736 0 -30.642295131651736 127.00724952077408 0 0 0 0 49.780490790232761 -59.886442923197137 0 -59.886442923197137 109.45740310063957 0 0 0 0 42.916506225359882 28.071270169104665 0 28.071270169104665 365.89199749989348 0 0 0 0 46.044119532279012 -73.026330064715452 0 -73.026330064715452 232.20077731668243 0 0 0 0 22.863762142658743 23.110230632752973 0 23.110230632752973 342.35095529848968 0 0 0 0 78.286803214417887 100.29584836401227 0 100.29584836401227 410.48211325624607 0 0 0 0 78.697360939288046 6.5980261866388901 0 6.5980261866388901 346.94503960834572 0 0 0 0 35.080308970047554 13.68894401357602 0 13.68894401357602 444.09620729910603 0 0 0 0 93.933582975196259 148.9868416776726 0 148.9868416776726 572.97946416832383 0 0 0 0 44.339213464473687 97.854297180998401 0 97.854297180998401 573.83794412505631 0 0 0 0 -16.544384367327439 -41.987263461298426 0 -41.987263461298426 835.17356343432766 0 0 0 0 -39.554686639200554 142.5681637080279 0 142.5681637080279 502.69629537672699 0 0 0 0 10.201530241862542 -47.746802539189162 0 -47.746802539189162 384.96204023090104 0 0 0 0 34.859565661638953 76.723385174200303 0 76.723385174200303 560.64035219609241 0 0 0 0 47.929798623476017 -28.42994919589637 0 -28.42994919589637 394.5379060208943 0 0 0 0 -61.680414470270989 -138.90555670262529 0 -138.90555670262529 101.66216419879811 0 0 0 0 -57.087068594668381 -136.48163864884373 0 -136.48163864884373 57.484936573553568 0 0 0 0 -85.274651990890561 -144.97552316005203 0 -144.97552316005203 101.80234914951464 0 0 0 0 -75.510898441033532 -129.64246820999278 0 -129.64246820999278 99.267309238875896 0 0 0 0 -34.489781564036093 -117.63736422918373 0 -117.63736422918373 43.320875357076147 0 0 0 0 -38.992863494324411 -111.14565743286039 0 -111.14565743286039 146.36406335379252 0 0 0 0 -16.742670230112708 -118.74279898996247 0 -118.74279898996247 96.137935195668206 0 0 0 0 -24.71932921966436 -110.00120056590458 0 -110.00120056590458 108.23024799586892 0 0 0 0 2.8007506475369155 -69.187133473418726 0 -69.187133473418726 125.90957582481224 0 0 0 0 -9.9336343963313993 -78.494106735768582 0 -78.494106735768582 52.076377321911423 0 0 0 0 -54.487870360131637 -85.461314871561626 0 -85.461314871561626 90.432683469636686 0 0 0 0 -21.618640457071706 -56.687109616643284 0 -56.687109616643284 128.96294139123347 0 0 0 0 3.5857430047635717 -92.890861333422436 0 -92.890861333422436 65.209430973634881 0 0 0 0 27.53136739570482 -82.962764951249483 0 -82.962764951249483 139.55005816310222 0 0 0 0 13.870868766682179 -28.640256509920619 0 -28.640256509920619 208.48069855173435 0 0 0 0 51.83652799817628 -51.820318784146593 0 -51.820318784146593 220.50731805621945 0 0 0 0 19.593536498159665 -3.6106547583976862 0 -3.6106547583976862 316.00184899005762 0 0 0 0 83.467799869698865 45.217027144263739 0 45.217027144263739 300.46613150875328 0 0 0 0 52.943699237819601 -46.664446574251087 0 -46.664446574251087 200.08848427399971 0 0 0 0 14.01586936779313 -21.311343619252511 0 -21.311343619252511 261.98708441064173 0 0 0 0 -2.1945029815433372 -54.775152875936328 0 -54.775152875936328 210.52061479289478 0 0 0 0 16.537849204186841 -92.358416884808321 0 -92.358416884808321 152.7017396218871 0 0 0 0 22.892780550388125 -82.268465125615421 0 -82.268465125615421 138.32777129456736 0 0 0 0 -14.297639032434745 -84.820934820176262 0 -84.820934820176262 179.72378685053627 0 0 0 0 13.620316865524728 -81.470841824146191 0 -81.470841824146191 150.33787032294458 0 0 0 0 51.177391804947547 -40.784874608971222 0 -40.784874608971222 165.59316693303117 0 0 0 0 -24.434972880808346 -152.15087473790663 0 -152.15087473790663 23.524165007157535 0 0 0 0 6.9573784255098872 -75.886380683883544 0 -75.886380683883544 145.97078888691794 0 0 0 0 41.585009731552418 -21.875001468509936 0 -21.875001468509936 100.98463479733982 0 0 0 0 -65.985771450270477 -137.1824854030765 0 -137.1824854030765 127.19816437829832 0 0 0 0 4.8231625261059889 -114.12197184859951 0 -114.12197184859951 104.56692321959235 0 0 0 0 -2.4827103906900447 26.134026735998305 0 26.134026735998305 324.23044868041688 0 0 0 0 -4.3343897301165271 41.340747318606191 0 41.340747318606191 334.79235189114024 0 0 0 0 1.0406906991702272 29.486939380233707 0 29.486939380233707 358.40402227856248 0 0 0 0 49.283620607682678 46.277307047939757 0 46.277307047939757 333.1264913165287 0 0 0 0 -15.938010795811351 50.947773492837314 0 50.947773492837314 333.78780719515271 0 0 0 0 42.257995939002285 32.117463363872957 0 32.117463363872957 193.52372976741299 0 0 0 0 32.018452135005646 -18.570579238905339 0 -18.570579238905339 101.16738107525725 0 0 0 0 38.4527878820561 49.188275050536575 0 49.188275050536575 318.6813332061829 0 0 0 0 40.201094477015431 -0.43825566624582279 0 -0.43825566624582279 252.70706534219789 0 0 0 0 62.055517183239601 88.109722989651942 0 88.109722989651942 368.94185008815111 0 0 0 0 62.841722924564237 45.987718244429743 0 45.987718244429743 319.27434606875795 0 0 0 0 39.194715540150355 77.967298196548654 0 77.967298196548654 283.8705274365152 0 0 0 0 37.050174450469058 77.490223986579167 0 77.490223986579167 358.67244090032182 0 0 0 0 103.50643980130553 65.397209924110939 0 65.397209924110939 351.65239693118019 0 0 0 0 76.901649281000573 114.32340033562468 0 114.32340033562468 399.27940936306913 0 0 0 0 94.390039552454255 92.349326528325037 0 92.349326528325037 360.06603162296051 0 0 0 0 93.395882526485366 100.22022865484359 0 100.22022865484359 448.16135661258886 0 0 0 0 83.812159089804481 122.05566485801774 0 122.05566485801774 423.83095598494765 0 0 0 0 123.4535265630584 90.903376143769037 0 90.903376143769037 415.10494858980019 0 0 0 0 116.72344926991718 108.27146374875701 0 108.27146374875701 379.26300002905919 0 0 0 0 64.875362109451089 78.69961730617888 0 78.69961730617888 391.25535911329825 0 0 0 0 76.619230594253168 12.282169557909583 0 12.282169557909583 237.14063068166251 0 0 0 0 38.413563349085052 30.886668351066874 0 30.886668351066874 359.77440110380849 0 0 0 0 83.896426945768326 49.93375419293352 0 49.93375419293352 309.31470600990724 0 0 0 0 103.66819059103182 82.221497363775597 0 82.221497363775597 337.63396851449579 0 0 0 0 66.944319752419688 92.31189659860047 0 92.31189659860047 430.37546019849651 0 0 0 0 105.51056667340526 124.40576266739254 0 124.40576266739254 410.63702562529033 0 0 0 0 95.758101480556434 181.24583922916031 0 181.24583922916031 515.17227041656497 0 0 0 0 159.37075671760249 152.21695770334463 0 152.21695770334463 410.96883220492532 0 0 0 0 -91.200210152661384 248.49355680113308 0 248.49355680113308 -393.36352701300348 0 0 0 0 -565.06423254340734 -289.40623474888616 0 -289.40623474888616 256.72022902077515 0 0 0 0 -16.408596159846638 -29.561010636082301 0 -29.561010636082301 72.376565284062963 0 0 0 0 447.843092347739 -566.52744868879745 0 -566.52744868879745 391.92538034832023 0 0 0 0 -103.89598197758642 -199.05890792837431 0 -199.05890792837431 539.22843184666635 0 0 0 0 471.06247266194259 -326.25175341895192 0 -326.25175341895192 158.88208730286897 0 0 0 0 322.49324075559707 -583.98204609427285 0 -583.98204609427285 201.10264126844231 0 0 0 0 6.0770680162121522 1.8201610788219966 0 1.8201610788219966 -2.7559793572092985 0 0 0 0 182.59995288209757 -327.71235949263064 0 -327.71235949263064 -258.70246136881906 0 0 0 0 -19.817254034001962 15.464193497171436 0 15.464193497171436 334.29120404388368 0 0 0 0 512.83018536362579 -777.53057576772062 0 -777.53057576772062 49.738546691889496 0 0 0 0 97.471152089299721 162.44963616682162 0 162.44963616682162 463.19124905578224 0 0 0 0 52.555155395890367 -34.561731249788608 0 -34.561731249788608 21.106703825740453 0 0 0 0 -457.78850400459487 543.22628547604836 0 543.22628547604836 -307.2871448086853 0 0 0 0 167.93593207060985 142.31371786649379 0 142.31371786649379 377.11819907553399 0 0 0 0 70.038193939173652 87.249500019262996 0 87.249500019262996 376.53573190440511 0 0 0 0 149.28309054749116 64.158993278089838 0 64.158993278089838 369.16949649015623 0 0 0 0 76.161292261356721 63.374504889598029 0 63.374504889598029 407.25820413016299 0 0 0 0 -4.4045445257434039 28.801580795661721 0 28.801580795661721 -43.604484586639956 0 0 0 0 -106.08794422477513 68.292730853516332 0 68.292730853516332 -57.772366874100044 0 0 0 0 -213.19014113972662 -2.7449713228888868 0 -2.7449713228888868 30.89271931107578 0 0 0 0 203.05464325481444 -378.38028592357296 0 -378.38028592357296 91.378557077894584 0 0 0 0 -31.587199561181478 -12.367813829605439 0 -12.367813829605439 -57.651290419698853 0 0 0 0 60.754459591043997 112.37024819550788 0 112.37024819550788 403.02973492826641 0 0 0 0 -87.810180901458807 -103.05473418618203 0 -103.05473418618203 -7.7683380554699397 0 0 0 0 4.8443271987825085 -9.3904850514746343 0 -9.3904850514746343 4.2148699327353825 0 0 0 0 53.744436205834191 -41.902889453287216 0 -41.902889453287216 20.597981493690611 0 0 0 0 92.388497536430805 123.68193039762991 0 123.68193039762991 349.54368031973354 0 0 0 0 63.043814388976898 63.444956538558472 0 63.444956538558472 313.07553221626767 0 0 0 0 56.223924268495466 75.159402342864269 0 75.159402342864269 351.52287317988703 0 0 0 0 48.722471494411366 88.622034035741763 0 88.622034035741763 377.13761266496658 0 0 0 0 51.578283152586664 89.044124501060651 0 89.044124501060651 381.15416622365228 0 0 0 0 55.873128347211605 57.37953282073795 0 57.37953282073795 338.98217894988557 0 0 0 0 57.162781927195283 43.214192036071154 0 43.214192036071154 378.92901294220064 0 0 0 0 28.81295326774125 60.397878228342961 0 60.397878228342961 365.93369039409663 0 0 0 0 55.569484069256987 -333.78099992215994 0 -333.78099992215994 -271.08335756126689 0 0 0 0 45.073743090895732 -440.15436695774861 0 -440.15436695774861 -409.42623027022091 0 0 0 0 -56.836984302608471 -192.21073568610791 0 -192.21073568610791 -287.49423972479167 0 0 0 0 -144.3394446575403 -303.54333169546862 0 -303.54333169546862 -92.346691167394965 0 0 0 0 -202.74186052463119 -468.76412462421342 0 -468.76412462421342 -135.7252278166396 0 0 0 0 -105.76542409198737 -362.98351047808501 0 -362.98351047808501 -60.50038506776491 0 0 0 0 -240.66120866528036 32.137284897985865 0 32.137284897985865 28.274177136408753 0 0 0 0 4.3470781957564917 2.9032523216998314 0 2.9032523216998314 5.0799094342416033 0 0 0 0 -714.96203328717456 -115.64394381954617 0 -115.64394381954617 40.419953721230257 0 0 0 0 -197.54433234363569 -302.20064364499984 0 -302.20064364499984 -97.084192557626125 0 0 0 0 -212.1747532893678 -710.03565330233687 0 -710.03565330233687 -688.01050793388322 0 0 0 0 8.7852335114166031 -3.0296242242033369 0 -3.0296242242033369 1.1045104738660179 0 0 0 0 -898.92237909438518 -22.445870361165817 0 -22.445870361165817 -912.49256477778817 0 0 0 0 70.93814843526161 319.12330606043452 0 319.12330606043452 974.29581248206614 0 0 0 0 -686.95138088935801 -555.76792193141137 0 -555.76792193141137 -203.76120684904572 0 0 0 0 108.08717452309565 114.34568023598194 0 114.34568023598194 542.78615036267911 0 0 0 0 21.591225576310535 75.815144932955263 0 75.815144932955263 536.1661127864063 0 0 0 0 144.36087774450243 172.47504446762969 0 172.47504446762969 482.18950634644148 0 0 0 0 62.152066033148913 193.7042039735793 0 193.7042039735793 653.13287076282268 0 0 0 0 39.722190090256845 38.432686181441113 0 38.432686181441113 407.02376226099113 0 0 0 0 83.10172579497339 105.9564416257931 0 105.9564416257931 477.05631919120151 0 0 0 0 8.0971802990425203 -217.16364339164556 0 -217.16364339164556 -612.45757671290812 0 0 0 0 41.310250217351054 -25.826426304560279 0 -25.826426304560279 14.499104798551087 0 0 0 0 -153.49998923987732 -128.30666480429272 0 -128.30666480429272 -232.30982128549385 0 0 0 0 24.266038746843318 -14.100043533137292 0 -14.100043533137292 7.8425234882583839 0 0 0 0 38.068210943030863 -258.61088866263481 0 -258.61088866263481 -458.46530155067558 0 0 0 0 -53.612060628380277 -89.955420335907547 0 -89.955420335907547 -360.24759640978573 0 0 0 0 -57.387196141666209 -183.07682655914959 0 -183.07682655914959 -210.72844723195158 0 0 0 0 -98.82975410349809 -59.157031873970709 0 -59.157031873970709 -111.29861320746386 0 0 0 0 -64.01317725204899 -133.44140470654736 0 -133.44140470654736 -238.33761943364698 0 0 0 0 -91.498192728928188 -112.33853967959067 0 -112.33853967959067 -66.865486598811003 0 0 0 0 -137.98220541347109 36.77742829122235 0 36.77742829122235 -63.063144994255708 0 0 0 0 -86.229741995761287 -127.22082497309202 0 -127.22082497309202 20.621407197591907 0 0 0 0 -99.423893365667027 -131.79692224640712 0 -131.79692224640712 72.568126359416055 0 0 0 0 -121.70838206084755 -145.0626682681966 0 -145.0626682681966 253.76001270105917 0 0 0 0 -91.888991003765113 -79.746459390140444 0 -79.746459390140444 117.37262886280405 0 0 0 0 -84.818555684705643 -197.6391346354103 0 -197.6391346354103 371.80231540248315 0 0 0 0 -152.97566300062681 -46.364887951649507 0 -46.364887951649507 77.971551025377266 0 0 0 0 -121.17603051731567 -86.223438160666774 0 -86.223438160666774 190.42054419782653 0 0 0 0 -100.58868390556745 -127.9111527236073 0 -127.9111527236073 97.425806047257993 0 0 0 0 -114.98471054490801 -84.065407531938035 0 -84.065407531938035 121.89229165921643 0 0 0 0 -76.24252000915294 -69.890354164406745 0 -69.890354164406745 63.530916559215257 0 0 0 0 -46.21960221433983 -108.69100581861494 0 -108.69100581861494 91.1039743999645 0 0 0 0 -64.532377696200228 -14.606515110074952 0 -14.606515110074952 18.215890310289979 0 0 0 0 -97.449399609216925 -108.23068452575899 0 -108.23068452575899 39.734978462159233 0 0 0 0 -108.16584782598693 -69.067906551087617 0 -69.067906551087617 1.100771883951893 0 0 0 0 -103.65525187562889 -99.934560111770452 0 -99.934560111770452 -73.039024028992571 0 0 0 0 -114.98616492130895 -249.77033932166069 0 -249.77033932166069 5.944079922277524 0 0 0 0 56.897079732306338 -86.54838927376295 0 -86.54838927376295 112.63540638735503 0 0 0 0 -4.026157751591164 -3.3513009552040378 0 -3.3513009552040378 3.8308120170570632 0 0 0 0 20.548577549750917 -75.558006285153169 0 -75.558006285153169 134.4509431317656 0 0 0 0 -153.13692042554612 -44.555368431415445 0 -44.555368431415445 9.3157420929892396 0 0 0 0 -200.19250971616839 -309.51443356308346 0 -309.51443356308346 222.982757066251 0 0 0 0 26.40272538786212 -66.639976972649492 0 -66.639976972649492 147.58604462673657 0 0 0 0 -5.1265410064097638 -6.9683281736401783 0 -6.9683281736401783 6.9090218294337618 0 0 0 0 19.567180884298068 -53.745021608105162 0 -53.745021608105162 35.694165111995972 0 0 0 0 44.144959640799698 -85.463632297379263 0 -85.463632297379263 67.852421649411554 0 0 0 0 59.776153742780593 -13.482953613382506 0 -13.482953613382506 18.145135789454798 0 0 0 0 7.772279189934693 -80.058034999218762 0 -80.058034999218762 105.70737532421481 0 0 0 0 108.92865376236841 -109.14305392669485 0 -109.14305392669485 113.91326224200384 0 0 0 0 6.2297409484963282 -118.71750332476586 0 -118.71750332476586 148.77866169239132 0 0 0 0 167.17180219521856 -118.9911010231408 0 -118.9911010231408 102.03774781419634 0 0 0 0 150.84614137003791 -112.64414347646743 0 -112.64414347646743 101.59819522956241 0 0 0 0 0.01703565790632311 2.8325043929667686 0 2.8325043929667686 4.8918282996095712 0 0 0 0 153.76988574091592 -139.83646822527226 0 -139.83646822527226 117.8626593908848 0 0 0 0 130.34225134517874 -132.28957547644313 0 -132.28957547644313 116.4576083223219 0 0 0 0 147.81888423937087 -147.36158445650142 0 -147.36158445650142 147.13766829922679 0 0 0 0 147.46208028257388 -158.03328310190409 0 -158.03328310190409 148.13751632628919 0 0 0 0 88.806012844002908 -130.18319043255542 0 -130.18319043255542 136.37990737922883 0 0 0 0 14.582453651935793 -142.34036969766021 0 -142.34036969766021 178.67014885679237 0 0 0 0 92.396517915376535 -141.92052673906983 0 -141.92052673906983 153.63521856192529 0 0 0 0 81.1537217969518 -163.88626213241412 0 -163.88626213241412 181.33938816151931 0 0 0 0 37.123571520351106 -144.02459112844372 0 -144.02459112844372 196.05610710828478 0 0 0 0 122.97122807511187 -160.53458327317639 0 -160.53458327317639 182.73372901305265 0 0 0 0 80.409421819937847 -150.57751639045762 0 -150.57751639045762 180.55363981839037 0 0 0 0 -38.339428854691505 -166.34408445169902 0 -166.34408445169902 195.12479211956452 0 0 0 0 -36.640432662953572 -168.19797056803236 0 -168.19797056803236 180.22883158698824 0 0 0 0 1.1091375681899081 -147.44816675666516 0 -147.44816675666516 186.59127716877265 0 0 0 0 -42.875901628831343 -150.88497761435792 0 -150.88497761435792 179.14777469921682 0 0 0 0 18.314406927298933 -157.86072902269461 0 -157.86072902269461 177.66088075537846 0 0 0 0 -37.25176361753347 -163.17913278544893 0 -163.17913278544893 187.48817935027182 0 0 0 0 -93.594964457595779 -143.05839317380378 0 -143.05839317380378 180.31268198189719 0 0 0 0 -53.89005166757488 -123.37215220789585 0 -123.37215220789585 152.11579793423425 0 0 0 0 18.858674831717508 -141.05102765401625 0 -141.05102765401625 156.30385989330534 0 0 0 0 -60.663805176027381 -82.839385912877333 0 -82.839385912877333 105.96411328830436 0 0 0 0 13.537222360957458 -107.12270875804961 0 -107.12270875804961 113.84844336185779 0 0 0 0 -101.87739254297776 -110.2920466620435 0 -110.2920466620435 156.32674858119935 0 0 0 0 -47.570995266345562 -135.44292777559258 0 -135.44292777559258 154.24038139351978 0 0 0 0 -95.028264962351386 -161.76954968336577 0 -161.76954968336577 189.15038743308236 0 0 0 0 -89.927548011190083 -207.87171801422301 0 -207.87171801422301 244.94166176207591 0 0 0 0 -98.460949633434211 -145.59111732017845 0 -145.59111732017845 253.91168722557632 0 0 0 0 -99.132847253786167 -168.2061344489266 0 -168.2061344489266 210.30941505526425 0 0 0 0 -34.24406762712897 -191.69586848603649 0 -191.69586848603649 240.13299360007022 0 0 0 0 54.695371595305915 -128.65399873826027 0 -128.65399873826027 224.26906210344532 0 0 0 0 -76.934690848429454 -196.55942981760018 0 -196.55942981760018 327.17881893058075 0 0 0 0 62.259598523931345 -172.99705012827508 0 -172.99705012827508 27.524384442687733 0 0 0 0 -61.945803304735819 -205.22593329962001 0 -205.22593329962001 180.2047665946593 0 0 0 0 -84.832411474126275 -165.24586095163613 0 -165.24586095163613 146.81851925985029 0 0 0 0 -59.966800875732588 -180.95698443057699 0 -180.95698443057699 100.83861002271442 0 0 0 0 -87.219316893654195 -36.638923605295986 0 -36.638923605295986 -13.241977604106069 0 0 0 0 -82.145956931039109 -178.35344344385157 0 -178.35344344385157 199.29273879711764 0 0 0 0 -79.177028620008059 -178.83181289285858 0 -178.83181289285858 188.97085505659925 0 0 0 0 -89.365089588212868 -189.73093083963067 0 -189.73093083963067 187.18285017740709 0 0 0 0 -89.762891114354716 -192.29774113497479 0 -192.29774113497479 185.30435606433457 0 0 0 0 -60.735694902523392 -165.97190816536022 0 -165.97190816536022 189.74730676453692 0 0 0 0 -64.841610392450093 -181.15576578470336 0 -181.15576578470336 134.06599165460648 0 0 0 0 -75.680051274877769 -125.69835517765387 0 -125.69835517765387 145.64199507438389 0 0 0 0 -93.169735589039192 -157.24745738341335 0 -157.24745738341335 91.666507477944833 0 0 0 0 -27.617329751938087 -70.416606847891671 0 -70.416606847891671 148.43551078154997 0 0 0 0 -50.531144129336099 -152.35079766402669 0 -152.35079766402669 150.68447029135859 0 0 0 0 -147.78691513987724 -77.951013155867258 0 -77.951013155867258 63.441076166302082 0 0 0 0 -132.48425336812579 -90.529013135639616 0 -90.529013135639616 2.8544468600739492 0 0 0 0 -510.17134695083223 67.21364580244699 0 67.21364580244699 115.75746034110853 0 0 0 0 -3.1119884096094452 -4.7492309218858786 0 -4.7492309218858786 0.57279117166309845 0 0 0 0 -239.3340820914982 51.432035557043491 0 51.432035557043491 -44.18047975133959 0 0 0 0 -168.39515011645199 -99.151935956069792 0 -99.151935956069792 74.7318940164987 0 0 0 0 -359.48810397483612 -113.7100776566549 0 -113.7100776566549 105.05117942981451 0 0 0 0 -65.287607568914609 -105.19773376461308 0 -105.19773376461308 121.13531603289448 0 0 0 0 -95.122034122297919 -58.241196436571045 0 -58.241196436571045 73.89273740144381 0 0 0 0 -88.921245797993834 -57.420050358801745 0 -57.420050358801745 94.296664533118019 0 0 0 0 -145.86353125965979 4.8756535990542034 0 4.8756535990542034 40.283541317132403 0 0 0 0 -16.932400783747653 -0.8352543624023383 0 -0.8352543624023383 112.79751401256362 0 0 0 0 -22.202491163014201 -14.980873004809837 0 -14.980873004809837 185.05440568603444 0 0 0 0 -29.749204860182545 -7.7851843802200165 0 -7.7851843802200165 217.24839985366998 0 0 0 0 -23.332147839217214 -89.960059132561582 0 -89.960059132561582 214.82587475177934 0 0 0 0 11.579084794608207 -98.788043254007789 0 -98.788043254007789 238.95597448943226 0 0 0 0 -20.826803521211787 -26.522307732222544 0 -26.522307732222544 276.68922503923386 0 0 0 0 0.8533443059604906 -47.662381267429737 0 -47.662381267429737 297.10880038669393 0 0 0 0 26.898067942617786 -114.51672024810432 0 -114.51672024810432 434.82341767000617 0 0 0 0 7.545523110153681 -45.860744441670249 0 -45.860744441670249 288.37607218613266 0 0 0 0 7.2407310516537109 -94.884592127338692 0 -94.884592127338692 339.00368267316662 0 0 0 0 84.283924235222912 -158.59460478321125 0 -158.59460478321125 254.13799099881362 0 0 0 0 85.940072176930698 -149.92151920260312 0 -149.92151920260312 298.84319966642943 0 0 0 0 142.67335693185623 -189.43720025172297 0 -189.43720025172297 212.67344873429101 0 0 0 0 198.45259787986743 -207.41896799912502 0 -207.41896799912502 218.30753827272929 0 0 0 0 77.029506997198041 -182.21605878198534 0 -182.21605878198534 230.72481143548794 0 0 0 0 33.38284641073551 -134.41136625236686 0 -134.41136625236686 248.84977318550955 0 0 0 0 12.520747399230459 -164.5670871862967 0 -164.5670871862967 211.49681076391425 0 0 0 0 33.100760545930825 -130.78355747133674 0 -130.78355747133674 202.98054368413432 0 0 0 0 -20.255415671086666 -120.93859315120426 0 -120.93859315120426 181.42817975227445 0 0 0 0 -32.461968249443089 -172.34653025398075 0 -172.34653025398075 175.30165451814537 0 0 0 0 -7.8145656169981521 -77.786383333244885 0 -77.786383333244885 216.72339849404671 0 0 0 0 -7.5112600744068914 -143.64715525939391 0 -143.64715525939391 221.13440983929468 0 0 0 0 -25.633439184051895 -40.288182263697763 0 -40.288182263697763 74.329902355284503 0 0 0 0 -21.687314853032149 -36.218507946911359 0 -36.218507946911359 48.654773944150293 0 0 0 0 -35.902103233910111 -1.9616756033026377 0 -1.9616756033026377 36.205091600930245 0 0 0 0 -32.915524287027658 -16.170259913803427 0 -16.170259913803427 15.207294880431782 0 0 0 0 -36.058206458110362 -92.788762606769524 0 -92.788762606769524 -5.8910331478973603 0 0 0 0 -42.044895348808495 14.884910838120049 0 14.884910838120049 48.397591735566948 0 0 0 0 -121.5011949519976 -29.598645951104118 0 -29.598645951104118 38.540722421224928 0 0 0 0 -44.878791630120304 9.2034974788774662 0 9.2034974788774662 54.879465913913009 0 0 0 0 -29.843743560199073 -2.8344533473418778 0 -2.8344533473418778 42.826389869940613 0 0 0 0 -23.418390681545134 -30.109587152906897 0 -30.109587152906897 67.21360812839157 0 0 0 0 -29.214943896076441 -6.34436091498862 0 -6.34436091498862 19.414205638300185 0 0 0 0 -16.196739855939086 -5.4371928881282656 0 -5.4371928881282656 20.803792416470969 0 0 0 0 -14.425808916828828 -2.9893719020255958 0 -2.9893719020255958 18.89255860235744 0 0 0 0 14.881086858826166 48.609242072848247 0 48.609242072848247 68.605576191981527 0 0 0 0 1.9776950860250508 54.77390262075096 0 54.77390262075096 51.799918203170819 0 0 0 0 14.706503302893907 -23.66015690280301 0 -23.66015690280301 73.70545090701853 0 0 0 0 27.775112755569353 -2.2002341840702684 0 -2.2002341840702684 -3.2557427984102105 0 0 0 0 -1.6490827724661017 -2.4813355161659203 0 -2.4813355161659203 6.3489175215088096 0 0 0 0 197.20946470073613 -230.85996673808768 0 -230.85996673808768 189.26080252904285 0 0 0 0 79.176806496569952 -199.34013105145095 0 -199.34013105145095 186.7804006160477 0 0 0 0 4.0157186895646149 -1.2898621422436918 0 -1.2898621422436918 -3.1968394172474959 0 0 0 0 -18.376457147267502 -10.063059310627068 0 -10.063059310627068 16.219180301466622 0 0 0 0 -3.5943028595547446 -3.9769899170440688 0 -3.9769899170440688 16.306330813181674 0 0 0 0 40.674772213344113 -107.64665181390592 0 -107.64665181390592 273.67945147283172 0 0 0 0 -2.0787837334830499 -6.0585588557242076 0 -6.0585588557242076 21.810120032057824 0 0 0 0 -18.018312928383239 -4.2807766301411903 0 -4.2807766301411903 20.456965803869025 0 0 0 0 -223.21052565584978 -30.181750623924017 0 -30.181750623924017 53.100020805679378 0 0 0 0 5.1318447791636572 -50.130049232228885 0 -50.130049232228885 39.356271897369879 0 0 0 0 0.5142694590776955 -39.325800727865499 0 -39.325800727865499 55.877681406280317 0 0 0 0 -5.6463980765083974 -9.9059736669102918 0 -9.9059736669102918 -1.4396653278022455 0 0 0 0 -42.8407081270052 -17.352421614192281 0 -17.352421614192281 123.80720996101809 0 0 0 0 -32.870358693607159 13.195745282589087 0 13.195745282589087 25.429164067456441 0 0 0 0 195.55174720063405 -193.76474992375188 0 -193.76474992375188 -82.857582305652613 0 0 0 0 55.022206173474842 -45.348143716804771 0 -45.348143716804771 -6.2934899227984715 0 0 0 0 -7.3116278387460625 -11.181716047613008 0 -11.181716047613008 79.4673126754642 0 0 0 0 -5.4247959065873488 -7.4969408473972745 0 -7.4969408473972745 14.427332245207552 0 0 0 0 -32.27843975052383 -60.295609933345986 0 -60.295609933345986 99.208611790691066 0 0 0 0 55.862423595718838 -99.805349097895146 0 -99.805349097895146 -44.878348043552251 0 0 0 0 -33.159242953755893 -101.39909379807796 0 -101.39909379807796 171.97177203420142 0 0 0 0 10.194877815571729 -35.843983675564736 0 -35.843983675564736 56.453048447513623 0 0 0 0 -6.1077166803507197 -1.2501478831088662 0 -1.2501478831088662 19.246818931958302 0 0 0 0 18.921245168778114 -25.234084332563725 0 -25.234084332563725 88.343995012735832 0 0 0 0 6.1986236879238277 -52.305623794376515 0 -52.305623794376515 82.594534222365837 0 0 0 0 -17.862867099851428 -1.8368110677929508 0 -1.8368110677929508 19.088574238371166 0 0 0 0 -21.578890971750695 -5.4188574568796568 0 -5.4188574568796568 36.771528900160263 0 0 0 0 5.8384482696492341 -43.064797316291333 0 -43.064797316291333 71.910928363426137 0 0 0 0 -23.312924951027526 -44.327237378841346 0 -44.327237378841346 79.852073661075337 0 0 0 0 -22.535228165586886 -50.407775972852505 0 -50.407775972852505 60.298981261821609 0 0 0 0 6.239649087196085 -43.976695392459987 0 -43.976695392459987 61.723571938880923 0 0 0 0 -1.6105129708426915 -20.601202479551574 0 -20.601202479551574 28.695360502877332 0 0 0 0 8.3353737685688998 -26.953769488863145 0 -26.953769488863145 29.061716976860296 0 0 0 0 -41.382971044171427 -35.052252994380979 0 -35.052252994380979 61.49898668376045 0 0 0 0 -41.886524913199537 -48.809213501666818 0 -48.809213501666818 75.506601105693335 0 0 0 0 -56.949630623763369 -60.520951610804332 0 -60.520951610804332 70.038570667093154 0 0 0 0 -40.702240155307663 -22.762135363078414 0 -22.762135363078414 -7.402633535068162 0 0 0 0 -39.814524467808951 -25.797624742830521 0 -25.797624742830521 89.621950672838466 0 0 0 0 -26.64096980704926 -29.354868834540866 0 -29.354868834540866 79.058183613404253 0 0 0 0 -8.7409835836651837 -30.018424800395451 0 -30.018424800395451 78.597852823226276 0 0 0 0 -22.20528287129855 -40.087969846832721 0 -40.087969846832721 79.167108220535738 0 0 0 0 -26.786605233530281 -36.906066649801687 0 -36.906066649801687 77.542051713163346 0 0 0 0 -13.264521104521009 -43.594598047007594 0 -43.594598047007594 76.37769851712801 0 0 0 0 -25.849139284891862 -34.266827249122798 0 -34.266827249122798 79.072061118942656 0 0 0 0 -9.5761255693125804 -36.706991287220944 0 -36.706991287220944 8.064843738986383 0 0 0 0 -34.054424464979093 -22.285497523480444 0 -22.285497523480444 67.111745763344516 0 0 0 0 -11.822297918590266 -73.478535940921574 0 -73.478535940921574 108.91986980994079 0 0 0 0 -3.9604281818738869 -1.3111710806451882 0 -1.3111710806451882 0.51418149092491205 0 0 0 0 -7.3274354066888918 -50.48431290829285 0 -50.48431290829285 52.19806407042779 0 0 0 0 -4.3984268515487202 -40.177554794907337 0 -40.177554794907337 -4.9585112509448663 0 0 0 0 -6.1049863362317822 -21.195537311147312 0 -21.195537311147312 18.117325840580463 0 0 0 0 -15.608189440350543 -23.015866143197854 0 -23.015866143197854 -3.9066528944094898 0 0 0 0 73.265032463124953 -130.61270814652744 0 -130.61270814652744 -268.67041682822673 0 0 0 0 -3.9911450577286729 2.1749467792802939 0 2.1749467792802939 12.249300179870222 0 0 0 0 -12.210505093355771 -13.7120457693782 0 -13.7120457693782 27.543234030410304 0 0 0 0 -5.5867266212080722 -9.6254651311392081 0 -9.6254651311392081 31.026666275480238 0 0 0 0 -52.498437329373701 35.311466782155549 0 35.311466782155549 -4.3515874389486271 0 0 0 0 17.362918794491634 -28.285798907147182 0 -28.285798907147182 48.92381365126721 0 0 0 0 -35.725493123922206 -17.047215510068781 0 -17.047215510068781 51.027613429545454 0 0 0 0 5.2368480445875321 -6.734871533977639 0 -6.734871533977639 4.5547013094401336 0 0 0 0 -76.449963477507481 -6.1125853004523378 0 -6.1125853004523378 4.5603398552229919 0 0 0 0 -6.3764611985252486 -4.8626348766365481 0 -4.8626348766365481 -62.042056960384798 0 0 0 0 -44.796323031168868 -17.138743686660746 0 -17.138743686660746 46.242275574601081 0 0 0 0 1.116259025871841 28.921919283477109 0 28.921919283477109 -83.333359137654043 0 0 0 0 26.257807790578227 -150.40976392674929 0 -150.40976392674929 159.66988115287677 0 0 0 0 -48.117910286274274 14.267429680374086 0 14.267429680374086 12.149059953613278 0 0 0 0 -164.65583772265381 -289.90708291404735 0 -289.90708291404735 454.04876670736485 0 0 0 0 -41.893737910269081 20.344082202032254 0 20.344082202032254 7.9124651028721829 0 0 0 0 -114.23415732251669 -27.593470718267781 0 -27.593470718267781 296.70339954570954 0 0 0 0 74.559946605171717 -65.012228598599904 0 -65.012228598599904 0.56315929747324844 0 0 0 0 -22.210649991979153 -4.9975916333205532 0 -4.9975916333205532 -51.269954228506322 0 0 0 0 -22.565393283017784 57.583072151762735 0 57.583072151762735 -100.47539120800138 0 0 0 0 -32.557213798753082 41.535573471064708 0 41.535573471064708 -21.060652837200905 0 0 0 0 -23.111998380009027 15.355744472630249 0 15.355744472630249 116.99341790830658 0 0 0 0 -30.409166102283052 18.269617179772467 0 18.269617179772467 43.134846103886957 0 0 0 0 -4.4293889730943192 -9.8499163711348956 0 -9.8499163711348956 15.904956467380543 0 0 0 0 -44.809309035934348 -9.6972351658841944 0 -9.6972351658841944 76.205295016450691 0 0 0 0 51.735219292520924 -26.568402327964577 0 -26.568402327964577 75.912912968364253 0 0 0 0 313.5609999128983 -11.762825933672502 0 -11.762825933672502 85.06630865434272 0 0 0 0 -4.6976684386988161 0.95287758074471185 0 0.95287758074471185 1.3011284924518591 0 0 0 0 -172.52429644896984 15.954402424245927 0 15.954402424245927 442.43930535315303 0 0 0 0 -224.82190111283126 -203.21820334909717 0 -203.21820334909717 367.97892570493059 0 0 0 0 -510.55631919096049 -161.81019808550627 0 -161.81019808550627 512.95295267981419 0 0 0 0 -245.23219346852147 -225.29451794598936 0 -225.29451794598936 673.5010211687113 0 0 0 0 44.074916647350619 257.86465086250246 0 257.86465086250246 601.13272956582659 0 0 0 0 34.037561805524092 2.4971923705379595 0 2.4971923705379595 346.58348806767754 0 0 0 0 -25.846956593604773 3.5455929500894854 0 3.5455929500894854 98.020106671894609 0 0 0 0 -12.01375556459228 -1.6022220714128679 0 -1.6022220714128679 0.83415981173048692 0 0 0 0 -38.945559538498856 -25.255890169913982 0 -25.255890169913982 144.29638437300309 0 0 0 0 -20.792730884906632 -74.305313397735517 0 -74.305313397735517 159.553077000146 0 0 0 0 16.294265172640735 -28.96954231588461 0 -28.96954231588461 47.0338735383325 0 0 0 0 14.191145756953119 -63.498889753178446 0 -63.498889753178446 187.18593681709172 0 0 0 0 -16.479335564010398 -36.804307583166519 0 -36.804307583166519 377.55646254953172 0 0 0 0 70.082825283763668 138.44153356685274 0 138.44153356685274 400.2157830344222 0 0 0 0 11.320653611808666 41.286719153540616 0 41.286719153540616 245.07526941530159 0 0 0 0 12.334066495193838 77.308051849540789 0 77.308051849540789 335.57710468529331 0 0 0 0 -1.0929815982890432 -44.912487670080736 0 -44.912487670080736 248.72950420005873 0 0 0 0 -4.4709626849780761 1.2238739460372017 0 1.2238739460372017 195.99169477914984 0 0 0 0 5.5641186869215744 28.146233637638943 0 28.146233637638943 267.75933296375297 0 0 0 0 -21.70472542162679 -9.3308409851961187 0 -9.3308409851961187 162.67768496825011 0 0 0 0 -22.132676540604734 -7.3054442388529424 0 -7.3054442388529424 217.42593180313997 0 0 0 0 -10.159988728941244 -31.782865676592337 0 -31.782865676592337 158.14170519178879 0 0 0 0 -1.091169813171291 -45.694792979640624 0 -45.694792979640624 178.27307521656985 0 0 0 0 5.0848232442367589 -52.631552066959557 0 -52.631552066959557 182.2399602315345 0 0 0 0 -5.4214232139456726 -63.944745248006257 0 -63.944745248006257 170.06228296629706 0 0 0 0 -30.116220210369647 -35.414438592628358 0 -35.414438592628358 159.85003390759448 0 0 0 0 -20.223116032444324 -3.9427174421787328 0 -3.9427174421787328 -1.8711318421907066 0 0 0 0 -18.08841697830804 27.261002425410396 0 27.261002425410396 9.3689022854659534 0 0 0 0 -44.302941667081313 46.162338974753766 0 46.162338974753766 -1.4835124831151916 0 0 0 0 13.474430499491064 58.996060496589052 0 58.996060496589052 -92.987899606501742 0 0 0 0 -55.311424843400346 79.48831941995013 0 79.48831941995013 291.72843362265053 0 0 0 0 -55.073320005463763 28.179625227857841 0 28.179625227857841 408.0369234047248 0 0 0 0 2.6036997809314926 51.854993028584431 0 51.854993028584431 216.14915348362484 0 0 0 0 -13.280704781708664 75.427242907179789 0 75.427242907179789 201.01140660885358 0 0 0 0 -20.860812799940504 5.5860132693924243 0 5.5860132693924243 274.25327948207268 0 0 0 0 -162.35558405333359 51.74966710595254 0 51.74966710595254 499.33835032973002 0 0 0 0 -1.3784516230589361 86.957548748119734 0 86.957548748119734 118.19033248774576 0 0 0 0 -157.25896942496547 -91.896903499779 0 -91.896903499779 24.021502991832676 0 0 0 0 60.905374434318219 246.04506097967533 0 246.04506097967533 145.18050446648522 0 0 0 0 -75.328378160105785 17.079485196241876 0 17.079485196241876 -18.786068162065931 0 0 0 0 -74.970622892949081 50.879564449775728 0 50.879564449775728 -23.071929883022676 0 0 0 0 -40.411941853162716 41.785068965629762 0 41.785068965629762 -28.917754408643304 0 0 0 0 -23.161817531403358 -1.5990342884615529 0 -1.5990342884615529 -14.153420456759704 0 0 0 0 -12.134554033482345 57.755088349356811 0 57.755088349356811 -112.05530164884294 0 0 0 0 -21.484074798422625 5.8413770211300289 0 5.8413770211300289 -52.934970355130645 0 0 0 0 -31.371176188299483 23.778794393765821 0 23.778794393765821 9.4183063298352252 0 0 0 0 -35.627017148673986 33.122769769015576 0 33.122769769015576 29.362490422892733 0 0 0 0 -19.989248290699834 -1.959335977997398 0 -1.959335977997398 51.346330815795227 0 0 0 0 -24.66429124174374 26.935239981137329 0 26.935239981137329 69.110639453407202 0 0 0 0 -25.55437663029079 -2.9152079388950369 0 -2.9152079388950369 24.196217474931473 0 0 0 0 -21.559857955209736 -20.474243144977663 0 -20.474243144977663 65.681962577931699 0 0 0 0 -42.363203253666143 13.951093842504633 0 13.951093842504633 68.765675677263062 0 0 0 0 732.97629308317391 -268.55191605750406 0 -268.55191605750406 146.12042229950021 0 0 0 0 -38.105104158048562 -35.660683768026502 0 -35.660683768026502 148.10810576662334 0 0 0 0 9.8747607125151262 -32.752741735068412 0 -32.752741735068412 78.0708173031353 0 0 0 0 -1.5081070352143406 2.2281612525078529 0 2.2281612525078529 1.7561668823023098 0 0 0 0 -4.2715896376757883 12.676008257098147 0 12.676008257098147 72.745247210274101 0 0 0 0 -6.5730250337767302 16.500152068441366 0 16.500152068441366 69.784455217777577 0 0 0 0 24.487211792476842 119.69386860730242 0 119.69386860730242 262.98484702461428 0 0 0 0 37.268809529952705 34.765352263741079 0 34.765352263741079 68.116422983672237 0 0 0 0 -15.12305739946737 68.279262509671753 0 68.279262509671753 77.344493551812775 0 0 0 0 23.008605242004705 15.06028323787541 0 15.06028323787541 7.558627579412132 0 0 0 0 -15.412223981036277 24.919614148941037 0 24.919614148941037 1.2910359555389732 0 0 0 0 -24.654425291313828 32.802683802030515 0 32.802683802030515 256.00110618941835 0 0 0 0 13.601335333370571 32.610311084357818 0 32.610311084357818 83.929428172005828 0 0 0 0 -28.388281473152347 46.953858095454052 0 46.953858095454052 162.95003697077709 0 0 0 0 -2.6870744378682616 9.1491763467874989 0 9.1491763467874989 76.333222534427478 0 0 0 0 -26.169881177608204 7.3101207543104465 0 7.3101207543104465 -8.787003183428169 0 0 0 0 3.8372349066333475 20.182994081813362 0 20.182994081813362 38.418793545462918 0 0 0 0 -75.997949132512076 4.4364942913261984 0 4.4364942913261984 62.925270595198526 0 0 0 0 -48.862364250248675 92.448699476548427 0 92.448699476548427 52.60641109601238 0 0 0 0 -11.7584146349107 87.617746478862045 0 87.617746478862045 45.733583531651675 0 0 0 0 -16.118203393346676 55.752737882643487 0 55.752737882643487 -21.853875384826097 0 0 0 0 -4.4693927512053326 0.39611249221228917 0 0.39611249221228917 -2.0719374609902843 0 0 0 0 98.618398080818679 74.709251543343271 0 74.709251543343271 0.99382511544990848 0 0 0 0 -6.1562104351192701 30.075680072546213 0 30.075680072546213 15.097632540203616 0 0 0 0 -53.434437644061745 -355.92589680077072 0 -355.92589680077072 295.10194325583143 0 0 0 0 741.76895179119401 118.59424495645362 0 118.59424495645362 527.77281438894715 0 0 0 0 658.83879848372089 -399.73691224178037 0 -399.73691224178037 1063.6263173673651 0 0 0 0 273.00258604737792 -851.03918858120232 0 -851.03918858120232 1325.2790496270463 0 0 0 0 193.28773595488451 45.793312599875208 0 45.793312599875208 949.28904619257082 0 0 0 0 -303.4411332446029 373.19253070481864 0 373.19253070481864 591.70452988744364 0 0 0 0 261.72875174579235 -56.860875672240581 0 -56.860875672240581 282.43878525368928 0 0 0 0 49.795955688866343 -7.8364352906464774 0 -7.8364352906464774 673.59814490078134 0 0 0 0 -83.834077544862339 -109.34299637223376 0 -109.34299637223376 738.07964470523439 0 0 0 0 4.5161177277677318 -0.67883088312241568 0 -0.67883088312241568 0.67999161128826913 0 0 0 0 -207.78317786673324 -78.592561226418184 0 -78.592561226418184 1665.8263946799689 0 0 0 0 103.04375227190758 -169.38077273312956 0 -169.38077273312956 -215.68545616461051 0 0 0 0 343.84361651440395 -628.35198721865981 0 -628.35198721865981 687.21308393320214 0 0 0 0 -22.731606305619607 153.0638422123011 0 153.0638422123011 386.73723786863775 0 0 0 0 -14.090713896763054 0.54233405677587143 0 0.54233405677587143 4.659033512476185 0 0 0 0 445.55321224723502 -41.825464465700861 0 -41.825464465700861 -387.06556075183835 0 0 0 0 94.909104755553926 -138.91513598152596 0 -138.91513598152596 87.471452288358705 0 0 0 0 -212.53024413439016 -286.65698239069752 0 -286.65698239069752 593.79151120150982 0 0 0 0 -45.889653127162546 -75.993490374555222 0 -75.993490374555222 -8.6224697779471171 0 0 0 0 -3.0355745039805484 -0.68580342397122251 0 -0.68580342397122251 -0.7372691815742769 0 0 0 0 -9.0018307508771613 -22.819138299797487 0 -22.819138299797487 43.186101339873858 0 0 0 0 3.5619257792597168 10.104525634676733 0 10.104525634676733 28.558352742567394 0 0 0 0 -172.87532789157058 47.119022269796915 0 47.119022269796915 80.671865314463503 0 0 0 0 -125.6609084968959 -125.40238490666889 0 -125.40238490666889 197.86986507661186 0 0 0 0 -32.600144105345862 97.434500479412236 0 97.434500479412236 186.88966687877473 0 0 0 0 97.389748414323549 -231.91740403883159 0 -231.91740403883159 117.21075985668358 0 0 0 0 -72.349861319161391 -21.420731350835922 0 -21.420731350835922 337.78353324338241 0 0 0 0 92.449962032174881 -294.78443306652844 0 -294.78443306652844 1544.4910359120731 0 0 0 0 101.06521654295466 -324.77813821005475 0 -324.77813821005475 958.90223281571343 0 0 0 0 51.37761165284428 -104.01645615880989 0 -104.01645615880989 391.12816890460454 0 0 0 0 33.053885951114353 -95.683166798067759 0 -95.683166798067759 530.39200307061401 0 0 0 0 253.91169366501072 -320.76113505597095 0 -320.76113505597095 451.40848123763863 0 0 0 0 104.64797038064626 -189.86235594791287 0 -189.86235594791287 358.36553444359015 0 0 0 0 350.26925171381481 -268.17935344653051 0 -268.17935344653051 298.75965359133988 0 0 0 0 1.4387243621488679 -1.8729191240584413 0 -1.8729191240584413 20.537562269210795 0 0 0 0 146.45264392170975 -11.461142284046218 0 -11.461142284046218 48.617363262986601 0 0 0 0 -44.231049434491069 -39.83927911147839 0 -39.83927911147839 140.43370321606926 0 0 0 0 213.20865633871358 -314.27661318306218 0 -314.27661318306218 260.11672929109773 0 0 0 0 25.456041235941484 -183.89546542221797 0 -183.89546542221797 170.80408516158423 0 0 0 0 47.330324691258284 -102.94002745008765 0 -102.94002745008765 254.19326699311932 0 0 0 0 -19.161789316334762 14.224938836629008 0 14.224938836629008 127.87531838098221 0 0 0 0 43.652846053258344 19.424538375924726 0 19.424538375924726 47.833494131671614 0 0 0 0 -117.91559524302011 -165.92586075632062 0 -165.92586075632062 431.0705020364112 0 0 0 0 18.218486537612989 -370.08551608917696 0 -370.08551608917696 261.54507687055957 0 0 0 0 42.936055909116703 -266.50095721335856 0 -266.50095721335856 402.56496119365329 0 0 0 0 -13.431927001362055 -53.161736734949955 0 -53.161736734949955 362.13529200636913 0 0 0 0 -34.897303929010377 -235.72227214451959 0 -235.72227214451959 739.69651782613801 0 0 0 0 -51.835446065666474 -129.73152501547884 0 -129.73152501547884 290.46465962792718 0 0 0 0 97.64990321102232 -228.46958014952179 0 -228.46958014952179 629.75866051104094 0 0 0 0 47.223410631409934 221.89954286097054 0 221.89954286097054 495.6467849017281 0 0 0 0 5.0879031108128157 -1.7256752094924117 0 -1.7256752094924117 1.1788346799599481 0 0 0 0 306.38195052524861 -141.57337145469501 0 -141.57337145469501 430.21371237804669 0 0 0 0 12.003358683870047 -5.230592245013348 0 -5.230592245013348 5.5043571335315029 0 0 0 0 2.2148490154759202 -21.42031524297272 0 -21.42031524297272 24.991306578223885 0 0 0 0 55.488997123576155 12.746715321138254 0 12.746715321138254 113.86689305824257 0 0 0 0 2.3950952957276783 3.9724701743753315 0 3.9724701743753315 1.6873175729609855 0 0 0 0 -8.7195286812984705 -0.14245579429916688 0 -0.14245579429916688 54.101907251890225 0 0 0 0 -17.243457126647627 9.235583788700751 0 9.235583788700751 41.843767876227503 0 0 0 0 -5.5336648483407771 -4.8451234220519837 0 -4.8451234220519837 61.011113334272522 0 0 0 0 -2.147125519959836 -4.909339393003421 0 -4.909339393003421 11.411052986790963 0 0 0 0 -17.281015835258586 -19.635639633906976 0 -19.635639633906976 65.807365419973394 0 0 0 0 2.145337598288366 -9.7413289499203266 0 -9.7413289499203266 40.727189344117846 0 0 0 0 9.2319118276063818 -10.649704039269636 0 -10.649704039269636 40.706206581788138 0 0 0 0 -28.401444586912703 -0.8304827815900353 0 -0.8304827815900353 94.376395291212248 0 0 0 0 -4.8484940332090884 0.17812275710422654 0 0.17812275710422654 84.325377327737129 0 0 0 0 -63.859461183704298 40.453295813578734 0 40.453295813578734 131.98124711290438 0 0 0 0 -38.694460565022382 -4.2681646390628885 0 -4.2681646390628885 93.952361799718346 0 0 0 0 -3.1963652371427482 -5.003325323847065 0 -5.003325323847065 23.936493562895578 0 0 0 0 -1.8726041154823179 -2.6710680102569313 0 -2.6710680102569313 93.510060919717944 0 0 0 0 -8.2466291128182441 7.0906994983189406 0 7.0906994983189406 15.438935285242152 0 0 0 0 -8.1593255245297769 10.346244402811863 0 10.346244402811863 80.727845537488975 0 0 0 0 -5.0614945742763666 7.2702507244976005 0 7.2702507244976005 61.91618014818232 0 0 0 0 -2.3801686092701857 7.5103132238873513 0 7.5103132238873513 63.082614019556786 0 0 0 0 -13.598829979280708 -1.2889042499518837 0 -1.2889042499518837 64.430281982055931 0 0 0 0 -30.23426104894952 17.335039801022504 0 17.335039801022504 84.216240225861839 0 0 0 0 -33.719561564086462 15.357467216061195 0 15.357467216061195 87.720060726052907 0 0 0 0 -2.3654907649670349 2.0992872520982928 0 2.0992872520982928 68.861691237834748 0 0 0 0 -2.7901216488538374 8.7383511803082037 0 8.7383511803082037 67.916955104382225 0 0 0 0 -3.4251621092447491 1.15259548929237 0 1.15259548929237 64.326752022055246 0 0 0 0 -21.714638089517848 -12.944424454210093 0 -12.944424454210093 107.08782515107305 0 0 0 0 -14.668676748778125 -3.4240133995481301 0 -3.4240133995481301 59.187423455655335 0 0 0 0 -13.750538363129635 -2.5675121676958952 0 -2.5675121676958952 55.369798268453451 0 0 0 0 34.674410158307182 -33.633048653042351 0 -33.633048653042351 10.004228935649735 0 0 0 0 -4.9999758830105065 -16.469205824107121 0 -16.469205824107121 19.149778788550808 0 0 0 0 -16.761205164094626 -7.0733929541407434 0 -7.0733929541407434 15.398728881520984 0 0 0 0 -13.490881900359 -54.878081115639361 0 -54.878081115639361 -25.631273391831201 0 0 0 0 -1.9634686422396044 -23.376800207224733 0 -23.376800207224733 64.884845313472397 0 0 0 0 -10.482041379304119 8.6198640968260918 0 8.6198640968260918 24.536466778980696 0 0 0 0 -12.484750944637323 -0.99774688959745816 0 -0.99774688959745816 31.347752062472253 0 0 0 0 -12.861256370996671 0.014311360282590613 0 0.014311360282590613 32.840093179911491 0 0 0 0 -5.1249615495041407 -1.9725808521332358 0 -1.9725808521332358 34.435149431530135 0 0 0 0 -19.502639835710397 -7.4118344317867013 0 -7.4118344317867013 55.385845999622688 0 0 0 0 134.95965261874699 -90.252118615502695 0 -90.252118615502695 33.282952286404907 0 0 0 0 -1.4891821142741666 -3.0613052143737995 0 -3.0613052143737995 1.9104052397351268 0 0 0 0 -7.1782194519953002 3.1073409286278064 0 3.1073409286278064 10.961809479384257 0 0 0 0 1.9190378615021473 28.120368498121024 0 28.120368498121024 70.339783295974485 0 0 0 0 -6.669583986455109 -5.1511574702817597 0 -5.1511574702817597 36.967018135332182 0 0 0 0 -2.3369757945921812 0.98808339144704149 0 0.98808339144704149 16.476605098995854 0 0 0 0 -0.56442187961783929 0.13021214327727648 0 0.13021214327727648 48.487578881035006 0 0 0 0 -8.2368759550654431 -9.0266522167057701 0 -9.0266522167057701 38.056912442618341 0 0 0 0 -7.8368582263489657 5.706764309711339 0 5.706764309711339 45.66563664676903 0 0 0 0 -12.3920130469387 -12.678142155691603 0 -12.678142155691603 63.058629185587051 0 0 0 0 -6.2651940793175527 4.5621306798766454 0 4.5621306798766454 58.567143995351216 0 0 0 0 -17.571583438801099 -13.717076992266811 0 -13.717076992266811 63.880171774508199 0 0 0 0 22.517644442964411 23.818526610299159 0 23.818526610299159 72.460709935992782 0 0 0 0 18.417182164891983 42.485852021761275 0 42.485852021761275 102.52348589764733 0 0 0 0 11.518547363852122 -24.533906330965692 0 -24.533906330965692 132.02077843834195 0 0 0 0 -6.783120086956842 -11.418428518591099 0 -11.418428518591099 80.891044800751843 0 0 0 0 7.8312076097936369 -23.106858099637975 0 -23.106858099637975 84.836522351475651 0 0 0 0 7.6379528962824068 -23.3602506913182 0 -23.3602506913182 30.527811123397143 0 0 0 0 6.8803375029774543 10.307731527344004 0 10.307731527344004 -17.680879924817191 0 0 0 0 15.050673115168593 -34.825536319524872 0 -34.825536319524872 45.679807300388347 0 0 0 0 4.8119351064145057 -11.043409302715638 0 -11.043409302715638 5.9838868941454884 0 0 0 0 4.520125942028244 -24.190398623020883 0 -24.190398623020883 -11.892673805530649 0 0 0 0 -1.6175056402562555 -9.4327703054225296 0 -9.4327703054225296 2.4885203993750866 0 0 0 0 -10.652032150825789 4.3203081495230435 0 4.3203081495230435 -52.012161094038674 0 0 0 0 19.195270176322992 -23.193393477689824 0 -23.193393477689824 11.620301179940725 0 0 0 0 186.41124242495675 -134.66492066995124 0 -134.66492066995124 139.30757136902685 0 0 0 0 -3.6466398581432271 1.9183867360276707 0 1.9183867360276707 27.211612981487107 0 0 0 0 -112.941139322651 25.287058475143567 0 25.287058475143567 96.924523246569152 0 0 0 0 -136.93667776471875 -24.59500538530483 0 -24.59500538530483 264.77940557324473 0 0 0 0 185.07814957596588 -142.11327659901508 0 -142.11327659901508 107.13900545445358 0 0 0 0 28.881574557195563 -19.10097271532868 0 -19.10097271532868 -12.219837605953217 0 0 0 0 -111.17761099618883 -131.72381824877812 0 -131.72381824877812 557.76634100580122 0 0 0 0 208.32663200046136 -112.05991510812237 0 -112.05991510812237 162.45613786774629 0 0 0 0 185.77180426424457 -148.64979352104274 0 -148.64979352104274 167.74923765337735 0 0 0 0 182.57855276310602 -162.65684970669099 0 -162.65684970669099 153.44729006767011 0 0 0 0 6.6523859017439406 -1.8063707923708208 0 -1.8063707923708208 -3.622490366758754 0 0 0 0 21.985804085358723 -3.4405065331629885 0 -3.4405065331629885 -8.3844535384669143 0 0 0 0 11.307666250490001 37.572603326065291 0 37.572603326065291 152.33192456600955 0 0 0 0 43.873126763618529 -53.078536142762459 0 -53.078536142762459 52.182044321772992 0 0 0 0 21.471557316513099 -24.79731684266153 0 -24.79731684266153 29.226944275520509 0 0 0 0 30.179520678617337 6.7710255178681109 0 6.7710255178681109 1.2588503930019215 0 0 0 0 31.690766107425588 -72.30950341075004 0 -72.30950341075004 185.46782732345855 0 0 0 0 201.18931542865585 -178.26956146530574 0 -178.26956146530574 -195.25453683068918 0 0 0 0 89.082414308574698 63.747235919752711 0 63.747235919752711 -117.28992630899666 0 0 0 0 57.947151147985096 22.953865365818274 0 22.953865365818274 10.600445493953885 0 0 0 0 610.69156189817477 -283.3470838987123 0 -283.3470838987123 194.18176201228198 0 0 0 0 208.30927331955536 -175.94627828589728 0 -175.94627828589728 198.96203479847463 0 0 0 0 233.29199794778788 -179.60451199543604 0 -179.60451199543604 187.34580257340713 0 0 0 0 256.44508556230249 -100.7510138740181 0 -100.7510138740181 158.96294982358086 0 0 0 0 367.62088442309869 -122.70005050409964 0 -122.70005050409964 160.9472852848412 0 0 0 0 148.53811748592125 -230.12325551689719 0 -230.12325551689719 386.3432884962167 0 0 0 0 320.79325583010086 -239.16873473248597 0 -239.16873473248597 232.84686195480754 0 0 0 0 105.38095654908739 -145.10061330121607 0 -145.10061330121607 322.07099121573992 0 0 0 0 233.74403078506248 -387.20161453017499 0 -387.20161453017499 569.76796238222596 0 0 0 0 141.46832344279846 -467.30690979984138 0 -467.30690979984138 633.40674101502009 0 0 0 0 -83.700980717295351 -160.61565683014669 0 -160.61565683014669 474.92955815095047 0 0 0 0 -3.9283686017242871 -39.948291445893119 0 -39.948291445893119 341.59280345865409 0 0 0 0 -41.633249967130723 86.441560652812768 0 86.441560652812768 29.29657302594569 0 0 0 0 -2.1367147398863358 -0.58523268183342481 0 -0.58523268183342481 11.543054846713133 0 0 0 0 620.32872904871067 -632.50671396249163 0 -632.50671396249163 443.93188623368042 0 0 0 0 87.174539462977236 -490.13101097890103 0 -490.13101097890103 1043.0927447776603 0 0 0 0 1.4769248405832514 -58.119834870771228 0 -58.119834870771228 303.87740229358315 0 0 0 0 86.20250775625118 73.972142374856048 0 73.972142374856048 0.64595835159707349 0 0 0 0 105.21650782750385 -431.51919491740409 0 -431.51919491740409 353.43998120137258 0 0 0 0 -42.002639238191477 36.75848752175807 0 36.75848752175807 50.065017017717764 0 0 0 0 8.717786116658317 49.733442407206894 0 49.733442407206894 3.4138153036401491 0 0 0 0 -16.122113125384203 19.415340731597098 0 19.415340731597098 37.879727495965199 0 0 0 0 -36.114589618340688 -46.190453606344818 0 -46.190453606344818 10.3538726978677 0 0 0 0 -77.134624817900658 -13.492003845080035 0 -13.492003845080035 52.329740888948436 0 0 0 0 -24.117290927110844 1.8301162614861823 0 1.8301162614861823 56.283595167529711 0 0 0 0 -42.715560808597729 -26.83130020268618 0 -26.83130020268618 54.715738473809324 0 0 0 0 -12.308012398510982 -11.49074304667738 0 -11.49074304667738 62.334727219174965 0 0 0 0 -14.368209310637667 0.1868183977917397 0 0.1868183977917397 64.346683321484306 0 0 0 0 -16.473696957291395 -6.1699441969940381 0 -6.1699441969940381 63.842580897439802 0 0 0 0 22.278188143958687 -2.7141421384294517 0 -2.7141421384294517 48.744148436427622 0 0 0 0 13.311571750617986 -2.8965893496533681 0 -2.8965893496533681 48.740758879561326 0 0 0 0 -0.43299558316357434 15.653699012538709 0 15.653699012538709 35.913647111177852 0 0 0 0 
</DataArray>
<DataArray type="Float64" Name="cross_section_updated" format="ascii">
1 1 1 1 1 1 0.010090349169875383 1 1 1 0.010157534196544814 1 1 1 0.010254066566333229 1 1 1 1 1 1 0.011089309839970213 0.010193830852062623 1 1 1 1 0.010009146293230981 0.010958501921578949 1 0.010685956347586668 0.012618529178796816 1 0.013025753224351549 1 1 1 0.015918294625426314 1 1 0.0098714013360960244 1 1 1 1 1 1 1 0.010067151001173311 1 1 1 1 1 1 1 1 0.0094124201704189944 1 1 0.010260254143818344 1 0.0089985109921435717 1 0.01012426007274453 1 0.012158371067403306 1 1 1 1 1 1 1 1 1 1 1 1 1 1 1 1 0.011202251683929913 1 1 1 1 1 1 1 1 0.0099866995437855738 1 1 0.0098825598014492741 0.0099593656194197633 1 1 1 1 1 1 1 1 1 1 1 1 0.0097117713870031042 1 1 1 1 1 0.012413858715403263 1 1 0.011727058347381639 1 1 1 1 1 1 1 1 1 1 1 1 1 1 1 1 1 1 1 0.011912447761246758 1 1 1 1 1 0.010876159081228591 1 1 1 1 1 1 1 1 1 1 1 1 1 1 1 1 1 1 1 1 1 1 1 1 0.009946849561360457 1 0.016465403346838201 1 1 1 0.012928348985058465 1 1 1 0.013275741761843296 1 1 1 0.010007850280043227 0.016824914837778392 1 1 0.011247415852188145 1 1 1 1 0.012208143789859155 1 1 1 1 1 0.01009384337116828 1 1 1 1 0.010003616239986395 1 0.0105923084223319 1 1 0.011927160337840189 1 1 1 0.0098935800152752332 1 1 0.011975625120014063 1 1 1 1 1 1 1 1 1 1 0.012597299644790503 1 1 0.010007687332110262 1 1 1 1 1 1 1 0.010475482872486485 1 1 1 1 1 1 1 1 1 1 1 1 1 1 1 1 1 1 1 1 1 0.017867170670509698 1 0.01920905384171423 1 1 1 1 1 0.010004821856053763 1 1 1 1 1 1 1 1 0.013496402979175683 1 1 1 0.011616111749579801 1 1 0.01391774702798447 1 1 1 1 0.011481631977971201 1 1 0.010640208330332275 1 1 1 1 1 0.011409091928169406 1 0.0098221779145019825 1 1 1 1 1 1 1 1 1 1 1 1 1 1 1 1 1 1 0.010459024048851554 1 1 1 1 1 0.0138381756341323 0.016812853559939486 1 1 1 1 1 1 1 1 1 1 0.017967987285048434 1 1 1 1 1 1 1 1 1 0.012837617587065617 1 1 0.009000035181954507 0.01001086846676669 1 1 1 0.0099935424187377088 1 1 0.0079198467774146079 1 1 1 1 1 1 1 1 1 1 1 1 1 1 1 0.014809569747631082 1 1 1 1 1 1 1 1 0.012942092571459616 1 1 0.010048454895430412 1 1 1 1 0.016301236091764384 1 1 1 1 1 1 1 1 1 1 1 1 1 1 0.013430078731383433 0.016367050214531338 1 1 0.011720463242623226 0.012138099325513515 1 0.010052143255409233 1 0.011664504092327816 1 0.013432634800673136 1 1 0.0098240012986512398 1 1 1 1 1 1 1 1 1 0.011051150231899169 0.013390353205722228 1 1 0.010338590113377205 1 1 1 1 1 0.014976782003253909 1 1 0.015209829724816333 1 1 1 1 0.015336774575779064 1 1 1 0.010634798351985723 1 1 1 0.010187304350668886 1 0.01512772558213144 1 1 0.01067364692642497 1 1 1 1 1 1 1 1 1 1 1 0.011145733181214642 1 1 1 1 1 1 0.010407523414508669 1 1 1 0.010103172667138227 1 1 1 1 1 1 1 0.013235966177903135 1 1 1 1 1 0.010371091953529489 1 0.0093583550683124985 1 1 1 1 1 0.010764305279817346 0.011596571003471194 1 1 1 0.0099972524121543505 0.012294516094699616 1 0.0095598040195806408 1 1 1 1 1 1 1 0.010462896752207069 1 1 1 1 1 1 1 1 1 1 1 1 1 1 0.010390817455967313 1 1 0.010488011716713978 1 0.010853714208174384 1 1 1 1 1 1 1 1 1 1 1 1 1 1 0.010001104781947909 1 1 1 1 1 1 1 1 1 1 1 1 1 1 1 1 0.0099176772324577975 1 1 1 1 1 1 1 1 1 1 1 0.010183875380338762 0.010475868919703127 1 1 1 1 1 1 1 1 1 1 1 1 1 1 1 1 0.011299018446363307 1 1 1 1 1 1 1 0.010517791462299312 1 1 1 1 1 1 1 1 0.013475785662597127 1 1 1 0.0099815599932277684 1 1 1 1 1 1 1 1 1 1 1 1 1 1 1 1 1 1 1 1 1 1 1 1 1 1 1 1 0.010350796538174297 1 0.010712522510405241 1 1 1 1 1 1 1 1 1 1 1 1 1 0.010720651624849961 1 1 1 0.010000512528509005 1 1 1 1 1 1 1 1 1 1 1 1 1 0.0099974363059407018 0.010766057611258701 1 1 1 1 1 1 1 0.010121289089420353 1 1 1 1 1 1 1 1 1 1 1 0.010636462792015598 1 1 1 1 1 1 1 0.010259776620752005 1 1 1 1 1 1 1 1 1 1 1 1 1 1 1 1 1 0.010150130562124791 1 1 1 1 1 1 1 1 1 1 0.010029893294098119 1 1 1 1 1 0.010030108427972794 1 1 1 0.0099961750823129129 1 1 1 1 0.011921435555562193 1 1 1 1 1 1 1 0.010243028483621791 1 0.010327887153252146 1 1 0.011854215633268045 1 0.01266894093054023 1 1 1 1 1 1 1 1 1 1 1 1 1 1 1 1 1 1 1 1 1 1 1 1 1 1 1 1 1 1 1 1 1 1 1 0.010010389339025795 1 0.019584701352905728 0.010018019020825676 1 1 1 1 1 1 1 1 1 1 1 0.019010474143231565 1 1 1 1 1 1 1 0.01901362429121764 1 0.010100238068623601 1 0.018170862572919548 1 1 1 1 1 1 0.010459827795550269 1 0.0099959599484382208 0.0112790796283283 1 1 1 1 1 1 1 1 1 1 1 1 1 1 1 1 1 0.0099852147763088393 1 1 1 1 1 1 1 1 1 1 1 1 1 1 0.010116590724264796 1 1 1 1 1 1 1 1 1 1 1 1 1 0.010419923748930054 1 1 1 1 1 1 1 1 1 0.010363672668378884 1 1 1 1 1 0.011221387503254654 0.010060260309512405 1 1 1 1 0.0091668773358423404 0.013880883018917043 1 1 1 1 1 1 1 1 1 1 1 0.017593580743473142 1 1 1 1 0.0171970171616934 1 1 1 1 1 1 0.012230891306184115 1 1 0.015456035752880907 1 0.014542733988766821 1 1 1 0.012051749331462944 1 1 1 1 1 1 1 0.010001543107540055 1 1 1 1 0.018792335328722327 0.013360348806839912 1 1 0.0099866857587542872 1 1 1 0.016915225796867064 0.0081024759991599124 0.014217717976402904 0.010004330757743858 1 1 0.021046846701716478 1 1 1 1 1 1 1 1 0.010772562518927362 0.010589685356995606 1 1 1 1 1 1 0.010469428641127029 1 0.015380864402226972 1 1 1 0.010126297524433397 1 1 1 1 1 1 1 1 1 1 1 1 1 1 1 1 1 1 1 1 1 1 1 1 1 1 1 1 0.010276428086558194 1 1 1 1 1 1 1 1 1 1 1 1 1 1 1 1 1 1 1 1 1 0.009828686234879265 1 1 1 1 1 1 1 1 1 0.010670595058767263 1 1 1 1 1 1 0.010004238467398117 1 1 1 1 1 0.0098848892327871325 1 1 1 1 1 0.0098739223039413671 1 1 1 1 1 1 1 1 1 1 0.0097241385229160163 1 1 1 1 0.0089896409620680209 0.014627844230478099 1 1 0.021407151983857536 1 1 1 1 0.0099312454544641937 1 1 0.016086794882537253 1 1 1 1 1 0.0094473142498448029 0.010107977256263393 1 1 1 1 1 1 0.010198879985334081 1 1 1 1 1 1 1 0.014802738842801654 0.015696576776739066 1 1 1 0.0098116843123376915 1 1 1 0.0096314109608536848 1 1 0.016262257056375573 1 0.01489267803808997 1 1 1 0.010521560710208992 1 1 0.010042340297324341 0.010028610700386759 1 1 1 1 1 1 0.014702800453917432 1 0.013976609647793447 1 0.010563215952153994 1 1 1 0.010036460499987762 0.0096808754795149679 1 0.012888534749069215 1 1 1 1 1 1 1 1 1 1 1 1 1 1 1 1 0.009718934666463324 1 1 1 1 1 1 1 0.015895148468021973 1 1 1 1 1 0.01008940639096857 1 1 1 0.01066681544017142 1 1 1 1 0.01140019078132729 1 0.010019443812038198 1 0.011276923228013346 1 1 1 1 0.013247642306691903 1 1 0.011956585760440312 1 1 1 1 1 1 1 1 1 1 1 0.0091384539930648573 1 1 1 1 0.008536433016842454 1 1 1 1 0.013057951980858545 1 1 1 1 1 1 0.010268824426108632 1 1 1 0.0095659703639695403 1 0.010001932468679609 0.0096323729154306585 1 1 1 1 1 1 1 1 1 1 1 1 1 1 1 1 1 1 1 1 1 1 1 1 1 1 1 1 0.010399980035530849 1 1 0.01014625105310314 0.0092169565673534508 1 0.0099190633863644549 1 1 1 1 0.011865443203945326 1 1 0.010648712336800778 1 1 1 1 1 1 1 1 1 1 1 1 1 1 1 1 1 1 1 1 1 1 1 1 1 1 1 1 0.010150224458726244 1 1 1 1 1 1 1 1 0.0099440813200206285 1 1 1 1 1 1 1 0.0098438781429510975 1 0.010004182977498933 1 1 1 0.0099863127396479512 1 1 1 1 1 1 1 0.0099423796778250195 1 0.010002747891205742 1 1 1 1 1 0.0099863258842977018 1 1 1 1 1 1 1 1 1 1 1 1 1 1 1 1 1 1 1 1 1 1 1 1 1 1 1 1 1 1 1 1 1 1 1 1 1 1 1 0.0096237573793477721 0.010945244136040169 1 1 0.0099661221612597651 1 1 1 0.010220251116773368 1 1 1 0.010303015569013174 0.0099557954276980679 1 1 0.0098180418730773756 1 1 1 1 1 1 1 1 1 1 1 1 1 1 1 1 1 1 1 1 1 0.008188751060353704 1 0.0093773058642089499 1 1 1 1 1 1 1 1 1 1 1 1 1 1 1 1 1 1 1 1 1 1 1 1 1 1 1 1 1 1 1 1 1 1 1 1 1 1 1 1 1 1 1 1 1 0.01040529550568239 1 0.01346589006479797 1 0.010746497247858703 1 1 0.012297897068790479 1 1 1 1 1 1 1 1 1 1 1 1 1 1 1 1 1 1 1 1 1 1 1 1 1 1 1 0.0098335372335306634 1 1 1 1 1 1 1 1 1 1 1 1 1 1 1 1 1 1 1 1 1 1 1 1 1 1 1 1 1 1 1 1 1 1 1 1 1 1 1 1 1 1 1 1 1 1 1 1 1 0.010006953656939079 1 1 1 1 0.0099201158292607922 1 1 1 1 1 1 1 1 0.010285826704840458 1 1 1 1 1 0.010692879665513111 0.01146040775197342 0.014808736085542789 1 1 1 1 0.010815196499773283 0.011107985443471476 1 1 0.01630744443304535 1 1 1 1 1 1 1 1 1 1 1 1 1 1 0.011732874009257734 0.010003274776514262 1 0.010429041486102353 1 1 1 1 1 1 1 1 1 1 1 1 1 1 1 1 1 1 0.0096763285861873778 1 1 1 1 1 1 0.0089910273999198632 1 1 1 1 1 1 1 1 1 1 1 1 1 1 1 1 1 1 0.010547580704948803 1 1 1 1 1 1 1 1 1 0.011506362171500147 1 1 0.010015038833768409 1 1 1 1 1 1 1 1 1 1 1 1 1 1 1 1 0.013837375376304509 1 0.0098502672286824283 1 1 1 1 0.0093039501864337834 1 0.011836842118900877 1 1 0.010388342714511892 0.015114529231945695 1 1 0.01110497034011222 1 1 1 0.010280760825659947 1 1 1 1 1 1 0.010025184639909925 1 1 1 0.015028566481624711 1 1 1 1 0.012861698710557029 1 1 1 1 1 1 1 0.010910115618527536 1 1 1 1 1 0.012691939102560241 1 1 0.010103741563463319 1 1 1 1 1 1 1 0.010027404050833159 1 1 1 0.016780333711865322 0.0089716433194972182 1 1 1 0.019848268639484891 1 1 1 1 1 0.0100027826770592 0.011315180661122979 0.012329555210281442 1 1 1 1 1 1 1 1 1 0.010258587318947765 0.010087535776710772 1 0.0099598512389664148 1 1 1 1 1 0.010092150813042117 1 1 0.010172830122603532 1 0.010052156507922676 1 1 1 0.0098947659603809933 1 1 0.016212266583333766 1 1 1 1 1 1 1 0.013902849151097539 1 1 0.014605682151988332 0.0095988771879833585 1 1 0.013358560073940481 1 0.015406875119163624 1 1 0.0095733498486115197 1 1 0.015328196112729333 1 0.0090783586233270756 1 1 1 0.010509640515119531 1 1 0.013591052326817142 1 0.014736741683422053 1 1 0.016204698397924464 1 0.010114690446721744 1 1 1 1 0.016629136079023058 0.010519844141658269 1 1 1 1 1 1 1 1 1 0.0099721000010528481 1 1 1 1 1 1 1 1 1 1 1 1 1 1 1 1 1 1 0.010018404606033265 0.009494517951905538 1 1 1 0.016382718778717477 1 1 1 1 0.014052526761958638 1 1 0.012142670485300912 1 1 1 0.013595257211094105 1 1 0.012370964276768783 1 1 1 1 0.010000979463259289 1 1 1 1 1 0.010237334619666985 1 1 1 0.0078751832447476466 0.01000718804178146 1 1 0.01017873408626584 1 1 1 1 1 0.019993271400316561 0.0084522860704583959 1 1 1 1 0.0098761183744074527 1 1 1 1 0.020368239602085968 1 1 1 1 1 1 1 1 1 1 1 1 1 1 1 1 1 1 1 1 1 1 1 1 1 1 1 1 0.020240559569933141 1 1 1 1 1 1 1 1 1 1 1 0.011347070631496486 1 1 1 1 0.010290487087805104 1 1 1 0.011599998532330997 1 1 0.0099792741328493372 1 1 1 1 1 0.010145591748064229 1 1 1 1 1 1 1 1 1 1 1 1 1 1 1 1 1 1 1 1 0.010891956748223946 1 1 1 1 1 0.011537771002578336 1 1 1 1 1 1 1 0.010224425744463826 1 1 1 1 1 1 1 1 1 1 1 1 1 0.0087575202454486176 1 1 1 1 1 0.010607275207340615 0.0078540568320805745 1 1 1 1 0.020255542881623557 1 0.010001311317436206 1 1 1 0.0093687113313685039 0.01668053156543331 1 1 0.012674625699315607 1 1 1 0.01214086627688343 1 1 1 1 0.019811744329818831 1 1 0.0095032659319538026 0.0098264446938668946 1 1 1 1 1 1 0.011696218135406271 1 1 0.0095919631652857974 1 1 1 1 0.010817316555301952 1 1 1 1 1 1 1 1 1 1 1 1 1 1 1 1 1 1 1 0.011203420396803138 1 0.0098056484489094167 1 1 1 0.010117786538347604 1 0.010476035694459091 1 0.012524649192017161 1 1 0.012538336414826681 1 1 0.01256174555865271 0.01018706618860259 0.0084466226944619992 1 1 1 0.010837442408993703 1 1 1 1 1 1 0.008879955471299392 1 1 1 1 1 1 1 0.0074639588739832795 1 0.010311255131197791 1 1 1 1 1 1 1 0.0098848899587794855 1 1 1 1 1 1 1 1 1 1 1 0.0096253413610641186 1 1 0.0096326435063968825 1 1 1 1 1 1 1 1 1 1 1 1 1 1 1 1 0.0099597745549389674 1 1 1 1 1 1 1 1 1 1 1 1 1 1 1 1 1 1 1 1 1 0.0094499611053542321 1 1 1 0.0097095097030696007 1 1 1 1 1 1 1 1 1 1 0.0096673661520801767 1 1 1 1 1 1 1 1 1 1 0.0090296511319514477 1 1 1 1 1 1 0.010936009759019805 1 1 1 0.012299455016797269 1 1 1 1 1 1 1 1 1 1 1 1 1 1 1 1 1 1 1 1 1 0.0099935921113711891 1 1 1 1 1 0.01253114479234921 1 1 0.012802923788688622 1 1 1 1 1 1 0.01237056156895415 1 1 1 1 0.011040416843453775 1 1 1 1 1 1 1 1 1 1 1 1 1 1 1 1 1 1 0.010829018933113225 1 1 1 1 1 0.013817594717071984 1 1 1 0.014731510885032197 1 0.012088135263422652 1 1 1 1 1 1 1 0.013582316040808201 1 1 1 0.012972404216731539 0.013743679621026739 1 1 1 1 1 0.0099823203062126536 1 1 1 0.009966150662830079 1 1 1 1 1 1 1 1 1 1 1 1 1 1 1 0.010653365425339159 1 1 1 1 1 1 0.010248964290221832 1 1 1 1 1 1 1 1 1 1 1 0.0099574186088250381 1 1 1 1 1 1 1 1 1 0.012178297453119821 1 1 1 1 0.017249278089969466 0.011584081853345163 1 1 1 1 1 1 1 1 0.016410400831973624 0.011532157481150551 1 0.016433390305130316 1 1 1 1 1 0.0099586469029070337 1 1 1 1 1 1 0.01067200734111386 1 0.010006382573772706 1 1 1 1 1 1 1 1 1 1 0.010176966974064942 1 1 1 1 1 1 0.011809474773514498 1 1 1 1 1 1 1 1 0.013434168732951489 1 1 1 1 1 0.017643339530806025 1 1 0.019251425821900002 1 1 1 1 1 1 0.010568532467211199 1 1 1 1 1 1 1 1 0.011602025194451023 1 1 1 1 0.01232075366033525 1 1 1 1 1 1 1 1 1 1 0.011479301661250312 1 1 1 1 1 1 1 1 1 0.012513294047155326 1 1 1 1 0.012314891674465835 1 1 1 1 1 1 1 1 0.01073419028524358 1 0.010908417696161531 1 1 1 0.010022127334975831 1 1 1 1 1 1 1 1 0.010195817904473664 1 1 1 0.010929776769946518 1 1 1 0.0098302841695836266 1 1 0.010214549011120613 1 1 1 1 1 1 1 1 1 1 1 1 1 1 1 1 1 1 1 1 1 1 1 1 1 1 1 1 1 1 1 1 1 1 1 1 1 1 1 1 1 1 1 1 1 1 1 1 1 1 1 1 1 0.010263415365415422 1 1 1 0.010400625809812249 1 1 1 1 1 1 0.0097829013795955495 1 0.010553156840688582 1 1 1 1 0.010426575211380833 0.010374761966998776 1 1 1 1 1 1 1 1 1 1 1 1 1 1 1 1 1 1 1 1 1 1 0.01284254162873864 1 1 0.012108847430274284 1 1 1 0.010038473287681145 1 1 1 1 1 1 1 1 1 1 1 1 1 1 0.010223117683181661 1 0.01132423272026762 1 0.010989690958359359 1 1 1 1 1 1 1 1 1 1 1 1 1 1 1 1 1 0.011027955720669775 1 1 1 1 1 1 1 1 1 1 1 1 1 1 1 1 1 1 1 1 1 1 1 1 1 1 1 1 1 1 1 1 1 0.010045142757326606 1 1 1 1 1 1 0.010682930144851513 1 1 0.010622741476480312 1 0.0099772996076567949 1 1 0.01108339843490827 1 1 1 0.010484417185744388 1 1 1 1 1 1 1 1 1 1 1 1 1 1 1 1 1 1 1 1 1 1 1 1 1 0.010042086975025701 1 1 1 1 0.010018011425836261 1 1 0.0099753696622783185 1 1 1 1 1 1 1 1 1 1 1 1 1 1 1 1 1 1 1 1 1 1 1 1 1 1 1 1 1 1 0.011274947169163559 1 1 1 0.010625081576625865 1 1 1 1 0.012981916342802834 1 1 1 1 1 0.013677220483515331 1 1 1 1 0.015681540912890243 1 1 1 1 1 1 1 1 1 1 1 1 1 1 0.010384991378205088 0.011039228772469375 1 0.015186742502743954 1 0.015500303148009278 1 1 1 1 1 1 1 1 1 1 1 1 1 1 1 1 1 1 1 1 1 1 1 1 1 0.0096845762696252495 0.015811220226730448 1 1 0.016581432524181167 1 1 0.0134191211473459 1 1 1 1 1 1 1 1 1 1 1 0.012894238628903135 1 1 0.011229829998463222 1 1 1 1 1 1 1 1 1 1 1 1 1 1 0.01625066733797979 0.010113135301503229 1 0.0098758935144511797 0.013240313463032023 1 1 1 1 0.010027047815624288 1 1 1 0.011651897760354014 0.011574325664882951 1 1 1 1 1 1 1 0.011203853707243205 1 1 1 1 1 1 1 1 1 1 1 1 1 1 1 1 0.01170004240391069 1 1 1 1 0.012083585644149103 1 1 1 1 1 1 1 0.011462121172213974 1 1 1 1 1 1 1 0.011013163701219979 1 1 0.010338394962071121 1 1 1 1 1 1 1 1 1 1 1 1 1 1 1 0.010072541435372902 1 1 1 1 1 1 1 1 0.011123232639329763 1 1 1 1 1 1 1 0.011039012177217301 1 1 1 1 1 0.010448871368508781 1 1 1 1 0.010359741552276255 1 1 1 1 1 1 1 1 1 1 1 1 0.010653026983292509 1 1 1 1 1 1 1 1 1 1 1 1 1 1 0.010104764301747022 1 1 1 1 1 1 1 1 1 1 1 1 1 0.011260136260162708 0.011487516895614069 1 1 0.0096430191353575542 1 1 1 1 0.014886387303860559 1 1 1 0.01757335348603685 1 1 0.011902914000845099 1 1 1 1 0.018847064923249092 1 1 1 1 1 1 1 1 1 1 1 1 1 1 1 1 1 1 1 1 1 1 1 1 1 1 1 1 1 1 1 1 1 1 0.0099663648517950686 1 1 1 0.01062643335185991 1 0.010266691799583647 1 1 1 1 1 1 1 1 1 1 1 1 1 1 0.010104527027650349 1 1 1 1 1 1 1 1 0.010789500917227213 1 1 1 0.010031985592277443 1 1 1 1 1 1 1 0.011373892477139842 1 0.011029294470701749 1 1 1 1 1 1 1 1 1 1 1 1 1 1 0.010142432927348526 1 1 0.010033076248064193 1 1 1 1 1 1 1 0.011347376024502512 1 1 1 1 1 1 1 1 1 1 1 1 1 1 1 1 1 1 1 1 1 1 1 1 1 1 1 0.010305216340139259 1 1 0.012297925829643473 1 1 1 0.011432785614404643 1 1 0.010974946647446047 1 1 1 1 1 1 1 1 1 1 1 1 1 1 1 1 1 1 1 0.010234481259190287 1 1 1 1 1 1 1 1 1 1 1 1 1 0.010125124579905952 1 1 1 1 1 1 1 1 1 1 1 1 1 1 1 1 1 1 1 0.010452129464302021 1 1 1 1 1 1 1 1 1 1 1 1 1 1 1 1 0.0099906216856122249 1 1 0.0098645637690706212 1 1 1 0.010508420030245304 1 1 0.010992509107286573 1 1 1 1 1 1 1 1 1 1 1 1 1 1 0.011193951828146339 1 1 0.011655207540310209 1 1 1 1 1 1 1 1 1 1 1 1 1 1 1 1 1 1 1 1 1 1 1 1 1 1 1 1 1 1 1 1 1 1 1 1 0.013355643459627572 1 1 1 1 0.012421647070040096 1 1 1 1 1 1 1 1 1 1 1 1 1 1 1 0.011584371222004858 1 0.013625936938906952 0.011298041608623462 1 1 0.012443182724444914 1 0.011785206348530187 1 1 1 1 1 1 1 1 0.010046556851353543 1 1 0.010208691947191744 1 1 1 1 0.012026428275208931 0.013225038109193739 1 0.012758112168394432 1 1 1 1 1 1 1 1 1 1 1 1 1 1 1 1 1 1 1 1 1 0.010533091830621236 1 1 1 1 1 1 1 1 1 1 1 1 1 1 1 1 1 1 1 1 1 1 1 1 1 0.010573854714790696 1 1 1 1 1 0.01048678893094921 1 1 1 1 1 1 1 1 1 0.011260917741147449 1 1 1 1 1 1 1 1 1 1 1 1 1 1 1 1 1 0.01066849421769096 0.010459079600794709 1 1 0.011054917208127402 1 1 1 0.010568346923899142 1 1 1 1 1 1 1 1 1 1 0.010408476436671412 1 1 0.010029587235859604 1 0.010421583327069356 1 1 1 1 0.010188082865399446 1 1 1 0.010115263345164625 1 1 1 1 1 1 0.0099883162148849472 1 1 1 1 1 1 0.0099884006049837867 1 1 1 1 1 1 1 1 1 1 1 1 1 1 0.010395667814419411 1 1 0.011037158698760976 1 1 1 0.0095956415059476347 0.0098208713518913252 1 1 1 1 1 1 1 1 1 1 0.0097013104709013538 1 1 1 0.010193797727306322 1 1 1 1 0.0098729886252880896 1 1 1 1 1 1 1 1 0.021250621664799567 1 1 1 1 1 0.021501554361657661 0.0085454997931480921 1 1 1 0.0057854410697957106 1 0.012557115455481813 0.010949694531161343 1 1 1 1 1 0.0091343725105753858 1 1 1 1 1 1 0.0097042537566656081 1 1 1 1 1 1 1 0.011420902745067667 1 1 0.01156629958315589 1 1 0.0099294836026092934 1 1 1 1 1 1 1 1 1 1 1 1 1 1 0.011375452193123515 1 1 1 0.010031241570208412 1 1 0.015344284270125356 1 1 1 1 0.010084695087376944 1 1 1 1 1 1 1 1 0.014605165928412015 1 1 1 1 0.0071566012426923032 1 1 1 1 1 1 1 1 0.0068393889494779937 1 1 1 1 1 1 1 1 1 0.010663392855077752 1 1 1 0.011753439069781919 1 1 0.012057449942179308 1 1 0.012585115785015671 1 1 1 1 1 1 1 1 1 0.011164324092643218 1 1 1 1 1 1 1 1 1 1 1 1 1 1 1 1 0.010367537889668614 1 1 1 1 1 1 1 1 1 1 1 1 1 1 1 1 1 1 1 1 1 1 1 1 1 1 0.017462803612749711 1 0.016694396470132884 1 1 1 1 1 1 1 1 1 1 0.017670746299194399 1 1 0.010182632121187937 1 1 1 1 1 1 1 1 1 1 1 1 1 1 1 1 1 1 1 1 1 0.010362158796930225 1 1 1 1 1 1 1 1 1 0.02047121811827312 1 0.010024065641794002 1 1 1 1 1 1 1 0.0091661882842674451 1 0.009559156946794576 1 1 1 1 1 1 1 1 1 1 1 0.0097424610032794574 1 1 1 1 0.010078493919583147 1 0.013529552550404566 1 1 1 1 1 1 0.0092489813822451312 1 1 0.019693329537558098 1 1 0.01839765381005528 1 1 1 0.013224452673706531 0.015784494834421105 0.014408777292291954 1 1 1 1 1 1 1 1 1 1 1 1 1 0.010443538977764923 1 1 1 1 1 1 1 0.010548123729781221 1 0.010973108142375211 1 0.009593337834148747 1 1 0.010947141295590618 0.0099990812538810498 1 1 1 1 1 1 0.014560996851309531 1 1 1 1 0.01012154344872295 1 0.0096131805442436456 1 0.010320545047969226 1 0.0098239150866047693 1 1 1 1 0.012737295743714875 1 1 1 1 1 0.011060582732511122 1 1 1 1 1 1 1 1 1 1 1 1 1 1 0.0098934719816117581 1 1 1 1 1 0.010139671649364858 1 1 1 0.010331050125385443 1 1 1 1 1 1 1 1 1 1 1 1 1 1 1 1 1 0.010660681589671589 1 1 1 1 0.01015990531092323 1 1 1 1 1 1 0.0099816175313970027 1 1 1 1 1 1 1 1 1 1 0.010398348865354217 1 1 0.009984400456013327 1 0.0099950537849986913 1 1 1 1 1 1 1 1 1 1 1 0.010241613878973141 1 1 1 1 1 1 0.0099374388436677015 1 0.010850324727863516 0.0098902889789920876 1 0.010152646462752289 1 1 1 1 1 1 1 0.010303988487062097 1 1 1 1 1 1 1 1 1 1 1 1 1 1 1 1 0.010004585250607385 1 1 1 1 1 1 1 1 1 1 0.010265170833744047 1 1 1 1 1 1 1 1 1 1 0.010566273238092623 1 1 1 1 0.010301436030745501 1 1 1 1 1 0.0098678547078353378 1 1 1 1 0.010089978916612244 1 1 1 1 1 1 1 1 1 1 1 1 1 1 1 1 1 1 0.0091869295466607669 1 1 1 1 1 1 1 1 0.010548225088976059 1 0.0089733269423316175 0.010002037231425833 1 1 1 1 1 0.009767075848078819 1 1 1 1 1 1 1 1 1 1 1 1 1 1 0.010192485665877413 1 1 0.0097451676149621826 1 0.010211378846353506 0.010644605553529661 1 1 1 1 1 1 0.010619667048023142 1 1 1 1 0.010084277610802349 1 0.0098311357745777643 1 1 0.0096438837434706572 1 1 1 1 1 1 0.010032872320416419 0.011750452851380634 1 1 1 1 1 1 1 1 1 1 1 1 1 1 1 0.01019007117717991 1 1 1 1 1 1 1 0.0099172643389394376 1 0.0092502849011476471 1 1 1 0.0097401412354756987 1 0.0087954217403937961 1 1 1 1 1 1 1 1 0.010131266159907929 1 1 1 1 1 0.0088922175558946541 1 0.013921648896952625 1 1 1 1 0.01272429485538821 1 1 1 1 1 0.011032304250801761 1 1 1 1 1 1 1 1 1 1 1 1 1 1 1 1 1 1 1 1 1 1 1 1 0.015701460301192502 1 1 1 0.010667556170981942 1 0.01455467958692842 1 1 1 0.010793678426921374 1 1 1 1 1 1 1 1 1 1 1 1 1 1 1 1 1 0.0098910289142777382 0.0099406112903406216 0.0096933805579765813 0.010488365242878035 1 1 1 1 1 1 0.010256123806375755 1 1 1 0.010652289785266087 1 1 1 1 1 1 1 1 1 1 0.0085572407245355243 0.010909158079333618 0.010049637381705754 1 1 0.0065358001369887949 0.0099555764678115888 1 1 1 1 1 1 1 1 1 0.011148087748128598 1 1 1 1 1 1 1 1 0.012513449830775625 0.0096420572803724083 1 1 1 0.010027738258911489 1 1 1 1 1 1 1 1 1 1 1 0.011547481978606874 1 0.010028598443332535 1 1 1 1 1 0.0099984470887966755 0.0078002328878303273 1 1 0.012513582231226044 0.010716949303173139 1 1 1 1 1 1 1 1 1 1 1 1 1 1 1 1 1 1 1 1 1 1 1 1 1 1 1 1 1 1 1 1 1 1 1 1 1 1 1 1 1 1 0.013167894709591276 0.010300090426450704 1 1 1 1 1 1 1 1 1 1 1 1 1 1 1 1 1 1 1 1 0.010685482224141042 1 1 1 1 1 1 1 1 1 1 1 1 1 1 1 1 0.0099367529414184606 1 0.010457714491250604 1 1 1 1 1 1 1 1 0.012091608556403609 1 1 1 1 1 1 1 1 1 1 1 0.0099980095891469261 1 1 0.010019986490190392 1 1 0.011318019886907445 1 1 1 1 0.0089858303084007808 1 1 1 1 0.010001781809208198 1 1 0.01021620570072122 1 0.010858413185006606 1 1 1 1 1 0.010991526360566125 1 1 1 1 1 1 1 0.010371132165834324 1 1 1 1 1 1 1 1 1 1 1 1 1 1 1 1 1 1 1 1 1 1 1 1 0.010875123530656892 1 1 1 0.010065012871741039 1 1 0.010769846344146241 1 1 1 0.01038204337371929 1 1 1 1 0.010357950684566708 1 0.010452047765413478 1 1 1 1 1 1 1 1 0.0098968178604066769 1 1 1 1 1 1 1 1 1 1 0.013685787733330922 1 1 0.010016045987796471 1 1 0.011452755103428462 1 1 0.01297273431521623 0.0096296617756085248 1 1 1 1 1 1 1 0.0099307811767365677 0.010938251876217048 1 1 1 0.011322791484272376 1 1 0.011005330428018751 0.010570829944885991 1 1 1 0.010095597092013988 0.010415561871642401 1 0.012188565508018336 1 1 0.0099999927611753407 1 1 1 1 0.010922130718485881 1 0.010490888268407194 0.011069766352916162 1 1 1 0.01110995246433137 1 0.0098276683697118249 0.010556158362039143 1 0.010518453668695405 0.011080834984432672 0.0099216959160635665 0.010264835518623798 1 0.010582869179937063 1 0.011505408623697094 1 0.011260001406058385 1 1 1 0.009455823066365018 1 1 0.011952332599074774 1 0.012428978439879411 0.0097498144208240517 1 1 1 1 0.011915354459971493 1 0.011307694945040421 0.01080319492868923 1 1 1 0.010425893092406087 0.010296691554869354 1 1 0.010149728026734858 0.010598486573932135 1 1 1 1 0.010011697449172031 1 1 1 1 0.010019746276679717 1 1 1 1 0.010018159999170849 1 0.010015413813952722 1 0.010142398386208737 1 0.010193567769098326 1 0.010145831378393422 1 0.0099999215562249014 1 1 1 1 1 0.01024910267201865 1 1 0.010056392939772693 0.0099811291538010345 0.01029489907718794 1 1 0.010128391169791749 0.010299294666435281 1 0.01011098442227471 1 1 0.01005091875568832 1 1 1 1 1 1 0.010027084387612044 1 1 0.010222024722818756 1 0.010010410654904964 1 1 1 1 0.010011525534012128 1 0.010004998872270392 1 0.0099961333505559028 1 1 1 0.010154942456583819 1 1 0.0099782178246850643 1 0.010285312328806797 1 0.010003433369882415 1 1 1 1 1 0.010175818068774909 1 1 1 1 1 1 1 1 1 1 0.010336274754782653 1 1 1 1 0.010058019124560716 1 1 0.0097366053046567709 1 1 1 1 1 0.010523723550390943 1 1 0.011548386553728727 1 1 1 0.011789340979260413 1 0.010148230428900725 1 1 1 0.01190788557184216 1 1 1 1 0.0095979230544293789 1 1 1 1 0.0092428124657270554 0.010425868692245143 1 1 1 1 1 1 0.010462821714582616 1 1 0.011084838436381439 1 1 1 1 1 1 1 1 1 1 1 1 1 1 1 1 1 1 1 1 1 1 1 1 1 1 1 1 1 1 1 1 1 1 1 1 1 1 1 1 1 1 1 1 1 1 1 1 1 1 1 1 1 1 1 1 1 1 0.011457576614489737 1 1 1 1 1 1 1 1 1 1 1 1 0.012590559709467437 1 1 0.01047824586030353 1 1 1 0.0099987528644987552 1 1 1 1 1 1 1 1 1 1 1 1 1 1 1 0.011908596909883003 1 1 1 1 1 1 1 1 1 1 1 1 1 1 1 1 0.011735489090745911 1 1 1 1 1 1 1 1 1 1 1 1 1 0.012138179747344258 1 1 0.010016481126798862 1 1 0.0099323347234920589 1 0.012056246390351204 1 1 1 1 1 1 1 0.015359423940562692 1 1 1 1 1 1 1 1 1 1 1 1 0.010353224750903056 1 1 1 0.0099818343918221877 1 1 1 1 1 1 1 1 1 0.011047369126311652 1 1 1 1 1 1 0.012471166554565774 1 1 1 1 1 1 0.014447640756628787 1 1 1 0.011214005600557367 1 1 1 1 1 1 1 0.013477271045491439 1 1 1 1 1 1 1 1 1 1 0.010343945769386072 1 1 1 1 1 1 1 1 1 1 1 1 1 1 1 1 0.008434316595409122 1 0.0099744568663971619 1 1 1 1 1 1 1 1 1 1 0.015510326661050625 1 0.013764994207068006 1 1 1 1 1 1 1 1 1 1 1 0.0094680560400695231 1 1 1 1 1 1 1 1 1 1 1 0.010299208297703005 1 1 1 1 1 1 1 0.010482514341955233 1 1 1 1 1 1 1 0.010148654221252603 1 1 1 1 1 1 1 1 1 1 1 0.011122056170961996 1 1 1 1 1 1 1 1 0.0086244434358107198 1 0.01285925443120332 1 1 1 1 1 1 1 1 1 1 0.010127171243605957 1 1 1 0.010260451251705525 1 1 1 1 1 1 1 1 1 0.013507688462979549 1 1 1 1 1 1 1 1 1 1 1 1 1 1 1 1 0.0095396404225102753 1 1 1 1 1 1 1 1 1 1 1 1 1 1 1 1 1 1 0.010719764791450492 1 1 0.011827963096021368 1 1 0.010557722485607863 1 1 1 1 1 0.010324804965798861 1 1 1 1 1 1 1 1 1 1 1 1 1 1 1 1 1 1 1 1 1 1 1 1 1 1 1 1 1 1 1 1 1 1 1 1 1 1 1 1 1 1 1 1 1 1 1 1 1 1 1 1 1 1 1 1 1 1 1 0.010366197527908563 1 1 0.010491648961603924 1 1 1 1 1 1 1 1 1 1 1 1 1 1 1 1 1 1 1 1 1 1 1 1 0.01037255394465917 0.010682551742318264 1 1 1 1 1 1 1 1 1 1 1 1 1 1 1 1 0.0098306822109550072 0.011627668166959152 1 1 1 1 1 1 1 0.011438757252284016 1 0.010305993009793249 1 1 0.010821559469098158 0.0099836499958195594 1 1 1 1 1 1 1 1 1 1 1 0.010018188327175284 1 0.0073144437026973512 1 1 1 0.0088026187306376267 1 1 1 0.013544940068865575 1 0.013115061097248241 1 1 1 1 1 0.013180846173034534 0.012637951222717434 1 1 1 1 1 1 1 1 1 1 1 1 1 1 1 1 1 1 1 1 1 1 1 1 1 1 1 1 1 1 1 1 1 1 1 1 1 1 1 1 1 1 1 1 1 1 1 1 1 1 1 1 1 1 1 1 1 1 1 1 1 1 1 1 1 1 1 1 1 1 1 1 1 1 1 1 1 1 1 1 1 1 1 1 1 1 1 1 1 1 1 1 1 1 1 1 1 1 1 1 1 1 1 1 0.011266170863938213 0.0095338402363535218 1 0.013990086496746983 1 0.010586845089141624 1 1 0.010752110390358132 1 1 1 1 0.010128684717775456 1 1 1 1 1 1 1 0.015532925756717062 0.01037977970498611 0.010391905212449978 1 1 1 1 1 0.015918808590969294 0.011093322388982052 1 1 1 1 1 1 1 1 1 1 1 1 1 1 1 1 1 1 1 1 1 1 1 1 1 1 1 1 1 1 1 1 1 1 0.008366158225221243 1 1 0.0094409518605656842 1 1 1 1 1 1 1 1 1 1 1 0.010127840580923132 1 1 1 1 1 1 1 0.010594023670586632 1 1 1 1 1 1 1 1 1 1 1 1 1 1 1 1 0.013880696532928725 1 1 0.0073823667197127352 1 1 1 1 1 1 1 1 1 1 1 1 1 1 1 1 1 1 1 1 1 1 1 0.010634105969747568 1 1 0.01069689541249679 1 1 0.010369198720311192 1 1 1 1 1 1 1 0.010835381809974693 1 1 1 1 1 1 0.0097886136304617712 1 1 0.0094189907369958952 1 1 1 1 0.0098766943259611627 1 0.010019212506281523 1 1 0.017168184837341897 1 1 1 1 0.0094576550252837375 1 0.018239196394120197 1 1 0.01871970787510021 1 1 1 1 1 1 1 1 1 1 1 1 0.007391252529988724 1 1 1 0.018556882577693393 1 1 0.017928905859031327 1 1 1 1 0.0099784733285102258 1 1 1 1 1 1 1 1 1 1 0.0099414384006704069 1 1 1 1 1 1 1 1 1 1 0.010587146802349724 1 1 1 1 1 1 1 1 1 1 1 1 0.011707877102192347 1 1 0.011040474191147743 1 1 1 1 1 1 1 1 1 1 0.011370224250083442 1 1 1 1 1 0.011264735032873703 1 0.010514837919006826 0.011696672764760621 1 1 0.011382931903275878 1 1 1 1 1 1 1 1 1 0.0099482395809781469 0.011993409396634028 1 1 1 1 1 1 0.0098323539415140354 1 1 1 1 1 1 1 1 1 1 1 1 1 1 1 1 1 1 1 1 1 1 1 1 1 0.009967070418469972 1 1 1 1 1 1 1 1 1 1 1 1 1 1 1 1 1 1 1 1 1 1 1 1 1 1 1 1 1 1 1 1 1 1 1 1 1 1 1 1 0.011339731239499908 1 1 1 1 1 1 1 1 1 1 0.0099166459506807008 1 1 1 0.011524583579031251 1 0.011628891964336172 1 1 1 0.009700113426914167 1 1 1 0.010002564393012184 1 0.012727815472031077 1 0.011591824877449459 1 0.011474573498886548 0.0098457880116394891 1 1 0.010852260401642753 1 1 1 0.010065952257133901 1 1 1 1 1 0.010034636414478281 1 1 1 1 0.010859865388253464 1 1 1 0.011365010948261962 1 1 1 1 0.011334029777111227 1 0.0099769604318061048 1 1 1 1 1 1 1 1 1 1 1 1 1 1 0.0099491373750073032 1 1 1 1 0.014973735806762463 1 1 0.013544522563949241 1 1 0.012134077472288379 0.010019944590287901 1 1 0.01207839013505688 1 0.01128144040568147 1 1 1 0.0095817962013021798 0.010767451358237281 0.011678303803736821 0.01135329524386617 1 1 0.0096790886026065746 1 1 1 1 0.012494129023791708 1 0.0095834175881107219 1 1 0.011365677879499183 0.015699526231232837 0.0099853950956967016 1 0.015848277001331852 1 1 0.011176608778234938 0.014792198251989144 0.015923607427438105 1 1 1 1 1 1 1 1 1 0.011862704420741887 0.010120334113392465 1 1 1 1 0.010498117455186775 0.011014890756982906 1 1 1 0.009716312932273815 1 0.011597547560110151 1 1 1 1 1 1 1 1 1 1 1 0.0078478409149958534 1 1 1 1 1 1 1 1 1 1 1 1 1 1 1 1 1 1 1 1 1 1 1 0.010089504434639681 1 1 1 1 1 1 1 1 1 1 1 1 1 1 1 1 0.0074866342529754659 1 1 0.010199528104689545 1 1 1 1 1 1 1 1 1 0.015717979023273661 1 1 1 0.011354493441972617 0.015466270179242087 1 1 0.0099990432713473916 1 1 1 1 1 0.016696455484448234 1 0.010029506026891974 1 1 1 0.016222648660437496 1 1 1 1 1 1 1 0.01553379299393701 1 1 0.01008471919569724 1 1 1 1 0.015257335407328002 1 1 1 0.010237359606392594 0.0099897747783894136 1 1 0.015676582119681745 1 1 1 0.010329159066296762 1 1 1 1 1 1 1 0.015953612510413044 1 1 0.0088175586196553545 1 0.014760203338459186 0.0091740944236186322 0.014365957025299731 1 0.015227424828068921 1 0.0085398691418935545 0.0095196907748242368 1 1 1 1 1 1 0.0084103716129134524 1 1 0.0093574887720496817 1 1 1 1 1 1 1 1 1 1 1 1 1 1 1 1 1 1 1 1 1 1 1 1 1 1 1 1 1 1 1 1 1 1 1 0.010031682640047947 0.0081354833598084389 1 1 1 1 1 1 1 1 0.012558192531171315 0.013183343379421227 0.0068359508918457452 0.0079712934956540429 1 1 0.016815386078889237 1 1 1 1 1 1 1 1 0.016804118891196377 1 1 0.0098531116568517981 1 1 1 0.011356143604210389 1 1 1 1 0.012186277879579292 1 1 1 1 1 1 1 1 1 1 1 1 1 1 0.018298068752935687 1 1 1 1 1 0.0070659358904333084 1 1 1 1 1 1 1 1 0.011539426723551096 1 1 1 0.014282498229747798 0.0083094051207598767 1 1 0.0096708156974954756 0.013958060462744304 1 1 1 1 1 0.010530149027409855 1 1 1 1 1 1 0.010281743904206027 1 0.006587624087822359 1 1 1 1 1 1 1 1 0.013967082535516633 0.012611474357085053 1 0.0069498908934351811 0.010298344920517809 0.0075951947414812345 1 0.011275727861279845 1 1 1 1 1 1 0.011954329537491201 1 1 1 1 1 1 1 0.012605214105454093 1 1 1 1 1 1 1 1 1 1 1 1 1 1 1 1 1 1 1 1 1 1 1 1 1 1 1 1 1 1 1 1 1 1 1 1 1 1 1 1 1 1 1 1 1 1 1 1 1 1 1 1 1 1 1 1 1 0.010066675428397924 1 1 1 1 1 1 1 0.01018058249412988 1 1 0.0097658971092732527 1 1 1 0.017267299423439512 1 0.0099970349574192187 1 1 0.010017725149532662 1 1 1 1 1 1 1 0.013571426854948099 1 1 1 0.011578608121654739 1 1 1 1 1 1 1 0.011778615511820658 1 0.010233953465153045 1 1 1 1 1 1 1 1 1 1 1 1 1 1 1 1 1 1 1 1 1 1 1 1 1 0.0099770505583277203 0.0096020437588595839 1 0.0093036421703684025 1 1 1 1 1 1 1 0.012840466987249647 1 0.011781824352404253 1 0.0098043465477932676 0.012735843481356701 0.0078940107418348626 1 1 0.0086931881204076744 1 1 0.010428114774991518 1 1 1 0.010134334540100258 1 1 1 1 1 1 1 0.013217939578202807 0.010685592053655614 1 1 0.01354166820019306 1 1 1 0.0097315305608515878 1 1 1 1 0.012766517642923948 1 0.0099723254838524067 1 1 1 1 1 1 0.0100068360918845 1 0.0099974383453046572 1 1 1 1 1 0.01000687381356689 1 1 0.010002877784258644 1 1 1 1 1 1 1 1 1 1 1 1 1 1 1 1 0.010029259738656589 1 1 0.010309994143471701 0.009993264654816118 1 0.0099886658923981665 1 1 1 1 1 1 1 1 0.010106928092078969 1 1 1 1 1 1 1 1 1 1 1 1 1 1 1 1 0.0093565354167488429 1 1 1 0.010004000712256177 1 1 0.008938757643084317 1 1 1 1 1 1 0.0086816892296084497 1 1 1 1 1 1 1 1 1 1 1 1 1 1 1 1 1 1 1 0.01256465017606526 0.0099841626268723834 1 1 1 1 1 1 1 0.014382597203175846 1 1 1 0.0099693693662608815 1 1 0.012669071080985165 1 0.011733370844770824 1 1 0.011407815800801866 1 0.014642625996842559 0.0095895236566197594 1 0.011367364844816166 1 0.010344949856835603 1 0.010714235122450733 1 1 1 1 1 1 1 1 1 1 1 1 1 1 1 0.010409248701066735 0.010400710954555621 1 1 1 1 1 1 1 0.013181636162669094 1 1 1 1 1 1 1 1 1 1 1 1 1 1 1 0.011367473910329207 1 0.010074855225520526 1 1 1 1 1 1 0.011678267533945503 1 1 1 0.01362800610559331 1 1 1 0.010114103685744436 1 1 1 1 1 1 1 1 1 1 1 1 1 1 1 1 1 1 1 1 1 0.0099064974056184089 1 1 1 1 0.0097926701074832617 1 1 1 1 1 0.00886116358185585 1 1 1 0.0092481092922799563 1 1 1 1 1 1 1 1 1 1 1 1 0.0099161678002549682 1 1 1 1 0.0096422378869917887 1 1 1 1 1 1 1 1 0.0098987142127326851 1 1 1 1 1 1 1 0.010449514921374589 1 1 1 1 0.0099699652490749802 1 1 1 1 1 1 1 1 0.0099291508083117121 1 1 1 1 1 1 1 1 1 0.010592705321135482 1 1 1 1 1 1 1 1 1 1 1 1 1 1 1 1 1 1 1 1 1 1 1 1 1 1 1 1 0.010311562220763553 1 1 1 1 1 1 1 0.010781631469112733 1 1 1 1 1 1 1 1 1 1 1 1 1 1 1 1 1 1 1 1 1 1 1 1 1 1 1 1 1 0.010039248460223905 1 1 1 1 1 1 1 1 1 1 1 1 1 1 1 1 1 1 1 1 1 1 1 1 1 1 1 1 1 1 1 1 0.010157199160617216 1 1 0.010072479964919979 1 1 1 1 0.0094536235398072297 1 1 0.0089717032190056289 1 1 1 1 0.0094483085801209191 1 1 1 0.0094646379848212989 1 1 1 0.0099576581062946288 1 1 1 1 1 1 1 1 1 1 0.0098772281069002786 1 1 0.013116274181438124 1 1 1 1 1 1 0.010074393591742722 1 1 1 1 1 0.01340141197260686 1 1 1 1 0.013666329729087184 1 1 1 1 1 1 1 1 1 1 0.013844840351994278 1 1 1 1 1 1 1 1 1 0.010071331282969481 1 1 1 1 1 1 1 1 1 1 1 1 1 0.010284725877464478 1 1 1 1 1 1 1 0.010117458488175914 1 1 1 1 1 0.0099936943556698261 1 1 1 1 1 1 1 1 1 1 1 1 1 1 0.010036666122629946 1 1 1 1 1 1 1 1 0.01015212364851545 1 1 1 1 1 1 1 1 1 1 1 1 1 1 1 1 1 1 1 1 1 1 1 1 1 1 1 1 1 1 1 1 1 0.010394227634588232 1 1 1 1 0.0099995877852809903 0.0109605007776809 1 1 0.0099627061921226737 1 1 0.0099373698055917441 1 1 0.01048398665818169 1 1 1 1 1 1 1 1 1 1 1 1 1 1 1 1 1 1 1 0.010542994089916583 1 1 1 1 0.010466600181512348 1 1 1 1 1 1 1 1 1 1 1 1 1 1 1 1 1 1 1 1 1 1 1 1 1 1 1 1 1 1 1 1 1 1 1 1 1 1 1 1 1 1 1 1 1 1 1 1 1 1 1 1 1 1 1 1 1 1 1 1 1 1 1 1 1 1 1 1 1 1 1 0.0096866841518087853 1 1 1 1 0.012930790418969822 1 0.012093377590951965 1 1 0.009401765659789096 1 1 1 1 0.011692046729939844 1 1 0.010054224629105706 1 1 1 1 1 1 1 1 1 1 1 1 1 1 1 1 1 1 1 1 1 1 1 1 1 1 1 1 1 1 1 1 1 1 1 1 1 1 1 1 1 1 1 1 1 1 1 1 1 1 1 1 1 1 1 1 1 1 1 1 0.010215519402868715 1 1 1 1 1 1 1 1 1 0.0099806469963196528 1 1 1 1 1 1 1 0.009999556702097746 1 1 1 1 1 1 1 1 1 1 1 1 1 1 1 1 1 1 1 0.0096883688265594486 0.01150371607704404 1 1 0.0099757671076080422 1 0.010541512145908358 1 1 1 1 1 1 1 1 1 1 1 1 1 1 1 1 1 1 1 1 1 1 1 1 1 1 1 1 1 1 1 1 1 1 1 1 1 1 1 1 1 1 1 1 1 1 1 1 1 1 1 1 1 1 1 0.0095645219134110216 0.0098904956139221241 1 1 1 1 1 1 1 1 1 1 1 1 1 1 1 1 1 1 1 1 0.012578960397745042 1 1 1 1 1 1 1 1 1 1 0.010803786926884589 1 1 1 0.02402398086323667 1 1 1 1 1 1 0.010611519932306237 1 1 1 1 1 1 1 1 1 1 1 1 1 0.02324824297465395 1 1 1 1 1 1 0.016294154428844888 0.0097928502906938254 1 0.011950625668059284 1 1 0.0099276059211911346 1 1 1 0.011042777198865782 1 1 1 0.010102689945767154 1 1 1 1 1 0.0099073681214690811 1 0.016272845754827434 1 1 1 1 0.0085932822574751669 1 1 1 1 0.014635393473305636 1 0.013574299645082335 1 1 0.0096332054057699408 0.0098767257374302378 1 1 1 1 1 0.01075100260763211 1 1 1 1 1 0.011798608422321919 0.011435850694247155 0.010855483779106001 1 0.010167223822979615 1 0.011247804821518569 1 1 1 1 1 0.011266962255877014 1 1 1 1 1 1 1 1 0.010141027862684986 0.009939766583052085 1 1 0.010583630581452496 1 1 1 1 0.0097478567521783674 1 1 0.012004182556088335 1 1 0.012036930234463238 1 1 1 1 1 1 1 1 1 0.011184388844927565 1 1 1 1 1 1 1 1 0.013200248255369435 1 1 1 1 1 1 1 1 1 0.0098041906463251002 0.011350503491297913 1 1 1 1 1 1 1 1 1 1 1 1 1 1 1 1 1 1 1 1 1 1 1 1 1 1 1 1 1 1 1 1 1 1 1 0.01662760593339949 1 1 1 1 0.010377798620093788 1 1 1 1 1 1 1 1 1 1 1 1 1 1 1 1 0.012875044322004911 0.0081258297948213869 1 1 1 1 1 1 1 1 1 0.0090605159502934272 1 1 1 1 0.0097482917679282324 1 1 0.0098998677256262393 1 1 1 1 1 1 1 1 1 1 1 1 1 0.011480961179260526 1 1 1 1 1 1 1 1 1 1 1 1 1 1 1 1 1 1 1 1 1 1 1 1 1 0.0096717205389079026 1 1 1 1 1 0.01034071936655607 1 1 1 0.0088539224995166817 1 1 1 0.015330133604951944 0.013804892343329518 1 1 1 1 1 1 1 1 1 1 1 1 1 1 0.0099072994801970762 1 1 1 0.0089254173065623464 1 1 1 1 0.0096295181243175633 0.009907154170877619 1 1 1 1 1 1 1 1 1 1 1 1 1 1 1 1 1 1 1 1 1 1 1 0.0097295826041295733 1 1 1 1 1 1 1 1 1 0.013710975953816106 1 1 1 1 0.0098992382954893841 1 0.012644755487426482 1 1 1 1 0.0099531083170470852 1 1 1 1 1 1 1 1 1 1 1 1 1 1 1 0.010636872756948208 1 1 0.011825273030415046 1 1 1 1 1 1 1 1 1 1 0.01494585294160471 0.015299974389010226 1 1 1 1 0.0094564317929175506 1 1 1 0.0088078221706314359 1 1 1 1 0.0096585599462662933 0.0098833065906337586 1 0.014624897859208303 1 0.019728308854920142 1 0.012698915950505272 1 1 0.010349776870842205 1 1 0.011722552311304533 1 1 0.012185276355189264 1 1 1 0.015760926646335122 1 1 0.0099993464325346167 1 0.021235511707432667 1 0.0081711889630800907 1 1 0.019871082631916451 1 1 1 1 1 1 1 1 1 1 1 1 1 0.010454606288834328 1 1 1 1 1 1 1 1 1 1 1 1 1 1 1 1 0.014781993099878304 0.015762166803252129 1 1 1 1 1 0.0096955266801097874 1 1 1 1 0.0095839212147487019 1 1 0.016460512876987632 1 1 1 1 0.0098914206693780701 1 1 1 1 1 1 1 1 1 1 1 1 1 1 1 1 1 1 1 1 1 1 1 1 1 1 1 1 1 1 1 1 1 1 1 1 1 1 0.010157420117160098 1 1 1 1 1 1 1 1 1 1 1 1 1 0.017030719202517648 1 0.014498727524245301 1 1 1 1 0.014257266153264083 1 1 1 1 1 1 1 1 1 1 1 1 1 1 1 1 1 1 0.012515002208823426 1 0.010820303622824014 1 1 0.020719994239668117 1 1 1 0.023435847334742663 1 1 1 1 1 1 1 1 1 1 1 1 1 1 1 1 1 1 1 1 1 1 1 1 1 1 1 0.010150606333212683 1 1 0.010226388921656632 1 1 1 1 1 1 1 1 1 1 1 1 1 1 1 1 1 1 1 1 1 1 1 1 1 1 1 1 1 1 1 1 1 1 1 0.010068968804496536 1 0.010309781746876526 1 1 1 1 1 1 1 1 1 1 1 1 1 1 1 1 1 0.010156895625650685 0.010523812108571723 1 1 1 1 1 0.010888931583994196 1 1 1 1 0.012032716839348982 1 1 1 1 0.010007843587021463 1 1 1 1 1 1 1 1 1 1 1 1 1 1 1 1 1 1 0.010366916482921035 1 1 1 1 1 1 0.0098982939075951352 1 1 0.0094189154171540092 1 1 1 1 1 1 1 1 1 1 1 1 0.010221720201880653 1 1 0.01007226463219252 1 1 1 1 1 1 1 1 0.010157299156709581 1 1 1 1 1 1 0.011034800730558006 1 1 0.012178585985912788 1 1 1 1 1 1 1 1 1 1 1 1 1 1 1 1 1 1 1 1 1 1 1 1 1 1 1 1 1 1 1 1 1 1 1 1 0.01047538935364793 1 1 1 0.010783199206143502 1 1 0.0097847420966548151 1 1 1 1 1 1 0.012450154142628846 1 1 1 1 1 0.010895754352074486 1 1 1 1 1 1 0.012514709946370677 1 1 1 1 0.0082869333119024585 1 0.0085514005942140987 1 1 0.0092914451616942593 1 1 1 0.010307809852495572 1 1 1 1 1 1 1 1 1 1 1 1 1 0.011850259650807543 1 1 1 1 1 1 1 1 1 1 1 1 1 1 1 1 1 1 1 1 1 1 1 1 0.01034506576730557 1 0.010040895339524706 1 0.016565827938311985 1 0.017763399816391127 1 1 1 1 0.010724456013292843 1 1 1 1 0.010198040838145826 1 1 1 1 1 1 1 1 1 1 1 1 1 1 0.010481105202088113 1 1 1 0.010441731188790066 1 1 1 0.010216435767102308 1 1 0.010711065204587672 1 1 1 0.0099972175095983037 1 1 1 1 0.011566599391112754 1 1 1 1 0.011203632719248565 1 1 1 1 1 1 1 1 1 1 0.0082569396832038559 1 1 1 1 1 0.0080643872746656419 1 0.010007705123868256 1 1 1 1 1 0.010358101336698341 0.0088098183529986759 1 1 0.010268014474417896 1 0.010005157202188402 1 1 0.0098714310330699547 1 1 1 1 1 1 1 1 1 1 1 1 1 0.017968256054047289 1 1 1 1 1 0.0084839331950248131 1 1 1 1 1 1 1 1 1 1 0.015384011136470284 1 0.018536833659289612 1 1 0.008382861280614216 1 1 0.010228033419290678 1 0.0098426467993198204 1 0.014815155702002904 1 1 1 1 1 0.015339558644198375 0.015152062652981701 1 1 1 1 1 1 1 1 1 1 1 0.010333441442684327 1 1 1 1 1 0.01000853379554785 1 1 1 0.0091970947206952668 1 0.0099145240074395517 1 1 1 1 1 1 1 1 1 1 1 1 1 1 1 0.010083804394169418 1 1 1 1 0.010168657979540981 1 1 1 1 1 1 1 1 1 1 1 1 1 1 1 1 1 1 1 1 1 1 1 0.010084853585371565 1 1 0.009140377271183095 1 1 1 1 1 1 1 0.009457109849264211 1 1 0.0081330903053118409 1 0.0053646072766064187 1 1 1 1 1 1 1 1 1 0.0097565679674280429 1 1 0.0097665566665347831 1 1 1 0.010582486173146234 1 1 1 1 1 1 1 0.01040934594012586 1 1 1 1 0.009834904728657709 0.010287986716627647 1 1 1 1 1 1 1 1 1 0.010702476917657404 1 1 1 1 1 1 1 1 1 1 1 1 1 1 1 1 0.0098418670145224638 1 0.0098800461576856683 1 1 1 0.0092328644491744809 1 1 1 1 1 1 1 1 1 1 1 1 1 0.0097116237141250446 1 1 1 1 1 0.010053404716931098 1 1 1 0.0096650847073394899 0.0099948544248114994 1 1 1 0.0074551787865772805 1 1 0.0097425450370398937 1 1 1 1 0.0070318401874435946 0.010015975995625042 1 1 1 0.011879576673450177 1 1 0.0098095132211453943 1 1 1 1 0.015066660880827072 1 0.014263383291238439 1 1 1 0.01443021350820207 1 1 1 1 1 1 1 1 1 1 1 1 1 1 1 1 1 1 1 1 1 0.011159234065208362 1 1 1 1 1 1 1 1 1 0.010421894658741975 1 1 1 0.011365674865479156 1 0.011220579269379723 1 1 1 1 1 1 1 1 1 1 1 0.01201777477969251 1 1 1 1 1 0.014748159688950768 1 1 1 1 1 0.011699698609987012 1 1 1 1 1 1 1 1 1 1 1 1 1 1 1 1 0.011084828925508673 1 1 1 1 1 1 1 1 1 0.012271635608017467 1 1 1 1 1 1 1 1 1 1 1 1 1 1 1 0.010099822082863212 1 1 1 1 1 1 1 1 1 1 1 1 1 1 1 1 1 1 1 1 1 1 1 1 1 1 1 1 1 0.0096365316783029176 1 1 1 1 0.0085459709679026365 1 0.010284499373902386 0.010032553841394735 1 1 1 1 1 1 0.0097959475340979839 1 0.01185463920113467 1 1 1 0.0099936239380234958 1 1 0.010472440746000344 1 1 1 1 1 1 0.0099223728647852422 1 1 1 1 1 1 1 0.010486068016598283 1 1 1 1 0.011261772810707685 1 1 1 1 1 1 0.01008297806442994 1 1 1 1 1 1 1 1 1 1 1 1 0.010128043704581853 1 0.010085760554831638 1 1 1 1 1 1 1 0.010256484269309137 0.010003527485403087 1 1 1 1 1 1 1 1 0.010005405113426964 1 1 1 0.010076673022847137 1 1 0.010066048053370014 1 1 1 1 1 1 1 1 1 1 1 1 1 1 1 1 1 1 1 1 1 1 1 1 1 0.012143545337291053 1 1 0.012466526456234773 1 1 1 1 1 0.0099704098574544733 1 1 0.0098779351532810936 1 0.010640582025327616 1 1 1 0.010038087644621363 1 1 1 1 0.0097348416067241129 1 1 0.013519383794087925 0.010258414231828996 1 1 1 1 1 0.010008102678705055 1 1 0.012156904627576116 1 1 1 1 1 0.010956805593239636 1 1 1 1 1 1 1 1 1 0.010978068707224366 1 1 1 1 0.009590996717289026 1 1 1 1 1 1 0.0076364177753210118 1 0.0067406105813592881 1 1 1 0.014854754409745397 1 0.015983224122560667 1 1 0.0088363309234104521 1 0.010216306711019228 1 1 1 0.011280302193356124 1 1 1 1 1 1 1 1 1 1 1 1 1 0.012375685295422493 1 1 1 1 0.013203934850842192 1 1 1 1 1 1 0.0099229173724110168 1 1 1 1 1 1 1 0.010353955715176289 1 1 1 1 1 1 0.010888169800414467 1 1 1 1 1 1 1 0.011242080246725437 1 1 0.017900233925351096 1 1 1 1 1 1 1 1 1 0.010283484924806992 0.017319369594174062 1 1 1 1 1 1 1 1 1 1 1 1 0.0099618747276822763 1 1 1 1 1 1 1 0.010956892954118251 1 1 1 0.010610336759916182 1 0.011642397227581331 1 1 0.011314194229758686 1 1 1 1 1 0.016169405386775734 1 1 1 0.0099254553165639969 1 1 1 1 0.0097443939028939355 1 1 1 0.0099230386432567069 1 1 1 1 1 1 1 0.012808295198414138 1 1 0.011219748915519315 1 1 1 0.0094166087703860882 1 1 1 0.0098334233900823423 1 1 1 1 0.012505770552089858 1 1 1 0.012303777569425717 1 1 1 1 1 1 1 1 1 0.010319358648125068 1 1 1 1 1 1 1 1 1 0.010867913205378034 1 1 1 1 0.010536513889654488 1 1 0.010877700569483794 1 1 1 1 1 1 1 1 1 1 1 1 1 1 1 1 1 1 1 1 1 1 1 1 1 1 0.010494945793121593 1 1 1 1 1 1 1 1 1 1 1 0.011433220502793794 1 1 1 0.012111266000773866 1 1 1 1 1 1 0.010925438364686554 1 1 1 1 1 1 1 1 1 1 1 1 1 1 1 1 1 1 1 1 1 1 1 1 1 1 0.010074405696910836 1 0.010939613154833305 1 1 0.0099776429855071153 0.010512560417117196 1 1 1 1 1 1 1 1 1 1 1 1 1 1 1 1 1 0.010101102585838009 1 1 1 1 1 1 1 1 1 1 1 1 1 1 1 1 1 1 1 1 1 1 1 1 1 1 1 1 1 1 1 1 1 1 1 1 1 1 1 1 1 1 1 1 1 1 1 1 1 1 1 1 1 1 1 1 1 1 1 1 1 0.01031575035241407 1 1 0.010732108729225309 1 1 1 1 0.010876268326019988 1 1 1 1 1 1 1 1 1 1 0.01000120755539268 1 0.014523815754744549 1 1 1 0.013442194046481816 1 1 1 0.0099878647540721874 1 0.0098652145330235166 1 1 1 0.010201206564576772 1 0.009899050310908198 1 0.010163178370268026 1 1 1 0.011956984560356114 1 1 1 1 0.0099371755832259271 1 0.01005220124634929 1 1 1 1 1 0.019641679604443685 1 0.010047396477873035 0.0086941173713855451 1 1 1 1 1 1 0.015750764205542053 1 1 1 0.010032128591746341 1 1 1 1 1 1 1 1 1 1 1 1 1 1 1 1 1 1 1 0.010045817060682888 1 1 1 0.014603330925884313 0.0098432217969525865 1 1 1 1 1 0.0094080966972223141 1 1 1 1 1 1 1 1 1 1 1 1 1 1 0.01058951932854019 1 1 0.014710950788446956 1 0.010478673540100483 1 1 1 0.0086722309840494144 1 0.009800207036849834 1 1 0.014399294983858125 1 1 1 1 1 1 1 1 1 1 1 0.01356805082732355 1 1 1 1 1 1 1 1 1 1 0.014806803280505685 0.010019643845109795 1 1 1 1 1 1 1 0.012036728030640787 1 1 1 1 1 1 1 1 1 1 1 1 1 1 0.010656170186843087 1 1 1 1 1 1 1 1 1 1 0.010734222378682616 1 1 1 0.011677817982395809 1 0.011813922557588978 0.012256287066792822 1 1 1 1 1 1 1 1 0.011629274993349094 1 1 1 1 1 1 1 1 1 0.012379307502646908 1 0.011866807348014641 1 0.0094268983864644138 1 1 1 1 1 1 1 1 0.012387817337142074 1 0.013142173066482873 1 1 1 1 1 1 0.0094062821652528151 1 1 0.016082703196741346 1 0.017484728596803372 1 1 1 1 1 1 1 1 1 1 1 1 1 1 0.010790281651213405 1 1 1 1 1 1 1 1 1 1 0.010310464242539064 1 1 1 1 1 1 0.0099217609215676347 1 1 1 1 1 1 1 1 1 1 1 1 1 1 1 1 1 1 1 1 1 1 1 1 1 0.01003777881489288 1 1 1 1 1 0.010057094036051661 1 1 1 1 1 1 1 1 1 1 1 0.01002982085954879 1 1 1 1 0.01058929084870691 1 1 1 1 1 0.010232521938771477 1 1 1 1 1 0.0097147387100828056 1 1 0.009054574504395254 1 1 1 1 1 1 1 1 1 1 1 1 1 1 1 1 1 1 1 1 1 1 1 1 1 1 0.010036354809553909 1 1 0.01003627984313734 1 1 1 1 1 1 1 1 1 1 1 1 1 1 1 0.0099315894507506983 1 1 1 1 1 1 1 1 1 0.0098533503723183483 1 1 1 1 1 1 1 0.009998170494232031 1 1 1 1 1 0.010056633893247919 1 1 1 1 1 1 0.01080965921479703 1 1 1 1 0.010747394628789243 1 1 1 1 1 1 1 0.010026813033699128 1 1 0.0099263205189701886 1 1 0.0099054821131062502 1 1 1 1 0.010434436175000882 1 1 1 1 1 1 1 1 0.01013745732096279 1 1 0.01018652752091183 1 1 1 1 1 1 1 1 1 0.010091853135893001 1 1 1 1 1 0.010004032941900044 1 1 1 1 0.010086375878519417 1 1 1 0.0099580158972119599 1 1 1 1 1 1 1 1 1 1 1 0.01001054367882254 0.010009406904859634 1 1 1 1 1 1 1 1 1 1 1 0.01017350922119006 1 1 1 1 1 0.01037529942925283 1 0.010936717840966385 0.010196039448472605 1 0.010028256042961509 0.010307902766251893 1 1 0.010008006406632649 1 1 1 1 1 1 0.011496844352734074 1 0.009981717595539872 0.0099899453096265814 1 1 1 1 1 0.0099832567924159413 1 1 1 1 1 1 1 1 0.011074417184573356 1 1 1 1 0.010210727564942429 1 1 1 1 1 0.0099612018868398249 1 1 0.011267941055584305 1 1 1 1 1 1 1 0.010644518445419256 1 0.010169329448178563 1 1 1 1 1 1 1 0.010663951683535004 0.010117140014461141 1 1 1 1 1 1 1 0.010055949545010818 1 1 1 1 1 1 0.010208264069057194 1 1 1 1 1 1 1 1 1 1 1 1 1 1 0.009626132149461248 1 1 0.0098763580997327689 1 1 1 1 0.010005293942195733 1 1 1 1 0.012021802593213268 1 1 1 1 1 1 0.011428687690906469 1 1 1 1 1 1 1 0.0099932855671333934 1 1 1 0.0096304883902525503 1 1 1 1 0.010833063813519114 1 1 0.0093243892969226329 1 1 1 1 1 1 1 0.0093567940376785112 1 1 1 1 0.0091305969952602348 1 0.0099793470158021647 1 1 1 1 1 1 1 1 1 1 1 1 1 1 0.01038783475169186 1 1 1 1 1 1 1 0.010545940166956041 1 1 0.010856182532527603 1 1 0.0099905931291427406 1 1 1 1 1 1 1 1 1 0.0078665958152592096 1 1 1 0.0087503189672645428 1 1 1 1 1 1 1 1 1 0.009438667875875828 1 1 1 1 1 1 1 1 1 1 1 0.010552372527069465 1 1 1 0.0098579503560396256 1 1 1 1 1 1 1 1 1 1 1 0.011527049880494869 1 1 1 1 1 1 1 1 1 1 0.012311257778333575 1 1 1 1 1 0.0093677426884811194 1 1 1 1 1 1 1 1 0.0100952905841459 1 1 0.0097565023718475304 1 1 0.0095637786694606156 1 1 1 1 0.0099967828463387136 0.011847098026646283 1 1 1 1 0.0097659543604310811 1 1 1 1 0.011114893389844817 1 1 0.010376333687263295 1 1 1 1 0.018419394212974532 1 1 0.017458558963233933 1 1 1 1 1 0.016391235691665104 1 1 1 1 1 1 1 1 0.014203944863265157 1 0.0099891284688776831 1 1 1 1 1 1 1 1 1 0.008681229004501639 0.014040820918604525 1 1 1 1 1 1 0.015522212561246055 1 1 0.010321397097037843 1 1 0.01007513066566719 1 0.010128204111497232 1 1 1 0.013749204051001645 1 1 0.010116797143322687 1 1 1 1 1 1 1 1 0.010077338844213012 0.0099426449838350885 1 1 0.01543740570737771 0.0069740894531371712 1 1 1 1 0.014238453447786075 1 1 1 0.0080003041622981712 1 0.0139341078583212 1 0.007605669485747606 0.015229700480593722 0.013416311114919243 1 0.013649250419461807 1 1 1 0.010406402925771481 1 1 1 1 1 1 1 1 1 0.014627778241202302 1 1 0.014245728363287037 1 1 1 1 1 1 0.017104393378954037 1 1 1 1 1 1 0.010173252710646175 0.010146633932223412 0.016323989977552047 1 1 1 1 1 1 1 1 1 1 1 0.010481841882434126 1 1 1 1 0.013764656494634162 1 1 1 1 1 1 1 1 0.015663915405780035 1 1 0.013326000641093396 1 1 1 0.0093019272638842927 1 1 1 1 1 1 1 1 1 0.0097919981432807029 1 1 1 1 1 1 1 1 0.016557302144278991 1 1 1 0.017040168851351286 1 1 0.012363540866585076 1 1 1 0.0093948995852420544 1 0.012602526052891843 1 1 0.011398178222334087 1 0.012680380118480631 1 1 0.010638621559790047 1 1 1 1 1 1 0.012422887583742707 1 1 0.011700202679540622 1 1 1 1 1 1 1 1 1 1 1 1 1 1 1 1 1 1 1 1 1 1 1 1 1 1 1 1 1 1 1 1 1 1 1 1 1 1 1 1 1 1 1 1 1 1 1 1 1 1 1 1 1 1 1 1 1 1 1 1 1 1 1 1 1 1 1 1 1 1 1 1 1 1 1 1 1 1 1 1 1 1 1 1 1 1 1 1 1 1 1 1 1 1 1 1 0.010336658185810334 1 1 1 1 0.01728795378276942 1 1 1 1 1 1 1 1 1 1 1 1 0.011157712268469951 0.017918526420309364 1 1 1 1 1 1 1 1 1 1 1 1 1 1 1 0.01017883331743728 1 1 1 0.01097767191878456 1 1 1 1 1 1 1 1 1 1 0.015596643509657523 1 0.013198108015942737 1 1 1 1 1 1 1 1 1 1 1 1 1 1 1 1 1 1 1 1 1 1 1 1 0.0099892445116261438 1 1 1 1 0.0099478021427469171 1 1 1 1 1 1 1 1 0.010013724635201445 1 1 1 1 1 1 1 1 1 1 1 1 1 1 1 1 1 1 1 1 1 1 1 1 1 1 1 1 1 1 1 1 1 1 1 1 1 1 1 1 1 1 1 1 1 1 1 1 1 0.0097629291887829962 1 1 1 1 1 1 1 1 1 1 1 1 1 1 1 1 1 1 1 1 1 1 1 1 1 1 1 1 1 1 1 1 0.0077215364385339238 1 1 1 1 1 1 0.0090977703855267475 1 1 1 1 1 1 0.010430117251069869 1 1 0.010093570210609366 1 0.011242972468394462 1 0.011823567784307222 1 1 1 1 0.0092712851519549111 1 1 1 1 1 0.0097931666007240945 1 1 1 0.017313572121809132 0.010024502758300181 1 1 1 0.010483520409306455 1 1 1 1 0.012155755220968725 0.014720056006459857 1 1 1 1 1 1 1 1 1 1 1 1 1 1 0.01000172876001801 1 1 0.011626777457946137 1 1 0.009718215734235541 0.0084377082938645858 1 1 1 1 1 1 1 1 1 1 0.0058281768147026543 1 0.0066218812943250847 1 1 1 1 1 1 1 1 1 1 1 0.0096321626410162866 1 1 1 1 1 1 1 0.0088164640656862112 1 1 1 1 1 1 1 1 1 1 1 1 1 1 1 1 1 1 0.0079121495243530023 0.0091681145467125448 1 1 1 1 1 1 1 1 1 1 1 1 1 1 1 1 1 0.0077622528543148089 1 1 1 1 1 1 1 1 1 0.0099987323793165363 1 1 1 1 1 1 1 1 1 1 1 1 0.01476651531501012 1 1 1 1 0.009777280556483069 1 0.010436867469576122 1 1 1 1 1 1 1 1 1 0.010462701054879352 1 1 1 1 0.0086613948147817831 1 1 1 1 0.0096802446164581911 1 0.01316822385922495 1 1 1 1 1 1 1 1 1 1 1 1 0.0101274515662846 1 1 1 1 1 1 1 1 1 1 1 1 1 1 1 0.010218722157837737 1 0.011383628448019691 1 1 0.01007635771358383 1 1 1 0.0099999089698515359 1 0.014304643028401752 1 1 0.018028285518217696 1 1 0.0099972011658822357 1 0.008989981339861907 1 1 1 1 1 1 1 0.016831990378544132 0.016168230980740203 1 1 1 1 0.0094323896417131126 0.0082957875286366403 1 1 0.011634392567523593 0.010931552276281254 1 0.013313910834934701 1 1 0.010312450888437321 0.0092959216460945931 1 1 0.009771239783876888 1 1 0.012569185517128977 1 1 1 1 1 1 1 1 0.014141496152965494 1 1 0.010435202792818477 1 0.0097991012735617836 1 1 1 0.012323546373864871 1 1 1 1 1 1 1 1 0.010374061351989296 1 1 1 1 1 1 1 1 1 1 1 1 1 1 1 1 1 1 1 1 1 1 0.010868637225128867 1 1 1 1 1 1 1 1 1 1 1 1 1 1 1 1 1 1 
</DataArray>
</CellData>
</Piece>
</UnstructuredGrid>
</VTKFile>
